<?xml version="1.0"?>
<VTKFile type="UnstructuredGrid" version="0.1" byte_order="LittleEndian">
<UnstructuredGrid>
<Piece NumberOfPoints="30881" NumberOfCells="10862">
<Points>
<DataArray type="Float64" NumberOfComponents="3" format="ascii">
-0.49999999999999828 -0.48677703703187492 0 -0.5 -0.5 0 -0.48129281494584059 -0.49338851851593718 0 -0.5 -0.5 0 -0.48129281494584059 -0.49338851851593718 0 -0.46258562989168328 -0.5 0 -0.49999999999999828 -0.48677703703187492 0 -0.48129281494584059 -0.49338851851593718 0 -0.49999999999999828 -0.48677703703187492 0 -0.4824545428279598 -0.47451624516148783 0 -0.48129281494584059 -0.49338851851593718 0 -0.49999999999999828 -0.48677703703187492 0 -0.4824545428279598 -0.47451624516148783 0 -0.5 -0.46599539173150673 0 -0.4824545428279598 -0.47451624516148783 0 -0.46853075243710779 -0.48354990242643758 0 -0.46411508256092049 -0.46598235294430129 0 -0.4824545428279598 -0.47451624516148783 0 -0.48129281494584059 -0.49338851851593718 0 -0.46853075243710779 -0.48354990242643758 0 -0.48129281494584059 -0.49338851851593718 0 -0.46258562989168328 -0.5 0 -0.48129281494584059 -0.49338851851593718 0 -0.46258562989168328 -0.5 0 -0.46853075243710779 -0.48354990242643758 0 -0.46258562989168328 -0.5 0 -0.46853075243710779 -0.48354990242643758 0 -0.45147378687733691 -0.48362213557840178 0 -0.46853075243710779 -0.48354990242643758 0 -0.45147378687733691 -0.48362213557840178 0 -0.46411508256092049 -0.46598235294430129 0 -0.4457251648104853 -0.47020164095208389 0 -0.45147378687733691 -0.48362213557840178 0 -0.46411508256092049 -0.46598235294430129 0 -0.4457251648104853 -0.47020164095208389 0 -0.45147378687733691 -0.48362213557840178 0 -0.43513446131126993 -0.48199891714758791 0 -0.45147378687733691 -0.48362213557840178 0 -0.43275163025255442 -0.5 0 -0.43513446131126993 -0.48199891714758791 0 -0.46258562989168328 -0.5 0 -0.45147378687733691 -0.48362213557840178 0 -0.43275163025255442 -0.5 0 -0.4467190029717853 -0.45478934699519452 0 -0.4422915115958943 -0.43555510214664611 0 -0.43246707723660932 -0.44794326854796312 0 -0.4457251648104853 -0.47020164095208389 0 -0.4467190029717853 -0.45478934699519452 0 -0.46411508256092049 -0.46598235294430129 0 -0.4457251648104853 -0.47020164095208389 0 -0.4467190029717853 -0.45478934699519452 0 -0.43016578207734568 -0.46313500011938619 0 -0.4467190029717853 -0.45478934699519452 0 -0.46411508256092049 -0.46598235294430129 0 -0.47114575579794699 -0.4403844242888923 0 -0.4467190029717853 -0.45478934699519452 0 -0.47114575579794699 -0.4403844242888923 0 -0.4422915115958943 -0.43555510214664611 0 -0.47114575579794699 -0.4403844242888923 0 -0.4422915115958943 -0.43555510214664611 0 -0.46411508256092049 -0.46598235294430129 0 -0.47114575579794699 -0.4403844242888923 0 -0.48354307623736548 -0.45841843211146538 0 -0.4824545428279598 -0.47451624516148783 0 -0.46411508256092049 -0.46598235294430129 0 -0.48354307623736548 -0.45841843211146538 0 -0.4824545428279598 -0.47451624516148783 0 -0.48354307623736548 -0.45841843211146538 0 -0.5 -0.46599539173150673 0 -0.48354307623736548 -0.45841843211146538 0 -0.5 -0.46599539173150673 0 -0.49999999999999972 -0.44521374643113848 0 -0.47114575579794699 -0.4403844242888923 0 -0.49999999999999972 -0.44521374643113848 0 -0.47114575579794699 -0.4403844242888923 0 -0.49999999999999972 -0.44521374643113848 0 -0.48704432221743971 -0.42935617662229603 0 -0.47114575579794699 -0.4403844242888923 0 -0.48354307623736548 -0.45841843211146538 0 -0.49999999999999972 -0.44521374643113848 0 -0.49999999999999972 -0.44521374643113848 0 -0.48704432221743971 -0.42935617662229603 0 -0.5 -0.41591957503128979 0 -0.48704432221743971 -0.42935617662229603 0 -0.5 -0.41591957503128979 0 -0.47703153307181151 -0.41590696073786332 0 -0.5 -0.41591957503128979 0 -0.47703153307181151 -0.41590696073786332 0 -0.48817838912021821 -0.4022119694541284 0 -0.47114575579794699 -0.4403844242888923 0 -0.48704432221743971 -0.42935617662229603 0 -0.47703153307181151 -0.41590696073786332 0 -0.5 -0.38662540363144121 0 -0.47568202340906118 -0.39039593841591919 0 -0.4947615751445838 -0.37332156409002909 0 -0.47568202340906118 -0.39039593841591919 0 -0.4947615751445838 -0.37332156409002909 0 -0.5 -0.38662540363144121 0 -0.48817838912021821 -0.4022119694541284 0 -0.47568202340906118 -0.39039593841591919 0 -0.5 -0.41591957503128979 0 -0.5 -0.38662540363144121 0 -0.48817838912021821 -0.4022119694541284 0 -0.47703153307181151 -0.41590696073786332 0 -0.48817838912021821 -0.4022119694541284 0 -0.47568202340906118 -0.39039593841591919 0 -0.47703153307181151 -0.41590696073786332 0 -0.47568202340906118 -0.39039593841591919 0 -0.45660247167353862 -0.40747031274180939 0 -0.47568202340906118 -0.39039593841591919 0 -0.48030931097003587 -0.37191064435083931 0 -0.46669490250066459 -0.37481721741951951 0 -0.47568202340906118 -0.39039593841591919 0 -0.4947615751445838 -0.37332156409002909 0 -0.48030931097003587 -0.37191064435083931 0 -0.45332061783919553 -0.38729481725706361 0 -0.46669490250066459 -0.37481721741951951 0 -0.45095991715087752 -0.36968037302039969 0 -0.47568202340906118 -0.39039593841591919 0 -0.45332061783919553 -0.38729481725706361 0 -0.46669490250066459 -0.37481721741951951 0 -0.47568202340906118 -0.39039593841591919 0 -0.45660247167353862 -0.40747031274180939 0 -0.47568202340906118 -0.39039593841591919 0 -0.45332061783919553 -0.38729481725706361 0 -0.45660247167353862 -0.40747031274180939 0 -0.44332653075004852 -0.401690115615219 0 -0.44646247228389868 -0.41654464256061052 0 -0.42870657106664078 -0.39987574649354879 0 -0.45332061783919553 -0.38729481725706361 0 -0.44332653075004852 -0.401690115615219 0 -0.43479631603355468 -0.39077639303142497 0 -0.45332061783919553 -0.38729481725706361 0 -0.44332653075004852 -0.401690115615219 0 -0.45660247167353862 -0.40747031274180939 0 -0.45332061783919553 -0.38729481725706361 0 -0.43421362475025049 -0.37527491429266319 0 -0.43479631603355468 -0.39077639303142497 0 -0.45332061783919553 -0.38729481725706361 0 -0.43421362475025049 -0.37527491429266319 0 -0.45095991715087752 -0.36968037302039969 0 -0.47114575579794699 -0.4403844242888923 0 -0.45663439814062529 -0.42533932462455271 0 -0.4422915115958943 -0.43555510214664611 0 -0.47114575579794699 -0.4403844242888923 0 -0.47703153307181151 -0.41590696073786332 0 -0.45663439814062529 -0.42533932462455271 0 -0.45663439814062529 -0.42533932462455271 0 -0.45660247167353862 -0.40747031274180939 0 -0.44646247228389868 -0.41654464256061052 0 -0.47703153307181151 -0.41590696073786332 0 -0.45663439814062529 -0.42533932462455271 0 -0.45660247167353862 -0.40747031274180939 0 -0.44332653075004852 -0.401690115615219 0 -0.45660247167353862 -0.40747031274180939 0 -0.44646247228389868 -0.41654464256061052 0 -0.45660247167353862 -0.40747031274180939 0 -0.44646247228389868 -0.41654464256061052 0 -0.44646247228389868 -0.41654464256061052 0 -0.4375229199380159 -0.42454468706769971 0 -0.45663439814062529 -0.42533932462455271 0 -0.4375229199380159 -0.42454468706769971 0 -0.4422915115958943 -0.43555510214664611 0 -0.45663439814062529 -0.42533932462455271 0 -0.44646247228389868 -0.41654464256061052 0 -0.4375229199380159 -0.42454468706769971 0 -0.4375229199380159 -0.42454468706769971 0 -0.4422915115958943 -0.43555510214664611 0 -0.43077617074680319 -0.43406335077952207 0 -0.43077617074680319 -0.43406335077952207 0 -0.42550232634077589 -0.42345940056268039 0 -0.41950844772475421 -0.43888456563633732 0 -0.4375229199380159 -0.42454468706769971 0 -0.43077617074680319 -0.43406335077952207 0 -0.42550232634077589 -0.42345940056268039 0 -0.44646247228389868 -0.41654464256061052 0 -0.41657232816672918 -0.41306671883907142 0 -0.42870657106664078 -0.39987574649354879 0 -0.44646247228389868 -0.41654464256061052 0 -0.4375229199380159 -0.42454468706769971 0 -0.42550232634077589 -0.42345940056268039 0 -0.44646247228389868 -0.41654464256061052 0 -0.42550232634077589 -0.42345940056268039 0 -0.41657232816672918 -0.41306671883907142 0 -0.44646247228389868 -0.41654464256061052 0 -0.41657232816672918 -0.41306671883907142 0 -0.42550232634077589 -0.42345940056268039 0 -0.41657232816672918 -0.41306671883907142 0 -0.41333489101611293 -0.42699700567040988 0 -0.41657232816672918 -0.41306671883907142 0 -0.41333489101611293 -0.42699700567040988 0 -0.39893236021425188 -0.42931692235905211 0 -0.41333489101611293 -0.42699700567040988 0 -0.39893236021425188 -0.42931692235905211 0 -0.41950844772475421 -0.43888456563633732 0 -0.42550232634077589 -0.42345940056268039 0 -0.41333489101611293 -0.42699700567040988 0 -0.41950844772475421 -0.43888456563633732 0 -0.43421362475025049 -0.37527491429266319 0 -0.42478231784314502 -0.38643128255249681 0 -0.41656514696884139 -0.37636588688318029 0 -0.43421362475025049 -0.37527491429266319 0 -0.42478231784314502 -0.38643128255249681 0 -0.43479631603355468 -0.39077639303142497 0 -0.42478231784314502 -0.38643128255249681 0 -0.43479631603355468 -0.39077639303142497 0 -0.42870657106664078 -0.39987574649354879 0 -0.44332653075004852 -0.401690115615219 0 -0.43479631603355468 -0.39077639303142497 0 -0.42870657106664078 -0.39987574649354879 0 -0.41657232816672918 -0.41306671883907142 0 -0.40962993039643741 -0.3898634720616666 0 -0.3946356370269814 -0.39577424904278191 0 -0.42478231784314502 -0.38643128255249681 0 -0.42870657106664078 -0.39987574649354879 0 -0.40962993039643741 -0.3898634720616666 0 -0.41657232816672918 -0.41306671883907142 0 -0.42870657106664078 -0.39987574649354879 0 -0.40962993039643741 -0.3898634720616666 0 -0.42478231784314502 -0.38643128255249681 0 -0.40962993039643741 -0.3898634720616666 0 -0.41656514696884139 -0.37636588688318029 0 -0.40962993039643741 -0.3898634720616666 0 -0.41656514696884139 -0.37636588688318029 0 -0.40465459864295228 -0.37650109000307358 0 -0.39431275766669582 -0.38061373190328529 0 -0.40465459864295228 -0.37650109000307358 0 -0.3968495855878465 -0.36923685638487008 0 -0.40962993039643741 -0.3898634720616666 0 -0.39431275766669582 -0.38061373190328529 0 -0.40465459864295228 -0.37650109000307358 0 -0.40962993039643741 -0.3898634720616666 0 -0.39431275766669582 -0.38061373190328529 0 -0.3946356370269814 -0.39577424904278191 0 -0.3946356370269814 -0.39577424904278191 0 -0.38704143117499401 -0.40999023144455299 0 -0.37464038230528551 -0.396492613407532 0 -0.3946356370269814 -0.39577424904278191 0 -0.37522403377147279 -0.38060127254172499 0 -0.37464038230528551 -0.396492613407532 0 -0.39431275766669582 -0.38061373190328529 0 -0.3946356370269814 -0.39577424904278191 0 -0.37522403377147279 -0.38060127254172499 0 -0.39431275766669582 -0.38061373190328529 0 -0.37522403377147279 -0.38060127254172499 0 -0.38569326772338258 -0.37053454129240582 0 -0.41657232816672918 -0.41306671883907142 0 -0.39893236021425188 -0.42931692235905211 0 -0.38704143117499401 -0.40999023144455299 0 -0.41657232816672918 -0.41306671883907142 0 -0.3946356370269814 -0.39577424904278191 0 -0.38704143117499401 -0.40999023144455299 0 -0.41657232816672918 -0.41306671883907142 0 -0.38704143117499401 -0.40999023144455299 0 -0.38704143117499401 -0.40999023144455299 0 -0.38131756488089769 -0.42670085612339947 0 -0.36377437909963828 -0.41972983174959272 0 -0.38131756488089769 -0.42670085612339947 0 -0.38339996822118783 -0.44368928783448319 0 -0.36866352395763108 -0.4313760290561211 0 -0.39893236021425188 -0.42931692235905211 0 -0.38131756488089769 -0.42670085612339947 0 -0.38339996822118783 -0.44368928783448319 0 -0.39893236021425188 -0.42931692235905211 0 -0.38704143117499401 -0.40999023144455299 0 -0.38131756488089769 -0.42670085612339947 0 -0.38339996822118783 -0.44368928783448319 0 -0.40446438048225181 -0.45117017211807442 0 -0.3895931593355052 -0.46351353191466821 0 -0.39893236021425188 -0.42931692235905211 0 -0.38339996822118783 -0.44368928783448319 0 -0.40446438048225181 -0.45117017211807442 0 -0.40446438048225181 -0.45117017211807442 0 -0.3895931593355052 -0.46351353191466821 0 -0.40280611050484572 -0.47090640128894168 0 -0.38339996822118783 -0.44368928783448319 0 -0.3895931593355052 -0.46351353191466821 0 -0.37415472949075129 -0.45946062715310632 0 -0.3895931593355052 -0.46351353191466821 0 -0.38039451612360919 -0.47713749807852829 0 -0.37415472949075129 -0.45946062715310632 0 -0.38039451612360919 -0.47713749807852829 0 -0.39198476482648659 -0.49312537606366408 0 -0.39366244928105898 -0.47747566409097131 0 -0.3895931593355052 -0.46351353191466821 0 -0.38039451612360919 -0.47713749807852829 0 -0.39366244928105898 -0.47747566409097131 0 -0.39198476482648659 -0.49312537606366408 0 -0.37055643484088358 -0.49425936316784103 0 -0.39198476482648659 -0.49312537606366408 0 -0.40291763061342539 -0.5 0 -0.37308363097429631 -0.50000000000000244 0 -0.39198476482648659 -0.49312537606366408 0 -0.37055643484088358 -0.49425936316784103 0 -0.37308363097429631 -0.50000000000000244 0 -0.38039451612360919 -0.47713749807852829 0 -0.39198476482648659 -0.49312537606366408 0 -0.37055643484088358 -0.49425936316784103 0 -0.39198476482648659 -0.49312537606366408 0 -0.41341309481208982 -0.49199138895948757 0 -0.39198476482648659 -0.49312537606366408 0 -0.39366244928105898 -0.47747566409097131 0 -0.40353369561484831 -0.48269551310905429 0 -0.39198476482648659 -0.49312537606366408 0 -0.40291763061342539 -0.5 0 -0.41341309481208982 -0.49199138895948757 0 -0.39198476482648659 -0.49312537606366408 0 -0.40353369561484831 -0.48269551310905429 0 -0.41341309481208982 -0.49199138895948757 0 -0.3895931593355052 -0.46351353191466821 0 -0.39366244928105898 -0.47747566409097131 0 -0.40280611050484572 -0.47090640128894168 0 -0.39366244928105898 -0.47747566409097131 0 -0.40353369561484831 -0.48269551310905429 0 -0.40280611050484572 -0.47090640128894168 0 -0.40280611050484572 -0.47090640128894168 0 -0.41792735015940108 -0.47619959015896091 0 -0.41524515795200517 -0.46243146669528151 0 -0.40353369561484831 -0.48269551310905429 0 -0.41792735015940108 -0.47619959015896091 0 -0.41341309481208982 -0.49199138895948757 0 -0.40353369561484831 -0.48269551310905429 0 -0.40280611050484572 -0.47090640128894168 0 -0.41792735015940108 -0.47619959015896091 0 -0.41792735015940108 -0.47619959015896091 0 -0.41341309481208982 -0.49199138895948757 0 -0.42480663413382869 -0.48754747406650911 0 -0.40291763061342539 -0.5 0 -0.41341309481208982 -0.49199138895948757 0 -0.43275163025255442 -0.5 0 -0.41341309481208982 -0.49199138895948757 0 -0.42480663413382869 -0.48754747406650911 0 -0.43275163025255442 -0.5 0 -0.42480663413382869 -0.48754747406650911 0 -0.43275163025255442 -0.5 0 -0.43513446131126993 -0.48199891714758791 0 -0.4457251648104853 -0.47020164095208389 0 -0.43513446131126993 -0.48199891714758791 0 -0.43016578207734568 -0.46313500011938619 0 -0.41792735015940108 -0.47619959015896091 0 -0.43513446131126993 -0.48199891714758791 0 -0.43016578207734568 -0.46313500011938619 0 -0.41792735015940108 -0.47619959015896091 0 -0.42480663413382869 -0.48754747406650911 0 -0.43513446131126993 -0.48199891714758791 0 -0.4467190029717853 -0.45478934699519452 0 -0.43016578207734568 -0.46313500011938619 0 -0.43246707723660932 -0.44794326854796312 0 -0.43016578207734568 -0.46313500011938619 0 -0.42051073979218989 -0.45215097324273301 0 -0.41524515795200517 -0.46243146669528151 0 -0.43016578207734568 -0.46313500011938619 0 -0.43246707723660932 -0.44794326854796312 0 -0.42051073979218989 -0.45215097324273301 0 -0.4422915115958943 -0.43555510214664611 0 -0.43077617074680319 -0.43406335077952207 0 -0.43246707723660932 -0.44794326854796312 0 -0.43077617074680319 -0.43406335077952207 0 -0.43246707723660932 -0.44794326854796312 0 -0.41950844772475421 -0.43888456563633732 0 -0.43246707723660932 -0.44794326854796312 0 -0.42051073979218989 -0.45215097324273301 0 -0.41950844772475421 -0.43888456563633732 0 -0.39893236021425188 -0.42931692235905211 0 -0.40446438048225181 -0.45117017211807442 0 -0.41950844772475421 -0.43888456563633732 0 -0.40446438048225181 -0.45117017211807442 0 -0.42051073979218989 -0.45215097324273301 0 -0.41950844772475421 -0.43888456563633732 0 -0.40446438048225181 -0.45117017211807442 0 -0.42051073979218989 -0.45215097324273301 0 -0.41524515795200517 -0.46243146669528151 0 -0.40446438048225181 -0.45117017211807442 0 -0.40280611050484572 -0.47090640128894168 0 -0.41524515795200517 -0.46243146669528151 0 -0.41792735015940108 -0.47619959015896091 0 -0.43016578207734568 -0.46313500011938619 0 -0.41524515795200517 -0.46243146669528151 0 -0.45018232007011222 -0.256765034028549 0 -0.429874989515865 -0.26165756953837482 0 -0.43598079583492633 -0.24721882136819351 0 -0.45018232007011222 -0.256765034028549 0 -0.43765198640052377 -0.27443700488157741 0 -0.429874989515865 -0.26165756953837482 0 -0.45018232007011222 -0.256765034028549 0 -0.43598079583492633 -0.24721882136819351 0 -0.45139902778349827 -0.24711062934306771 0 -0.45018232007011222 -0.256765034028549 0 -0.43765198640052377 -0.27443700488157741 0 -0.46196722525855399 -0.27174391220054139 0 -0.43765198640052377 -0.27443700488157741 0 -0.46196722525855399 -0.27174391220054139 0 -0.4476129789611048 -0.29283803371489903 0 -0.46196722525855399 -0.27174391220054139 0 -0.48050148842732221 -0.25523221810557922 0 -0.46267023581878858 -0.24817136713935201 0 -0.45018232007011222 -0.256765034028549 0 -0.46196722525855399 -0.27174391220054139 0 -0.46267023581878858 -0.24817136713935201 0 -0.45018232007011222 -0.256765034028549 0 -0.46267023581878858 -0.24817136713935201 0 -0.45139902778349827 -0.24711062934306771 0 -0.48050148842732221 -0.25523221810557922 0 -0.5 -0.26944871803204617 0 -0.5 -0.2401545466321974 0 -0.48050148842732221 -0.25523221810557922 0 -0.5 -0.26944871803204617 0 -0.48245797385404121 -0.28063059353633901 0 -0.46196722525855399 -0.27174391220054139 0 -0.48050148842732221 -0.25523221810557922 0 -0.48245797385404121 -0.28063059353633901 0 -0.46196722525855399 -0.27174391220054139 0 -0.48245797385404121 -0.28063059353633901 0 -0.46937090116945868 -0.29821258941183898 0 -0.48245797385404121 -0.28063059353633901 0 -0.5 -0.29874288943189498 0 -0.46937090116945868 -0.29821258941183898 0 -0.5 -0.26944871803204617 0 -0.48245797385404121 -0.28063059353633901 0 -0.5 -0.29874288943189498 0 -0.5 -0.29874288943189498 0 -0.46937090116945868 -0.29821258941183898 0 -0.47623524987602139 -0.32201367690444971 0 -0.46937090116945868 -0.29821258941183898 0 -0.4476129789611048 -0.29283803371489903 0 -0.45018982867155483 -0.32180400573951162 0 -0.46196722525855399 -0.27174391220054139 0 -0.46937090116945868 -0.29821258941183898 0 -0.4476129789611048 -0.29283803371489903 0 -0.43765198640052377 -0.27443700488157741 0 -0.4476129789611048 -0.29283803371489903 0 -0.43236213870239748 -0.29002705800971151 0 -0.4476129789611048 -0.29283803371489903 0 -0.45018982867155483 -0.32180400573951162 0 -0.4314578060398388 -0.3048790663939604 0 -0.45018982867155483 -0.32180400573951162 0 -0.4314578060398388 -0.3048790663939604 0 -0.45018982867155483 -0.32180400573951162 0 -0.46157657978994598 -0.34139555482026068 0 -0.43521386225128428 -0.33802231259611382 0 -0.46157657978994598 -0.34139555482026068 0 -0.43521386225128428 -0.33802231259611382 0 -0.45018982867155483 -0.32180400573951162 0 -0.46157657978994598 -0.34139555482026068 0 -0.47623524987602139 -0.32201367690444971 0 -0.46937090116945868 -0.29821258941183898 0 -0.45018982867155483 -0.32180400573951162 0 -0.47623524987602139 -0.32201367690444971 0 -0.5 -0.29874288943189498 0 -0.47623524987602139 -0.32201367690444971 0 -0.5 -0.32803706083174372 0 -0.47623524987602139 -0.32201367690444971 0 -0.5 -0.32803706083174372 0 -0.48561656391384522 -0.34384835974822991 0 -0.5 -0.32803706083174372 0 -0.5 -0.35733123223159241 0 -0.48561656391384522 -0.34384835974822991 0 -0.46157657978994598 -0.34139555482026068 0 -0.47623524987602139 -0.32201367690444971 0 -0.48561656391384522 -0.34384835974822991 0 -0.46157657978994598 -0.34139555482026068 0 -0.47568148196104371 -0.35852722048879659 0 -0.48561656391384522 -0.34384835974822991 0 -0.47568148196104371 -0.35852722048879659 0 -0.48561656391384522 -0.34384835974822991 0 -0.48768886795130861 -0.36141736908419309 0 -0.5 -0.35733123223159241 0 -0.48561656391384522 -0.34384835974822991 0 -0.48768886795130861 -0.36141736908419309 0 -0.5 -0.35733123223159241 0 -0.4947615751445838 -0.37332156409002909 0 -0.48768886795130861 -0.36141736908419309 0 -0.5 -0.38662540363144121 0 -0.5 -0.35733123223159241 0 -0.4947615751445838 -0.37332156409002909 0 -0.4947615751445838 -0.37332156409002909 0 -0.48768886795130861 -0.36141736908419309 0 -0.48030931097003587 -0.37191064435083931 0 -0.47568148196104371 -0.35852722048879659 0 -0.48030931097003587 -0.37191064435083931 0 -0.46669490250066459 -0.37481721741951951 0 -0.47568148196104371 -0.35852722048879659 0 -0.48768886795130861 -0.36141736908419309 0 -0.48030931097003587 -0.37191064435083931 0 -0.46669490250066459 -0.37481721741951951 0 -0.45985290530711531 -0.35919053618658509 0 -0.45095991715087752 -0.36968037302039969 0 -0.47568148196104371 -0.35852722048879659 0 -0.46669490250066459 -0.37481721741951951 0 -0.45985290530711531 -0.35919053618658509 0 -0.46157657978994598 -0.34139555482026068 0 -0.47568148196104371 -0.35852722048879659 0 -0.45985290530711531 -0.35919053618658509 0 -0.46157657978994598 -0.34139555482026068 0 -0.45985290530711531 -0.35919053618658509 0 -0.44091292170358748 -0.35617636658334351 0 -0.46157657978994598 -0.34139555482026068 0 -0.44091292170358748 -0.35617636658334351 0 -0.43521386225128428 -0.33802231259611382 0 -0.43421362475025049 -0.37527491429266319 0 -0.44091292170358748 -0.35617636658334351 0 -0.45095991715087752 -0.36968037302039969 0 -0.45985290530711531 -0.35919053618658509 0 -0.44091292170358748 -0.35617636658334351 0 -0.45095991715087752 -0.36968037302039969 0 -0.43421362475025049 -0.37527491429266319 0 -0.41656514696884139 -0.37636588688318029 0 -0.42218579342164808 -0.36334977441807748 0 -0.43421362475025049 -0.37527491429266319 0 -0.44091292170358748 -0.35617636658334351 0 -0.42218579342164808 -0.36334977441807748 0 -0.44091292170358748 -0.35617636658334351 0 -0.42218579342164808 -0.36334977441807748 0 -0.42066840753926321 -0.34864312644900147 0 -0.44091292170358748 -0.35617636658334351 0 -0.42066840753926321 -0.34864312644900147 0 -0.43521386225128428 -0.33802231259611382 0 -0.42218579342164808 -0.36334977441807748 0 -0.42066840753926321 -0.34864312644900147 0 -0.40690054455725883 -0.35815659477868023 0 -0.40690054455725883 -0.35815659477868023 0 -0.40885114471262263 -0.334649070371968 0 -0.42066840753926321 -0.34864312644900147 0 -0.40690054455725883 -0.35815659477868023 0 -0.40885114471262263 -0.334649070371968 0 -0.42218579342164808 -0.36334977441807748 0 -0.40690054455725883 -0.35815659477868023 0 -0.40625971269279348 -0.36587953617857771 0 -0.40690054455725883 -0.35815659477868023 0 -0.40625971269279348 -0.36587953617857771 0 -0.41656514696884139 -0.37636588688318029 0 -0.42218579342164808 -0.36334977441807748 0 -0.40625971269279348 -0.36587953617857771 0 -0.42218579342164808 -0.36334977441807748 0 -0.40690054455725883 -0.35815659477868023 0 -0.41656514696884139 -0.37636588688318029 0 -0.40465459864295228 -0.37650109000307358 0 -0.40625971269279348 -0.36587953617857771 0 -0.40465459864295228 -0.37650109000307358 0 -0.40625971269279348 -0.36587953617857771 0 -0.3968495855878465 -0.36923685638487008 0 -0.40690054455725883 -0.35815659477868023 0 -0.40029228617445223 -0.36350286704594809 0 -0.3911593018599101 -0.36073848084166482 0 -0.40625971269279348 -0.36587953617857771 0 -0.40029228617445223 -0.36350286704594809 0 -0.3968495855878465 -0.36923685638487008 0 -0.40690054455725883 -0.35815659477868023 0 -0.40625971269279348 -0.36587953617857771 0 -0.40029228617445223 -0.36350286704594809 0 -0.3911593018599101 -0.36073848084166482 0 -0.3968495855878465 -0.36923685638487008 0 -0.38569326772338258 -0.37053454129240582 0 -0.40029228617445223 -0.36350286704594809 0 -0.3911593018599101 -0.36073848084166482 0 -0.3968495855878465 -0.36923685638487008 0 -0.39431275766669582 -0.38061373190328529 0 -0.3968495855878465 -0.36923685638487008 0 -0.38569326772338258 -0.37053454129240582 0 -0.3911593018599101 -0.36073848084166482 0 -0.38569326772338258 -0.37053454129240582 0 -0.37568472164775779 -0.36524225821647011 0 -0.37522403377147279 -0.38060127254172499 0 -0.38569326772338258 -0.37053454129240582 0 -0.37568472164775779 -0.36524225821647011 0 -0.3911593018599101 -0.36073848084166482 0 -0.37568472164775779 -0.36524225821647011 0 -0.38024887903539811 -0.3491016629308506 0 -0.40690054455725883 -0.35815659477868023 0 -0.3911593018599101 -0.36073848084166482 0 -0.38024887903539811 -0.3491016629308506 0 -0.40690054455725883 -0.35815659477868023 0 -0.38024887903539811 -0.3491016629308506 0 -0.39533213247953691 -0.34338662223350158 0 -0.40690054455725883 -0.35815659477868023 0 -0.39533213247953691 -0.34338662223350158 0 -0.40885114471262263 -0.334649070371968 0 -0.40690054455725883 -0.35815659477868023 0 -0.38024887903539811 -0.3491016629308506 0 -0.39533213247953691 -0.34338662223350158 0 -0.38532796161286798 -0.33163916085250739 0 -0.40885114471262263 -0.334649070371968 0 -0.38532796161286798 -0.33163916085250739 0 -0.40885114471262263 -0.334649070371968 0 -0.38024887903539811 -0.3491016629308506 0 -0.39533213247953691 -0.34338662223350158 0 -0.38532796161286798 -0.33163916085250739 0 -0.38024887903539811 -0.3491016629308506 0 -0.38532796161286798 -0.33163916085250739 0 -0.37024470816872912 -0.33735420154985679 0 -0.38532796161286798 -0.33163916085250739 0 -0.37601492727600683 -0.3197696392392384 0 -0.39293033406270472 -0.31505081143976649 0 -0.37601492727600683 -0.3197696392392384 0 -0.39293033406270472 -0.31505081143976649 0 -0.37651642550459341 -0.307078797330949 0 -0.38532796161286798 -0.33163916085250739 0 -0.39293033406270472 -0.31505081143976649 0 -0.40885114471262263 -0.334649070371968 0 -0.39293033406270472 -0.31505081143976649 0 -0.40885114471262263 -0.334649070371968 0 -0.41078846406037228 -0.3113015987101887 0 -0.40885114471262263 -0.334649070371968 0 -0.42554877913925399 -0.3223331804902434 0 -0.41078846406037228 -0.3113015987101887 0 -0.40885114471262263 -0.334649070371968 0 -0.41078846406037228 -0.3113015987101887 0 -0.42066840753926321 -0.34864312644900147 0 -0.40885114471262263 -0.334649070371968 0 -0.43521386225128428 -0.33802231259611382 0 -0.40885114471262263 -0.334649070371968 0 -0.43521386225128428 -0.33802231259611382 0 -0.40885114471262263 -0.334649070371968 0 -0.43521386225128428 -0.33802231259611382 0 -0.42554877913925399 -0.3223331804902434 0 -0.42554877913925399 -0.3223331804902434 0 -0.4314578060398388 -0.3048790663939604 0 -0.41078846406037228 -0.3113015987101887 0 -0.45018982867155483 -0.32180400573951162 0 -0.43521386225128428 -0.33802231259611382 0 -0.42554877913925399 -0.3223331804902434 0 -0.45018982867155483 -0.32180400573951162 0 -0.42554877913925399 -0.3223331804902434 0 -0.4314578060398388 -0.3048790663939604 0 -0.4476129789611048 -0.29283803371489903 0 -0.4314578060398388 -0.3048790663939604 0 -0.43236213870239748 -0.29002705800971151 0 -0.4314578060398388 -0.3048790663939604 0 -0.43236213870239748 -0.29002705800971151 0 -0.41272578340812272 -0.2879541270484095 0 -0.4314578060398388 -0.3048790663939604 0 -0.41272578340812272 -0.2879541270484095 0 -0.43765198640052377 -0.27443700488157741 0 -0.43236213870239748 -0.29002705800971151 0 -0.41272578340812272 -0.2879541270484095 0 -0.4314578060398388 -0.3048790663939604 0 -0.41272578340812272 -0.2879541270484095 0 -0.41078846406037228 -0.3113015987101887 0 -0.41272578340812272 -0.2879541270484095 0 -0.41078846406037228 -0.3113015987101887 0 -0.41272578340812272 -0.2879541270484095 0 -0.41078846406037228 -0.3113015987101887 0 -0.39233272698174793 -0.29435547039456872 0 -0.39293033406270472 -0.31505081143976649 0 -0.41078846406037228 -0.3113015987101887 0 -0.39233272698174793 -0.29435547039456872 0 -0.39293033406270472 -0.31505081143976649 0 -0.37651642550459341 -0.307078797330949 0 -0.39233272698174793 -0.29435547039456872 0 -0.39233272698174793 -0.29435547039456872 0 -0.39278725088820249 -0.26993907014966689 0 -0.37040839911066209 -0.28171057629616708 0 -0.37651642550459341 -0.307078797330949 0 -0.39233272698174793 -0.29435547039456872 0 -0.37040839911066209 -0.28171057629616708 0 -0.41272578340812272 -0.2879541270484095 0 -0.39233272698174793 -0.29435547039456872 0 -0.39278725088820249 -0.26993907014966689 0 -0.41272578340812272 -0.2879541270484095 0 -0.39278725088820249 -0.26993907014966689 0 -0.39278725088820249 -0.26993907014966689 0 -0.37040839911066209 -0.28171057629616708 0 -0.39278725088820249 -0.26993907014966689 0 -0.37533687834285862 -0.25417213976024849 0 -0.37040839911066209 -0.28171057629616708 0 -0.39278725088820249 -0.26993907014966689 0 -0.37533687834285862 -0.25417213976024849 0 -0.39826986996263802 -0.25360934065352753 0 -0.39278725088820249 -0.26993907014966689 0 -0.37533687834285862 -0.25417213976024849 0 -0.39278725088820249 -0.26993907014966689 0 -0.39826986996263802 -0.25360934065352753 0 -0.41519883225968468 -0.25815034790020708 0 -0.39278725088820249 -0.26993907014966689 0 -0.41519883225968468 -0.25815034790020708 0 -0.39826986996263802 -0.25360934065352753 0 -0.41519883225968468 -0.25815034790020708 0 -0.41615383063077721 -0.2466412503256647 0 -0.41519883225968468 -0.25815034790020708 0 -0.41615383063077721 -0.2466412503256647 0 -0.41272578340812272 -0.2879541270484095 0 -0.41519883225968468 -0.25815034790020708 0 -0.41272578340812272 -0.2879541270484095 0 -0.41519883225968468 -0.25815034790020708 0 -0.429874989515865 -0.26165756953837482 0 -0.41272578340812272 -0.2879541270484095 0 -0.39278725088820249 -0.26993907014966689 0 -0.41519883225968468 -0.25815034790020708 0 -0.43765198640052377 -0.27443700488157741 0 -0.41272578340812272 -0.2879541270484095 0 -0.429874989515865 -0.26165756953837482 0 -0.41519883225968468 -0.25815034790020708 0 -0.43598079583492633 -0.24721882136819351 0 -0.41519883225968468 -0.25815034790020708 0 -0.429874989515865 -0.26165756953837482 0 -0.43598079583492633 -0.24721882136819351 0 -0.41519883225968468 -0.25815034790020708 0 -0.43598079583492633 -0.24721882136819351 0 -0.41615383063077721 -0.2466412503256647 0 -0.31968345090478489 -0.25798973640781447 0 -0.33623326073948312 -0.25365348176558788 0 -0.32213598881581812 -0.2442700999577708 0 -0.31968345090478489 -0.25798973640781447 0 -0.31319680135340772 -0.27337899374224139 0 -0.30564385326437488 -0.26015983685037081 0 -0.31968345090478489 -0.25798973640781447 0 -0.31319680135340772 -0.27337899374224139 0 -0.33256675641106698 -0.27199424518209242 0 -0.31319680135340772 -0.27337899374224139 0 -0.33256675641106698 -0.27199424518209242 0 -0.3219330120753135 -0.28752383142540722 0 -0.33256675641106698 -0.27199424518209242 0 -0.33623326073948312 -0.25365348176558788 0 -0.35329637777243872 -0.26495799818728782 0 -0.31968345090478489 -0.25798973640781447 0 -0.33256675641106698 -0.27199424518209242 0 -0.33623326073948312 -0.25365348176558788 0 -0.33623326073948312 -0.25365348176558788 0 -0.35329637777243872 -0.26495799818728782 0 -0.35305879752332059 -0.24486073726717009 0 -0.37533687834285862 -0.25417213976024849 0 -0.35329637777243872 -0.26495799818728782 0 -0.35305879752332059 -0.24486073726717009 0 -0.37533687834285862 -0.25417213976024849 0 -0.35329637777243872 -0.26495799818728782 0 -0.37040839911066209 -0.28171057629616708 0 -0.35329637777243872 -0.26495799818728782 0 -0.34802954733312141 -0.29348208244266671 0 -0.37040839911066209 -0.28171057629616708 0 -0.33256675641106698 -0.27199424518209242 0 -0.35329637777243872 -0.26495799818728782 0 -0.34802954733312141 -0.29348208244266671 0 -0.34802954733312141 -0.29348208244266671 0 -0.37040839911066209 -0.28171057629616708 0 -0.37651642550459341 -0.307078797330949 0 -0.37040839911066209 -0.28171057629616708 0 -0.36249180620921062 -0.30132401124355712 0 -0.34802954733312141 -0.29348208244266671 0 -0.37040839911066209 -0.28171057629616708 0 -0.36249180620921062 -0.30132401124355712 0 -0.37651642550459341 -0.307078797330949 0 -0.36249180620921062 -0.30132401124355712 0 -0.36514172279026702 -0.314674684486903 0 -0.36249180620921062 -0.30132401124355712 0 -0.35217384865543538 -0.31302074178168637 0 -0.36514172279026702 -0.314674684486903 0 -0.34802954733312141 -0.29348208244266671 0 -0.33894022777705518 -0.31261958861733652 0 -0.35217384865543538 -0.31302074178168637 0 -0.34802954733312141 -0.29348208244266671 0 -0.36249180620921062 -0.30132401124355712 0 -0.35217384865543538 -0.31302074178168637 0 -0.34802954733312141 -0.29348208244266671 0 -0.32565069555558063 -0.30525358858916618 0 -0.33894022777705518 -0.31261958861733652 0 -0.34802954733312141 -0.29348208244266671 0 -0.32565069555558063 -0.30525358858916618 0 -0.32565069555558063 -0.30525358858916618 0 -0.32940773276489932 -0.31652548782855527 0 -0.33894022777705518 -0.31261958861733652 0 -0.33256675641106698 -0.27199424518209242 0 -0.34802954733312141 -0.29348208244266671 0 -0.3219330120753135 -0.28752383142540722 0 -0.34802954733312141 -0.29348208244266671 0 -0.3219330120753135 -0.28752383142540722 0 -0.32565069555558063 -0.30525358858916618 0 -0.3219330120753135 -0.28752383142540722 0 -0.31228269981280887 -0.29918463989613459 0 -0.30483638085835207 -0.28788342401786787 0 -0.31319680135340772 -0.27337899374224139 0 -0.3219330120753135 -0.28752383142540722 0 -0.30483638085835207 -0.28788342401786787 0 -0.32565069555558063 -0.30525358858916618 0 -0.30327184377803978 -0.31702509473566581 0 -0.31228269981280887 -0.29918463989613459 0 -0.3219330120753135 -0.28752383142540722 0 -0.32565069555558063 -0.30525358858916618 0 -0.31228269981280887 -0.29918463989613459 0 -0.32565069555558063 -0.30525358858916618 0 -0.30327184377803978 -0.31702509473566581 0 -0.31475841231360341 -0.32260943229412947 0 -0.32694554799167658 -0.33099179923519167 0 -0.33828159541335823 -0.32561934181358893 0 -0.32565069555558063 -0.30525358858916618 0 -0.31475841231360341 -0.32260943229412947 0 -0.30327184377803978 -0.31702509473566581 0 -0.31475841231360341 -0.32260943229412947 0 -0.33828159541335823 -0.32561934181358893 0 -0.32940773276489932 -0.31652548782855527 0 -0.32565069555558063 -0.30525358858916618 0 -0.31475841231360341 -0.32260943229412947 0 -0.32940773276489932 -0.31652548782855527 0 -0.31475841231360341 -0.32260943229412947 0 -0.33828159541335823 -0.32561934181358893 0 -0.31475841231360341 -0.32260943229412947 0 -0.31372637242327511 -0.33497634201883658 0 -0.32694554799167658 -0.33099179923519167 0 -0.32694554799167658 -0.33099179923519167 0 -0.32737612656656928 -0.35021722948502532 0 -0.3170311031704231 -0.34491623006635341 0 -0.31372637242327511 -0.33497634201883658 0 -0.32694554799167658 -0.33099179923519167 0 -0.3170311031704231 -0.34491623006635341 0 -0.31372637242327511 -0.33497634201883658 0 -0.3170311031704231 -0.34491623006635341 0 -0.30849554643820359 -0.34481279163420842 0 -0.32694554799167658 -0.33099179923519167 0 -0.33828159541335823 -0.32561934181358893 0 -0.35359721351353718 -0.34004673108302108 0 -0.32694554799167658 -0.33099179923519167 0 -0.35359721351353718 -0.34004673108302108 0 -0.33765025977867152 -0.34480892108230998 0 -0.32694554799167658 -0.33099179923519167 0 -0.35359721351353718 -0.34004673108302108 0 -0.32694554799167658 -0.33099179923519167 0 -0.33765025977867152 -0.34480892108230998 0 -0.32737612656656928 -0.35021722948502532 0 -0.33828159541335823 -0.32561934181358893 0 -0.32940773276489932 -0.31652548782855527 0 -0.33894022777705518 -0.31261958861733652 0 -0.33828159541335823 -0.32561934181358893 0 -0.33894022777705518 -0.31261958861733652 0 -0.35217384865543538 -0.31302074178168637 0 -0.33828159541335823 -0.32561934181358893 0 -0.3618047785131131 -0.32862925133304821 0 -0.33828159541335823 -0.32561934181358893 0 -0.35217384865543538 -0.31302074178168637 0 -0.3618047785131131 -0.32862925133304821 0 -0.38532796161286798 -0.33163916085250739 0 -0.37601492727600683 -0.3197696392392384 0 -0.3618047785131131 -0.32862925133304821 0 -0.35217384865543538 -0.31302074178168637 0 -0.36514172279026702 -0.314674684486903 0 -0.3618047785131131 -0.32862925133304821 0 -0.37601492727600683 -0.3197696392392384 0 -0.36514172279026702 -0.314674684486903 0 -0.3618047785131131 -0.32862925133304821 0 -0.37601492727600683 -0.3197696392392384 0 -0.37651642550459341 -0.307078797330949 0 -0.36514172279026702 -0.314674684486903 0 -0.38532796161286798 -0.33163916085250739 0 -0.37024470816872912 -0.33735420154985679 0 -0.3618047785131131 -0.32862925133304821 0 -0.37024470816872912 -0.33735420154985679 0 -0.3618047785131131 -0.32862925133304821 0 -0.35359721351353718 -0.34004673108302108 0 -0.38532796161286798 -0.33163916085250739 0 -0.3618047785131131 -0.32862925133304821 0 -0.38024887903539811 -0.3491016629308506 0 -0.37024470816872912 -0.33735420154985679 0 -0.35359721351353718 -0.34004673108302108 0 -0.33828159541335823 -0.32561934181358893 0 -0.3618047785131131 -0.32862925133304821 0 -0.35359721351353718 -0.34004673108302108 0 -0.35359721351353718 -0.34004673108302108 0 -0.36247207576052709 -0.35740109745143939 0 -0.34268215104290278 -0.35797992452600158 0 -0.35359721351353718 -0.34004673108302108 0 -0.34268215104290278 -0.35797992452600158 0 -0.33765025977867152 -0.34480892108230998 0 -0.37568472164775779 -0.36524225821647011 0 -0.38024887903539811 -0.3491016629308506 0 -0.36247207576052709 -0.35740109745143939 0 -0.38024887903539811 -0.3491016629308506 0 -0.35359721351353718 -0.34004673108302108 0 -0.36247207576052709 -0.35740109745143939 0 -0.38024887903539811 -0.3491016629308506 0 -0.35359721351353718 -0.34004673108302108 0 -0.37522403377147279 -0.38060127254172499 0 -0.37568472164775779 -0.36524225821647011 0 -0.35964608014779109 -0.37334112637938882 0 -0.37568472164775779 -0.36524225821647011 0 -0.36247207576052709 -0.35740109745143939 0 -0.35964608014779109 -0.37334112637938882 0 -0.36247207576052709 -0.35740109745143939 0 -0.35964608014779109 -0.37334112637938882 0 -0.34268215104290278 -0.35797992452600158 0 -0.35964608014779109 -0.37334112637938882 0 -0.34268215104290278 -0.35797992452600158 0 -0.34254000635277743 -0.38197763020755832 0 -0.34268215104290278 -0.35797992452600158 0 -0.32737612656656928 -0.35021722948502532 0 -0.32270418411731933 -0.37181077970513959 0 -0.34268215104290278 -0.35797992452600158 0 -0.32270418411731933 -0.37181077970513959 0 -0.34254000635277743 -0.38197763020755832 0 -0.34268215104290278 -0.35797992452600158 0 -0.34254000635277743 -0.38197763020755832 0 -0.34268215104290278 -0.35797992452600158 0 -0.33765025977867152 -0.34480892108230998 0 -0.32737612656656928 -0.35021722948502532 0 -0.32737612656656928 -0.35021722948502532 0 -0.31662274924076123 -0.35606216629487569 0 -0.32270418411731933 -0.37181077970513959 0 -0.32737612656656928 -0.35021722948502532 0 -0.3170311031704231 -0.34491623006635341 0 -0.31662274924076123 -0.35606216629487569 0 -0.3170311031704231 -0.34491623006635341 0 -0.31662274924076123 -0.35606216629487569 0 -0.30902027636205309 -0.35243705172998302 0 -0.31662274924076123 -0.35606216629487569 0 -0.32270418411731933 -0.37181077970513959 0 -0.30796050174877349 -0.36016317053514468 0 -0.32270418411731933 -0.37181077970513959 0 -0.29719619905707523 -0.36594012765828582 0 -0.30796050174877349 -0.36016317053514468 0 -0.32270418411731933 -0.37181077970513959 0 -0.29719619905707523 -0.36594012765828582 0 -0.3103864423796594 -0.37828470113645102 0 -0.32270418411731933 -0.37181077970513959 0 -0.29719619905707523 -0.36594012765828582 0 -0.29719619905707523 -0.36594012765828582 0 -0.29943295026653399 -0.35953932364306618 0 -0.30796050174877349 -0.36016317053514468 0 -0.29719619905707523 -0.36594012765828582 0 -0.29584447723995128 -0.37444813956539807 0 -0.3103864423796594 -0.37828470113645102 0 -0.31662274924076123 -0.35606216629487569 0 -0.30796050174877349 -0.36016317053514468 0 -0.30902027636205309 -0.35243705172998302 0 -0.30796050174877349 -0.36016317053514468 0 -0.30902027636205309 -0.35243705172998302 0 -0.30278665144889838 -0.35518957417951802 0 -0.3170311031704231 -0.34491623006635341 0 -0.30902027636205309 -0.35243705172998302 0 -0.30849554643820359 -0.34481279163420842 0 -0.30902027636205309 -0.35243705172998302 0 -0.30849554643820359 -0.34481279163420842 0 -0.30076474035813339 -0.34759465108555682 0 -0.30849554643820359 -0.34481279163420842 0 -0.30076474035813339 -0.34759465108555682 0 -0.30398917998114899 -0.33934800480643368 0 -0.30902027636205309 -0.35243705172998302 0 -0.30076474035813339 -0.34759465108555682 0 -0.30278665144889838 -0.35518957417951802 0 -0.29943295026653399 -0.35953932364306618 0 -0.30796050174877349 -0.36016317053514468 0 -0.30278665144889838 -0.35518957417951802 0 -0.30076474035813339 -0.34759465108555682 0 -0.30278665144889838 -0.35518957417951802 0 -0.29719830368448108 -0.35301728683459582 0 -0.29943295026653399 -0.35953932364306618 0 -0.30278665144889838 -0.35518957417951802 0 -0.29719830368448108 -0.35301728683459582 0 -0.29943295026653399 -0.35953932364306618 0 -0.29719830368448108 -0.35301728683459582 0 -0.29016743694869812 -0.35649807524262711 0 -0.29016743694869812 -0.35649807524262711 0 -0.28284547851944208 -0.35047845284871731 0 -0.27168821399683141 -0.36006947561143121 0 -0.29719830368448108 -0.35301728683459582 0 -0.29016743694869812 -0.35649807524262711 0 -0.2925915294609488 -0.34919256188026188 0 -0.2925915294609488 -0.34919256188026188 0 -0.28611540962297188 -0.3426453659285974 0 -0.29619358151489988 -0.34015641309103278 0 -0.30076474035813339 -0.34759465108555682 0 -0.29719830368448108 -0.35301728683459582 0 -0.2925915294609488 -0.34919256188026188 0 -0.30076474035813339 -0.34759465108555682 0 -0.2925915294609488 -0.34919256188026188 0 -0.29619358151489988 -0.34015641309103278 0 -0.2925915294609488 -0.34919256188026188 0 -0.28284547851944208 -0.35047845284871731 0 -0.28611540962297188 -0.3426453659285974 0 -0.28284547851944208 -0.35047845284871731 0 -0.27676447355633299 -0.3457480812413124 0 -0.28611540962297188 -0.3426453659285974 0 -0.29016743694869812 -0.35649807524262711 0 -0.2925915294609488 -0.34919256188026188 0 -0.28284547851944208 -0.35047845284871731 0 -0.29202770366946113 -0.36668513997228358 0 -0.27168821399683141 -0.36006947561143121 0 -0.28307956849111848 -0.3828068929804474 0 -0.29719619905707523 -0.36594012765828582 0 -0.27168821399683141 -0.36006947561143121 0 -0.29202770366946113 -0.36668513997228358 0 -0.28307956849111848 -0.3828068929804474 0 -0.29202770366946113 -0.36668513997228358 0 -0.29584447723995128 -0.37444813956539807 0 -0.28307956849111848 -0.3828068929804474 0 -0.29719619905707523 -0.36594012765828582 0 -0.29016743694869812 -0.35649807524262711 0 -0.27168821399683141 -0.36006947561143121 0 -0.29719619905707523 -0.36594012765828582 0 -0.29202770366946113 -0.36668513997228358 0 -0.27168821399683141 -0.36006947561143121 0 -0.29719619905707523 -0.36594012765828582 0 -0.29943295026653399 -0.35953932364306618 0 -0.29016743694869812 -0.35649807524262711 0 -0.29719619905707523 -0.36594012765828582 0 -0.29202770366946113 -0.36668513997228358 0 -0.29584447723995128 -0.37444813956539807 0 -0.27168821399683141 -0.36006947561143121 0 -0.28307956849111848 -0.3828068929804474 0 -0.27168821399683141 -0.36006947561143121 0 -0.28307956849111848 -0.3828068929804474 0 -0.26050234447883253 -0.38027693877573482 0 -0.27168821399683141 -0.36006947561143121 0 -0.25721723303835431 -0.36623646057876708 0 -0.26050234447883253 -0.38027693877573482 0 -0.27168821399683141 -0.36006947561143121 0 -0.25721723303835431 -0.36623646057876708 0 -0.24850069890613241 -0.35473287875334369 0 -0.25721723303835431 -0.36623646057876708 0 -0.24817767477162081 -0.36986654917455902 0 -0.24850069890613241 -0.35473287875334369 0 -0.25721723303835431 -0.36623646057876708 0 -0.26050234447883253 -0.38027693877573482 0 -0.24817767477162081 -0.36986654917455902 0 -0.27168821399683141 -0.36006947561143121 0 -0.25445926970156468 -0.34270101061729968 0 -0.24850069890613241 -0.35473287875334369 0 -0.27168821399683141 -0.36006947561143121 0 -0.26120815563270988 -0.3391510272218049 0 -0.25445926970156468 -0.34270101061729968 0 -0.27168821399683141 -0.36006947561143121 0 -0.24850069890613241 -0.35473287875334369 0 -0.27168821399683141 -0.36006947561143121 0 -0.27676447355633299 -0.3457480812413124 0 -0.26120815563270988 -0.3391510272218049 0 -0.27168821399683141 -0.36006947561143121 0 -0.26120815563270988 -0.3391510272218049 0 -0.28284547851944208 -0.35047845284871731 0 -0.27168821399683141 -0.36006947561143121 0 -0.27676447355633299 -0.3457480812413124 0 -0.27676447355633299 -0.3457480812413124 0 -0.27858368134566353 -0.33798527866036399 0 -0.28611540962297188 -0.3426453659285974 0 -0.27676447355633299 -0.3457480812413124 0 -0.27858368134566353 -0.33798527866036399 0 -0.26120815563270988 -0.3391510272218049 0 -0.28089299200049878 -0.32879660088216478 0 -0.26120815563270988 -0.3391510272218049 0 -0.28089299200049878 -0.32879660088216478 0 -0.26120815563270988 -0.3391510272218049 0 -0.26730676106940449 -0.32685643845792262 0 -0.27858368134566353 -0.33798527866036399 0 -0.28089299200049878 -0.32879660088216478 0 -0.26120815563270988 -0.3391510272218049 0 -0.26120815563270988 -0.3391510272218049 0 -0.26057751607960811 -0.32279583566460812 0 -0.26730676106940449 -0.32685643845792262 0 -0.26120815563270988 -0.3391510272218049 0 -0.25273748935779161 -0.32224337373924072 0 -0.26120815563270988 -0.3391510272218049 0 -0.25207330520806498 -0.33378255792528982 0 -0.25273748935779161 -0.32224337373924072 0 -0.26120815563270988 -0.3391510272218049 0 -0.25445926970156468 -0.34270101061729968 0 -0.25207330520806498 -0.33378255792528982 0 -0.25445926970156468 -0.34270101061729968 0 -0.2460450098649074 -0.33743905859998191 0 -0.26120815563270988 -0.3391510272218049 0 -0.25207330520806498 -0.33378255792528982 0 -0.25445926970156468 -0.34270101061729968 0 -0.25273748935779161 -0.32224337373924072 0 -0.26050456352867191 -0.3149367065078193 0 -0.24426682308287331 -0.30533572025667649 0 -0.26120815563270988 -0.3391510272218049 0 -0.25273748935779161 -0.32224337373924072 0 -0.26057751607960811 -0.32279583566460812 0 -0.26057751607960811 -0.32279583566460812 0 -0.26050456352867191 -0.3149367065078193 0 -0.26730676106940449 -0.32685643845792262 0 -0.25273748935779161 -0.32224337373924072 0 -0.26057751607960811 -0.32279583566460812 0 -0.26050456352867191 -0.3149367065078193 0 -0.28089299200049878 -0.32879660088216478 0 -0.26050456352867191 -0.3149367065078193 0 -0.27445713665833338 -0.31633796571173628 0 -0.28089299200049878 -0.32879660088216478 0 -0.26050456352867191 -0.3149367065078193 0 -0.26050456352867191 -0.3149367065078193 0 -0.27445713665833338 -0.31633796571173628 0 -0.26793999894844561 -0.31004618489902153 0 -0.28089299200049878 -0.32879660088216478 0 -0.26050456352867191 -0.3149367065078193 0 -0.26730676106940449 -0.32685643845792262 0 -0.28089299200049878 -0.32879660088216478 0 -0.27445713665833338 -0.31633796571173628 0 -0.28125105682705043 -0.31976055402590231 0 -0.27445713665833338 -0.31633796571173628 0 -0.28252008875028978 -0.31254235777143202 0 -0.28125105682705043 -0.31976055402590231 0 -0.28252008875028978 -0.31254235777143202 0 -0.28823329624350208 -0.31711313423980658 0 -0.29327146190654751 -0.30876504511160502 0 -0.28089299200049878 -0.32879660088216478 0 -0.28823329624350208 -0.31711313423980658 0 -0.30327184377803978 -0.31702509473566581 0 -0.28089299200049878 -0.32879660088216478 0 -0.29457520052377689 -0.33013191680287202 0 -0.30327184377803978 -0.31702509473566581 0 -0.28089299200049878 -0.32879660088216478 0 -0.30327184377803978 -0.31702509473566581 0 -0.28252008875028978 -0.31254235777143202 0 -0.28125105682705043 -0.31976055402590231 0 -0.28823329624350208 -0.31711313423980658 0 -0.28823329624350208 -0.31711313423980658 0 -0.30327184377803978 -0.31702509473566581 0 -0.29327146190654751 -0.30876504511160502 0 -0.28089299200049878 -0.32879660088216478 0 -0.28125105682705043 -0.31976055402590231 0 -0.28823329624350208 -0.31711313423980658 0 -0.28089299200049878 -0.32879660088216478 0 -0.28793737591580382 -0.33358531802794061 0 -0.27858368134566353 -0.33798527866036399 0 -0.28089299200049878 -0.32879660088216478 0 -0.28793737591580382 -0.33358531802794061 0 -0.28089299200049878 -0.32879660088216478 0 -0.28793737591580382 -0.33358531802794061 0 -0.29457520052377689 -0.33013191680287202 0 -0.27858368134566353 -0.33798527866036399 0 -0.28793737591580382 -0.33358531802794061 0 -0.28611540962297188 -0.3426453659285974 0 -0.28793737591580382 -0.33358531802794061 0 -0.28611540962297188 -0.3426453659285974 0 -0.29619358151489988 -0.34015641309103278 0 -0.28793737591580382 -0.33358531802794061 0 -0.29619358151489988 -0.34015641309103278 0 -0.29457520052377689 -0.33013191680287202 0 -0.29619358151489988 -0.34015641309103278 0 -0.29457520052377689 -0.33013191680287202 0 -0.30458020940964259 -0.3310961572775562 0 -0.30076474035813339 -0.34759465108555682 0 -0.29619358151489988 -0.34015641309103278 0 -0.30398917998114899 -0.33934800480643368 0 -0.29619358151489988 -0.34015641309103278 0 -0.30458020940964259 -0.3310961572775562 0 -0.30398917998114899 -0.33934800480643368 0 -0.31372637242327511 -0.33497634201883658 0 -0.30849554643820359 -0.34481279163420842 0 -0.30398917998114899 -0.33934800480643368 0 -0.31475841231360341 -0.32260943229412947 0 -0.31372637242327511 -0.33497634201883658 0 -0.30458020940964259 -0.3310961572775562 0 -0.31372637242327511 -0.33497634201883658 0 -0.30458020940964259 -0.3310961572775562 0 -0.30398917998114899 -0.33934800480643368 0 -0.31475841231360341 -0.32260943229412947 0 -0.30458020940964259 -0.3310961572775562 0 -0.30327184377803978 -0.31702509473566581 0 -0.29457520052377689 -0.33013191680287202 0 -0.30458020940964259 -0.3310961572775562 0 -0.30327184377803978 -0.31702509473566581 0 -0.30327184377803978 -0.31702509473566581 0 -0.30068554560480582 -0.30112982209441241 0 -0.31228269981280887 -0.29918463989613459 0 -0.30327184377803978 -0.31702509473566581 0 -0.30068554560480582 -0.30112982209441241 0 -0.29327146190654751 -0.30876504511160502 0 -0.30068554560480582 -0.30112982209441241 0 -0.30483638085835207 -0.28788342401786787 0 -0.28888361246081401 -0.29493054457851903 0 -0.30068554560480582 -0.30112982209441241 0 -0.31228269981280887 -0.29918463989613459 0 -0.30483638085835207 -0.28788342401786787 0 -0.28888361246081401 -0.29493054457851903 0 -0.28078806465599399 -0.28300047521785149 0 -0.29451735460655398 -0.27472288856989607 0 -0.30483638085835207 -0.28788342401786787 0 -0.28888361246081401 -0.29493054457851903 0 -0.29451735460655398 -0.27472288856989607 0 -0.28888361246081401 -0.29493054457851903 0 -0.28295382644196537 -0.3038897035906043 0 -0.27388309143310768 -0.29511411685975181 0 -0.28888361246081401 -0.29493054457851903 0 -0.28295382644196537 -0.3038897035906043 0 -0.29327146190654751 -0.30876504511160502 0 -0.30068554560480582 -0.30112982209441241 0 -0.28888361246081401 -0.29493054457851903 0 -0.29327146190654751 -0.30876504511160502 0 -0.28252008875028978 -0.31254235777143202 0 -0.28295382644196537 -0.3038897035906043 0 -0.29327146190654751 -0.30876504511160502 0 -0.27445713665833338 -0.31633796571173628 0 -0.28252008875028978 -0.31254235777143202 0 -0.27524002690986649 -0.30828041126704497 0 -0.28252008875028978 -0.31254235777143202 0 -0.28295382644196537 -0.3038897035906043 0 -0.27524002690986649 -0.30828041126704497 0 -0.28295382644196537 -0.3038897035906043 0 -0.27524002690986649 -0.30828041126704497 0 -0.27388309143310768 -0.29511411685975181 0 -0.26808679199009749 -0.30362992927208171 0 -0.26252268864995981 -0.29761987486456531 0 -0.27388309143310768 -0.29511411685975181 0 -0.27524002690986649 -0.30828041126704497 0 -0.26808679199009749 -0.30362992927208171 0 -0.27388309143310768 -0.29511411685975181 0 -0.27445713665833338 -0.31633796571173628 0 -0.27524002690986649 -0.30828041126704497 0 -0.26793999894844561 -0.31004618489902153 0 -0.27524002690986649 -0.30828041126704497 0 -0.26808679199009749 -0.30362992927208171 0 -0.26793999894844561 -0.31004618489902153 0 -0.26808679199009749 -0.30362992927208171 0 -0.26793999894844561 -0.31004618489902153 0 -0.26278193746552841 -0.30551063084933561 0 -0.26050456352867191 -0.3149367065078193 0 -0.25485564421046719 -0.30132045870319019 0 -0.24011613505684479 -0.30107681213347393 0 -0.26050456352867191 -0.3149367065078193 0 -0.24011613505684479 -0.30107681213347393 0 -0.26050456352867191 -0.3149367065078193 0 -0.26278193746552841 -0.30551063084933561 0 -0.25485564421046719 -0.30132045870319019 0 -0.26050456352867191 -0.3149367065078193 0 -0.26793999894844561 -0.31004618489902153 0 -0.26278193746552841 -0.30551063084933561 0 -0.26278193746552841 -0.30551063084933561 0 -0.26252268864995981 -0.29761987486456531 0 -0.25485564421046719 -0.30132045870319019 0 -0.26252268864995981 -0.29761987486456531 0 -0.25485564421046719 -0.30132045870319019 0 -0.2567143935458242 -0.29223768812186002 0 -0.26808679199009749 -0.30362992927208171 0 -0.26278193746552841 -0.30551063084933561 0 -0.26252268864995981 -0.29761987486456531 0 -0.25608276685525683 -0.28295324223861612 0 -0.2567143935458242 -0.29223768812186002 0 -0.24732420154209239 -0.29033586459568173 0 -0.25485564421046719 -0.30132045870319019 0 -0.2567143935458242 -0.29223768812186002 0 -0.24732420154209239 -0.29033586459568173 0 -0.26252268864995981 -0.29761987486456531 0 -0.2567143935458242 -0.29223768812186002 0 -0.26350989061834318 -0.28909490770035701 0 -0.25608276685525683 -0.28295324223861612 0 -0.26350989061834318 -0.28909490770035701 0 -0.26907982973782107 -0.2804670883869903 0 -0.25608276685525683 -0.28295324223861612 0 -0.2567143935458242 -0.29223768812186002 0 -0.26350989061834318 -0.28909490770035701 0 -0.26350989061834318 -0.28909490770035701 0 -0.27388309143310768 -0.29511411685975181 0 -0.26907982973782107 -0.2804670883869903 0 -0.26252268864995981 -0.29761987486456531 0 -0.26350989061834318 -0.28909490770035701 0 -0.27388309143310768 -0.29511411685975181 0 -0.28888361246081401 -0.29493054457851903 0 -0.27388309143310768 -0.29511411685975181 0 -0.28078806465599399 -0.28300047521785149 0 -0.27388309143310768 -0.29511411685975181 0 -0.28078806465599399 -0.28300047521785149 0 -0.26907982973782107 -0.2804670883869903 0 -0.27772768471542669 -0.26767482265106679 0 -0.26907982973782107 -0.2804670883869903 0 -0.25958550566062261 -0.27102626557679149 0 -0.28078806465599399 -0.28300047521785149 0 -0.27772768471542669 -0.26767482265106679 0 -0.26907982973782107 -0.2804670883869903 0 -0.25608276685525683 -0.28295324223861612 0 -0.26907982973782107 -0.2804670883869903 0 -0.25958550566062261 -0.27102626557679149 0 -0.25608276685525683 -0.28295324223861612 0 -0.25958550566062261 -0.27102626557679149 0 -0.2444485511135471 -0.27534046621033159 0 -0.26398002587916253 -0.25656090854441049 0 -0.24465976002352091 -0.25387891845332877 0 -0.25992972331208369 -0.2410680052130979 0 -0.25958550566062261 -0.27102626557679149 0 -0.26398002587916253 -0.25656090854441049 0 -0.24465976002352091 -0.25387891845332877 0 -0.27772768471542669 -0.26767482265106679 0 -0.26398002587916253 -0.25656090854441049 0 -0.27722523139620658 -0.24922189107985179 0 -0.27772768471542669 -0.26767482265106679 0 -0.25958550566062261 -0.27102626557679149 0 -0.26398002587916253 -0.25656090854441049 0 -0.27772768471542669 -0.26767482265106679 0 -0.29131753467172561 -0.25675805269722002 0 -0.27722523139620658 -0.24922189107985179 0 -0.28078806465599399 -0.28300047521785149 0 -0.27772768471542669 -0.26767482265106679 0 -0.29451735460655398 -0.27472288856989607 0 -0.27772768471542669 -0.26767482265106679 0 -0.29131753467172561 -0.25675805269722002 0 -0.29451735460655398 -0.27472288856989607 0 -0.31319680135340772 -0.27337899374224139 0 -0.29451735460655398 -0.27472288856989607 0 -0.30564385326437488 -0.26015983685037081 0 -0.31319680135340772 -0.27337899374224139 0 -0.30483638085835207 -0.28788342401786787 0 -0.29451735460655398 -0.27472288856989607 0 -0.29131753467172561 -0.25675805269722002 0 -0.29451735460655398 -0.27472288856989607 0 -0.30564385326437488 -0.26015983685037081 0 -0.29131753467172561 -0.25675805269722002 0 -0.30564385326437488 -0.26015983685037081 0 -0.30769212114973271 -0.24578220261295139 0 -0.31968345090478489 -0.25798973640781447 0 -0.30564385326437488 -0.26015983685037081 0 -0.30769212114973271 -0.24578220261295139 0 -0.34207866423036198 -0.45986413066326443 0 -0.33141508850449702 -0.45187214799378478 0 -0.32594289259428999 -0.46085836632795257 0 -0.34207866423036198 -0.45986413066326443 0 -0.32594289259428999 -0.46085836632795257 0 -0.33264581849560632 -0.47431014716802089 0 -0.34207866423036198 -0.45986413066326443 0 -0.34225571697252682 -0.42997304157067162 0 -0.34207866423036198 -0.45986413066326443 0 -0.33358626016413989 -0.44229992863572659 0 -0.33141508850449702 -0.45187214799378478 0 -0.34207866423036198 -0.45986413066326443 0 -0.33358626016413989 -0.44229992863572659 0 -0.34225571697252682 -0.42997304157067162 0 -0.33358626016413989 -0.44229992863572659 0 -0.33141508850449702 -0.45187214799378478 0 -0.32300139100864811 -0.44723989508536771 0 -0.33358626016413989 -0.44229992863572659 0 -0.32300139100864811 -0.44723989508536771 0 -0.32413493920603592 -0.43586432580396972 0 -0.32300139100864811 -0.44723989508536771 0 -0.31385630152515048 -0.44199725430357722 0 -0.32413493920603592 -0.43586432580396972 0 -0.32300139100864811 -0.44723989508536771 0 -0.31385630152515048 -0.44199725430357722 0 -0.31044958537109257 -0.45255960714027171 0 -0.32594289259428999 -0.46085836632795257 0 -0.31333683559556219 -0.46686726284272168 0 -0.31044958537109257 -0.45255960714027171 0 -0.32594289259428999 -0.46085836632795257 0 -0.31333683559556219 -0.46686726284272168 0 -0.32224857144892449 -0.47649828689453749 0 -0.32300139100864811 -0.44723989508536771 0 -0.32594289259428999 -0.46085836632795257 0 -0.31044958537109257 -0.45255960714027171 0 -0.33141508850449702 -0.45187214799378478 0 -0.32300139100864811 -0.44723989508536771 0 -0.32594289259428999 -0.46085836632795257 0 -0.31333683559556219 -0.46686726284272168 0 -0.32224857144892449 -0.47649828689453749 0 -0.30503152439861497 -0.48190266549989857 0 -0.32224857144892449 -0.47649828689453749 0 -0.32279626626388608 -0.48781718170045291 0 -0.30503152439861497 -0.48190266549989857 0 -0.32594289259428999 -0.46085836632795257 0 -0.32224857144892449 -0.47649828689453749 0 -0.33264581849560632 -0.47431014716802089 0 -0.32224857144892449 -0.47649828689453749 0 -0.32279626626388608 -0.48781718170045291 0 -0.33105735271625752 -0.4845747321984929 0 -0.32006214434654462 -0.5 0 -0.32279626626388608 -0.48781718170045291 0 -0.30503152439861497 -0.48190266549989857 0 -0.32006214434654462 -0.5 0 -0.32279626626388608 -0.48781718170045291 0 -0.33558173840908911 -0.49611022390933512 0 -0.32006214434654462 -0.5 0 -0.33558173840908911 -0.49611022390933512 0 -0.34657288766042038 -0.5 0 -0.33558173840908911 -0.49611022390933512 0 -0.34190161148819742 -0.48975521975585701 0 -0.35306908662498632 -0.4951847935385878 0 -0.32279626626388608 -0.48781718170045291 0 -0.33558173840908911 -0.49611022390933512 0 -0.33105735271625752 -0.4845747321984929 0 -0.33558173840908911 -0.49611022390933512 0 -0.33105735271625752 -0.4845747321984929 0 -0.34190161148819742 -0.48975521975585701 0 -0.34207866423036198 -0.45986413066326443 0 -0.34190161148819742 -0.48975521975585701 0 -0.34207866423036198 -0.45986413066326443 0 -0.34190161148819742 -0.48975521975585701 0 -0.33264581849560632 -0.47431014716802089 0 -0.33105735271625752 -0.4845747321984929 0 -0.34190161148819742 -0.48975521975585701 0 -0.33264581849560632 -0.47431014716802089 0 -0.32224857144892449 -0.47649828689453749 0 -0.33105735271625752 -0.4845747321984929 0 -0.33264581849560632 -0.47431014716802089 0 -0.34190161148819742 -0.48975521975585701 0 -0.35001641252228072 -0.47142734906239081 0 -0.35328963507943428 -0.48328499015431992 0 -0.34207866423036198 -0.45986413066326443 0 -0.34190161148819742 -0.48975521975585701 0 -0.35001641252228072 -0.47142734906239081 0 -0.35328963507943428 -0.48328499015431992 0 -0.35950950469085041 -0.48638993404071668 0 -0.36112286221809747 -0.47283058930211808 0 -0.35001641252228072 -0.47142734906239081 0 -0.35328963507943428 -0.48328499015431992 0 -0.36112286221809747 -0.47283058930211808 0 -0.33558173840908911 -0.49611022390933512 0 -0.35306908662498632 -0.4951847935385878 0 -0.33558173840908911 -0.49611022390933512 0 -0.34657288766042038 -0.5 0 -0.35306908662498632 -0.4951847935385878 0 -0.34657288766042038 -0.5 0 -0.35306908662498632 -0.4951847935385878 0 -0.37308363097429631 -0.50000000000000244 0 -0.34190161148819742 -0.48975521975585701 0 -0.35328963507943428 -0.48328499015431992 0 -0.35306908662498632 -0.4951847935385878 0 -0.35328963507943428 -0.48328499015431992 0 -0.35306908662498632 -0.4951847935385878 0 -0.35950950469085041 -0.48638993404071668 0 -0.35306908662498632 -0.4951847935385878 0 -0.35950950469085041 -0.48638993404071668 0 -0.37055643484088358 -0.49425936316784103 0 -0.35306908662498632 -0.4951847935385878 0 -0.37055643484088358 -0.49425936316784103 0 -0.35950950469085041 -0.48638993404071668 0 -0.37055643484088358 -0.49425936316784103 0 -0.36112286221809747 -0.47283058930211808 0 -0.35306908662498632 -0.4951847935385878 0 -0.37055643484088358 -0.49425936316784103 0 -0.37308363097429631 -0.50000000000000244 0 -0.37055643484088358 -0.49425936316784103 0 -0.37308363097429631 -0.50000000000000244 0 -0.38039451612360919 -0.47713749807852829 0 -0.37055643484088358 -0.49425936316784103 0 -0.36112286221809747 -0.47283058930211808 0 -0.37055643484088358 -0.49425936316784103 0 -0.36112286221809747 -0.47283058930211808 0 -0.38039451612360919 -0.47713749807852829 0 -0.36112286221809747 -0.47283058930211808 0 -0.37415472949075129 -0.45946062715310632 0 -0.37415472949075129 -0.45946062715310632 0 -0.3629811744391212 -0.45722253899736259 0 -0.36406731613876331 -0.44506275929787698 0 -0.36112286221809747 -0.47283058930211808 0 -0.37415472949075129 -0.45946062715310632 0 -0.3629811744391212 -0.45722253899736259 0 -0.36112286221809747 -0.47283058930211808 0 -0.3629811744391212 -0.45722253899736259 0 -0.35168928959531232 -0.4514018154363949 0 -0.36112286221809747 -0.47283058930211808 0 -0.35168928959531232 -0.4514018154363949 0 -0.35001641252228072 -0.47142734906239081 0 -0.36112286221809747 -0.47283058930211808 0 -0.35168928959531232 -0.4514018154363949 0 -0.34207866423036198 -0.45986413066326443 0 -0.35001641252228072 -0.47142734906239081 0 -0.35168928959531232 -0.4514018154363949 0 -0.35168928959531232 -0.4514018154363949 0 -0.34225571697252682 -0.42997304157067162 0 -0.35168928959531232 -0.4514018154363949 0 -0.36406731613876331 -0.44506275929787698 0 -0.34225571697252682 -0.42997304157067162 0 -0.34207866423036198 -0.45986413066326443 0 -0.35168928959531232 -0.4514018154363949 0 -0.34225571697252682 -0.42997304157067162 0 -0.38339996822118783 -0.44368928783448319 0 -0.36406731613876331 -0.44506275929787698 0 -0.36866352395763108 -0.4313760290561211 0 -0.38339996822118783 -0.44368928783448319 0 -0.37415472949075129 -0.45946062715310632 0 -0.36406731613876331 -0.44506275929787698 0 -0.3629811744391212 -0.45722253899736259 0 -0.35168928959531232 -0.4514018154363949 0 -0.36406731613876331 -0.44506275929787698 0 -0.38131756488089769 -0.42670085612339947 0 -0.36866352395763108 -0.4313760290561211 0 -0.36377437909963828 -0.41972983174959272 0 -0.38704143117499401 -0.40999023144455299 0 -0.3575105341832589 -0.40691374405003478 0 -0.38704143117499401 -0.40999023144455299 0 -0.36377437909963828 -0.41972983174959272 0 -0.3575105341832589 -0.40691374405003478 0 -0.35062038894632092 -0.41624612172537079 0 -0.34239786166265201 -0.40597533588911489 0 -0.34225571697252682 -0.42997304157067162 0 -0.36377437909963828 -0.41972983174959272 0 -0.3575105341832589 -0.40691374405003478 0 -0.35062038894632092 -0.41624612172537079 0 -0.3575105341832589 -0.40691374405003478 0 -0.35062038894632092 -0.41624612172537079 0 -0.34239786166265201 -0.40597533588911489 0 -0.36406731613876331 -0.44506275929787698 0 -0.36866352395763108 -0.4313760290561211 0 -0.34225571697252682 -0.42997304157067162 0 -0.36866352395763108 -0.4313760290561211 0 -0.36377437909963828 -0.41972983174959272 0 -0.34225571697252682 -0.42997304157067162 0 -0.36377437909963828 -0.41972983174959272 0 -0.35062038894632092 -0.41624612172537079 0 -0.34225571697252682 -0.42997304157067162 0 -0.37522403377147279 -0.38060127254172499 0 -0.37464038230528551 -0.396492613407532 0 -0.35879027536972019 -0.3891835699585654 0 -0.37522403377147279 -0.38060127254172499 0 -0.35964608014779109 -0.37334112637938882 0 -0.35879027536972019 -0.3891835699585654 0 -0.38704143117499401 -0.40999023144455299 0 -0.3575105341832589 -0.40691374405003478 0 -0.37464038230528551 -0.396492613407532 0 -0.3575105341832589 -0.40691374405003478 0 -0.37464038230528551 -0.396492613407532 0 -0.35879027536972019 -0.3891835699585654 0 -0.3575105341832589 -0.40691374405003478 0 -0.35030966939210212 -0.39601257002631829 0 -0.35879027536972019 -0.3891835699585654 0 -0.35030966939210212 -0.39601257002631829 0 -0.34254000635277743 -0.38197763020755832 0 -0.34239786166265201 -0.40597533588911489 0 -0.3575105341832589 -0.40691374405003478 0 -0.35030966939210212 -0.39601257002631829 0 -0.34239786166265201 -0.40597533588911489 0 -0.35964608014779109 -0.37334112637938882 0 -0.35879027536972019 -0.3891835699585654 0 -0.34254000635277743 -0.38197763020755832 0 -0.35030966939210212 -0.39601257002631829 0 -0.35879027536972019 -0.3891835699585654 0 -0.34254000635277743 -0.38197763020755832 0 -0.32270418411731933 -0.37181077970513959 0 -0.34254000635277743 -0.38197763020755832 0 -0.32435131947256218 -0.38428518727128619 0 -0.34254000635277743 -0.38197763020755832 0 -0.33211028503505757 -0.39455092735479258 0 -0.32435131947256218 -0.38428518727128619 0 -0.34254000635277743 -0.38197763020755832 0 -0.33211028503505757 -0.39455092735479258 0 -0.34239786166265201 -0.40597533588911489 0 -0.34254000635277743 -0.38197763020755832 0 -0.34239786166265201 -0.40597533588911489 0 -0.33211028503505757 -0.39455092735479258 0 -0.32627218782356721 -0.40254155632103228 0 -0.33325599186729038 -0.40952977136485508 0 -0.33211028503505757 -0.39455092735479258 0 -0.34239786166265201 -0.40597533588911489 0 -0.33325599186729038 -0.40952977136485508 0 -0.32627218782356721 -0.40254155632103228 0 -0.31778611784491262 -0.39429551077659458 0 -0.31836523457261151 -0.40628576827473822 0 -0.31778611784491262 -0.39429551077659458 0 -0.31836523457261151 -0.40628576827473822 0 -0.30856762168503782 -0.40330407176644772 0 -0.33211028503505757 -0.39455092735479258 0 -0.32627218782356721 -0.40254155632103228 0 -0.31778611784491262 -0.39429551077659458 0 -0.33211028503505757 -0.39455092735479258 0 -0.31778611784491262 -0.39429551077659458 0 -0.32435131947256218 -0.38428518727128619 0 -0.31778611784491262 -0.39429551077659458 0 -0.32435131947256218 -0.38428518727128619 0 -0.3103864423796594 -0.37828470113645102 0 -0.32270418411731933 -0.37181077970513959 0 -0.32435131947256218 -0.38428518727128619 0 -0.3103864423796594 -0.37828470113645102 0 -0.34225571697252682 -0.42997304157067162 0 -0.32127707919304882 -0.42450406978857058 0 -0.32413493920603592 -0.43586432580396972 0 -0.33358626016413989 -0.44229992863572659 0 -0.34225571697252682 -0.42997304157067162 0 -0.32413493920603592 -0.43586432580396972 0 -0.34225571697252682 -0.42997304157067162 0 -0.32547848823970138 -0.41505510354763547 0 -0.32127707919304882 -0.42450406978857058 0 -0.34225571697252682 -0.42997304157067162 0 -0.33325599186729038 -0.40952977136485508 0 -0.34239786166265201 -0.40597533588911489 0 -0.34225571697252682 -0.42997304157067162 0 -0.34225571697252682 -0.42997304157067162 0 -0.33325599186729038 -0.40952977136485508 0 -0.32547848823970138 -0.41505510354763547 0 -0.34239786166265201 -0.40597533588911489 0 -0.34225571697252682 -0.42997304157067162 0 -0.33325599186729038 -0.40952977136485508 0 -0.32627218782356721 -0.40254155632103228 0 -0.33325599186729038 -0.40952977136485508 0 -0.32547848823970138 -0.41505510354763547 0 -0.32547848823970138 -0.41505510354763547 0 -0.3149711123139971 -0.41411215899080989 0 -0.32127707919304882 -0.42450406978857058 0 -0.32627218782356721 -0.40254155632103228 0 -0.32547848823970138 -0.41505510354763547 0 -0.31836523457261151 -0.40628576827473822 0 -0.32547848823970138 -0.41505510354763547 0 -0.31836523457261151 -0.40628576827473822 0 -0.3149711123139971 -0.41411215899080989 0 -0.31836523457261151 -0.40628576827473822 0 -0.3149711123139971 -0.41411215899080989 0 -0.30856762168503782 -0.40330407176644772 0 -0.3149711123139971 -0.41411215899080989 0 -0.32127707919304882 -0.42450406978857058 0 -0.31068047406536009 -0.42124040027518911 0 -0.32127707919304882 -0.42450406978857058 0 -0.31073004788055869 -0.43167813375356229 0 -0.31068047406536009 -0.42124040027518911 0 -0.32127707919304882 -0.42450406978857058 0 -0.32413493920603592 -0.43586432580396972 0 -0.31073004788055869 -0.43167813375356229 0 -0.31385630152515048 -0.44199725430357722 0 -0.32413493920603592 -0.43586432580396972 0 -0.31073004788055869 -0.43167813375356229 0 -0.31073004788055869 -0.43167813375356229 0 -0.29829421210859891 -0.43220714453990322 0 -0.30286215921622678 -0.44210958888768459 0 -0.31073004788055869 -0.43167813375356229 0 -0.29829421210859891 -0.43220714453990322 0 -0.30293836312512551 -0.42244552438862548 0 -0.29829421210859891 -0.43220714453990322 0 -0.30293836312512551 -0.42244552438862548 0 -0.29038846928103268 -0.42353273433611682 0 -0.31073004788055869 -0.43167813375356229 0 -0.30293836312512551 -0.42244552438862548 0 -0.31068047406536009 -0.42124040027518911 0 -0.3149711123139971 -0.41411215899080989 0 -0.31068047406536009 -0.42124040027518911 0 -0.30545777612822328 -0.41428354029227837 0 -0.30293836312512551 -0.42244552438862548 0 -0.31068047406536009 -0.42124040027518911 0 -0.30545777612822328 -0.41428354029227837 0 -0.3149711123139971 -0.41411215899080989 0 -0.30545777612822328 -0.41428354029227837 0 -0.30856762168503782 -0.40330407176644772 0 -0.30545777612822328 -0.41428354029227837 0 -0.30856762168503782 -0.40330407176644772 0 -0.30079847364115991 -0.40578130343003371 0 -0.30545777612822328 -0.41428354029227837 0 -0.2987732092282892 -0.41413177709842958 0 -0.30079847364115991 -0.40578130343003371 0 -0.30293836312512551 -0.42244552438862548 0 -0.2987732092282892 -0.41413177709842958 0 -0.29038846928103268 -0.42353273433611682 0 -0.30293836312512551 -0.42244552438862548 0 -0.2987732092282892 -0.41413177709842958 0 -0.30293836312512551 -0.42244552438862548 0 -0.30545777612822328 -0.41428354029227837 0 -0.2987732092282892 -0.41413177709842958 0 -0.30545777612822328 -0.41428354029227837 0 -0.2987732092282892 -0.41413177709842958 0 -0.2987732092282892 -0.41413177709842958 0 -0.29092638885970451 -0.39846933503943821 0 -0.2987732092282892 -0.41413177709842958 0 -0.28243901841779939 -0.41376093348156762 0 -0.29092638885970451 -0.39846933503943821 0 -0.2987732092282892 -0.41413177709842958 0 -0.28243901841779939 -0.41376093348156762 0 -0.29038846928103268 -0.42353273433611682 0 -0.2987732092282892 -0.41413177709842958 0 -0.28243901841779939 -0.41376093348156762 0 -0.28243901841779939 -0.41376093348156762 0 -0.29038846928103268 -0.42353273433611682 0 -0.27500508569675858 -0.42792788340523652 0 -0.29038846928103268 -0.42353273433611682 0 -0.27500508569675858 -0.42792788340523652 0 -0.28620792983366777 -0.44117103379144762 0 -0.29829421210859891 -0.43220714453990322 0 -0.29038846928103268 -0.42353273433611682 0 -0.28620792983366777 -0.44117103379144762 0 -0.31778611784491262 -0.39429551077659458 0 -0.3103864423796594 -0.37828470113645102 0 -0.30424293331838692 -0.39073887816822978 0 -0.29584447723995128 -0.37444813956539807 0 -0.29713407365637251 -0.38186722723828942 0 -0.3103864423796594 -0.37828470113645102 0 -0.29713407365637251 -0.38186722723828942 0 -0.30424293331838692 -0.39073887816822978 0 -0.29406976999373469 -0.38920344929064732 0 -0.29713407365637251 -0.38186722723828942 0 -0.3103864423796594 -0.37828470113645102 0 -0.30424293331838692 -0.39073887816822978 0 -0.29998863005712628 -0.39809616774203599 0 -0.30424293331838692 -0.39073887816822978 0 -0.30856762168503782 -0.40330407176644772 0 -0.29998863005712628 -0.39809616774203599 0 -0.30424293331838692 -0.39073887816822978 0 -0.29406976999373469 -0.38920344929064732 0 -0.31778611784491262 -0.39429551077659458 0 -0.30424293331838692 -0.39073887816822978 0 -0.30856762168503782 -0.40330407176644772 0 -0.29998863005712628 -0.39809616774203599 0 -0.30079847364115991 -0.40578130343003371 0 -0.29092638885970451 -0.39846933503943821 0 -0.29998863005712628 -0.39809616774203599 0 -0.30856762168503782 -0.40330407176644772 0 -0.30079847364115991 -0.40578130343003371 0 -0.2987732092282892 -0.41413177709842958 0 -0.30079847364115991 -0.40578130343003371 0 -0.29092638885970451 -0.39846933503943821 0 -0.29092638885970451 -0.39846933503943821 0 -0.28307956849111848 -0.3828068929804474 0 -0.29092638885970451 -0.39846933503943821 0 -0.28307956849111848 -0.3828068929804474 0 -0.27459219804921331 -0.39809849142257658 0 -0.28243901841779939 -0.41376093348156762 0 -0.29092638885970451 -0.39846933503943821 0 -0.27459219804921331 -0.39809849142257658 0 -0.29998863005712628 -0.39809616774203599 0 -0.29092638885970451 -0.39846933503943821 0 -0.29406976999373469 -0.38920344929064732 0 -0.29092638885970451 -0.39846933503943821 0 -0.29406976999373469 -0.38920344929064732 0 -0.28307956849111848 -0.3828068929804474 0 -0.29713407365637251 -0.38186722723828942 0 -0.29406976999373469 -0.38920344929064732 0 -0.28307956849111848 -0.3828068929804474 0 -0.29584447723995128 -0.37444813956539807 0 -0.29713407365637251 -0.38186722723828942 0 -0.28307956849111848 -0.3828068929804474 0 -0.28307956849111848 -0.3828068929804474 0 -0.27459219804921331 -0.39809849142257658 0 -0.26050234447883253 -0.38027693877573482 0 -0.28307956849111848 -0.3828068929804474 0 -0.27459219804921331 -0.39809849142257658 0 -0.27459219804921331 -0.39809849142257658 0 -0.26610482760730952 -0.4133900898647066 0 -0.27459219804921331 -0.39809849142257658 0 -0.26088670843651829 -0.40068536336094251 0 -0.26610482760730952 -0.4133900898647066 0 -0.26088670843651829 -0.40068536336094251 0 -0.26050234447883253 -0.38027693877573482 0 -0.2487824818667288 -0.3954643368039899 0 -0.27459219804921331 -0.39809849142257658 0 -0.26088670843651829 -0.40068536336094251 0 -0.26050234447883253 -0.38027693877573482 0 -0.26088670843651829 -0.40068536336094251 0 -0.24694430377570939 -0.41295507854145541 0 -0.2487824818667288 -0.3954643368039899 0 -0.27500508569675858 -0.42792788340523652 0 -0.25298523514652932 -0.43702750984159111 0 -0.27028712802556781 -0.44002206955302048 0 -0.27500508569675858 -0.42792788340523652 0 -0.27028712802556781 -0.44002206955302048 0 -0.28620792983366777 -0.44117103379144762 0 -0.28243901841779939 -0.41376093348156762 0 -0.27500508569675858 -0.42792788340523652 0 -0.26610482760730952 -0.4133900898647066 0 -0.28243901841779939 -0.41376093348156762 0 -0.27459219804921331 -0.39809849142257658 0 -0.26610482760730952 -0.4133900898647066 0 -0.28243901841779939 -0.41376093348156762 0 -0.26610482760730952 -0.4133900898647066 0 -0.26610482760730952 -0.4133900898647066 0 -0.24694430377570939 -0.41295507854145541 0 -0.26610482760730952 -0.4133900898647066 0 -0.25298523514652932 -0.43702750984159111 0 -0.24694430377570939 -0.41295507854145541 0 -0.26088670843651829 -0.40068536336094251 0 -0.26610482760730952 -0.4133900898647066 0 -0.24694430377570939 -0.41295507854145541 0 -0.27500508569675858 -0.42792788340523652 0 -0.26610482760730952 -0.4133900898647066 0 -0.25298523514652932 -0.43702750984159111 0 -0.26610482760730952 -0.4133900898647066 0 -0.25298523514652932 -0.43702750984159111 0 -0.25298523514652932 -0.43702750984159111 0 -0.25823473398406083 -0.46259190486934387 0 -0.27139768853026319 -0.45350369328431828 0 -0.25298523514652932 -0.43702750984159111 0 -0.27139768853026319 -0.45350369328431828 0 -0.27028712802556781 -0.44002206955302048 0 -0.25298523514652932 -0.43702750984159111 0 -0.25823473398406083 -0.46259190486934387 0 -0.2398656426857485 -0.46066492981847512 0 -0.27139768853026319 -0.45350369328431828 0 -0.28665438526504589 -0.45880473289459528 0 -0.27499686831673542 -0.4693274569635677 0 -0.25823473398406083 -0.46259190486934387 0 -0.27139768853026319 -0.45350369328431828 0 -0.27499686831673542 -0.4693274569635677 0 -0.27139768853026319 -0.45350369328431828 0 -0.27028712802556781 -0.44002206955302048 0 -0.28620792983366777 -0.44117103379144762 0 -0.28620792983366777 -0.44117103379144762 0 -0.29665932401628559 -0.4519210782245337 0 -0.28665438526504589 -0.45880473289459528 0 -0.28620792983366777 -0.44117103379144762 0 -0.29665932401628559 -0.4519210782245337 0 -0.30286215921622678 -0.44210958888768459 0 -0.27139768853026319 -0.45350369328431828 0 -0.28620792983366777 -0.44117103379144762 0 -0.28665438526504589 -0.45880473289459528 0 -0.29829421210859891 -0.43220714453990322 0 -0.28620792983366777 -0.44117103379144762 0 -0.30286215921622678 -0.44210958888768459 0 -0.28665438526504589 -0.45880473289459528 0 -0.28928475434474438 -0.47221518125428918 0 -0.27499686831673542 -0.4693274569635677 0 -0.28665438526504589 -0.45880473289459528 0 -0.30029558254474148 -0.46389675841394568 0 -0.28928475434474438 -0.47221518125428918 0 -0.29665932401628559 -0.4519210782245337 0 -0.28665438526504589 -0.45880473289459528 0 -0.30029558254474148 -0.46389675841394568 0 -0.29665932401628559 -0.4519210782245337 0 -0.30029558254474148 -0.46389675841394568 0 -0.31044958537109257 -0.45255960714027171 0 -0.31333683559556219 -0.46686726284272168 0 -0.30029558254474148 -0.46389675841394568 0 -0.31044958537109257 -0.45255960714027171 0 -0.31385630152515048 -0.44199725430357722 0 -0.31044958537109257 -0.45255960714027171 0 -0.30286215921622678 -0.44210958888768459 0 -0.31385630152515048 -0.44199725430357722 0 -0.31073004788055869 -0.43167813375356229 0 -0.30286215921622678 -0.44210958888768459 0 -0.29665932401628559 -0.4519210782245337 0 -0.31044958537109257 -0.45255960714027171 0 -0.30286215921622678 -0.44210958888768459 0 -0.32006214434654462 -0.5 0 -0.30503152439861497 -0.48190266549989857 0 -0.29355140103266869 -0.5 0 -0.30029558254474148 -0.46389675841394568 0 -0.30503152439861497 -0.48190266549989857 0 -0.28928475434474438 -0.47221518125428918 0 -0.31333683559556219 -0.46686726284272168 0 -0.30029558254474148 -0.46389675841394568 0 -0.30503152439861497 -0.48190266549989857 0 -0.30503152439861497 -0.48190266549989857 0 -0.28928475434474438 -0.47221518125428918 0 -0.27944541119858413 -0.48714429249943858 0 -0.30503152439861497 -0.48190266549989857 0 -0.29355140103266869 -0.5 0 -0.27944541119858413 -0.48714429249943858 0 -0.26704065771879287 -0.5 0 -0.27944541119858413 -0.48714429249943858 0 -0.26377894750559139 -0.4817410620592058 0 -0.29355140103266869 -0.5 0 -0.26704065771879287 -0.5 0 -0.27944541119858413 -0.48714429249943858 0 -0.27944541119858413 -0.48714429249943858 0 -0.27499686831673542 -0.4693274569635677 0 -0.26377894750559139 -0.4817410620592058 0 -0.28928475434474438 -0.47221518125428918 0 -0.27944541119858413 -0.48714429249943858 0 -0.27499686831673542 -0.4693274569635677 0 -0.25823473398406083 -0.46259190486934387 0 -0.27499686831673542 -0.4693274569635677 0 -0.26377894750559139 -0.4817410620592058 0 -0.25823473398406083 -0.46259190486934387 0 -0.26377894750559139 -0.4817410620592058 0 -0.24769273461092009 -0.47775775457152359 0 -0.26704065771879287 -0.5 0 -0.26377894750559139 -0.4817410620592058 0 -0.24052991440491719 -0.5 0 -0.26377894750559139 -0.4817410620592058 0 -0.24052991440491719 -0.5 0 -0.24769273461092009 -0.47775775457152359 0 -0.24052991440491719 -0.5 0 -0.24769273461092009 -0.47775775457152359 0 -0.2238647917587385 -0.47868470982513422 0 -0.24769273461092009 -0.47775775457152359 0 -0.2238647917587385 -0.47868470982513422 0 -0.2253613830811457 -0.45761053917550981 0 -0.24052991440491719 -0.5 0 -0.2238647917587385 -0.47868470982513422 0 -0.2140191710910414 -0.49999999999999972 0 -0.25298523514652932 -0.43702750984159111 0 -0.23591515519085041 -0.44398209369878189 0 -0.2398656426857485 -0.46066492981847512 0 -0.25298523514652932 -0.43702750984159111 0 -0.2398656426857485 -0.46066492981847512 0 -0.25823473398406083 -0.46259190486934387 0 -0.24769273461092009 -0.47775775457152359 0 -0.2398656426857485 -0.46066492981847512 0 -0.24769273461092009 -0.47775775457152359 0 -0.2398656426857485 -0.46066492981847512 0 -0.2253613830811457 -0.45761053917550981 0 -0.24769273461092009 -0.47775775457152359 0 -0.2253613830811457 -0.45761053917550981 0 -0.2238647917587385 -0.47868470982513422 0 -0.2253613830811457 -0.45761053917550981 0 -0.20999779143719291 -0.46083672605530768 0 -0.23591515519085041 -0.44398209369878189 0 -0.2398656426857485 -0.46066492981847512 0 -0.2253613830811457 -0.45761053917550981 0 -0.23591515519085041 -0.44398209369878189 0 -0.2253613830811457 -0.45761053917550981 0 -0.22549954629610269 -0.43500765649169948 0 -0.2253613830811457 -0.45761053917550981 0 -0.20999779143719291 -0.46083672605530768 0 -0.2030300315513712 -0.43746332377949593 0 -0.2253613830811457 -0.45761053917550981 0 -0.2030300315513712 -0.43746332377949593 0 -0.20999779143719291 -0.46083672605530768 0 -0.19715634076338631 -0.4518064782969281 0 -0.2030300315513712 -0.43746332377949593 0 -0.2253613830811457 -0.45761053917550981 0 -0.2030300315513712 -0.43746332377949593 0 -0.22549954629610269 -0.43500765649169948 0 -0.20999779143719291 -0.46083672605530768 0 -0.19715634076338631 -0.4518064782969281 0 -0.2055877559272139 -0.47590323914846377 0 -0.19715634076338631 -0.4518064782969281 0 -0.2055877559272139 -0.47590323914846377 0 -0.19179305986328829 -0.46711759196808689 0 -0.19715634076338631 -0.4518064782969281 0 -0.2055877559272139 -0.47590323914846377 0 -0.19179305986328829 -0.46711759196808689 0 -0.19715634076338631 -0.4518064782969281 0 -0.184822707974968 -0.45592422963236362 0 -0.19715634076338631 -0.4518064782969281 0 -0.2030300315513712 -0.43746332377949593 0 -0.18872492559955881 -0.42770971744539221 0 -0.19715634076338631 -0.4518064782969281 0 -0.18872492559955881 -0.42770971744539221 0 -0.19715634076338631 -0.4518064782969281 0 -0.1870173619903012 -0.44414077979923022 0 -0.18872492559955881 -0.42770971744539221 0 -0.19715634076338631 -0.4518064782969281 0 -0.184822707974968 -0.45592422963236362 0 -0.1870173619903012 -0.44414077979923022 0 -0.2140191710910414 -0.49999999999999972 0 -0.2055877559272139 -0.47590323914846377 0 -0.2140191710910414 -0.49999999999999972 0 -0.2055877559272139 -0.47590323914846377 0 -0.1915741566131953 -0.48274482478870012 0 -0.2238647917587385 -0.47868470982513422 0 -0.2140191710910414 -0.49999999999999972 0 -0.2055877559272139 -0.47590323914846377 0 -0.2238647917587385 -0.47868470982513422 0 -0.20999779143719291 -0.46083672605530768 0 -0.2055877559272139 -0.47590323914846377 0 -0.19179305986328829 -0.46711759196808689 0 -0.2055877559272139 -0.47590323914846377 0 -0.1915741566131953 -0.48274482478870012 0 -0.19179305986328829 -0.46711759196808689 0 -0.1915741566131953 -0.48274482478870012 0 -0.17982433803767831 -0.46920918797397909 0 -0.2140191710910414 -0.49999999999999972 0 -0.1915741566131953 -0.48274482478870012 0 -0.1841956238768391 -0.5 0 -0.1915741566131953 -0.48274482478870012 0 -0.1841956238768391 -0.5 0 -0.17247084166804699 -0.48396500267038112 0 -0.1841956238768391 -0.5 0 -0.17247084166804699 -0.48396500267038112 0 -0.15437207666263669 -0.50000000000000022 0 -0.15669106487963419 -0.47716915445828201 0 -0.17247084166804699 -0.48396500267038112 0 -0.15437207666263669 -0.50000000000000022 0 -0.15669106487963419 -0.47716915445828201 0 -0.17247084166804699 -0.48396500267038112 0 -0.1680230602922401 -0.4683158249620154 0 -0.17247084166804699 -0.48396500267038112 0 -0.17982433803767831 -0.46920918797397909 0 -0.1680230602922401 -0.4683158249620154 0 -0.1915741566131953 -0.48274482478870012 0 -0.17247084166804699 -0.48396500267038112 0 -0.17982433803767831 -0.46920918797397909 0 -0.19179305986328829 -0.46711759196808689 0 -0.17982433803767831 -0.46920918797397909 0 -0.184822707974968 -0.45592422963236362 0 -0.17982433803767831 -0.46920918797397909 0 -0.184822707974968 -0.45592422963236362 0 -0.17211900377920919 -0.45689747079087062 0 -0.17982433803767831 -0.46920918797397909 0 -0.17211900377920919 -0.45689747079087062 0 -0.1680230602922401 -0.4683158249620154 0 -0.1870173619903012 -0.44414077979923022 0 -0.17843006300647921 -0.44542980211747812 0 -0.1823118302108766 -0.43680876328769058 0 -0.184822707974968 -0.45592422963236362 0 -0.1870173619903012 -0.44414077979923022 0 -0.17843006300647921 -0.44542980211747812 0 -0.17211900377920919 -0.45689747079087062 0 -0.17843006300647921 -0.44542980211747812 0 -0.16919262628862339 -0.44362555979768409 0 -0.184822707974968 -0.45592422963236362 0 -0.17211900377920919 -0.45689747079087062 0 -0.17843006300647921 -0.44542980211747812 0 -0.17843006300647921 -0.44542980211747812 0 -0.16919262628862339 -0.44362555979768409 0 -0.17507497024716731 -0.42995475378866199 0 -0.1590100530966318 -0.45433830891656402 0 -0.148881704538534 -0.44296791951084241 0 -0.1613290413136293 -0.43150746337484569 0 -0.1590100530966318 -0.45433830891656402 0 -0.1613290413136293 -0.43150746337484569 0 -0.16919262628862339 -0.44362555979768409 0 -0.1590100530966318 -0.45433830891656402 0 -0.1613290413136293 -0.43150746337484569 0 -0.17211900377920919 -0.45689747079087062 0 -0.16919262628862339 -0.44362555979768409 0 -0.1590100530966318 -0.45433830891656402 0 -0.15669106487963419 -0.47716915445828201 0 -0.1680230602922401 -0.4683158249620154 0 -0.1590100530966318 -0.45433830891656402 0 -0.15669106487963419 -0.47716915445828201 0 -0.1590100530966318 -0.45433830891656402 0 -0.17211900377920919 -0.45689747079087062 0 -0.1680230602922401 -0.4683158249620154 0 -0.1590100530966318 -0.45433830891656402 0 -0.15669106487963419 -0.47716915445828201 0 -0.1590100530966318 -0.45433830891656402 0 -0.1472923250818238 -0.46077477567243558 0 -0.1590100530966318 -0.45433830891656402 0 -0.1472923250818238 -0.46077477567243558 0 -0.148881704538534 -0.44296791951084241 0 -0.1472923250818238 -0.46077477567243558 0 -0.148881704538534 -0.44296791951084241 0 -0.13194602454298601 -0.43962244526902572 0 -0.13194602454298601 -0.43962244526902572 0 -0.13077987840644981 -0.46069854066347632 0 -0.11615585050415531 -0.45102464773050138 0 -0.1472923250818238 -0.46077477567243558 0 -0.13194602454298601 -0.43962244526902572 0 -0.1472923250818238 -0.46077477567243558 0 -0.13077987840644981 -0.46069854066347632 0 -0.13742439756140509 -0.48004162281001828 0 -0.1472923250818238 -0.46077477567243558 0 -0.13194602454298601 -0.43962244526902572 0 -0.13077987840644981 -0.46069854066347632 0 -0.13742439756140509 -0.48004162281001828 0 -0.12108079434187891 -0.47202921183540031 0 -0.1206292342060253 -0.48641385964910883 0 -0.13077987840644981 -0.46069854066347632 0 -0.13742439756140509 -0.48004162281001828 0 -0.12108079434187891 -0.47202921183540031 0 -0.13742439756140509 -0.48004162281001828 0 -0.131118449396015 -0.5 0 -0.1206292342060253 -0.48641385964910883 0 -0.15669106487963419 -0.47716915445828201 0 -0.13742439756140509 -0.48004162281001828 0 -0.15437207666263669 -0.50000000000000022 0 -0.15669106487963419 -0.47716915445828201 0 -0.15437207666263669 -0.50000000000000022 0 -0.13742439756140509 -0.48004162281001828 0 -0.131118449396015 -0.5 0 -0.15437207666263669 -0.50000000000000022 0 -0.15669106487963419 -0.47716915445828201 0 -0.1472923250818238 -0.46077477567243558 0 -0.13742439756140509 -0.48004162281001828 0 -0.13678826443221431 -0.39755243580027871 0 -0.14931675495270949 -0.41057852288770358 0 -0.15761740849691311 -0.38818340141201402 0 -0.1369224961495438 -0.38192389563367207 0 -0.13678826443221431 -0.39755243580027871 0 -0.15761740849691311 -0.38818340141201402 0 -0.1369224961495438 -0.38192389563367207 0 -0.15761740849691311 -0.38818340141201402 0 -0.148308101659717 -0.36695316985008092 0 -0.1369224961495438 -0.38192389563367207 0 -0.12526638733901391 -0.39147447277512609 0 -0.13678826443221431 -0.39755243580027871 0 -0.1369224961495438 -0.38192389563367207 0 -0.1303219987982592 -0.3665496015062627 0 -0.12201267174342199 -0.37938718301114999 0 -0.1369224961495438 -0.38192389563367207 0 -0.12526638733901391 -0.39147447277512609 0 -0.12201267174342199 -0.37938718301114999 0 -0.12526638733901391 -0.39147447277512609 0 -0.13678826443221431 -0.39755243580027871 0 -0.12592730430259419 -0.40432488328170318 0 -0.13678826443221431 -0.39755243580027871 0 -0.12592730430259419 -0.40432488328170318 0 -0.1345256340888337 -0.41538851269275129 0 -0.13678826443221431 -0.39755243580027871 0 -0.1345256340888337 -0.41538851269275129 0 -0.14931675495270949 -0.41057852288770358 0 -0.12592730430259419 -0.40432488328170318 0 -0.1345256340888337 -0.41538851269275129 0 -0.1165997240041481 -0.41847011486561592 0 -0.13194602454298601 -0.43962244526902572 0 -0.1345256340888337 -0.41538851269275129 0 -0.14483107865759889 -0.42859660432134139 0 -0.13194602454298601 -0.43962244526902572 0 -0.1345256340888337 -0.41538851269275129 0 -0.1165997240041481 -0.41847011486561592 0 -0.148881704538534 -0.44296791951084241 0 -0.14483107865759889 -0.42859660432134139 0 -0.1613290413136293 -0.43150746337484569 0 -0.148881704538534 -0.44296791951084241 0 -0.13194602454298601 -0.43962244526902572 0 -0.14483107865759889 -0.42859660432134139 0 -0.14483107865759889 -0.42859660432134139 0 -0.14931675495270949 -0.41057852288770358 0 -0.1613290413136293 -0.43150746337484569 0 -0.1345256340888337 -0.41538851269275129 0 -0.14483107865759889 -0.42859660432134139 0 -0.14931675495270949 -0.41057852288770358 0 -0.16364802953062679 -0.40867661783312748 0 -0.1613290413136293 -0.43150746337484569 0 -0.14931675495270949 -0.41057852288770358 0 -0.16364802953062679 -0.40867661783312748 0 -0.1613290413136293 -0.43150746337484569 0 -0.16364802953062679 -0.40867661783312748 0 -0.1613290413136293 -0.43150746337484569 0 -0.17507497024716731 -0.42995475378866199 0 -0.16919262628862339 -0.44362555979768409 0 -0.1613290413136293 -0.43150746337484569 0 -0.17507497024716731 -0.42995475378866199 0 -0.1870173619903012 -0.44414077979923022 0 -0.1823118302108766 -0.43680876328769058 0 -0.18872492559955881 -0.42770971744539221 0 -0.17843006300647921 -0.44542980211747812 0 -0.17507497024716731 -0.42995475378866199 0 -0.1823118302108766 -0.43680876328769058 0 -0.17507497024716731 -0.42995475378866199 0 -0.1806986800215967 -0.4173161083834821 0 -0.18872492559955881 -0.42770971744539221 0 -0.17507497024716731 -0.42995475378866199 0 -0.1823118302108766 -0.43680876328769058 0 -0.18872492559955881 -0.42770971744539221 0 -0.1806986800215967 -0.4173161083834821 0 -0.18228064084688081 -0.39610998094782668 0 -0.19209360216251761 -0.40824625574224149 0 -0.16364802953062679 -0.40867661783312748 0 -0.17507497024716731 -0.42995475378866199 0 -0.1806986800215967 -0.4173161083834821 0 -0.16364802953062679 -0.40867661783312748 0 -0.1806986800215967 -0.4173161083834821 0 -0.18228064084688081 -0.39610998094782668 0 -0.16364802953062679 -0.40867661783312748 0 -0.18228064084688081 -0.39610998094782668 0 -0.15761740849691311 -0.38818340141201402 0 -0.14931675495270949 -0.41057852288770358 0 -0.16364802953062679 -0.40867661783312748 0 -0.15761740849691311 -0.38818340141201402 0 -0.15761740849691311 -0.38818340141201402 0 -0.183603859264966 -0.3766054584014627 0 -0.1661931572416451 -0.36889933283976362 0 -0.18228064084688081 -0.39610998094782668 0 -0.15761740849691311 -0.38818340141201402 0 -0.183603859264966 -0.3766054584014627 0 -0.18228064084688081 -0.39610998094782668 0 -0.183603859264966 -0.3766054584014627 0 -0.20216487974800659 -0.3829991661375407 0 -0.18228064084688081 -0.39610998094782668 0 -0.20343785588976751 -0.39944649130885712 0 -0.19209360216251761 -0.40824625574224149 0 -0.18228064084688081 -0.39610998094782668 0 -0.20216487974800659 -0.3829991661375407 0 -0.20343785588976751 -0.39944649130885712 0 -0.20343785588976751 -0.39944649130885712 0 -0.21350444502423929 -0.40864471589815532 0 -0.22035180610084079 -0.39356726900625483 0 -0.20216487974800659 -0.3829991661375407 0 -0.20343785588976751 -0.39944649130885712 0 -0.22035180610084079 -0.39356726900625483 0 -0.20216487974800659 -0.3829991661375407 0 -0.22035180610084079 -0.39356726900625483 0 -0.219169022554425 -0.37113875127287832 0 -0.1806986800215967 -0.4173161083834821 0 -0.2030300315513712 -0.43746332377949593 0 -0.18872492559955881 -0.42770971744539221 0 -0.1806986800215967 -0.4173161083834821 0 -0.2030300315513712 -0.43746332377949593 0 -0.2030300315513712 -0.43746332377949593 0 -0.19369636752838881 -0.41903658901391427 0 -0.2031687955665597 -0.42354741618771741 0 -0.1806986800215967 -0.4173161083834821 0 -0.2030300315513712 -0.43746332377949593 0 -0.19369636752838881 -0.41903658901391427 0 -0.19369636752838881 -0.41903658901391427 0 -0.20299923128825029 -0.41376529568937459 0 -0.2031687955665597 -0.42354741618771741 0 -0.1806986800215967 -0.4173161083834821 0 -0.19369636752838881 -0.41903658901391427 0 -0.19209360216251761 -0.40824625574224149 0 -0.19369636752838881 -0.41903658901391427 0 -0.19209360216251761 -0.40824625574224149 0 -0.20299923128825029 -0.41376529568937459 0 -0.20343785588976751 -0.39944649130885712 0 -0.19209360216251761 -0.40824625574224149 0 -0.20299923128825029 -0.41376529568937459 0 -0.20343785588976751 -0.39944649130885712 0 -0.20299923128825029 -0.41376529568937459 0 -0.21350444502423929 -0.40864471589815532 0 -0.21350444502423929 -0.40864471589815532 0 -0.21294955189822859 -0.42392445626808489 0 -0.2277837799441092 -0.41252006721820539 0 -0.20299923128825029 -0.41376529568937459 0 -0.2031687955665597 -0.42354741618771741 0 -0.21294955189822859 -0.42392445626808489 0 -0.20299923128825029 -0.41376529568937459 0 -0.21350444502423929 -0.40864471589815532 0 -0.21294955189822859 -0.42392445626808489 0 -0.2030300315513712 -0.43746332377949593 0 -0.21294955189822859 -0.42392445626808489 0 -0.22549954629610269 -0.43500765649169948 0 -0.2030300315513712 -0.43746332377949593 0 -0.2031687955665597 -0.42354741618771741 0 -0.21294955189822859 -0.42392445626808489 0 -0.23591515519085041 -0.44398209369878189 0 -0.22549954629610269 -0.43500765649169948 0 -0.23735783041644329 -0.42609093398936743 0 -0.22549954629610269 -0.43500765649169948 0 -0.2277837799441092 -0.41252006721820539 0 -0.23735783041644329 -0.42609093398936743 0 -0.21294955189822859 -0.42392445626808489 0 -0.22549954629610269 -0.43500765649169948 0 -0.2277837799441092 -0.41252006721820539 0 -0.2277837799441092 -0.41252006721820539 0 -0.24694430377570939 -0.41295507854145541 0 -0.2277837799441092 -0.41252006721820539 0 -0.24694430377570939 -0.41295507854145541 0 -0.23735783041644329 -0.42609093398936743 0 -0.2277837799441092 -0.41252006721820539 0 -0.24694430377570939 -0.41295507854145541 0 -0.2359891007147569 -0.39914414181493052 0 -0.25298523514652932 -0.43702750984159111 0 -0.24694430377570939 -0.41295507854145541 0 -0.23735783041644329 -0.42609093398936743 0 -0.25298523514652932 -0.43702750984159111 0 -0.23591515519085041 -0.44398209369878189 0 -0.23735783041644329 -0.42609093398936743 0 -0.22035180610084079 -0.39356726900625483 0 -0.23802591309349369 -0.38358476956933441 0 -0.219169022554425 -0.37113875127287832 0 -0.22035180610084079 -0.39356726900625483 0 -0.2359891007147569 -0.39914414181493052 0 -0.23802591309349369 -0.38358476956933441 0 -0.21350444502423929 -0.40864471589815532 0 -0.2277837799441092 -0.41252006721820539 0 -0.22035180610084079 -0.39356726900625483 0 -0.2277837799441092 -0.41252006721820539 0 -0.22035180610084079 -0.39356726900625483 0 -0.2359891007147569 -0.39914414181493052 0 -0.2359891007147569 -0.39914414181493052 0 -0.2487824818667288 -0.3954643368039899 0 -0.23802591309349369 -0.38358476956933441 0 -0.24694430377570939 -0.41295507854145541 0 -0.2359891007147569 -0.39914414181493052 0 -0.2487824818667288 -0.3954643368039899 0 -0.26050234447883253 -0.38027693877573482 0 -0.2487824818667288 -0.3954643368039899 0 -0.23802591309349369 -0.38358476956933441 0 -0.26050234447883253 -0.38027693877573482 0 -0.23802591309349369 -0.38358476956933441 0 -0.24817767477162081 -0.36986654917455902 0 -0.23802591309349369 -0.38358476956933441 0 -0.24817767477162081 -0.36986654917455902 0 -0.23583729862822109 -0.36574384613307409 0 -0.24817767477162081 -0.36986654917455902 0 -0.23583729862822109 -0.36574384613307409 0 -0.24850069890613241 -0.35473287875334369 0 -0.23583729862822109 -0.36574384613307409 0 -0.219169022554425 -0.37113875127287832 0 -0.22531318381543361 -0.34939628189525529 0 -0.23802591309349369 -0.38358476956933441 0 -0.23583729862822109 -0.36574384613307409 0 -0.219169022554425 -0.37113875127287832 0 -0.22531318381543361 -0.34939628189525529 0 -0.24850069890613241 -0.35473287875334369 0 -0.24219101746094579 -0.34438554910399921 0 -0.23583729862822109 -0.36574384613307409 0 -0.22531318381543361 -0.34939628189525529 0 -0.24850069890613241 -0.35473287875334369 0 -0.22531318381543361 -0.34939628189525529 0 -0.24850069890613241 -0.35473287875334369 0 -0.25445926970156468 -0.34270101061729968 0 -0.24850069890613241 -0.35473287875334369 0 -0.24219101746094579 -0.34438554910399921 0 -0.25445926970156468 -0.34270101061729968 0 -0.24219101746094579 -0.34438554910399921 0 -0.2460450098649074 -0.33743905859998191 0 -0.25207330520806498 -0.33378255792528982 0 -0.2460450098649074 -0.33743905859998191 0 -0.24306356592407591 -0.32787829483024122 0 -0.2348359590034956 -0.33686915078515089 0 -0.24306356592407591 -0.32787829483024122 0 -0.23163603200856511 -0.32708080208212859 0 -0.2460450098649074 -0.33743905859998191 0 -0.2348359590034956 -0.33686915078515089 0 -0.24306356592407591 -0.32787829483024122 0 -0.24219101746094579 -0.34438554910399921 0 -0.2460450098649074 -0.33743905859998191 0 -0.2348359590034956 -0.33686915078515089 0 -0.25273748935779161 -0.32224337373924072 0 -0.24326482791746179 -0.31394285089519419 0 -0.24426682308287331 -0.30533572025667649 0 -0.25273748935779161 -0.32224337373924072 0 -0.24426682308287331 -0.30533572025667649 0 -0.25273748935779161 -0.32224337373924072 0 -0.24326482791746179 -0.31394285089519419 0 -0.2440208243134171 -0.32058552998791068 0 -0.25273748935779161 -0.32224337373924072 0 -0.24306356592407591 -0.32787829483024122 0 -0.2440208243134171 -0.32058552998791068 0 -0.25207330520806498 -0.33378255792528982 0 -0.25273748935779161 -0.32224337373924072 0 -0.24306356592407591 -0.32787829483024122 0 -0.24306356592407591 -0.32787829483024122 0 -0.2440208243134171 -0.32058552998791068 0 -0.23701741405433899 -0.31827760048696663 0 -0.24306356592407591 -0.32787829483024122 0 -0.23701741405433899 -0.31827760048696663 0 -0.23163603200856511 -0.32708080208212859 0 -0.24326482791746179 -0.31394285089519419 0 -0.23701741405433899 -0.31827760048696663 0 -0.2384772558931193 -0.30928307653082621 0 -0.24326482791746179 -0.31394285089519419 0 -0.2440208243134171 -0.32058552998791068 0 -0.23701741405433899 -0.31827760048696663 0 -0.22244826701882919 -0.32070202864358233 0 -0.22802593536356699 -0.30882837184141948 0 -0.21110805984082151 -0.30983785689108939 0 -0.23701741405433899 -0.31827760048696663 0 -0.22244826701882919 -0.32070202864358233 0 -0.22802593536356699 -0.30882837184141948 0 -0.23701741405433899 -0.31827760048696663 0 -0.23163603200856511 -0.32708080208212859 0 -0.22244826701882919 -0.32070202864358233 0 -0.23163603200856511 -0.32708080208212859 0 -0.22244826701882919 -0.32070202864358233 0 -0.22079431421521131 -0.33353493235345111 0 -0.22531318381543361 -0.34939628189525529 0 -0.2348359590034956 -0.33686915078515089 0 -0.22079431421521131 -0.33353493235345111 0 -0.22531318381543361 -0.34939628189525529 0 -0.24219101746094579 -0.34438554910399921 0 -0.2348359590034956 -0.33686915078515089 0 -0.2348359590034956 -0.33686915078515089 0 -0.23163603200856511 -0.32708080208212859 0 -0.22079431421521131 -0.33353493235345111 0 -0.22079431421521131 -0.33353493235345111 0 -0.20839645480677241 -0.32403064402179738 0 -0.20212566872473489 -0.34405968503716688 0 -0.22531318381543361 -0.34939628189525529 0 -0.22079431421521131 -0.33353493235345111 0 -0.20212566872473489 -0.34405968503716688 0 -0.22244826701882919 -0.32070202864358233 0 -0.20839645480677241 -0.32403064402179738 0 -0.21110805984082151 -0.30983785689108939 0 -0.22244826701882919 -0.32070202864358233 0 -0.22079431421521131 -0.33353493235345111 0 -0.20839645480677241 -0.32403064402179738 0 -0.20839645480677241 -0.32403064402179738 0 -0.19575919956014079 -0.31702437624003538 0 -0.21110805984082151 -0.30983785689108939 0 -0.20839645480677241 -0.32403064402179738 0 -0.19575919956014079 -0.31702437624003538 0 -0.19562896033857519 -0.33020038185646122 0 -0.19575919956014079 -0.31702437624003538 0 -0.19562896033857519 -0.33020038185646122 0 -0.18477851095256179 -0.32477614194451959 0 -0.20212566872473489 -0.34405968503716688 0 -0.1789381536340362 -0.33872308817907848 0 -0.19562896033857519 -0.33020038185646122 0 -0.20212566872473489 -0.34405968503716688 0 -0.1789381536340362 -0.33872308817907848 0 -0.20839645480677241 -0.32403064402179738 0 -0.19562896033857519 -0.33020038185646122 0 -0.20212566872473489 -0.34405968503716688 0 -0.20212566872473489 -0.34405968503716688 0 -0.2037839996862793 -0.36234410805543599 0 -0.1863350517553729 -0.35962674217565882 0 -0.20212566872473489 -0.34405968503716688 0 -0.1863350517553729 -0.35962674217565882 0 -0.1789381536340362 -0.33872308817907848 0 -0.183603859264966 -0.3766054584014627 0 -0.20216487974800659 -0.3829991661375407 0 -0.2037839996862793 -0.36234410805543599 0 -0.183603859264966 -0.3766054584014627 0 -0.2037839996862793 -0.36234410805543599 0 -0.1863350517553729 -0.35962674217565882 0 -0.219169022554425 -0.37113875127287832 0 -0.22531318381543361 -0.34939628189525529 0 -0.2037839996862793 -0.36234410805543599 0 -0.20216487974800659 -0.3829991661375407 0 -0.219169022554425 -0.37113875127287832 0 -0.2037839996862793 -0.36234410805543599 0 -0.22531318381543361 -0.34939628189525529 0 -0.20212566872473489 -0.34405968503716688 0 -0.2037839996862793 -0.36234410805543599 0 -0.22531318381543361 -0.34939628189525529 0 -0.20212566872473489 -0.34405968503716688 0 -0.24465976002352091 -0.25387891845332877 0 -0.23199225124923151 -0.26692477658714647 0 -0.21854221021918649 -0.25236034283526498 0 -0.23199225124923151 -0.26692477658714647 0 -0.21864709985809599 -0.27150291036173302 0 -0.21854221021918649 -0.25236034283526498 0 -0.24465976002352091 -0.25387891845332877 0 -0.2444485511135471 -0.27534046621033159 0 -0.23199225124923151 -0.26692477658714647 0 -0.25958550566062261 -0.27102626557679149 0 -0.24465976002352091 -0.25387891845332877 0 -0.2444485511135471 -0.27534046621033159 0 -0.2444485511135471 -0.27534046621033159 0 -0.23199225124923151 -0.26692477658714647 0 -0.23366363503180709 -0.28154124507507411 0 -0.2197277065850177 -0.2872169177591285 0 -0.23366363503180709 -0.28154124507507411 0 -0.21864709985809599 -0.27150291036173302 0 -0.23199225124923151 -0.26692477658714647 0 -0.23366363503180709 -0.28154124507507411 0 -0.21864709985809599 -0.27150291036173302 0 -0.2197277065850177 -0.2872169177591285 0 -0.23366363503180709 -0.28154124507507411 0 -0.24011613505684479 -0.30107681213347393 0 -0.2197277065850177 -0.2872169177591285 0 -0.24011613505684479 -0.30107681213347393 0 -0.2197277065850177 -0.2872169177591285 0 -0.24011613505684479 -0.30107681213347393 0 -0.2201073871300871 -0.30044142834658671 0 -0.2444485511135471 -0.27534046621033159 0 -0.23366363503180709 -0.28154124507507411 0 -0.24732420154209239 -0.29033586459568173 0 -0.23366363503180709 -0.28154124507507411 0 -0.24732420154209239 -0.29033586459568173 0 -0.24011613505684479 -0.30107681213347393 0 -0.25608276685525683 -0.28295324223861612 0 -0.2444485511135471 -0.27534046621033159 0 -0.24732420154209239 -0.29033586459568173 0 -0.26050456352867191 -0.3149367065078193 0 -0.24011613505684479 -0.30107681213347393 0 -0.24426682308287331 -0.30533572025667649 0 -0.25485564421046719 -0.30132045870319019 0 -0.24732420154209239 -0.29033586459568173 0 -0.24011613505684479 -0.30107681213347393 0 -0.24011613505684479 -0.30107681213347393 0 -0.2384772558931193 -0.30928307653082621 0 -0.22802593536356699 -0.30882837184141948 0 -0.24326482791746179 -0.31394285089519419 0 -0.24426682308287331 -0.30533572025667649 0 -0.2384772558931193 -0.30928307653082621 0 -0.24011613505684479 -0.30107681213347393 0 -0.24426682308287331 -0.30533572025667649 0 -0.2384772558931193 -0.30928307653082621 0 -0.23701741405433899 -0.31827760048696663 0 -0.2384772558931193 -0.30928307653082621 0 -0.22802593536356699 -0.30882837184141948 0 -0.22802593536356699 -0.30882837184141948 0 -0.2201073871300871 -0.30044142834658671 0 -0.21110805984082151 -0.30983785689108939 0 -0.24011613505684479 -0.30107681213347393 0 -0.22802593536356699 -0.30882837184141948 0 -0.2201073871300871 -0.30044142834658671 0 -0.2201073871300871 -0.30044142834658671 0 -0.21110805984082151 -0.30983785689108939 0 -0.20155909880418441 -0.29524718310782239 0 -0.21110805984082151 -0.30983785689108939 0 -0.2000775247532616 -0.30687463122530689 0 -0.20155909880418441 -0.29524718310782239 0 -0.19575919956014079 -0.31702437624003538 0 -0.21110805984082151 -0.30983785689108939 0 -0.2000775247532616 -0.30687463122530689 0 -0.18961770926909149 -0.30481471110084102 0 -0.20155909880418441 -0.29524718310782239 0 -0.1798976030385912 -0.29461474791537873 0 -0.19575919956014079 -0.31702437624003538 0 -0.2000775247532616 -0.30687463122530689 0 -0.18961770926909149 -0.30481471110084102 0 -0.19575919956014079 -0.31702437624003538 0 -0.18961770926909149 -0.30481471110084102 0 -0.1803928959391416 -0.31521744924658562 0 -0.2000775247532616 -0.30687463122530689 0 -0.18961770926909149 -0.30481471110084102 0 -0.20155909880418441 -0.29524718310782239 0 -0.19933927811319041 -0.27335702338478318 0 -0.1798976030385912 -0.29461474791537873 0 -0.20155909880418441 -0.29524718310782239 0 -0.19933927811319041 -0.27335702338478318 0 -0.1798976030385912 -0.29461474791537873 0 -0.2197277065850177 -0.2872169177591285 0 -0.20155909880418441 -0.29524718310782239 0 -0.19933927811319041 -0.27335702338478318 0 -0.2197277065850177 -0.2872169177591285 0 -0.2201073871300871 -0.30044142834658671 0 -0.20155909880418441 -0.29524718310782239 0 -0.21864709985809599 -0.27150291036173302 0 -0.19933927811319041 -0.27335702338478318 0 -0.21854221021918649 -0.25236034283526498 0 -0.2197277065850177 -0.2872169177591285 0 -0.21864709985809599 -0.27150291036173302 0 -0.19933927811319041 -0.27335702338478318 0 -0.2197277065850177 -0.2872169177591285 0 -0.19933927811319041 -0.27335702338478318 0 -0.19672455084482071 -0.27157955221738023 0 -0.19563648814007639 -0.2627950405098789 0 -0.1773613401945949 -0.28300380337564962 0 -0.19672455084482071 -0.27157955221738023 0 -0.19933927811319041 -0.27335702338478318 0 -0.1773613401945949 -0.28300380337564962 0 -0.19672455084482071 -0.27157955221738023 0 -0.19933927811319041 -0.27335702338478318 0 -0.19563648814007639 -0.2627950405098789 0 -0.19672455084482071 -0.27157955221738023 0 -0.19933927811319041 -0.27335702338478318 0 -0.19933927811319041 -0.27335702338478318 0 -0.19563648814007639 -0.2627950405098789 0 -0.2024770003035091 -0.25628481747185139 0 -0.19563648814007639 -0.2627950405098789 0 -0.19160736129165659 -0.25262396586623759 0 -0.18182513936558051 -0.25739227955256888 0 -0.19563648814007639 -0.2627950405098789 0 -0.19160736129165659 -0.25262396586623759 0 -0.2024770003035091 -0.25628481747185139 0 -0.19160736129165659 -0.25262396586623759 0 -0.2024770003035091 -0.25628481747185139 0 -0.19988453840298659 -0.24176205441804 0 -0.19933927811319041 -0.27335702338478318 0 -0.2024770003035091 -0.25628481747185139 0 -0.21854221021918649 -0.25236034283526498 0 -0.2024770003035091 -0.25628481747185139 0 -0.21854221021918649 -0.25236034283526498 0 -0.19988453840298659 -0.24176205441804 0 -0.19933927811319041 -0.27335702338478318 0 -0.21854221021918649 -0.25236034283526498 0 -0.16270034237907721 -0.26451024010365409 0 -0.1689202540561075 -0.25519621835756329 0 -0.15263230708737521 -0.24356194903458239 0 -0.16270034237907721 -0.26451024010365409 0 -0.15585924966824549 -0.27338725763800159 0 -0.15263230708737521 -0.24356194903458239 0 -0.16270034237907721 -0.26451024010365409 0 -0.1689202540561075 -0.25519621835756329 0 -0.17291740387759841 -0.2648938158906885 0 -0.1689202540561075 -0.25519621835756329 0 -0.18182513936558051 -0.25739227955256888 0 -0.1745260775709061 -0.24562280720632229 0 -0.19160736129165659 -0.25262396586623759 0 -0.18182513936558051 -0.25739227955256888 0 -0.1745260775709061 -0.24562280720632229 0 -0.19563648814007639 -0.2627950405098789 0 -0.18182513936558051 -0.25739227955256888 0 -0.18269465011250469 -0.26841637399603913 0 -0.1689202540561075 -0.25519621835756329 0 -0.18182513936558051 -0.25739227955256888 0 -0.17291740387759841 -0.2648938158906885 0 -0.18182513936558051 -0.25739227955256888 0 -0.17291740387759841 -0.2648938158906885 0 -0.18269465011250469 -0.26841637399603913 0 -0.19563648814007639 -0.2627950405098789 0 -0.18269465011250469 -0.26841637399603913 0 -0.1773613401945949 -0.28300380337564962 0 -0.17291740387759841 -0.2648938158906885 0 -0.17526212336935321 -0.27297056277525461 0 -0.1680750992927145 -0.27556825783864097 0 -0.19563648814007639 -0.2627950405098789 0 -0.1773613401945949 -0.28300380337564962 0 -0.17291740387759841 -0.2648938158906885 0 -0.17526212336935321 -0.27297056277525461 0 -0.18269465011250469 -0.26841637399603913 0 -0.17526212336935321 -0.27297056277525461 0 -0.18269465011250469 -0.26841637399603913 0 -0.1773613401945949 -0.28300380337564962 0 -0.17526212336935321 -0.27297056277525461 0 -0.1680750992927145 -0.27556825783864097 0 -0.1773613401945949 -0.28300380337564962 0 -0.1680750992927145 -0.27556825783864097 0 -0.1682011228878135 -0.28257539269247411 0 -0.1773613401945949 -0.28300380337564962 0 -0.1680750992927145 -0.27556825783864097 0 -0.1622412594804854 -0.28273310688964581 0 -0.1682011228878135 -0.28257539269247411 0 -0.16270034237907721 -0.26451024010365409 0 -0.17291740387759841 -0.2648938158906885 0 -0.1680750992927145 -0.27556825783864097 0 -0.16270034237907721 -0.26451024010365409 0 -0.1680750992927145 -0.27556825783864097 0 -0.16179622859894191 -0.27503335760685149 0 -0.16270034237907721 -0.26451024010365409 0 -0.16179622859894191 -0.27503335760685149 0 -0.15585924966824549 -0.27338725763800159 0 -0.16179622859894191 -0.27503335760685149 0 -0.1622412594804854 -0.28273310688964581 0 -0.15585924966824549 -0.27338725763800159 0 -0.1680750992927145 -0.27556825783864097 0 -0.16179622859894191 -0.27503335760685149 0 -0.1622412594804854 -0.28273310688964581 0 -0.1622412594804854 -0.28273310688964581 0 -0.16512679258345911 -0.28899640266596011 0 -0.15908619224911419 -0.30321256624142101 0 -0.1622412594804854 -0.28273310688964581 0 -0.15908619224911419 -0.30321256624142101 0 -0.15585924966824549 -0.27338725763800159 0 -0.15908619224911419 -0.30321256624142101 0 -0.15585924966824549 -0.27338725763800159 0 -0.16512679258345911 -0.28899640266596011 0 -0.1773613401945949 -0.28300380337564962 0 -0.15908619224911419 -0.30321256624142101 0 -0.1773613401945949 -0.28300380337564962 0 -0.15908619224911419 -0.30321256624142101 0 -0.16512679258345911 -0.28899640266596011 0 -0.1682011228878135 -0.28257539269247411 0 -0.1773613401945949 -0.28300380337564962 0 -0.1622412594804854 -0.28273310688964581 0 -0.16512679258345911 -0.28899640266596011 0 -0.1682011228878135 -0.28257539269247411 0 -0.1773613401945949 -0.28300380337564962 0 -0.1798976030385912 -0.29461474791537873 0 -0.15908619224911419 -0.30321256624142101 0 -0.19933927811319041 -0.27335702338478318 0 -0.1773613401945949 -0.28300380337564962 0 -0.1798976030385912 -0.29461474791537873 0 -0.1798976030385912 -0.29461474791537873 0 -0.17759103405270391 -0.30762984517719472 0 -0.16045592796399111 -0.3158724724459735 0 -0.18961770926909149 -0.30481471110084102 0 -0.1798976030385912 -0.29461474791537873 0 -0.17759103405270391 -0.30762984517719472 0 -0.18961770926909149 -0.30481471110084102 0 -0.17759103405270391 -0.30762984517719472 0 -0.1803928959391416 -0.31521744924658562 0 -0.1798976030385912 -0.29461474791537873 0 -0.16045592796399111 -0.3158724724459735 0 -0.1798976030385912 -0.29461474791537873 0 -0.15908619224911419 -0.30321256624142101 0 -0.16045592796399111 -0.3158724724459735 0 -0.15908619224911419 -0.30321256624142101 0 -0.16045592796399111 -0.3158724724459735 0 -0.1471380549162328 -0.30532142906175452 0 -0.14032160831301491 -0.30752887986621158 0 -0.14130665940473261 -0.32287327510069419 0 -0.15908619224911419 -0.30321256624142101 0 -0.1471380549162328 -0.30532142906175452 0 -0.14130665940473261 -0.32287327510069419 0 -0.15908619224911419 -0.30321256624142101 0 -0.1471380549162328 -0.30532142906175452 0 -0.1510678287434867 -0.29559461902651829 0 -0.14390798587081549 -0.29739780507392732 0 -0.1471380549162328 -0.30532142906175452 0 -0.1510678287434867 -0.29559461902651829 0 -0.14390798587081549 -0.29739780507392732 0 -0.1471380549162328 -0.30532142906175452 0 -0.14032160831301491 -0.30752887986621158 0 -0.14032160831301491 -0.30752887986621158 0 -0.13439128381467691 -0.29991683468539793 0 -0.13033731665847181 -0.31286393971371201 0 -0.13439128381467691 -0.29991683468539793 0 -0.13033731665847181 -0.31286393971371201 0 -0.12304085188452731 -0.29931348820209958 0 -0.14390798587081549 -0.29739780507392732 0 -0.14032160831301491 -0.30752887986621158 0 -0.13439128381467691 -0.29991683468539793 0 -0.14390798587081549 -0.29739780507392732 0 -0.13439128381467691 -0.29991683468539793 0 -0.14011095662501261 -0.28947786809128212 0 -0.13439128381467691 -0.29991683468539793 0 -0.14011095662501261 -0.28947786809128212 0 -0.12994370463312691 -0.28995419054763111 0 -0.13439128381467691 -0.29991683468539793 0 -0.12994370463312691 -0.28995419054763111 0 -0.12304085188452731 -0.29931348820209958 0 -0.12994370463312691 -0.28995419054763111 0 -0.13687965345326569 -0.27993872332247433 0 -0.1257911728949061 -0.280427018304516 0 -0.12994370463312691 -0.28995419054763111 0 -0.1257911728949061 -0.280427018304516 0 -0.1194571486541455 -0.28746452468861589 0 -0.14011095662501261 -0.28947786809128212 0 -0.12994370463312691 -0.28995419054763111 0 -0.13687965345326569 -0.27993872332247433 0 -0.15908619224911419 -0.30321256624142101 0 -0.15162645984294551 -0.28670064183700439 0 -0.15585924966824549 -0.27338725763800159 0 -0.14011095662501261 -0.28947786809128212 0 -0.1458827091329962 -0.28225219708249882 0 -0.13687965345326569 -0.27993872332247433 0 -0.15908619224911419 -0.30321256624142101 0 -0.1510678287434867 -0.29559461902651829 0 -0.15162645984294551 -0.28670064183700439 0 -0.1458827091329962 -0.28225219708249882 0 -0.1468811506158991 -0.28912565090950809 0 -0.15162645984294551 -0.28670064183700439 0 -0.14011095662501261 -0.28947786809128212 0 -0.1458827091329962 -0.28225219708249882 0 -0.1468811506158991 -0.28912565090950809 0 -0.14390798587081549 -0.29739780507392732 0 -0.1468811506158991 -0.28912565090950809 0 -0.1510678287434867 -0.29559461902651829 0 -0.14390798587081549 -0.29739780507392732 0 -0.14011095662501261 -0.28947786809128212 0 -0.1468811506158991 -0.28912565090950809 0 -0.1468811506158991 -0.28912565090950809 0 -0.1510678287434867 -0.29559461902651829 0 -0.15162645984294551 -0.28670064183700439 0 -0.1458827091329962 -0.28225219708249882 0 -0.15162645984294551 -0.28670064183700439 0 -0.15098162864793119 -0.27663156012407891 0 -0.15162645984294551 -0.28670064183700439 0 -0.15098162864793119 -0.27663156012407891 0 -0.15585924966824549 -0.27338725763800159 0 -0.15098162864793119 -0.27663156012407891 0 -0.1522527558101047 -0.27366235468835692 0 -0.14903370440966179 -0.27344637702894548 0 -0.15098162864793119 -0.27663156012407891 0 -0.1522527558101047 -0.27366235468835692 0 -0.15585924966824549 -0.27338725763800159 0 -0.14903370440966179 -0.27344637702894548 0 -0.1531364405145805 -0.27118422396240138 0 -0.14385763015454139 -0.26954128824380802 0 -0.1522527558101047 -0.27366235468835692 0 -0.15585924966824549 -0.27338725763800159 0 -0.1531364405145805 -0.27118422396240138 0 -0.1522527558101047 -0.27366235468835692 0 -0.14903370440966179 -0.27344637702894548 0 -0.1531364405145805 -0.27118422396240138 0 -0.14903370440966179 -0.27344637702894548 0 -0.14385763015454139 -0.26954128824380802 0 -0.1442805510697899 -0.27562940435382949 0 -0.14385763015454139 -0.26954128824380802 0 -0.1442805510697899 -0.27562940435382949 0 -0.13835653564694769 -0.27242798417408381 0 -0.1458827091329962 -0.28225219708249882 0 -0.1442805510697899 -0.27562940435382949 0 -0.13687965345326569 -0.27993872332247433 0 -0.15098162864793119 -0.27663156012407891 0 -0.14903370440966179 -0.27344637702894548 0 -0.1442805510697899 -0.27562940435382949 0 -0.1458827091329962 -0.28225219708249882 0 -0.15098162864793119 -0.27663156012407891 0 -0.1442805510697899 -0.27562940435382949 0 -0.13687965345326569 -0.27993872332247433 0 -0.12970248462840331 -0.2717774759070859 0 -0.13835653564694769 -0.27242798417408381 0 -0.1442805510697899 -0.27562940435382949 0 -0.13687965345326569 -0.27993872332247433 0 -0.13835653564694769 -0.27242798417408381 0 -0.13687965345326569 -0.27993872332247433 0 -0.1257911728949061 -0.280427018304516 0 -0.12970248462840331 -0.2717774759070859 0 -0.12970248462840331 -0.2717774759070859 0 -0.13570208279224111 -0.26528350045903498 0 -0.12855037573501921 -0.26115248962005239 0 -0.14385763015454139 -0.26954128824380802 0 -0.13835653564694769 -0.27242798417408381 0 -0.13570208279224111 -0.26528350045903498 0 -0.12970248462840331 -0.2717774759070859 0 -0.13835653564694769 -0.27242798417408381 0 -0.13570208279224111 -0.26528350045903498 0 -0.13570208279224111 -0.26528350045903498 0 -0.12855037573501921 -0.26115248962005239 0 -0.1377523016625678 -0.25581657194563601 0 -0.14385763015454139 -0.26954128824380802 0 -0.13570208279224111 -0.26528350045903498 0 -0.1377523016625678 -0.25581657194563601 0 -0.12855037573501921 -0.26115248962005239 0 -0.1377523016625678 -0.25581657194563601 0 -0.1223681628105569 -0.24044891992886891 0 -0.1531364405145805 -0.27118422396240138 0 -0.1377523016625678 -0.25581657194563601 0 -0.15263230708737521 -0.24356194903458239 0 -0.15585924966824549 -0.27338725763800159 0 -0.1531364405145805 -0.27118422396240138 0 -0.15263230708737521 -0.24356194903458239 0 -0.15585924966824549 -0.27338725763800159 0 -0.15263230708737521 -0.24356194903458239 0 -0.1531364405145805 -0.27118422396240138 0 -0.1377523016625678 -0.25581657194563601 0 -0.1531364405145805 -0.27118422396240138 0 -0.14385763015454139 -0.26954128824380802 0 -0.1377523016625678 -0.25581657194563601 0 -0.1661931572416451 -0.36889933283976362 0 -0.1633245426028184 -0.34238590264286861 0 -0.15433175674287769 -0.35458729317269139 0 -0.1661931572416451 -0.36889933283976362 0 -0.1633245426028184 -0.34238590264286861 0 -0.1661931572416451 -0.36889933283976362 0 -0.17388048196752651 -0.3522733272046466 0 -0.1633245426028184 -0.34238590264286861 0 -0.1661931572416451 -0.36889933283976362 0 -0.15433175674287769 -0.35458729317269139 0 -0.148308101659717 -0.36695316985008092 0 -0.15761740849691311 -0.38818340141201402 0 -0.1661931572416451 -0.36889933283976362 0 -0.148308101659717 -0.36695316985008092 0 -0.183603859264966 -0.3766054584014627 0 -0.1661931572416451 -0.36889933283976362 0 -0.1863350517553729 -0.35962674217565882 0 -0.1661931572416451 -0.36889933283976362 0 -0.1863350517553729 -0.35962674217565882 0 -0.17388048196752651 -0.3522733272046466 0 -0.1863350517553729 -0.35962674217565882 0 -0.17388048196752651 -0.3522733272046466 0 -0.1789381536340362 -0.33872308817907848 0 -0.17388048196752651 -0.3522733272046466 0 -0.1789381536340362 -0.33872308817907848 0 -0.1633245426028184 -0.34238590264286861 0 -0.19562896033857519 -0.33020038185646122 0 -0.1789381536340362 -0.33872308817907848 0 -0.18477851095256179 -0.32477614194451959 0 -0.1789381536340362 -0.33872308817907848 0 -0.18477851095256179 -0.32477614194451959 0 -0.1735479853981102 -0.32728394705986258 0 -0.1789381536340362 -0.33872308817907848 0 -0.1735479853981102 -0.32728394705986258 0 -0.1633245426028184 -0.34238590264286861 0 -0.17759103405270391 -0.30762984517719472 0 -0.1803928959391416 -0.31521744924658562 0 -0.16045592796399111 -0.3158724724459735 0 -0.19575919956014079 -0.31702437624003538 0 -0.1803928959391416 -0.31521744924658562 0 -0.18477851095256179 -0.32477614194451959 0 -0.1803928959391416 -0.31521744924658562 0 -0.18477851095256179 -0.32477614194451959 0 -0.1735479853981102 -0.32728394705986258 0 -0.1803928959391416 -0.31521744924658562 0 -0.1735479853981102 -0.32728394705986258 0 -0.16045592796399111 -0.3158724724459735 0 -0.1735479853981102 -0.32728394705986258 0 -0.16045592796399111 -0.3158724724459735 0 -0.1633245426028184 -0.34238590264286861 0 -0.16045592796399111 -0.3158724724459735 0 -0.1633245426028184 -0.34238590264286861 0 -0.1476770575246594 -0.3298450188736391 0 -0.16045592796399111 -0.3158724724459735 0 -0.1633245426028184 -0.34238590264286861 0 -0.1633245426028184 -0.34238590264286861 0 -0.15030263560259111 -0.34285112818916452 0 -0.1476770575246594 -0.3298450188736391 0 -0.1476770575246594 -0.3298450188736391 0 -0.14130665940473261 -0.32287327510069419 0 -0.13989838249203351 -0.33226752099114382 0 -0.1476770575246594 -0.3298450188736391 0 -0.14096893258994439 -0.33934882548262568 0 -0.13989838249203351 -0.33226752099114382 0 -0.15030263560259111 -0.34285112818916452 0 -0.1476770575246594 -0.3298450188736391 0 -0.14096893258994439 -0.33934882548262568 0 -0.15908619224911419 -0.30321256624142101 0 -0.14130665940473261 -0.32287327510069419 0 -0.16045592796399111 -0.3158724724459735 0 -0.1476770575246594 -0.3298450188736391 0 -0.14130665940473261 -0.32287327510069419 0 -0.15908619224911419 -0.30321256624142101 0 -0.16045592796399111 -0.3158724724459735 0 -0.14130665940473261 -0.32287327510069419 0 -0.16045592796399111 -0.3158724724459735 0 -0.1476770575246594 -0.3298450188736391 0 -0.14130665940473261 -0.32287327510069419 0 -0.12766342535057629 -0.32481504462803062 0 -0.13033731665847181 -0.31286393971371201 0 -0.14032160831301491 -0.30752887986621158 0 -0.14130665940473261 -0.32287327510069419 0 -0.13033731665847181 -0.31286393971371201 0 -0.14130665940473261 -0.32287327510069419 0 -0.12766342535057629 -0.32481504462803062 0 -0.12902917457320359 -0.33644978787578289 0 -0.12766342535057629 -0.32481504462803062 0 -0.12902917457320359 -0.33644978787578289 0 -0.123033176677132 -0.34308019655903149 0 -0.14096893258994439 -0.33934882548262568 0 -0.12902917457320359 -0.33644978787578289 0 -0.13366226850604379 -0.34759248760944123 0 -0.14096893258994439 -0.33934882548262568 0 -0.13989838249203351 -0.33226752099114382 0 -0.12902917457320359 -0.33644978787578289 0 -0.14130665940473261 -0.32287327510069419 0 -0.12902917457320359 -0.33644978787578289 0 -0.14130665940473261 -0.32287327510069419 0 -0.13989838249203351 -0.33226752099114382 0 -0.12902917457320359 -0.33644978787578289 0 -0.12902917457320359 -0.33644978787578289 0 -0.123033176677132 -0.34308019655903149 0 -0.12902917457320359 -0.33644978787578289 0 -0.13366226850604379 -0.34759248760944123 0 -0.123033176677132 -0.34308019655903149 0 -0.13366226850604379 -0.34759248760944123 0 -0.1303219987982592 -0.3665496015062627 0 -0.123033176677132 -0.34308019655903149 0 -0.1303219987982592 -0.3665496015062627 0 -0.123033176677132 -0.34308019655903149 0 -0.13366226850604379 -0.34759248760944123 0 -0.1435303466076166 -0.35184693234157938 0 -0.1303219987982592 -0.3665496015062627 0 -0.14096893258994439 -0.33934882548262568 0 -0.13366226850604379 -0.34759248760944123 0 -0.1435303466076166 -0.35184693234157938 0 -0.15030263560259111 -0.34285112818916452 0 -0.14096893258994439 -0.33934882548262568 0 -0.1435303466076166 -0.35184693234157938 0 -0.1435303466076166 -0.35184693234157938 0 -0.15433175674287769 -0.35458729317269139 0 -0.148308101659717 -0.36695316985008092 0 -0.1633245426028184 -0.34238590264286861 0 -0.15030263560259111 -0.34285112818916452 0 -0.15433175674287769 -0.35458729317269139 0 -0.15030263560259111 -0.34285112818916452 0 -0.1435303466076166 -0.35184693234157938 0 -0.15433175674287769 -0.35458729317269139 0 -0.1435303466076166 -0.35184693234157938 0 -0.148308101659717 -0.36695316985008092 0 -0.1303219987982592 -0.3665496015062627 0 -0.1369224961495438 -0.38192389563367207 0 -0.148308101659717 -0.36695316985008092 0 -0.1303219987982592 -0.3665496015062627 0 -0.1303219987982592 -0.3665496015062627 0 -0.1159926709000937 -0.36685414663024191 0 -0.11895596668836859 -0.34683008488337108 0 -0.1303219987982592 -0.3665496015062627 0 -0.1159926709000937 -0.36685414663024191 0 -0.12201267174342199 -0.37938718301114999 0 -0.1024060606807759 -0.36205135125861898 0 -0.1016559479587178 -0.38500202459504551 0 -0.1159926709000937 -0.36685414663024191 0 -0.1024060606807759 -0.36205135125861898 0 -0.1094440337948836 -0.37923577087639421 0 -0.1024060606807759 -0.36205135125861898 0 -0.1016559479587178 -0.38500202459504551 0 -0.095426438310298192 -0.37780241062099151 0 -0.1024060606807759 -0.36205135125861898 0 -0.090139611558562177 -0.37333304007799939 0 -0.095426438310298192 -0.37780241062099151 0 -0.1024060606807759 -0.36205135125861898 0 -0.093943439343664059 -0.36410026383479388 0 -0.090139611558562177 -0.37333304007799939 0 -0.1024060606807759 -0.36205135125861898 0 -0.093943439343664059 -0.36410026383479388 0 -0.095626283443773746 -0.35612124291623848 0 -0.1024060606807759 -0.36205135125861898 0 -0.090139611558562177 -0.37333304007799939 0 -0.1024060606807759 -0.36205135125861898 0 -0.1029439411344124 -0.34559419992324319 0 -0.1024060606807759 -0.36205135125861898 0 -0.1029439411344124 -0.34559419992324319 0 -0.11895596668836859 -0.34683008488337108 0 -0.1024060606807759 -0.36205135125861898 0 -0.095626283443773746 -0.35612124291623848 0 -0.1029439411344124 -0.34559419992324319 0 -0.095626283443773746 -0.35612124291623848 0 -0.1029439411344124 -0.34559419992324319 0 -0.093212578299404075 -0.34130700998995739 0 -0.1159926709000937 -0.36685414663024191 0 -0.1024060606807759 -0.36205135125861898 0 -0.11895596668836859 -0.34683008488337108 0 -0.1024060606807759 -0.36205135125861898 0 -0.11895596668836859 -0.34683008488337108 0 -0.1303219987982592 -0.3665496015062627 0 -0.11895596668836859 -0.34683008488337108 0 -0.123033176677132 -0.34308019655903149 0 -0.1029439411344124 -0.34559419992324319 0 -0.11895596668836859 -0.34683008488337108 0 -0.123033176677132 -0.34308019655903149 0 -0.11895596668836859 -0.34683008488337108 0 -0.123033176677132 -0.34308019655903149 0 -0.1029439411344124 -0.34559419992324319 0 -0.1137910684918501 -0.33520612369310882 0 -0.123033176677132 -0.34308019655903149 0 -0.123033176677132 -0.34308019655903149 0 -0.1159692764993048 -0.31568518943543378 0 -0.1137910684918501 -0.33520612369310882 0 -0.123033176677132 -0.34308019655903149 0 -0.1159692764993048 -0.31568518943543378 0 -0.12766342535057629 -0.32481504462803062 0 -0.123033176677132 -0.34308019655903149 0 -0.1159692764993048 -0.31568518943543378 0 -0.1137910684918501 -0.33520612369310882 0 -0.1159692764993048 -0.31568518943543378 0 -0.1034818215880495 -0.3291370485878673 0 -0.12766342535057629 -0.32481504462803062 0 -0.13033731665847181 -0.31286393971371201 0 -0.1159692764993048 -0.31568518943543378 0 -0.1159692764993048 -0.31568518943543378 0 -0.10079975883819629 -0.31506063040533638 0 -0.1034818215880495 -0.3291370485878673 0 -0.10079975883819629 -0.31506063040533638 0 -0.093212578299404075 -0.34130700998995739 0 -0.10079975883819629 -0.31506063040533638 0 -0.093212578299404075 -0.34130700998995739 0 -0.087373844159168004 -0.3291061545470132 0 -0.10079975883819629 -0.31506063040533638 0 -0.1034818215880495 -0.3291370485878673 0 -0.093212578299404075 -0.34130700998995739 0 -0.1029439411344124 -0.34559419992324319 0 -0.1034818215880495 -0.3291370485878673 0 -0.1029439411344124 -0.34559419992324319 0 -0.1034818215880495 -0.3291370485878673 0 -0.093212578299404075 -0.34130700998995739 0 -0.1029439411344124 -0.34559419992324319 0 -0.1137910684918501 -0.33520612369310882 0 -0.1034818215880495 -0.3291370485878673 0 -0.093212578299404075 -0.34130700998995739 0 -0.087373844159168004 -0.3291061545470132 0 -0.080908772255243899 -0.33898270124258217 0 -0.087373844159168004 -0.3291061545470132 0 -0.080908772255243899 -0.33898270124258217 0 -0.077490532230771417 -0.32991328235931511 0 -0.093212578299404075 -0.34130700998995739 0 -0.080908772255243899 -0.33898270124258217 0 -0.080378844364046895 -0.35001101873094542 0 -0.10079975883819629 -0.31506063040533638 0 -0.085305929108392881 -0.31951846990187233 0 -0.091873739319295072 -0.31122357941036211 0 -0.10079975883819629 -0.31506063040533638 0 -0.087373844159168004 -0.3291061545470132 0 -0.085305929108392881 -0.31951846990187233 0 -0.085305929108392881 -0.31951846990187233 0 -0.076805788315873161 -0.32077910918615782 0 -0.077490532230771417 -0.32991328235931511 0 -0.087373844159168004 -0.3291061545470132 0 -0.085305929108392881 -0.31951846990187233 0 -0.077490532230771417 -0.32991328235931511 0 -0.085305929108392881 -0.31951846990187233 0 -0.076805788315873161 -0.32077910918615782 0 -0.078544889372492196 -0.31002595631180607 0 -0.085305929108392881 -0.31951846990187233 0 -0.091873739319295072 -0.31122357941036211 0 -0.078544889372492196 -0.31002595631180607 0 -0.066882954587322394 -0.32486941793266988 0 -0.078544889372492196 -0.31002595631180607 0 -0.05424539878688571 -0.319762651601179 0 -0.078544889372492196 -0.31002595631180607 0 -0.05424539878688571 -0.319762651601179 0 -0.076805788315873161 -0.32077910918615782 0 -0.066882954587322394 -0.32486941793266988 0 -0.078544889372492196 -0.31002595631180607 0 -0.076805788315873161 -0.32077910918615782 0 -0.066882954587322394 -0.32486941793266988 0 -0.077490532230771417 -0.32991328235931511 0 -0.066882954587322394 -0.32486941793266988 0 -0.070160141916437824 -0.34098238217286791 0 -0.054527031800802053 -0.34042178362413461 0 -0.066882954587322394 -0.32486941793266988 0 -0.077490532230771417 -0.32991328235931511 0 -0.070160141916437824 -0.34098238217286791 0 -0.080908772255243899 -0.33898270124258217 0 -0.077490532230771417 -0.32991328235931511 0 -0.070160141916437824 -0.34098238217286791 0 -0.080908772255243899 -0.33898270124258217 0 -0.070160141916437824 -0.34098238217286791 0 -0.080378844364046895 -0.35001101873094542 0 -0.070160141916437824 -0.34098238217286791 0 -0.066522813126512412 -0.35680227137673098 0 -0.054527031800802053 -0.34042178362413461 0 -0.070160141916437824 -0.34098238217286791 0 -0.066522813126512412 -0.35680227137673098 0 -0.080378844364046895 -0.35001101873094542 0 -0.066522813126512412 -0.35680227137673098 0 -0.076582500297099523 -0.36039923154202719 0 -0.080378844364046895 -0.35001101873094542 0 -0.066522813126512412 -0.35680227137673098 0 -0.073802945937226916 -0.36723024648585417 0 -0.058387822440418388 -0.36975607908058028 0 -0.073802945937226916 -0.36723024648585417 0 -0.058387822440418388 -0.36975607908058028 0 -0.08170780991661282 -0.38109255286014232 0 -0.066522813126512412 -0.35680227137673098 0 -0.073802945937226916 -0.36723024648585417 0 -0.076582500297099523 -0.36039923154202719 0 -0.073802945937226916 -0.36723024648585417 0 -0.076582500297099523 -0.36039923154202719 0 -0.085625397760611066 -0.36755338957457828 0 -0.085625397760611066 -0.36755338957457828 0 -0.087954911787112483 -0.37534235041220648 0 -0.08170780991661282 -0.38109255286014232 0 -0.073802945937226916 -0.36723024648585417 0 -0.085625397760611066 -0.36755338957457828 0 -0.08170780991661282 -0.38109255286014232 0 -0.085625397760611066 -0.36755338957457828 0 -0.08170780991661282 -0.38109255286014232 0 -0.093943439343664059 -0.36410026383479388 0 -0.085625397760611066 -0.36755338957457828 0 -0.090139611558562177 -0.37333304007799939 0 -0.093943439343664059 -0.36410026383479388 0 -0.090139611558562177 -0.37333304007799939 0 -0.085625397760611066 -0.36755338957457828 0 -0.090139611558562177 -0.37333304007799939 0 -0.087954911787112483 -0.37534235041220648 0 -0.085625397760611066 -0.36755338957457828 0 -0.087954911787112483 -0.37534235041220648 0 -0.090139611558562177 -0.37333304007799939 0 -0.087954911787112483 -0.37534235041220648 0 -0.093943439343664059 -0.36410026383479388 0 -0.095626283443773746 -0.35612124291623848 0 -0.085625397760611066 -0.36755338957457828 0 -0.093212578299404075 -0.34130700998995739 0 -0.085625397760611066 -0.36755338957457828 0 -0.076582500297099523 -0.36039923154202719 0 -0.085625397760611066 -0.36755338957457828 0 -0.080378844364046895 -0.35001101873094542 0 -0.093212578299404075 -0.34130700998995739 0 -0.085625397760611066 -0.36755338957457828 0 -0.080378844364046895 -0.35001101873094542 0 -0.085625397760611066 -0.36755338957457828 0 -0.080378844364046895 -0.35001101873094542 0 -0.095626283443773746 -0.35612124291623848 0 -0.093212578299404075 -0.34130700998995739 0 -0.085625397760611066 -0.36755338957457828 0 -0.10474757541744149 -0.26087495970427582 0 -0.090174700483665673 -0.26498018187443112 0 -0.1005321994236209 -0.2431127607729493 0 -0.10474757541744149 -0.26087495970427582 0 -0.11757885349586771 -0.25701660664448461 0 -0.1005321994236209 -0.2431127607729493 0 -0.12855037573501921 -0.26115248962005239 0 -0.11757885349586771 -0.25701660664448461 0 -0.1127895441811773 -0.27358429336009982 0 -0.12855037573501921 -0.26115248962005239 0 -0.11757885349586771 -0.25701660664448461 0 -0.1223681628105569 -0.24044891992886891 0 -0.10474757541744149 -0.26087495970427582 0 -0.11757885349586771 -0.25701660664448461 0 -0.1127895441811773 -0.27358429336009982 0 -0.11757885349586771 -0.25701660664448461 0 -0.1127895441811773 -0.27358429336009982 0 -0.1257911728949061 -0.280427018304516 0 -0.12970248462840331 -0.2717774759070859 0 -0.1127895441811773 -0.27358429336009982 0 -0.12855037573501921 -0.26115248962005239 0 -0.1127895441811773 -0.27358429336009982 0 -0.12970248462840331 -0.2717774759070859 0 -0.12855037573501921 -0.26115248962005239 0 -0.1127895441811773 -0.27358429336009982 0 -0.1257911728949061 -0.280427018304516 0 -0.1127895441811773 -0.27358429336009982 0 -0.1194571486541455 -0.28746452468861589 0 -0.1127895441811773 -0.27358429336009982 0 -0.1083869393769897 -0.28881425082071571 0 -0.1127895441811773 -0.27358429336009982 0 -0.093274829049746905 -0.28897707944045958 0 -0.090174700483665673 -0.26498018187443112 0 -0.10474757541744149 -0.26087495970427582 0 -0.1127895441811773 -0.27358429336009982 0 -0.090174700483665673 -0.26498018187443112 0 -0.1127895441811773 -0.27358429336009982 0 -0.1067008731150054 -0.28283902414649681 0 -0.093274829049746905 -0.28897707944045958 0 -0.1127895441811773 -0.27358429336009982 0 -0.093274829049746905 -0.28897707944045958 0 -0.1083869393769897 -0.28881425082071571 0 -0.102844379958099 -0.30028926102243358 0 -0.093274829049746905 -0.28897707944045958 0 -0.1127895441811773 -0.27358429336009982 0 -0.1083869393769897 -0.28881425082071571 0 -0.1067008731150054 -0.28283902414649681 0 -0.1083869393769897 -0.28881425082071571 0 -0.1067008731150054 -0.28283902414649681 0 -0.1083869393769897 -0.28881425082071571 0 -0.1067008731150054 -0.28283902414649681 0 -0.093274829049746905 -0.28897707944045958 0 -0.1127895441811773 -0.27358429336009982 0 -0.1083869393769897 -0.28881425082071571 0 -0.1194571486541455 -0.28746452468861589 0 -0.12994370463312691 -0.28995419054763111 0 -0.1194571486541455 -0.28746452468861589 0 -0.12304085188452731 -0.29931348820209958 0 -0.1083869393769897 -0.28881425082071571 0 -0.1194571486541455 -0.28746452468861589 0 -0.12304085188452731 -0.29931348820209958 0 -0.1159692764993048 -0.31568518943543378 0 -0.1083869393769897 -0.28881425082071571 0 -0.12304085188452731 -0.29931348820209958 0 -0.1159692764993048 -0.31568518943543378 0 -0.1083869393769897 -0.28881425082071571 0 -0.13033731665847181 -0.31286393971371201 0 -0.1159692764993048 -0.31568518943543378 0 -0.12304085188452731 -0.29931348820209958 0 -0.1159692764993048 -0.31568518943543378 0 -0.10079975883819629 -0.31506063040533638 0 -0.1083869393769897 -0.28881425082071571 0 -0.10079975883819629 -0.31506063040533638 0 -0.1083869393769897 -0.28881425082071571 0 -0.10079975883819629 -0.31506063040533638 0 -0.1083869393769897 -0.28881425082071571 0 -0.102844379958099 -0.30028926102243358 0 -0.10079975883819629 -0.31506063040533638 0 -0.102844379958099 -0.30028926102243358 0 -0.091873739319295072 -0.31122357941036211 0 -0.078544889372492196 -0.31002595631180607 0 -0.073760113918316481 -0.30436986552081963 0 -0.093274829049746905 -0.28897707944045958 0 -0.102844379958099 -0.30028926102243358 0 -0.078544889372492196 -0.31002595631180607 0 -0.093274829049746905 -0.28897707944045958 0 -0.102844379958099 -0.30028926102243358 0 -0.091873739319295072 -0.31122357941036211 0 -0.078544889372492196 -0.31002595631180607 0 -0.102844379958099 -0.30028926102243358 0 -0.078544889372492196 -0.31002595631180607 0 -0.078544889372492196 -0.31002595631180607 0 -0.073760113918316481 -0.30436986552081963 0 -0.05424539878688571 -0.319762651601179 0 -0.073760113918316481 -0.30436986552081963 0 -0.05424539878688571 -0.319762651601179 0 -0.073760113918316481 -0.30436986552081963 0 -0.071188273097670243 -0.28513602236808322 0 -0.055748641784298267 -0.30178875706485681 0 -0.073760113918316481 -0.30436986552081963 0 -0.071188273097670243 -0.28513602236808322 0 -0.093274829049746905 -0.28897707944045958 0 -0.073760113918316481 -0.30436986552081963 0 -0.093274829049746905 -0.28897707944045958 0 -0.071188273097670243 -0.28513602236808322 0 -0.093274829049746905 -0.28897707944045958 0 -0.090174700483665673 -0.26498018187443112 0 -0.071188273097670243 -0.28513602236808322 0 -0.063484538676239377 -0.26413124226689111 0 -0.090174700483665673 -0.26498018187443112 0 -0.063484538676239377 -0.26413124226689111 0 -0.076282262678724011 -0.24169347649274159 0 -0.063484538676239377 -0.26413124226689111 0 -0.090174700483665673 -0.26498018187443112 0 -0.076282262678724011 -0.24169347649274159 0 -0.036942597034766073 -0.27265489088473938 0 -0.050686814673754729 -0.28656900804104057 0 -0.0185119813334658 -0.28327625011988139 0 -0.038581934025118947 -0.25114857380685968 0 -0.038334603868346327 -0.2604973367990705 0 -0.03064478186574425 -0.25326356670072259 0 -0.038334603868346327 -0.2604973367990705 0 -0.029413390480137139 -0.26518294325465769 0 -0.03064478186574425 -0.25326356670072259 0 -0.038334603868346327 -0.2604973367990705 0 -0.046517308340487992 -0.25474718453952289 0 -0.048289188575406587 -0.26955092917192058 0 -0.038581934025118947 -0.25114857380685968 0 -0.038334603868346327 -0.2604973367990705 0 -0.046517308340487992 -0.25474718453952289 0 -0.063484538676239377 -0.26413124226689111 0 -0.046517308340487992 -0.25474718453952289 0 -0.0567919256119837 -0.24387644547435741 0 -0.063484538676239377 -0.26413124226689111 0 -0.046517308340487992 -0.25474718453952289 0 -0.048289188575406587 -0.26955092917192058 0 -0.063484538676239377 -0.26413124226689111 0 -0.050686814673754729 -0.28656900804104057 0 -0.071188273097670243 -0.28513602236808322 0 -0.063484538676239377 -0.26413124226689111 0 -0.050686814673754729 -0.28656900804104057 0 -0.063484538676239377 -0.26413124226689111 0 -0.048289188575406587 -0.26955092917192058 0 -0.050686814673754729 -0.28656900804104057 0 -0.048289188575406587 -0.26955092917192058 0 -0.036942597034766073 -0.27265489088473938 0 -0.050686814673754729 -0.28656900804104057 0 -0.038334603868346327 -0.2604973367990705 0 -0.048289188575406587 -0.26955092917192058 0 -0.036942597034766073 -0.27265489088473938 0 -0.038334603868346327 -0.2604973367990705 0 -0.036942597034766073 -0.27265489088473938 0 -0.029413390480137139 -0.26518294325465769 0 -0.050686814673754729 -0.28656900804104057 0 -0.037889090671270123 -0.30900677381518998 0 -0.0185119813334658 -0.28327625011988139 0 -0.071188273097670243 -0.28513602236808322 0 -0.050686814673754729 -0.28656900804104057 0 -0.055748641784298267 -0.30178875706485681 0 -0.073760113918316481 -0.30436986552081963 0 -0.055748641784298267 -0.30178875706485681 0 -0.05424539878688571 -0.319762651601179 0 -0.055748641784298267 -0.30178875706485681 0 -0.037889090671270123 -0.30900677381518998 0 -0.05424539878688571 -0.319762651601179 0 -0.050686814673754729 -0.28656900804104057 0 -0.055748641784298267 -0.30178875706485681 0 -0.037889090671270123 -0.30900677381518998 0 -0.050686814673754729 -0.28656900804104057 0 -0.037889090671270123 -0.30900677381518998 0 -0.037889090671270123 -0.30900677381518998 0 -0.014390974368570029 -0.31032982847088841 0 -0.0185119813334658 -0.28327625011988139 0 -0.014390974368570029 -0.31032982847088841 0 0.001904989571353899 -0.32214434476741449 0 0.0019518825097332619 -0.30029273945570772 0 -0.014390974368570029 -0.31032982847088841 0 -0.0185119813334658 -0.28327625011988139 0 0.0019518825097332619 -0.30029273945570772 0 -0.0185119813334658 -0.28327625011988139 0 -0.0020851015340006161 -0.28052611142458661 0 0.0019518825097332619 -0.30029273945570772 0 -0.014390974368570029 -0.31032982847088841 0 -0.0185119813334658 -0.28327625011988139 0 -0.036942597034766073 -0.27265489088473938 0 -0.0185119813334658 -0.28327625011988139 0 -0.029413390480137139 -0.26518294325465769 0 -0.0185119813334658 -0.28327625011988139 0 -0.02263298829836323 -0.25622267176887481 0 -0.029413390480137139 -0.26518294325465769 0 -0.0185119813334658 -0.28327625011988139 0 -0.02263298829836323 -0.25622267176887481 0 -0.0185119813334658 -0.28327625011988139 0 -0.0093077836028632385 -0.27105033158696179 0 -0.02263298829836323 -0.25622267176887481 0 -0.0185119813334658 -0.28327625011988139 0 -0.0020851015340006161 -0.28052611142458661 0 -0.0093077836028632385 -0.27105033158696179 0 -0.0020851015340006161 -0.28052611142458661 0 -0.0093077836028632385 -0.27105033158696179 0 0.0055944649301708496 -0.26664830233551728 0 -0.014059514610042069 -0.25416210053859828 0 -0.02263298829836323 -0.25622267176887481 0 0.0055944649301708496 -0.26664830233551728 0 -0.0093077836028632385 -0.27105033158696179 0 -0.02263298829836323 -0.25622267176887481 0 0.0055944649301708496 -0.26664830233551728 0 -0.02263298829836323 -0.25622267176887481 0 0.0055944649301708496 -0.26664830233551728 0 -0.014059514610042069 -0.25416210053859828 0 -0.0080727856436109482 -0.2481099565327444 0 0.0055944649301708496 -0.26664830233551728 0 -0.014059514610042069 -0.25416210053859828 0 -0.01887874476148543 -0.24814250919209771 0 -0.0080727856436109482 -0.2481099565327444 0 -0.014059514610042069 -0.25416210053859828 0 -0.02263298829836323 -0.25622267176887481 0 -0.02285766608625657 -0.25474770747244752 0 -0.014059514610042069 -0.25416210053859828 0 -0.02285766608625657 -0.25474770747244752 0 -0.01887874476148543 -0.24814250919209771 0 -0.02285766608625657 -0.25474770747244752 0 -0.026067501294639708 -0.24850247980592871 0 -0.01887874476148543 -0.24814250919209771 0 -0.02263298829836323 -0.25622267176887481 0 -0.02285766608625657 -0.25474770747244752 0 -0.02263298829836323 -0.25622267176887481 0 -0.029413390480137139 -0.26518294325465769 0 -0.03064478186574425 -0.25326356670072259 0 -0.02263298829836323 -0.25622267176887481 0 -0.03064478186574425 -0.25326356670072259 0 -0.02263298829836323 -0.25622267176887481 0 -0.02285766608625657 -0.25474770747244752 0 -0.03064478186574425 -0.25326356670072259 0 -0.02285766608625657 -0.25474770747244752 0 -0.03064478186574425 -0.25326356670072259 0 -0.026067501294639708 -0.24850247980592871 0 -0.040780788735907937 -0.34809370153295588 0 -0.035070660285960877 -0.35841379707961513 0 -0.051335308585544609 -0.35442186843706669 0 -0.040780788735907937 -0.34809370153295588 0 -0.033802973987086503 -0.33588719504380232 0 -0.029167969020145641 -0.35132386348016093 0 -0.040780788735907937 -0.34809370153295588 0 -0.035070660285960877 -0.35841379707961513 0 -0.029167969020145641 -0.35132386348016093 0 -0.035070660285960877 -0.35841379707961513 0 -0.040000350022935588 -0.37213681664196291 0 -0.021437446366364531 -0.36359117576668931 0 -0.035070660285960877 -0.35841379707961513 0 -0.058387822440418388 -0.36975607908058028 0 -0.035070660285960877 -0.35841379707961513 0 -0.040000350022935588 -0.37213681664196291 0 -0.058387822440418388 -0.36975607908058028 0 -0.040000350022935588 -0.37213681664196291 0 -0.058387822440418388 -0.36975607908058028 0 -0.058563253679506787 -0.38068245751723601 0 -0.035070660285960877 -0.35841379707961513 0 -0.058387822440418388 -0.36975607908058028 0 -0.051335308585544609 -0.35442186843706669 0 -0.066522813126512412 -0.35680227137673098 0 -0.058387822440418388 -0.36975607908058028 0 -0.051335308585544609 -0.35442186843706669 0 -0.066522813126512412 -0.35680227137673098 0 -0.051335308585544609 -0.35442186843706669 0 -0.054527031800802053 -0.34042178362413461 0 -0.040780788735907937 -0.34809370153295588 0 -0.051335308585544609 -0.35442186843706669 0 -0.054527031800802053 -0.34042178362413461 0 -0.066882954587322394 -0.32486941793266988 0 -0.054527031800802053 -0.34042178362413461 0 -0.05424539878688571 -0.319762651601179 0 -0.054527031800802053 -0.34042178362413461 0 -0.05424539878688571 -0.319762651601179 0 -0.033802973987086503 -0.33588719504380232 0 -0.05424539878688571 -0.319762651601179 0 -0.039668382727836717 -0.32560359559526031 0 -0.05424539878688571 -0.319762651601179 0 -0.033802973987086503 -0.33588719504380232 0 -0.037889090671270123 -0.30900677381518998 0 -0.025091366668787349 -0.3314445395893405 0 -0.05424539878688571 -0.319762651601179 0 -0.039668382727836717 -0.32560359559526031 0 -0.033802973987086503 -0.33588719504380232 0 -0.037889090671270123 -0.30900677381518998 0 -0.05424539878688571 -0.319762651601179 0 -0.039668382727836717 -0.32560359559526031 0 -0.037889090671270123 -0.30900677381518998 0 -0.039668382727836717 -0.32560359559526031 0 -0.025091366668787349 -0.3314445395893405 0 -0.040780788735907937 -0.34809370153295588 0 -0.054527031800802053 -0.34042178362413461 0 -0.033802973987086503 -0.33588719504380232 0 -0.039668382727836717 -0.32560359559526031 0 -0.025091366668787349 -0.3314445395893405 0 -0.039668382727836717 -0.32560359559526031 0 -0.033802973987086503 -0.33588719504380232 0 -0.025091366668787349 -0.3314445395893405 0 -0.025091366668787349 -0.3314445395893405 0 -0.01336054918728761 -0.35201173848642592 0 -0.033802973987086503 -0.33588719504380232 0 -0.025091366668787349 -0.3314445395893405 0 -0.01336054918728761 -0.35201173848642592 0 -0.025091366668787349 -0.3314445395893405 0 -0.01532372128421448 -0.33535839064186268 0 -0.01336054918728761 -0.35201173848642592 0 -0.025091366668787349 -0.3314445395893405 0 -0.022734703789933738 -0.32728556430890232 0 -0.01532372128421448 -0.33535839064186268 0 -0.025091366668787349 -0.3314445395893405 0 -0.01532372128421448 -0.33535839064186268 0 -0.022734703789933738 -0.32728556430890232 0 -0.01532372128421448 -0.33535839064186268 0 -0.037889090671270123 -0.30900677381518998 0 -0.014390974368570029 -0.31032982847088841 0 -0.022734703789933738 -0.32728556430890232 0 -0.037889090671270123 -0.30900677381518998 0 -0.025091366668787349 -0.3314445395893405 0 -0.022734703789933738 -0.32728556430890232 0 -0.014390974368570029 -0.31032982847088841 0 -0.022734703789933738 -0.32728556430890232 0 -0.01532372128421448 -0.33535839064186268 0 -0.014390974368570029 -0.31032982847088841 0 -0.010269967403673339 -0.33738340682189533 0 -0.014390974368570029 -0.31032982847088841 0 -0.010269967403673339 -0.33738340682189533 0 -0.01532372128421448 -0.33535839064186268 0 -0.014390974368570029 -0.31032982847088841 0 -0.010269967403673339 -0.33738340682189533 0 0.001904989571353899 -0.32214434476741449 0 -0.010269967403673339 -0.33738340682189533 0 -0.0096343958099064687 -0.34155580596031437 0 0.0075807645751098419 -0.34453611388615663 0 -0.010269967403673339 -0.33738340682189533 0 0.0075807645751098419 -0.34453611388615663 0 -0.0096343958099064687 -0.34155580596031437 0 -0.01532372128421448 -0.33535839064186268 0 -0.01336054918728761 -0.35201173848642592 0 -0.010269967403673339 -0.33738340682189533 0 -0.0096343958099064687 -0.34155580596031437 0 -0.010269967403673339 -0.33738340682189533 0 -0.0096343958099064687 -0.34155580596031437 0 -0.01532372128421448 -0.33535839064186268 0 -0.0096343958099064687 -0.34155580596031437 0 -0.01532372128421448 -0.33535839064186268 0 -0.010269967403673339 -0.33738340682189533 0 -0.01532372128421448 -0.33535839064186268 0 -0.010269967403673339 -0.33738340682189533 0 0.0034794820758208261 -0.33361449123698089 0 0.001904989571353899 -0.32214434476741449 0 -0.0096343958099064687 -0.34155580596031437 0 -0.0070150904897389628 -0.35875101633193152 0 -0.0096343958099064687 -0.34155580596031437 0 -0.0070150904897389628 -0.35875101633193152 0 -0.01336054918728761 -0.35201173848642592 0 -0.0096343958099064687 -0.34155580596031437 0 -0.0070150904897389628 -0.35875101633193152 0 0.0099352179383349771 -0.36287309999936251 0 -0.033802973987086503 -0.33588719504380232 0 -0.01336054918728761 -0.35201173848642592 0 -0.029167969020145641 -0.35132386348016093 0 -0.01336054918728761 -0.35201173848642592 0 -0.029167969020145641 -0.35132386348016093 0 -0.021437446366364531 -0.36359117576668931 0 -0.033802973987086503 -0.33588719504380232 0 -0.01336054918728761 -0.35201173848642592 0 -0.035070660285960877 -0.35841379707961513 0 -0.029167969020145641 -0.35132386348016093 0 -0.021437446366364531 -0.36359117576668931 0 -0.040000350022935588 -0.37213681664196291 0 -0.021437446366364531 -0.36359117576668931 0 -0.02618172091304426 -0.37743656618445498 0 -0.021437446366364531 -0.36359117576668931 0 -0.002178803782163227 -0.37161627006544062 0 -0.02618172091304426 -0.37743656618445498 0 -0.040000350022935588 -0.37213681664196291 0 -0.021437446366364531 -0.36359117576668931 0 -0.01336054918728761 -0.35201173848642592 0 -0.021437446366364531 -0.36359117576668931 0 -0.002178803782163227 -0.37161627006544062 0 -0.01336054918728761 -0.35201173848642592 0 -0.002178803782163227 -0.37161627006544062 0 -0.0070150904897389628 -0.35875101633193152 0 -0.01336054918728761 -0.35201173848642592 0 -0.002178803782163227 -0.37161627006544062 0 -0.002178803782163227 -0.37161627006544062 0 -0.026336278995230201 -0.38905167830789189 0 -0.002178803782163227 -0.37161627006544062 0 -0.0066930742226519926 -0.39143820132839208 0 -0.026336278995230201 -0.38905167830789189 0 -0.0066930742226519926 -0.39143820132839208 0 -0.001728596279610697 -0.40597762003102339 0 -0.017737199096442072 -0.40073047040120602 0 -0.0066930742226519926 -0.39143820132839208 0 -0.017737199096442072 -0.40073047040120602 0 -0.026336278995230201 -0.38905167830789189 0 -0.017737199096442072 -0.40073047040120602 0 -0.026336278995230201 -0.38905167830789189 0 -0.033287388117186109 -0.40399871831440642 0 -0.002178803782163227 -0.37161627006544062 0 -0.026336278995230201 -0.38905167830789189 0 -0.02618172091304426 -0.37743656618445498 0 -0.026336278995230201 -0.38905167830789189 0 -0.02618172091304426 -0.37743656618445498 0 -0.033482850758781962 -0.383939184607547 0 -0.02618172091304426 -0.37743656618445498 0 -0.042372487296275553 -0.37905951185084519 0 -0.033482850758781962 -0.383939184607547 0 -0.02618172091304426 -0.37743656618445498 0 -0.042372487296275553 -0.37905951185084519 0 -0.040000350022935588 -0.37213681664196291 0 -0.02618172091304426 -0.37743656618445498 0 -0.042372487296275553 -0.37905951185084519 0 -0.042372487296275553 -0.37905951185084519 0 -0.039040915830577852 -0.39020898208699611 0 -0.049048127186911553 -0.38756594990863991 0 -0.042372487296275553 -0.37905951185084519 0 -0.039040915830577852 -0.39020898208699611 0 -0.033482850758781962 -0.383939184607547 0 -0.026336278995230201 -0.38905167830789189 0 -0.039040915830577852 -0.39020898208699611 0 -0.033482850758781962 -0.383939184607547 0 -0.026336278995230201 -0.38905167830789189 0 -0.050493754208297943 -0.40648708655034188 0 -0.039040915830577852 -0.39020898208699611 0 -0.048181286987745188 -0.3967611761759377 0 -0.050493754208297943 -0.40648708655034188 0 -0.026336278995230201 -0.38905167830789189 0 -0.039040915830577852 -0.39020898208699611 0 -0.050493754208297943 -0.40648708655034188 0 -0.026336278995230201 -0.38905167830789189 0 -0.033287388117186109 -0.40399871831440642 0 -0.050493754208297943 -0.40648708655034188 0 -0.039040915830577852 -0.39020898208699611 0 -0.048181286987745188 -0.3967611761759377 0 -0.049048127186911553 -0.38756594990863991 0 -0.048181286987745188 -0.3967611761759377 0 -0.055512870853615448 -0.39455951290216967 0 -0.049048127186911553 -0.38756594990863991 0 -0.055512870853615448 -0.39455951290216967 0 -0.052509649903146327 -0.40794203844841681 0 -0.074281153156084773 -0.38791836881244668 0 -0.048181286987745188 -0.3967611761759377 0 -0.055512870853615448 -0.39455951290216967 0 -0.050493754208297943 -0.40648708655034188 0 -0.055512870853615448 -0.39455951290216967 0 -0.052509649903146327 -0.40794203844841681 0 -0.050493754208297943 -0.40648708655034188 0 -0.048181286987745188 -0.3967611761759377 0 -0.050493754208297943 -0.40648708655034188 0 -0.040000350022935588 -0.37213681664196291 0 -0.042372487296275553 -0.37905951185084519 0 -0.058563253679506787 -0.38068245751723601 0 -0.042372487296275553 -0.37905951185084519 0 -0.058563253679506787 -0.38068245751723601 0 -0.040000350022935588 -0.37213681664196291 0 -0.058563253679506787 -0.38068245751723601 0 -0.042372487296275553 -0.37905951185084519 0 -0.058563253679506787 -0.38068245751723601 0 -0.049048127186911553 -0.38756594990863991 0 -0.055512870853615448 -0.39455951290216967 0 -0.058563253679506787 -0.38068245751723601 0 -0.049048127186911553 -0.38756594990863991 0 -0.055571169944573007 -0.4278419796903028 0 -0.060002998013559863 -0.44648162232419802 0 -0.069408814394604765 -0.42365151461769918 0 -0.055571169944573007 -0.4278419796903028 0 -0.060002998013559863 -0.44648162232419802 0 -0.055571169944573007 -0.4278419796903028 0 -0.04142135733128624 -0.43391233418184683 0 -0.048623679129421588 -0.44273110985945369 0 -0.055571169944573007 -0.4278419796903028 0 -0.059775586818595829 -0.41787661413097049 0 -0.069408814394604765 -0.42365151461769918 0 -0.055571169944573007 -0.4278419796903028 0 -0.059775586818595829 -0.41787661413097049 0 -0.052509649903146327 -0.40794203844841681 0 -0.055571169944573007 -0.4278419796903028 0 -0.052509649903146327 -0.40794203844841681 0 -0.038621424185474637 -0.4207153063468223 0 -0.055571169944573007 -0.4278419796903028 0 -0.052509649903146327 -0.40794203844841681 0 -0.052509649903146327 -0.40794203844841681 0 -0.070248957975066639 -0.42074520084202788 0 -0.059775586818595829 -0.41787661413097049 0 -0.052509649903146327 -0.40794203844841681 0 -0.070248957975066639 -0.42074520084202788 0 -0.052509649903146327 -0.40794203844841681 0 -0.050493754208297943 -0.40648708655034188 0 -0.041470954428671609 -0.41006675355118111 0 -0.052509649903146327 -0.40794203844841681 0 -0.050493754208297943 -0.40648708655034188 0 -0.052509649903146327 -0.40794203844841681 0 -0.038621424185474637 -0.4207153063468223 0 -0.033287388117186109 -0.40399871831440642 0 -0.050493754208297943 -0.40648708655034188 0 -0.041470954428671609 -0.41006675355118111 0 -0.052509649903146327 -0.40794203844841681 0 -0.041470954428671609 -0.41006675355118111 0 -0.038621424185474637 -0.4207153063468223 0 -0.033287388117186109 -0.40399871831440642 0 -0.041470954428671609 -0.41006675355118111 0 -0.027792962261932352 -0.41547375898907968 0 -0.041470954428671609 -0.41006675355118111 0 -0.038621424185474637 -0.4207153063468223 0 -0.027792962261932352 -0.41547375898907968 0 -0.055571169944573007 -0.4278419796903028 0 -0.038621424185474637 -0.4207153063468223 0 -0.04142135733128624 -0.43391233418184683 0 -0.038621424185474637 -0.4207153063468223 0 -0.026103506495360269 -0.43222827563723731 0 -0.038621424185474637 -0.4207153063468223 0 -0.04142135733128624 -0.43391233418184683 0 -0.026103506495360269 -0.43222827563723731 0 -0.04142135733128624 -0.43391233418184683 0 -0.026103506495360269 -0.43222827563723731 0 -0.035662081446574762 -0.44437129177822371 0 -0.026103506495360269 -0.43222827563723731 0 -0.027792962261932352 -0.41547375898907968 0 -0.009537301248459449 -0.42510302968362512 0 -0.026103506495360269 -0.43222827563723731 0 -0.009537301248459449 -0.42510302968362512 0 -0.019709463090837601 -0.44530454005801179 0 -0.038621424185474637 -0.4207153063468223 0 -0.026103506495360269 -0.43222827563723731 0 -0.027792962261932352 -0.41547375898907968 0 -0.017737199096442072 -0.40073047040120602 0 -0.027792962261932352 -0.41547375898907968 0 -0.009537301248459449 -0.42510302968362512 0 -0.017737199096442072 -0.40073047040120602 0 -0.033287388117186109 -0.40399871831440642 0 -0.027792962261932352 -0.41547375898907968 0 -0.001728596279610697 -0.40597762003102339 0 -0.017737199096442072 -0.40073047040120602 0 -0.009537301248459449 -0.42510302968362512 0 -0.017737199096442072 -0.40073047040120602 0 -0.009537301248459449 -0.42510302968362512 0 -0.001728596279610697 -0.40597762003102339 0 -0.009537301248459449 -0.42510302968362512 0 0.0082246319185010179 -0.41465428951275207 0 -0.009537301248459449 -0.42510302968362512 0 -0.0013374034004768371 -0.44947558896604423 0 -0.009537301248459449 -0.42510302968362512 0 -0.0013374034004768371 -0.44947558896604423 0 0.01039378864355619 -0.42848339288335913 0 -0.009537301248459449 -0.42510302968362512 0 -0.0013374034004768371 -0.44947558896604423 0 -0.019709463090837601 -0.44530454005801179 0 -0.0013374034004768371 -0.44947558896604423 0 -0.014612752260004851 -0.46155177919014362 0 -0.019709463090837601 -0.44530454005801179 0 -0.0013374034004768371 -0.44947558896604423 0 -0.014612752260004851 -0.46155177919014362 0 0.0068624944475057766 -0.47384814824846327 0 -0.014612752260004851 -0.46155177919014362 0 -0.028521420705905499 -0.4674310816654948 0 -0.030789477839635839 -0.45543267362212791 0 -0.014612752260004851 -0.46155177919014362 0 -0.030789477839635839 -0.45543267362212791 0 -0.019709463090837601 -0.44530454005801179 0 -0.030789477839635839 -0.45543267362212791 0 -0.019709463090837601 -0.44530454005801179 0 -0.035662081446574762 -0.44437129177822371 0 -0.026103506495360269 -0.43222827563723731 0 -0.019709463090837601 -0.44530454005801179 0 -0.035662081446574762 -0.44437129177822371 0 -0.015217900669161011 -0.5 0 -0.01418124297067914 -0.47781864258071971 0 0.0024053695883212941 -0.48891336768777249 0 -0.01418124297067914 -0.47781864258071971 0 0.0068624944475057766 -0.47384814824846327 0 0.0024053695883212941 -0.48891336768777249 0 -0.014612752260004851 -0.46155177919014362 0 -0.01418124297067914 -0.47781864258071971 0 0.0068624944475057766 -0.47384814824846327 0 -0.014612752260004851 -0.46155177919014362 0 -0.028521420705905499 -0.4674310816654948 0 -0.01418124297067914 -0.47781864258071971 0 -0.028521420705905499 -0.4674310816654948 0 -0.01418124297067914 -0.47781864258071971 0 -0.027752274071966478 -0.47742461628286209 0 -0.015217900669161011 -0.5 0 -0.027752274071966478 -0.47742461628286209 0 -0.038171784631523778 -0.48284131767108018 0 -0.015217900669161011 -0.5 0 -0.01418124297067914 -0.47781864258071971 0 -0.027752274071966478 -0.47742461628286209 0 -0.015217900669161011 -0.5 0 -0.043972809743024373 -0.5 0 -0.038171784631523778 -0.48284131767108018 0 -0.043972809743024373 -0.5 0 -0.038171784631523778 -0.48284131767108018 0 -0.049841179956411519 -0.48183723669954598 0 -0.038171784631523778 -0.48284131767108018 0 -0.048675315621036823 -0.47094071089761919 0 -0.038171784631523778 -0.48284131767108018 0 -0.048675315621036823 -0.47094071089761919 0 -0.049841179956411519 -0.48183723669954598 0 -0.027752274071966478 -0.47742461628286209 0 -0.038171784631523778 -0.48284131767108018 0 -0.038764373548703768 -0.47063519779216179 0 -0.028521420705905499 -0.4674310816654948 0 -0.027752274071966478 -0.47742461628286209 0 -0.038764373548703768 -0.47063519779216179 0 -0.038764373548703768 -0.47063519779216179 0 -0.048675315621036823 -0.47094071089761919 0 -0.045335619097383061 -0.46570514195792412 0 -0.038171784631523778 -0.48284131767108018 0 -0.038764373548703768 -0.47063519779216179 0 -0.048675315621036823 -0.47094071089761919 0 -0.048675315621036823 -0.47094071089761919 0 -0.055120034750126161 -0.47128965669693351 0 -0.049841179956411519 -0.48183723669954598 0 -0.048675315621036823 -0.47094071089761919 0 -0.055120034750126161 -0.47128965669693351 0 -0.057384894248553399 -0.46524593439390849 0 -0.055120034750126161 -0.47128965669693351 0 -0.059149819292987238 -0.47777467248794547 0 -0.064422500494955764 -0.4650694252783244 0 -0.059149819292987238 -0.47777467248794547 0 -0.049841179956411519 -0.48183723669954598 0 -0.058853327493046781 -0.48842932436532971 0 -0.055120034750126161 -0.47128965669693351 0 -0.059149819292987238 -0.47777467248794547 0 -0.049841179956411519 -0.48183723669954598 0 -0.059149819292987238 -0.47777467248794547 0 -0.058853327493046781 -0.48842932436532971 0 -0.068575109655922298 -0.48253471263916042 0 -0.043972809743024373 -0.5 0 -0.058853327493046781 -0.48842932436532971 0 -0.072727718816887776 -0.49999999999999672 0 -0.043972809743024373 -0.5 0 -0.049841179956411519 -0.48183723669954598 0 -0.058853327493046781 -0.48842932436532971 0 -0.045123684251444827 -0.45223268167437758 0 -0.035662081446574762 -0.44437129177822371 0 -0.048623679129421588 -0.44273110985945369 0 -0.04142135733128624 -0.43391233418184683 0 -0.035662081446574762 -0.44437129177822371 0 -0.048623679129421588 -0.44273110985945369 0 -0.030789477839635839 -0.45543267362212791 0 -0.045123684251444827 -0.45223268167437758 0 -0.035662081446574762 -0.44437129177822371 0 -0.030789477839635839 -0.45543267362212791 0 -0.045123684251444827 -0.45223268167437758 0 -0.04007978340352341 -0.46172459869688548 0 -0.028521420705905499 -0.4674310816654948 0 -0.030789477839635839 -0.45543267362212791 0 -0.04007978340352341 -0.46172459869688548 0 -0.028521420705905499 -0.4674310816654948 0 -0.038764373548703768 -0.47063519779216179 0 -0.04007978340352341 -0.46172459869688548 0 -0.038764373548703768 -0.47063519779216179 0 -0.04007978340352341 -0.46172459869688548 0 -0.045335619097383061 -0.46570514195792412 0 -0.04007978340352341 -0.46172459869688548 0 -0.045335619097383061 -0.46570514195792412 0 -0.047248161051959649 -0.4591011094540644 0 -0.045123684251444827 -0.45223268167437758 0 -0.04007978340352341 -0.46172459869688548 0 -0.047248161051959649 -0.4591011094540644 0 -0.045123684251444827 -0.45223268167437758 0 -0.050581796861615229 -0.45333412325219669 0 -0.047248161051959649 -0.4591011094540644 0 -0.050581796861615229 -0.45333412325219669 0 -0.047248161051959649 -0.4591011094540644 0 -0.051910461861691633 -0.46612409294888979 0 -0.051910461861691633 -0.46612409294888979 0 -0.05917884661055 -0.4590401041241583 0 -0.060002998013559863 -0.44648162232419802 0 -0.051910461861691633 -0.46612409294888979 0 -0.060002998013559863 -0.44648162232419802 0 -0.050581796861615229 -0.45333412325219669 0 -0.051910461861691633 -0.46612409294888979 0 -0.060002998013559863 -0.44648162232419802 0 -0.048675315621036823 -0.47094071089761919 0 -0.05917884661055 -0.4590401041241583 0 -0.048675315621036823 -0.47094071089761919 0 -0.051910461861691633 -0.46612409294888979 0 -0.05917884661055 -0.4590401041241583 0 -0.048675315621036823 -0.47094071089761919 0 -0.045335619097383061 -0.46570514195792412 0 -0.051910461861691633 -0.46612409294888979 0 -0.045335619097383061 -0.46570514195792412 0 -0.047248161051959649 -0.4591011094540644 0 -0.051910461861691633 -0.46612409294888979 0 -0.055120034750126161 -0.47128965669693351 0 -0.057384894248553399 -0.46524593439390849 0 -0.064422500494955764 -0.4650694252783244 0 -0.048675315621036823 -0.47094071089761919 0 -0.057384894248553399 -0.46524593439390849 0 -0.05917884661055 -0.4590401041241583 0 -0.057384894248553399 -0.46524593439390849 0 -0.05917884661055 -0.4590401041241583 0 -0.059237257045792073 -0.46090013765886428 0 -0.064422500494955764 -0.4650694252783244 0 -0.057384894248553399 -0.46524593439390849 0 -0.059237257045792073 -0.46090013765886428 0 -0.064422500494955764 -0.4650694252783244 0 -0.057384894248553399 -0.46524593439390849 0 -0.059237257045792073 -0.46090013765886428 0 -0.05917884661055 -0.4590401041241583 0 -0.059237257045792073 -0.46090013765886428 0 -0.062180371227510647 -0.45563934639583059 0 -0.064422500494955764 -0.4650694252783244 0 -0.059237257045792073 -0.46090013765886428 0 -0.05917884661055 -0.4590401041241583 0 -0.062180371227510647 -0.45563934639583059 0 -0.05917884661055 -0.4590401041241583 0 -0.062180371227510647 -0.45563934639583059 0 -0.05917884661055 -0.4590401041241583 0 -0.061269440441321127 -0.45180810022505591 0 -0.05917884661055 -0.4590401041241583 0 -0.062180371227510647 -0.45563934639583059 0 -0.061269440441321127 -0.45180810022505591 0 -0.062180371227510647 -0.45563934639583059 0 -0.061269440441321127 -0.45180810022505591 0 -0.055571169944573007 -0.4278419796903028 0 -0.060002998013559863 -0.44648162232419802 0 -0.048623679129421588 -0.44273110985945369 0 -0.05917884661055 -0.4590401041241583 0 -0.061269440441321127 -0.45180810022505591 0 -0.060002998013559863 -0.44648162232419802 0 -0.061269440441321127 -0.45180810022505591 0 -0.060002998013559863 -0.44648162232419802 0 -0.050581796861615229 -0.45333412325219669 0 -0.060002998013559863 -0.44648162232419802 0 -0.048623679129421588 -0.44273110985945369 0 -0.045123684251444827 -0.45223268167437758 0 -0.050581796861615229 -0.45333412325219669 0 -0.048623679129421588 -0.44273110985945369 0 -0.061269440441321127 -0.45180810022505591 0 -0.069408814394604765 -0.42365151461769918 0 -0.062180371227510647 -0.45563934639583059 0 -0.061269440441321127 -0.45180810022505591 0 -0.077098496045509793 -0.43873696019506903 0 -0.062180371227510647 -0.45563934639583059 0 -0.077098496045509793 -0.43873696019506903 0 -0.073769461018799692 -0.45951707792468061 0 -0.061269440441321127 -0.45180810022505591 0 -0.077098496045509793 -0.43873696019506903 0 -0.069408814394604765 -0.42365151461769918 0 -0.061269440441321127 -0.45180810022505591 0 -0.060002998013559863 -0.44648162232419802 0 -0.069408814394604765 -0.42365151461769918 0 -0.062180371227510647 -0.45563934639583059 0 -0.077098496045509793 -0.43873696019506903 0 -0.062180371227510647 -0.45563934639583059 0 -0.064422500494955764 -0.4650694252783244 0 -0.062180371227510647 -0.45563934639583059 0 -0.064422500494955764 -0.4650694252783244 0 -0.073769461018799692 -0.45951707792468061 0 -0.084521355142842869 -0.45759592347480388 0 -0.086143661312174283 -0.48253471263916248 0 -0.099165393688022629 -0.46120376842987459 0 -0.073769461018799692 -0.45951707792468061 0 -0.084521355142842869 -0.45759592347480388 0 -0.086143661312174283 -0.48253471263916248 0 -0.084521355142842869 -0.45759592347480388 0 -0.089624247433654214 -0.44685599598904568 0 -0.099165393688022629 -0.46120376842987459 0 -0.077098496045509793 -0.43873696019506903 0 -0.084521355142842869 -0.45759592347480388 0 -0.089624247433654214 -0.44685599598904568 0 -0.077098496045509793 -0.43873696019506903 0 -0.073769461018799692 -0.45951707792468061 0 -0.084521355142842869 -0.45759592347480388 0 -0.089624247433654214 -0.44685599598904568 0 -0.099878095611554862 -0.4393977270813314 0 -0.089545628933694749 -0.43673796215895883 0 -0.077098496045509793 -0.43873696019506903 0 -0.089624247433654214 -0.44685599598904568 0 -0.089545628933694749 -0.43673796215895883 0 -0.072727718816887776 -0.49999999999999672 0 -0.068575109655922298 -0.48253471263916042 0 -0.058853327493046781 -0.48842932436532971 0 -0.072727718816887776 -0.49999999999999672 0 -0.068575109655922298 -0.48253471263916042 0 -0.072727718816887776 -0.49999999999999672 0 -0.068575109655922298 -0.48253471263916042 0 -0.086143661312174283 -0.48253471263916248 0 -0.064422500494955764 -0.4650694252783244 0 -0.068575109655922298 -0.48253471263916042 0 -0.059149819292987238 -0.47777467248794547 0 -0.064422500494955764 -0.4650694252783244 0 -0.068575109655922298 -0.48253471263916042 0 -0.064422500494955764 -0.4650694252783244 0 -0.073769461018799692 -0.45951707792468061 0 -0.086143661312174283 -0.48253471263916248 0 -0.064422500494955764 -0.4650694252783244 0 -0.068575109655922298 -0.48253471263916042 0 -0.086143661312174283 -0.48253471263916248 0 -0.064422500494955764 -0.4650694252783244 0 -0.086143661312174283 -0.48253471263916248 0 -0.072727718816887776 -0.49999999999999672 0 -0.086143661312174283 -0.48253471263916248 0 -0.090296270473140428 -0.5 0 -0.086143661312174283 -0.48253471263916248 0 -0.090296270473140428 -0.5 0 -0.10786482212939311 -0.50000000000000011 0 -0.086143661312174283 -0.48253471263916248 0 -0.10786482212939311 -0.50000000000000011 0 -0.086143661312174283 -0.48253471263916248 0 -0.10786482212939311 -0.50000000000000011 0 -0.1056577076014347 -0.47999846360012538 0 -0.086143661312174283 -0.48253471263916248 0 -0.1056577076014347 -0.47999846360012538 0 -0.099165393688022629 -0.46120376842987459 0 -0.1056577076014347 -0.47999846360012538 0 -0.12108079434187891 -0.47202921183540031 0 -0.099165393688022629 -0.46120376842987459 0 -0.1056577076014347 -0.47999846360012538 0 -0.12108079434187891 -0.47202921183540031 0 -0.1206292342060253 -0.48641385964910883 0 -0.131118449396015 -0.5 0 -0.10786482212939311 -0.50000000000000011 0 -0.1206292342060253 -0.48641385964910883 0 -0.10786482212939311 -0.50000000000000011 0 -0.1056577076014347 -0.47999846360012538 0 -0.1206292342060253 -0.48641385964910883 0 -0.099878095611554862 -0.4393977270813314 0 -0.099165393688022629 -0.46120376842987459 0 -0.099878095611554862 -0.4393977270813314 0 -0.099165393688022629 -0.46120376842987459 0 -0.11615585050415531 -0.45102464773050138 0 -0.089624247433654214 -0.44685599598904568 0 -0.099878095611554862 -0.4393977270813314 0 -0.099165393688022629 -0.46120376842987459 0 -0.12108079434187891 -0.47202921183540031 0 -0.099165393688022629 -0.46120376842987459 0 -0.11615585050415531 -0.45102464773050138 0 -0.13077987840644981 -0.46069854066347632 0 -0.12108079434187891 -0.47202921183540031 0 -0.11615585050415531 -0.45102464773050138 0 -0.13194602454298601 -0.43962244526902572 0 -0.11615585050415531 -0.45102464773050138 0 -0.1129403580353462 -0.43280081863281078 0 -0.099878095611554862 -0.4393977270813314 0 -0.11615585050415531 -0.45102464773050138 0 -0.1129403580353462 -0.43280081863281078 0 -0.13194602454298601 -0.43962244526902572 0 -0.1165997240041481 -0.41847011486561592 0 -0.13194602454298601 -0.43962244526902572 0 -0.1129403580353462 -0.43280081863281078 0 -0.1165997240041481 -0.41847011486561592 0 -0.1129403580353462 -0.43280081863281078 0 -0.1079125428112538 -0.41892639524425412 0 -0.1165997240041481 -0.41847011486561592 0 -0.099878095611554862 -0.4393977270813314 0 -0.100590797535087 -0.41759168573278821 0 -0.092016620863508841 -0.4218345739943074 0 -0.099878095611554862 -0.4393977270813314 0 -0.089545628933694749 -0.43673796215895883 0 -0.092016620863508841 -0.4218345739943074 0 -0.099878095611554862 -0.4393977270813314 0 -0.1129403580353462 -0.43280081863281078 0 -0.10283731640903 -0.42510314405888588 0 -0.099878095611554862 -0.4393977270813314 0 -0.100590797535087 -0.41759168573278821 0 -0.099878095611554862 -0.4393977270813314 0 -0.10283731640903 -0.42510314405888588 0 -0.100590797535087 -0.41759168573278821 0 -0.1129403580353462 -0.43280081863281078 0 -0.10283731640903 -0.42510314405888588 0 -0.1079125428112538 -0.41892639524425412 0 -0.100590797535087 -0.41759168573278821 0 -0.1012534234653099 -0.39731778446220639 0 -0.1165997240041481 -0.41847011486561592 0 -0.1012534234653099 -0.39731778446220639 0 -0.100590797535087 -0.41759168573278821 0 -0.094499944748829334 -0.39722631626938482 0 -0.088610052547492879 -0.41006814396079783 0 -0.100590797535087 -0.41759168573278821 0 -0.1079125428112538 -0.41892639524425412 0 -0.1012534234653099 -0.39731778446220639 0 -0.100590797535087 -0.41759168573278821 0 -0.094499944748829334 -0.39722631626938482 0 -0.1079125428112538 -0.41892639524425412 0 -0.1165997240041481 -0.41847011486561592 0 -0.1012534234653099 -0.39731778446220639 0 -0.10283731640903 -0.42510314405888588 0 -0.100590797535087 -0.41759168573278821 0 -0.1079125428112538 -0.41892639524425412 0 -0.10283731640903 -0.42510314405888588 0 -0.100590797535087 -0.41759168573278821 0 -0.12592730430259419 -0.40432488328170318 0 -0.1165997240041481 -0.41847011486561592 0 -0.1152538145686829 -0.39895411709426332 0 -0.1165997240041481 -0.41847011486561592 0 -0.1152538145686829 -0.39895411709426332 0 -0.1012534234653099 -0.39731778446220639 0 -0.12526638733901391 -0.39147447277512609 0 -0.12592730430259419 -0.40432488328170318 0 -0.1152538145686829 -0.39895411709426332 0 -0.12526638733901391 -0.39147447277512609 0 -0.1152538145686829 -0.39895411709426332 0 -0.1147112201852714 -0.38836266809632891 0 -0.1152538145686829 -0.39895411709426332 0 -0.1147112201852714 -0.38836266809632891 0 -0.1077648281157602 -0.39377477908459929 0 -0.12526638733901391 -0.39147447277512609 0 -0.12201267174342199 -0.37938718301114999 0 -0.1147112201852714 -0.38836266809632891 0 -0.1147112201852714 -0.38836266809632891 0 -0.1094440337948836 -0.37923577087639421 0 -0.1073228884697877 -0.3875649225559597 0 -0.1147112201852714 -0.38836266809632891 0 -0.1073228884697877 -0.3875649225559597 0 -0.1077648281157602 -0.39377477908459929 0 -0.12201267174342199 -0.37938718301114999 0 -0.1147112201852714 -0.38836266809632891 0 -0.1094440337948836 -0.37923577087639421 0 -0.1159926709000937 -0.36685414663024191 0 -0.12201267174342199 -0.37938718301114999 0 -0.1094440337948836 -0.37923577087639421 0 -0.1024060606807759 -0.36205135125861898 0 -0.1094440337948836 -0.37923577087639421 0 -0.1016559479587178 -0.38500202459504551 0 -0.1094440337948836 -0.37923577087639421 0 -0.1016559479587178 -0.38500202459504551 0 -0.1073228884697877 -0.3875649225559597 0 -0.1016559479587178 -0.38500202459504551 0 -0.1014693111655476 -0.390712419775258 0 -0.1016559479587178 -0.38500202459504551 0 -0.1073228884697877 -0.3875649225559597 0 -0.1014693111655476 -0.390712419775258 0 -0.1016559479587178 -0.38500202459504551 0 -0.091585827134305964 -0.3839926061052007 0 -0.1016559479587178 -0.38500202459504551 0 -0.1014693111655476 -0.390712419775258 0 -0.093729726096669103 -0.3869476153003294 0 -0.1016559479587178 -0.38500202459504551 0 -0.091585827134305964 -0.3839926061052007 0 -0.093729726096669103 -0.3869476153003294 0 -0.1014693111655476 -0.390712419775258 0 -0.093729726096669103 -0.3869476153003294 0 -0.1016559479587178 -0.38500202459504551 0 -0.095426438310298192 -0.37780241062099151 0 -0.091585827134305964 -0.3839926061052007 0 -0.100590797535087 -0.41759168573278821 0 -0.1012534234653099 -0.39731778446220639 0 -0.099487365185966847 -0.39952233119993291 0 -0.100590797535087 -0.41759168573278821 0 -0.094499944748829334 -0.39722631626938482 0 -0.099487365185966847 -0.39952233119993291 0 -0.1152538145686829 -0.39895411709426332 0 -0.1077648281157602 -0.39377477908459929 0 -0.1012534234653099 -0.39731778446220639 0 -0.1073228884697877 -0.3875649225559597 0 -0.1077648281157602 -0.39377477908459929 0 -0.1014693111655476 -0.390712419775258 0 -0.1077648281157602 -0.39377477908459929 0 -0.1012534234653099 -0.39731778446220639 0 -0.1014693111655476 -0.390712419775258 0 -0.1077648281157602 -0.39377477908459929 0 -0.1014693111655476 -0.390712419775258 0 -0.1012534234653099 -0.39731778446220639 0 -0.094499944748829334 -0.39722631626938482 0 -0.099487365185966847 -0.39952233119993291 0 -0.1012534234653099 -0.39731778446220639 0 -0.094499944748829334 -0.39722631626938482 0 -0.093729726096669103 -0.3869476153003294 0 -0.1012534234653099 -0.39731778446220639 0 -0.1014693111655476 -0.390712419775258 0 -0.093729726096669103 -0.3869476153003294 0 -0.1012534234653099 -0.39731778446220639 0 -0.093729726096669103 -0.3869476153003294 0 -0.1012534234653099 -0.39731778446220639 0 -0.1014693111655476 -0.390712419775258 0 -0.094499944748829334 -0.39722631626938482 0 -0.099487365185966847 -0.39952233119993291 0 -0.094499944748829334 -0.39722631626938482 0 -0.085553154766675646 -0.40134027138503481 0 -0.088610052547492879 -0.41006814396079783 0 -0.094499944748829334 -0.39722631626938482 0 -0.082560309743270749 -0.39172977139542609 0 -0.085553154766675646 -0.40134027138503481 0 -0.094499944748829334 -0.39722631626938482 0 -0.082560309743270749 -0.39172977139542609 0 -0.091033556626635648 -0.38563610430902873 0 -0.094499944748829334 -0.39722631626938482 0 -0.082560309743270749 -0.39172977139542609 0 -0.094499944748829334 -0.39722631626938482 0 -0.091033556626635648 -0.38563610430902873 0 -0.082560309743270749 -0.39172977139542609 0 -0.079097438192195432 -0.39013559964190198 0 -0.074673198083630793 -0.40544040024196493 0 -0.082560309743270749 -0.39172977139542609 0 -0.079097438192195432 -0.39013559964190198 0 -0.082560309743270749 -0.39172977139542609 0 -0.076542312027108539 -0.406336853914531 0 -0.082560309743270749 -0.39172977139542609 0 -0.085553154766675646 -0.40134027138503481 0 -0.076542312027108539 -0.406336853914531 0 -0.085553154766675646 -0.40134027138503481 0 -0.076542312027108539 -0.406336853914531 0 -0.088610052547492879 -0.41006814396079783 0 -0.090139611558562177 -0.37333304007799939 0 -0.088525620654428705 -0.37725057202694517 0 -0.088525620654428705 -0.37725057202694517 0 -0.087954911787112483 -0.37534235041220648 0 -0.08170780991661282 -0.38109255286014232 0 -0.090139611558562177 -0.37333304007799939 0 -0.088525620654428705 -0.37725057202694517 0 -0.087954911787112483 -0.37534235041220648 0 -0.088525620654428705 -0.37725057202694517 0 -0.087954911787112483 -0.37534235041220648 0 -0.090139611558562177 -0.37333304007799939 0 -0.095426438310298192 -0.37780241062099151 0 -0.088525620654428705 -0.37725057202694517 0 -0.088525620654428705 -0.37725057202694517 0 -0.091585827134305964 -0.3839926061052007 0 -0.095426438310298192 -0.37780241062099151 0 -0.088525620654428705 -0.37725057202694517 0 -0.091585827134305964 -0.3839926061052007 0 -0.088525620654428705 -0.37725057202694517 0 -0.086634605294488312 -0.38349630075200858 0 -0.088525620654428705 -0.37725057202694517 0 -0.086634605294488312 -0.38349630075200858 0 -0.091585827134305964 -0.3839926061052007 0 -0.082560309743270749 -0.39172977139542609 0 -0.086634605294488312 -0.38349630075200858 0 -0.091033556626635648 -0.38563610430902873 0 -0.094499944748829334 -0.39722631626938482 0 -0.091033556626635648 -0.38563610430902873 0 -0.093729726096669103 -0.3869476153003294 0 -0.086634605294488312 -0.38349630075200858 0 -0.091585827134305964 -0.3839926061052007 0 -0.086634605294488312 -0.38349630075200858 0 -0.091033556626635648 -0.38563610430902873 0 -0.086634605294488312 -0.38349630075200858 0 -0.091585827134305964 -0.3839926061052007 0 -0.091033556626635648 -0.38563610430902873 0 -0.091585827134305964 -0.3839926061052007 0 -0.091033556626635648 -0.38563610430902873 0 -0.093729726096669103 -0.3869476153003294 0 -0.091033556626635648 -0.38563610430902873 0 -0.093729726096669103 -0.3869476153003294 0 -0.091585827134305964 -0.3839926061052007 0 -0.093729726096669103 -0.3869476153003294 0 -0.091585827134305964 -0.3839926061052007 0 -0.091033556626635648 -0.38563610430902873 0 -0.082560309743270749 -0.39172977139542609 0 -0.086634605294488312 -0.38349630075200858 0 -0.082560309743270749 -0.39172977139542609 0 -0.086634605294488312 -0.38349630075200858 0 -0.081174899406055781 -0.38294902548401538 0 -0.082560309743270749 -0.39172977139542609 0 -0.079097438192195432 -0.39013559964190198 0 -0.081174899406055781 -0.38294902548401538 0 -0.079097438192195432 -0.39013559964190198 0 -0.081174899406055781 -0.38294902548401538 0 -0.074281153156084773 -0.38791836881244668 0 -0.079097438192195432 -0.39013559964190198 0 -0.081174899406055781 -0.38294902548401538 0 -0.086634605294488312 -0.38349630075200858 0 -0.081174899406055781 -0.38294902548401538 0 -0.088525620654428705 -0.37725057202694517 0 -0.086634605294488312 -0.38349630075200858 0 -0.08170780991661282 -0.38109255286014232 0 -0.086634605294488312 -0.38349630075200858 0 -0.081174899406055781 -0.38294902548401538 0 -0.08170780991661282 -0.38109255286014232 0 -0.086634605294488312 -0.38349630075200858 0 -0.08170780991661282 -0.38109255286014232 0 -0.081174899406055781 -0.38294902548401538 0 -0.08170780991661282 -0.38109255286014232 0 -0.087954911787112483 -0.37534235041220648 0 -0.08170780991661282 -0.38109255286014232 0 -0.055512870853615448 -0.39455951290216967 0 -0.058563253679506787 -0.38068245751723601 0 -0.074281153156084773 -0.38791836881244668 0 -0.058563253679506787 -0.38068245751723601 0 -0.074281153156084773 -0.38791836881244668 0 -0.058387822440418388 -0.36975607908058028 0 -0.08170780991661282 -0.38109255286014232 0 -0.058387822440418388 -0.36975607908058028 0 -0.081174899406055781 -0.38294902548401538 0 -0.08170780991661282 -0.38109255286014232 0 -0.058563253679506787 -0.38068245751723601 0 -0.081174899406055781 -0.38294902548401538 0 -0.074281153156084773 -0.38791836881244668 0 -0.058563253679506787 -0.38068245751723601 0 -0.081174899406055781 -0.38294902548401538 0 -0.058387822440418388 -0.36975607908058028 0 -0.058563253679506787 -0.38068245751723601 0 -0.081174899406055781 -0.38294902548401538 0 -0.081174899406055781 -0.38294902548401538 0 -0.074281153156084773 -0.38791836881244668 0 -0.079097438192195432 -0.39013559964190198 0 -0.074281153156084773 -0.38791836881244668 0 -0.079097438192195432 -0.39013559964190198 0 -0.074281153156084773 -0.38791836881244668 0 -0.074673198083630793 -0.40544040024196493 0 -0.052509649903146327 -0.40794203844841681 0 -0.074281153156084773 -0.38791836881244668 0 -0.052509649903146327 -0.40794203844841681 0 -0.074281153156084773 -0.38791836881244668 0 -0.074673198083630793 -0.40544040024196493 0 -0.082560309743270749 -0.39172977139542609 0 -0.074673198083630793 -0.40544040024196493 0 -0.076542312027108539 -0.406336853914531 0 -0.079097438192195432 -0.39013559964190198 0 -0.074673198083630793 -0.40544040024196493 0 -0.052509649903146327 -0.40794203844841681 0 -0.074673198083630793 -0.40544040024196493 0 -0.070248957975066639 -0.42074520084202788 0 -0.076542312027108539 -0.406336853914531 0 -0.070248957975066639 -0.42074520084202788 0 -0.074673198083630793 -0.40544040024196493 0 -0.070248957975066639 -0.42074520084202788 0 -0.074673198083630793 -0.40544040024196493 0 -0.076542312027108539 -0.406336853914531 0 -0.070248957975066639 -0.42074520084202788 0 -0.070248957975066639 -0.42074520084202788 0 -0.077246521605040669 -0.42579562012280953 0 -0.078194253298280558 -0.41865647959270891 0 -0.076542312027108539 -0.406336853914531 0 -0.070248957975066639 -0.42074520084202788 0 -0.078194253298280558 -0.41865647959270891 0 -0.059775586818595829 -0.41787661413097049 0 -0.070248957975066639 -0.42074520084202788 0 -0.069408814394604765 -0.42365151461769918 0 -0.060002998013559863 -0.44648162232419802 0 -0.069408814394604765 -0.42365151461769918 0 -0.070248957975066639 -0.42074520084202788 0 -0.069408814394604765 -0.42365151461769918 0 -0.077098496045509793 -0.43873696019506903 0 -0.069408814394604765 -0.42365151461769918 0 -0.077246521605040669 -0.42579562012280953 0 -0.070248957975066639 -0.42074520084202788 0 -0.069408814394604765 -0.42365151461769918 0 -0.077246521605040669 -0.42579562012280953 0 -0.070248957975066639 -0.42074520084202788 0 -0.077246521605040669 -0.42579562012280953 0 -0.077246521605040669 -0.42579562012280953 0 -0.082943237868067593 -0.4239856173255338 0 -0.078194253298280558 -0.41865647959270891 0 -0.077098496045509793 -0.43873696019506903 0 -0.082943237868067593 -0.4239856173255338 0 -0.092016620863508841 -0.4218345739943074 0 -0.077098496045509793 -0.43873696019506903 0 -0.089545628933694749 -0.43673796215895883 0 -0.092016620863508841 -0.4218345739943074 0 -0.077098496045509793 -0.43873696019506903 0 -0.092016620863508841 -0.4218345739943074 0 -0.077098496045509793 -0.43873696019506903 0 -0.077246521605040669 -0.42579562012280953 0 -0.082943237868067593 -0.4239856173255338 0 -0.100590797535087 -0.41759168573278821 0 -0.092016620863508841 -0.4218345739943074 0 -0.088610052547492879 -0.41006814396079783 0 -0.082943237868067593 -0.4239856173255338 0 -0.092016620863508841 -0.4218345739943074 0 -0.083714880680240453 -0.41622037016703428 0 -0.092016620863508841 -0.4218345739943074 0 -0.088610052547492879 -0.41006814396079783 0 -0.083714880680240453 -0.41622037016703428 0 -0.076542312027108539 -0.406336853914531 0 -0.088610052547492879 -0.41006814396079783 0 -0.083714880680240453 -0.41622037016703428 0 -0.076542312027108539 -0.406336853914531 0 -0.078194253298280558 -0.41865647959270891 0 -0.083714880680240453 -0.41622037016703428 0 -0.082943237868067593 -0.4239856173255338 0 -0.078194253298280558 -0.41865647959270891 0 -0.083714880680240453 -0.41622037016703428 0 -0.081808777729522386 -0.083143660930833002 0 -0.073985000225153141 -0.099795971436559522 0 -0.085935801107842547 -0.09579043756499836 0 -0.081808777729522386 -0.083143660930833002 0 -0.085935801107842547 -0.09579043756499836 0 -0.094306078709463503 -0.087148618235937392 0 -0.081808777729522386 -0.083143660930833002 0 -0.094306078709463503 -0.087148618235937392 0 -0.095869533599057435 -0.074719864200214883 0 -0.081808777729522386 -0.083143660930833002 0 -0.087640100333796281 -0.066301869750421821 0 -0.076351800502585221 -0.068318825045574613 0 -0.081808777729522386 -0.083143660930833002 0 -0.087640100333796281 -0.066301869750421821 0 -0.095869533599057435 -0.074719864200214883 0 -0.087640100333796281 -0.066301869750421821 0 -0.095869533599057435 -0.074719864200214883 0 -0.097041901727127691 -0.062312633498474219 0 -0.087640100333796281 -0.066301869750421821 0 -0.076351800502585221 -0.068318825045574613 0 -0.079773765115028039 -0.057914828426178573 0 -0.081808777729522386 -0.083143660930833002 0 -0.076351800502585221 -0.068318825045574613 0 -0.068001603171865072 -0.074911341683796137 0 -0.068001603171865072 -0.074911341683796137 0 -0.065822825648978775 -0.060485584973140792 0 -0.05753372126900759 -0.073422836261521005 0 -0.076351800502585221 -0.068318825045574613 0 -0.068001603171865072 -0.074911341683796137 0 -0.065822825648978775 -0.060485584973140792 0 -0.068001603171865072 -0.074911341683796137 0 -0.066670257350634976 -0.085780572793309681 0 -0.05753372126900759 -0.073422836261521005 0 -0.081808777729522386 -0.083143660930833002 0 -0.066670257350634976 -0.085780572793309681 0 -0.073985000225153141 -0.099795971436559522 0 -0.081808777729522386 -0.083143660930833002 0 -0.068001603171865072 -0.074911341683796137 0 -0.066670257350634976 -0.085780572793309681 0 -0.066670257350634976 -0.085780572793309681 0 -0.073985000225153141 -0.099795971436559522 0 -0.05982498813170789 -0.10249801488187529 0 -0.073985000225153141 -0.099795971436559522 0 -0.065415314349395459 -0.11473522154729129 0 -0.05982498813170789 -0.10249801488187529 0 -0.073985000225153141 -0.099795971436559522 0 -0.065415314349395459 -0.11473522154729129 0 -0.07727601190464152 -0.1134926659633375 0 -0.065415314349395459 -0.11473522154729129 0 -0.060446148579459319 -0.1303024678998376 0 -0.071674103496310607 -0.1250344835198243 0 -0.07727601190464152 -0.1134926659633375 0 -0.082994471061899833 -0.1234246307735777 0 -0.071674103496310607 -0.1250344835198243 0 -0.065415314349395459 -0.11473522154729129 0 -0.07727601190464152 -0.1134926659633375 0 -0.071674103496310607 -0.1250344835198243 0 -0.07727601190464152 -0.1134926659633375 0 -0.082994471061899833 -0.1234246307735777 0 -0.08680817640523622 -0.1078855820033275 0 -0.082994471061899833 -0.1234246307735777 0 -0.08680817640523622 -0.1078855820033275 0 -0.095277368860953449 -0.1178446661751102 0 -0.082994471061899833 -0.1234246307735777 0 -0.095277368860953449 -0.1178446661751102 0 -0.095971306836852913 -0.13086642389395989 0 -0.085935801107842547 -0.09579043756499836 0 -0.08680817640523622 -0.1078855820033275 0 -0.1020424425883536 -0.1015565670732166 0 -0.073985000225153141 -0.099795971436559522 0 -0.085935801107842547 -0.09579043756499836 0 -0.08680817640523622 -0.1078855820033275 0 -0.073985000225153141 -0.099795971436559522 0 -0.07727601190464152 -0.1134926659633375 0 -0.08680817640523622 -0.1078855820033275 0 -0.085935801107842547 -0.09579043756499836 0 -0.1020424425883536 -0.1015565670732166 0 -0.094306078709463503 -0.087148618235937392 0 -0.08680817640523622 -0.1078855820033275 0 -0.1020424425883536 -0.1015565670732166 0 -0.095277368860953449 -0.1178446661751102 0 -0.1020424425883536 -0.1015565670732166 0 -0.095277368860953449 -0.1178446661751102 0 -0.1085913382140784 -0.11903379143832921 0 -0.095277368860953449 -0.1178446661751102 0 -0.1085913382140784 -0.11903379143832921 0 -0.095971306836852913 -0.13086642389395989 0 -0.1085913382140784 -0.11903379143832921 0 -0.11893842975153809 -0.10446969177473921 0 -0.12736410167423581 -0.1213878944680517 0 -0.1020424425883536 -0.1015565670732166 0 -0.11893842975153809 -0.10446969177473921 0 -0.1189291253072135 -0.086669643832799348 0 -0.1020424425883536 -0.1015565670732166 0 -0.1085913382140784 -0.11903379143832921 0 -0.11893842975153809 -0.10446969177473921 0 -0.1189291253072135 -0.086669643832799348 0 -0.1056068239719813 -0.08097964138995771 0 -0.1139735316209595 -0.069866863539540053 0 -0.1020424425883536 -0.1015565670732166 0 -0.1189291253072135 -0.086669643832799348 0 -0.1056068239719813 -0.08097964138995771 0 -0.1020424425883536 -0.1015565670732166 0 -0.1056068239719813 -0.08097964138995771 0 -0.094306078709463503 -0.087148618235937392 0 -0.1056068239719813 -0.08097964138995771 0 -0.094306078709463503 -0.087148618235937392 0 -0.095869533599057435 -0.074719864200214883 0 -0.095869533599057435 -0.074719864200214883 0 -0.1039382096783972 -0.069282752438140638 0 -0.097041901727127691 -0.062312633498474219 0 -0.1056068239719813 -0.08097964138995771 0 -0.1039382096783972 -0.069282752438140638 0 -0.1139735316209595 -0.069866863539540053 0 -0.1056068239719813 -0.08097964138995771 0 -0.095869533599057435 -0.074719864200214883 0 -0.1039382096783972 -0.069282752438140638 0 -0.1039382096783972 -0.069282752438140638 0 -0.097041901727127691 -0.062312633498474219 0 -0.1071992574728602 -0.058534759562516372 0 -0.1039382096783972 -0.069282752438140638 0 -0.1139735316209595 -0.069866863539540053 0 -0.1071992574728602 -0.058534759562516372 0 -0.1189291253072135 -0.086669643832799348 0 -0.1139735316209595 -0.069866863539540053 0 -0.12930964035960699 -0.069761515268982097 0 -0.1139735316209595 -0.069866863539540053 0 -0.1161384697585349 -0.056806249932135858 0 -0.12930964035960699 -0.069761515268982097 0 -0.1161384697585349 -0.056806249932135858 0 -0.1208541397454049 -0.045822468476665427 0 -0.12930964035960699 -0.069761515268982097 0 -0.1248214427799455 -0.0491876577223027 0 -0.1208541397454049 -0.045822468476665427 0 -0.12930964035960699 -0.069761515268982097 0 -0.1161384697585349 -0.056806249932135858 0 -0.10991932193075039 -0.048940588969216672 0 -0.1071992574728602 -0.058534759562516372 0 -0.1139735316209595 -0.069866863539540053 0 -0.1161384697585349 -0.056806249932135858 0 -0.1071992574728602 -0.058534759562516372 0 -0.1161384697585349 -0.056806249932135858 0 -0.10991932193075039 -0.048940588969216672 0 -0.1149357203506014 -0.047989794102068162 0 -0.1161384697585349 -0.056806249932135858 0 -0.1149357203506014 -0.047989794102068162 0 -0.1208541397454049 -0.045822468476665427 0 -0.1248214427799455 -0.0491876577223027 0 -0.1208541397454049 -0.045822468476665427 0 -0.1246368416492639 -0.024787675353444869 0 -0.1128309499677153 -0.040389869030254703 0 -0.10841128816168021 -0.033720593740292633 0 -0.11239863913120279 -0.021883421684348751 0 -0.1208541397454049 -0.045822468476665427 0 -0.11239863913120279 -0.021883421684348751 0 -0.1208541397454049 -0.045822468476665427 0 -0.1128309499677153 -0.040389869030254703 0 -0.11239863913120279 -0.021883421684348751 0 -0.1248214427799455 -0.0491876577223027 0 -0.1246368416492639 -0.024787675353444869 0 -0.1149357203506014 -0.047989794102068162 0 -0.1208541397454049 -0.045822468476665427 0 -0.1128309499677153 -0.040389869030254703 0 -0.10991932193075039 -0.048940588969216672 0 -0.1149357203506014 -0.047989794102068162 0 -0.1128309499677153 -0.040389869030254703 0 -0.10991932193075039 -0.048940588969216672 0 -0.1128309499677153 -0.040389869030254703 0 -0.1049963107845597 -0.040407454994133042 0 -0.10991932193075039 -0.048940588969216672 0 -0.1049963107845597 -0.040407454994133042 0 -0.1002598709818909 -0.049694841596422852 0 -0.1049963107845597 -0.040407454994133042 0 -0.10841128816168021 -0.033720593740292633 0 -0.1012581714839781 -0.029848849592015819 0 -0.1128309499677153 -0.040389869030254703 0 -0.1049963107845597 -0.040407454994133042 0 -0.10841128816168021 -0.033720593740292633 0 -0.097298262181343159 -0.039849987036595598 0 -0.1012581714839781 -0.029848849592015819 0 -0.091929659262116575 -0.033133953101480262 0 -0.1049963107845597 -0.040407454994133042 0 -0.097298262181343159 -0.039849987036595598 0 -0.1012581714839781 -0.029848849592015819 0 -0.1049963107845597 -0.040407454994133042 0 -0.097298262181343159 -0.039849987036595598 0 -0.1002598709818909 -0.049694841596422852 0 -0.097298262181343159 -0.039849987036595598 0 -0.1002598709818909 -0.049694841596422852 0 -0.087030839425688053 -0.044306376809862227 0 -0.1002598709818909 -0.049694841596422852 0 -0.097041901727127691 -0.062312633498474219 0 -0.1071992574728602 -0.058534759562516372 0 -0.1002598709818909 -0.049694841596422852 0 -0.097041901727127691 -0.062312633498474219 0 -0.090164156554830718 -0.055563028782557922 0 -0.10991932193075039 -0.048940588969216672 0 -0.1002598709818909 -0.049694841596422852 0 -0.1071992574728602 -0.058534759562516372 0 -0.1244522405185825 -0.00038769298458709092 0 -0.11239863913120279 -0.021883421684348751 0 -0.10394313851700079 0.0020556251079679459 0 -0.1244522405185825 -0.00038769298458709092 0 -0.1246368416492639 -0.024787675353444869 0 -0.1244522405185825 -0.00038769298458709092 0 -0.11239863913120279 -0.021883421684348751 0 -0.1246368416492639 -0.024787675353444869 0 -0.1208541397454049 -0.045822468476665427 0 -0.11239863913120279 -0.021883421684348751 0 -0.1246368416492639 -0.024787675353444869 0 -0.10841128816168021 -0.033720593740292633 0 -0.11239863913120279 -0.021883421684348751 0 -0.1012581714839781 -0.029848849592015819 0 -0.1012581714839781 -0.029848849592015819 0 -0.090677970328949406 -0.022917020247476879 0 -0.091929659262116575 -0.033133953101480262 0 -0.1012581714839781 -0.029848849592015819 0 -0.1001126671493681 -0.016491083843961009 0 -0.090677970328949406 -0.022917020247476879 0 -0.1001126671493681 -0.016491083843961009 0 -0.092285416285709382 -0.0098617528039315269 0 -0.090677970328949406 -0.022917020247476879 0 -0.11239863913120279 -0.021883421684348751 0 -0.1012581714839781 -0.029848849592015819 0 -0.1001126671493681 -0.016491083843961009 0 -0.1001126671493681 -0.016491083843961009 0 -0.092285416285709382 -0.0098617528039315269 0 -0.10394313851700079 0.0020556251079679459 0 -0.11239863913120279 -0.021883421684348751 0 -0.1001126671493681 -0.016491083843961009 0 -0.10394313851700079 0.0020556251079679459 0 -0.092285416285709382 -0.0098617528039315269 0 -0.10394313851700079 0.0020556251079679459 0 -0.085958893623968774 0.001514634656162053 0 -0.11239863913120279 -0.021883421684348751 0 -0.10394313851700079 0.0020556251079679459 0 -0.092285416285709382 -0.0098617528039315269 0 -0.077949881484559239 -0.01307625006729682 0 -0.085958893623968774 0.001514634656162053 0 -0.092285416285709382 -0.0098617528039315269 0 -0.090677970328949406 -0.022917020247476879 0 -0.077949881484559239 -0.01307625006729682 0 -0.090677970328949406 -0.022917020247476879 0 -0.073841780976804383 -0.025706854857452392 0 -0.077949881484559239 -0.01307625006729682 0 -0.090677970328949406 -0.022917020247476879 0 -0.073841780976804383 -0.025706854857452392 0 -0.082102255714859004 -0.034759692131612618 0 -0.090677970328949406 -0.022917020247476879 0 -0.091929659262116575 -0.033133953101480262 0 -0.082102255714859004 -0.034759692131612618 0 -0.073841780976804383 -0.025706854857452392 0 -0.077949881484559239 -0.01307625006729682 0 -0.060674527584339763 -0.015412449877807689 0 -0.073841780976804383 -0.025706854857452392 0 -0.060674527584339763 -0.015412449877807689 0 -0.060703590497751453 -0.03101491529774986 0 -0.077949881484559239 -0.01307625006729682 0 -0.085958893623968774 0.001514634656162053 0 -0.065648076432031049 0.00090955339710942099 0 -0.077949881484559239 -0.01307625006729682 0 -0.060674527584339763 -0.015412449877807689 0 -0.065648076432031049 0.00090955339710942099 0 -0.079773765115028039 -0.057914828426178573 0 -0.087030839425688053 -0.044306376809862227 0 -0.074827122987446398 -0.047817820925290022 0 -0.079773765115028039 -0.057914828426178573 0 -0.090164156554830718 -0.055563028782557922 0 -0.087030839425688053 -0.044306376809862227 0 -0.087640100333796281 -0.066301869750421821 0 -0.079773765115028039 -0.057914828426178573 0 -0.090164156554830718 -0.055563028782557922 0 -0.087640100333796281 -0.066301869750421821 0 -0.097041901727127691 -0.062312633498474219 0 -0.090164156554830718 -0.055563028782557922 0 -0.1002598709818909 -0.049694841596422852 0 -0.090164156554830718 -0.055563028782557922 0 -0.087030839425688053 -0.044306376809862227 0 -0.097298262181343159 -0.039849987036595598 0 -0.087030839425688053 -0.044306376809862227 0 -0.091929659262116575 -0.033133953101480262 0 -0.087030839425688053 -0.044306376809862227 0 -0.091929659262116575 -0.033133953101480262 0 -0.082102255714859004 -0.034759692131612618 0 -0.087030839425688053 -0.044306376809862227 0 -0.082102255714859004 -0.034759692131612618 0 -0.074827122987446398 -0.047817820925290022 0 -0.082102255714859004 -0.034759692131612618 0 -0.070942460250367517 -0.03706080152277047 0 -0.074827122987446398 -0.047817820925290022 0 -0.073841780976804383 -0.025706854857452392 0 -0.082102255714859004 -0.034759692131612618 0 -0.070942460250367517 -0.03706080152277047 0 -0.073841780976804383 -0.025706854857452392 0 -0.070942460250367517 -0.03706080152277047 0 -0.060703590497751453 -0.03101491529774986 0 -0.070942460250367517 -0.03706080152277047 0 -0.061850736208416378 -0.044087883634974623 0 -0.060703590497751453 -0.03101491529774986 0 -0.070942460250367517 -0.03706080152277047 0 -0.074827122987446398 -0.047817820925290022 0 -0.061850736208416378 -0.044087883634974623 0 -0.074827122987446398 -0.047817820925290022 0 -0.065822825648978775 -0.060485584973140792 0 -0.061850736208416378 -0.044087883634974623 0 -0.079773765115028039 -0.057914828426178573 0 -0.074827122987446398 -0.047817820925290022 0 -0.065822825648978775 -0.060485584973140792 0 -0.076351800502585221 -0.068318825045574613 0 -0.079773765115028039 -0.057914828426178573 0 -0.065822825648978775 -0.060485584973140792 0 -0.065822825648978775 -0.060485584973140792 0 -0.051906109188989122 -0.051634581827710108 0 -0.055146373663134192 -0.063188587977351315 0 -0.065822825648978775 -0.060485584973140792 0 -0.051906109188989122 -0.051634581827710108 0 -0.061850736208416378 -0.044087883634974623 0 -0.051906109188989122 -0.051634581827710108 0 -0.044968642856814678 -0.064628327886466996 0 -0.055146373663134192 -0.063188587977351315 0 -0.061850736208416378 -0.044087883634974623 0 -0.048286593140243993 -0.039377229684959138 0 -0.060703590497751453 -0.03101491529774986 0 -0.051906109188989122 -0.051634581827710108 0 -0.061850736208416378 -0.044087883634974623 0 -0.048286593140243993 -0.039377229684959138 0 -0.048286593140243993 -0.039377229684959138 0 -0.039642814346724391 -0.052475069278980747 0 -0.030584103036016622 -0.035608219704199993 0 -0.039642814346724391 -0.052475069278980747 0 -0.024435088609687641 -0.049746151716912712 0 -0.030584103036016622 -0.035608219704199993 0 -0.048286593140243993 -0.039377229684959138 0 -0.044331283213942488 -0.020119990811347448 0 -0.030584103036016622 -0.035608219704199993 0 -0.039642814346724391 -0.052475069278980747 0 -0.03034189778213453 -0.060014988360291517 0 -0.024435088609687641 -0.049746151716912712 0 -0.039642814346724391 -0.052475069278980747 0 -0.03034189778213453 -0.060014988360291517 0 -0.044968642856814678 -0.064628327886466996 0 -0.051906109188989122 -0.051634581827710108 0 -0.039642814346724391 -0.052475069278980747 0 -0.044968642856814678 -0.064628327886466996 0 -0.051906109188989122 -0.051634581827710108 0 -0.048286593140243993 -0.039377229684959138 0 -0.039642814346724391 -0.052475069278980747 0 -0.060674527584339763 -0.015412449877807689 0 -0.044331283213942488 -0.020119990811347448 0 -0.045118160941850949 -0.00049033847668307538 0 -0.060674527584339763 -0.015412449877807689 0 -0.045118160941850949 -0.00049033847668307538 0 -0.065648076432031049 0.00090955339710942099 0 -0.048286593140243993 -0.039377229684959138 0 -0.060703590497751453 -0.03101491529774986 0 -0.044331283213942488 -0.020119990811347448 0 -0.060674527584339763 -0.015412449877807689 0 -0.060703590497751453 -0.03101491529774986 0 -0.044331283213942488 -0.020119990811347448 0 -0.044331283213942488 -0.020119990811347448 0 -0.027025641752002061 -0.0079319500279313396 0 -0.030584103036016622 -0.035608219704199993 0 -0.044331283213942488 -0.020119990811347448 0 -0.045118160941850949 -0.00049033847668307538 0 -0.027025641752002061 -0.0079319500279313396 0 -0.027025641752002061 -0.0079319500279313396 0 -0.0118242871531395 -0.020545428430059291 0 -0.0091716063734174208 -0.003332990253060792 0 -0.027025641752002061 -0.0079319500279313396 0 -0.0091716063734174208 -0.003332990253060792 0 -0.01566814095190756 0.010235570601176981 0 -0.027025641752002061 -0.0079319500279313396 0 -0.0118242871531395 -0.020545428430059291 0 -0.030584103036016622 -0.035608219704199993 0 -0.0118242871531395 -0.020545428430059291 0 -0.030584103036016622 -0.035608219704199993 0 -0.0118242871531395 -0.020545428430059291 0 0.006935528729737548 -0.0054826371559186567 0 0.0027408304473846411 -0.028176541972939319 0 -0.0118242871531395 -0.020545428430059291 0 -0.01026660782967455 -0.041229232136501717 0 0.0027408304473846411 -0.028176541972939319 0 -0.0118242871531395 -0.020545428430059291 0 -0.0091716063734174208 -0.003332990253060792 0 0.006935528729737548 -0.0054826371559186567 0 -0.0118242871531395 -0.020545428430059291 0 0.006935528729737548 -0.0054826371559186567 0 -0.024435088609687641 -0.049746151716912712 0 -0.01026660782967455 -0.041229232136501717 0 -0.01499476028908407 -0.06055090283160456 0 -0.03034189778213453 -0.060014988360291517 0 -0.01499476028908407 -0.06055090283160456 0 -0.03034189778213453 -0.060014988360291517 0 -0.024435088609687641 -0.049746151716912712 0 -0.01499476028908407 -0.06055090283160456 0 -0.024435088609687641 -0.049746151716912712 0 -0.030584103036016622 -0.035608219704199993 0 -0.01026660782967455 -0.041229232136501717 0 -0.0118242871531395 -0.020545428430059291 0 -0.030584103036016622 -0.035608219704199993 0 -0.01026660782967455 -0.041229232136501717 0 -0.01026660782967455 -0.041229232136501717 0 0.0096258971738255473 -0.043108802377643002 0 0.00035237720396625368 -0.061086817302918282 0 -0.01026660782967455 -0.041229232136501717 0 -0.01499476028908407 -0.06055090283160456 0 0.00035237720396625368 -0.061086817302918282 0 -0.01499476028908407 -0.06055090283160456 0 0.00035237720396625368 -0.061086817302918282 0 -0.011408129540087309 -0.083886203777590068 0 0.0065051428120863272 -0.082127796022149757 0 0.00035237720396625368 -0.061086817302918282 0 -0.011408129540087309 -0.083886203777590068 0 0.00035237720396625368 -0.061086817302918282 0 -0.01499476028908407 -0.06055090283160456 0 -0.011408129540087309 -0.083886203777590068 0 0.00035237720396625368 -0.061086817302918282 0 -0.011408129540087309 -0.083886203777590068 0 0.001856719827670471 -0.098182337095309047 0 0.0065051428120863272 -0.082127796022149757 0 -0.011408129540087309 -0.083886203777590068 0 -0.03053113156520738 -0.089911417014305078 0 -0.02316863628414112 -0.10668559025226169 0 -0.011408129540087309 -0.083886203777590068 0 -0.03053113156520738 -0.089911417014305078 0 -0.026049830403481512 -0.075342802050597457 0 -0.01499476028908407 -0.06055090283160456 0 -0.011408129540087309 -0.083886203777590068 0 -0.026049830403481512 -0.075342802050597457 0 -0.03034189778213453 -0.060014988360291517 0 -0.01499476028908407 -0.06055090283160456 0 -0.026049830403481512 -0.075342802050597457 0 -0.03034189778213453 -0.060014988360291517 0 -0.026049830403481512 -0.075342802050597457 0 -0.041349905228919973 -0.078428718904655664 0 -0.03034189778213453 -0.060014988360291517 0 -0.044968642856814678 -0.064628327886466996 0 -0.041349905228919973 -0.078428718904655664 0 -0.03053113156520738 -0.089911417014305078 0 -0.026049830403481512 -0.075342802050597457 0 -0.041349905228919973 -0.078428718904655664 0 -0.03053113156520738 -0.089911417014305078 0 -0.041349905228919973 -0.078428718904655664 0 -0.047432501145458397 -0.097370211357339573 0 -0.041349905228919973 -0.078428718904655664 0 -0.053879666709155317 -0.08598560359304859 0 -0.05753372126900759 -0.073422836261521005 0 -0.041349905228919973 -0.078428718904655664 0 -0.053879666709155317 -0.08598560359304859 0 -0.047432501145458397 -0.097370211357339573 0 -0.066670257350634976 -0.085780572793309681 0 -0.053879666709155317 -0.08598560359304859 0 -0.05982498813170789 -0.10249801488187529 0 -0.066670257350634976 -0.085780572793309681 0 -0.053879666709155317 -0.08598560359304859 0 -0.05753372126900759 -0.073422836261521005 0 -0.044968642856814678 -0.064628327886466996 0 -0.041349905228919973 -0.078428718904655664 0 -0.05753372126900759 -0.073422836261521005 0 -0.065822825648978775 -0.060485584973140792 0 -0.05753372126900759 -0.073422836261521005 0 -0.055146373663134192 -0.063188587977351315 0 -0.044968642856814678 -0.064628327886466996 0 -0.05753372126900759 -0.073422836261521005 0 -0.055146373663134192 -0.063188587977351315 0 -0.065415314349395459 -0.11473522154729129 0 -0.048239208743362072 -0.1165718691901324 0 -0.05982498813170789 -0.10249801488187529 0 -0.065415314349395459 -0.11473522154729129 0 -0.048239208743362072 -0.1165718691901324 0 -0.060446148579459319 -0.1303024678998376 0 -0.048239208743362072 -0.1165718691901324 0 -0.05982498813170789 -0.10249801488187529 0 -0.047432501145458397 -0.097370211357339573 0 -0.053879666709155317 -0.08598560359304859 0 -0.05982498813170789 -0.10249801488187529 0 -0.047432501145458397 -0.097370211357339573 0 -0.048239208743362072 -0.1165718691901324 0 -0.047432501145458397 -0.097370211357339573 0 -0.02316863628414112 -0.10668559025226169 0 -0.03053113156520738 -0.089911417014305078 0 -0.047432501145458397 -0.097370211357339573 0 -0.02316863628414112 -0.10668559025226169 0 -0.048239208743362072 -0.1165718691901324 0 -0.02316863628414112 -0.10668559025226169 0 -0.029948833034415319 -0.13246817914486481 0 -0.02316863628414112 -0.10668559025226169 0 -0.01250087523651249 -0.12826546419306251 0 -0.029948833034415319 -0.13246817914486481 0 -0.011408129540087309 -0.083886203777590068 0 -0.02316863628414112 -0.10668559025226169 0 -0.02316863628414112 -0.10668559025226169 0 0.0015243557028834459 -0.11711868301268021 0 0.001856719827670471 -0.098182337095309047 0 -0.011408129540087309 -0.083886203777590068 0 -0.02316863628414112 -0.10668559025226169 0 0.001856719827670471 -0.098182337095309047 0 -0.02316863628414112 -0.10668559025226169 0 -0.01250087523651249 -0.12826546419306251 0 0.0015243557028834459 -0.11711868301268021 0 -0.01250087523651249 -0.12826546419306251 0 -0.013317386200938249 -0.14799664519887931 0 0.0088678229424013627 -0.13941235935176011 0 -0.01250087523651249 -0.12826546419306251 0 0.0088678229424013627 -0.13941235935176011 0 0.0015243557028834459 -0.11711868301268021 0 -0.01250087523651249 -0.12826546419306251 0 -0.029948833034415319 -0.13246817914486481 0 -0.013317386200938249 -0.14799664519887931 0 -0.013317386200938249 -0.14799664519887931 0 -0.035502595344277812 -0.15658093104599841 0 -0.029948833034415319 -0.13246817914486481 0 -0.013317386200938249 -0.14799664519887931 0 -0.035502595344277812 -0.15658093104599841 0 -0.013317386200938249 -0.14799664519887931 0 0.0088678229424013627 -0.13941235935176011 0 -0.013317386200938249 -0.14799664519887931 0 0.0027310736070901482 -0.15493719994590471 0 0.0088678229424013627 -0.13941235935176011 0 -0.013317386200938249 -0.14799664519887931 0 -0.0013673002328405961 -0.1767093328090546 0 0.0027310736070901482 -0.15493719994590471 0 -0.013317386200938249 -0.14799664519887931 0 -0.0013673002328405961 -0.1767093328090546 0 -0.029934926785222919 -0.1776443960910804 0 -0.0013673002328405961 -0.1767093328090546 0 -0.0217915143334447 -0.19785215020996011 0 -0.0013673002328405961 -0.1767093328090546 0 -0.029934926785222919 -0.1776443960910804 0 -0.0217915143334447 -0.19785215020996011 0 -0.013317386200938249 -0.14799664519887931 0 -0.029934926785222919 -0.1776443960910804 0 -0.035502595344277812 -0.15658093104599841 0 -0.035502595344277812 -0.15658093104599841 0 -0.057687804487617317 -0.16516521689311761 0 -0.029934926785222919 -0.1776443960910804 0 -0.035502595344277812 -0.15658093104599841 0 -0.057687804487617317 -0.16516521689311761 0 -0.029934926785222919 -0.1776443960910804 0 -0.048583433801033478 -0.18728911877980611 0 -0.034676635542126917 -0.191298641696723 0 -0.029934926785222919 -0.1776443960910804 0 -0.048583433801033478 -0.18728911877980611 0 -0.057687804487617317 -0.16516521689311761 0 -0.048583433801033478 -0.18728911877980611 0 -0.057687804487617317 -0.16516521689311761 0 -0.063770138428779252 -0.18079669395549949 0 -0.035502595344277812 -0.15658093104599841 0 -0.057687804487617317 -0.16516521689311761 0 -0.06059931965736505 -0.14742373122833671 0 -0.035502595344277812 -0.15658093104599841 0 -0.06059931965736505 -0.14742373122833671 0 -0.046947221071775923 -0.13666943570183401 0 -0.048239208743362072 -0.1165718691901324 0 -0.046947221071775923 -0.13666943570183401 0 -0.060446148579459319 -0.1303024678998376 0 -0.06059931965736505 -0.14742373122833671 0 -0.046947221071775923 -0.13666943570183401 0 -0.060446148579459319 -0.1303024678998376 0 -0.048239208743362072 -0.1165718691901324 0 -0.029948833034415319 -0.13246817914486481 0 -0.046947221071775923 -0.13666943570183401 0 -0.029948833034415319 -0.13246817914486481 0 -0.035502595344277812 -0.15658093104599841 0 -0.046947221071775923 -0.13666943570183401 0 -0.03064478186574425 -0.25326356670072259 0 -0.026067501294639708 -0.24850247980592871 0 -0.033387688564450117 -0.24425465961654741 0 -0.026067501294639708 -0.24850247980592871 0 -0.02456862519526215 -0.24210395604782819 0 -0.033387688564450117 -0.24425465961654741 0 -0.02974340118516787 -0.23585106297766359 0 -0.02456862519526215 -0.24210395604782819 0 -0.02062871475200042 -0.2320366992723622 0 -0.02974340118516787 -0.23585106297766359 0 -0.02456862519526215 -0.24210395604782819 0 -0.033387688564450117 -0.24425465961654741 0 -0.02456862519526215 -0.24210395604782819 0 -0.01660477195623393 -0.2403164687020414 0 -0.02062871475200042 -0.2320366992723622 0 -0.02456862519526215 -0.24210395604782819 0 -0.01660477195623393 -0.2403164687020414 0 -0.01887874476148543 -0.24814250919209771 0 -0.026067501294639708 -0.24850247980592871 0 -0.02456862519526215 -0.24210395604782819 0 -0.01887874476148543 -0.24814250919209771 0 -0.01660477195623393 -0.2403164687020414 0 -0.01887874476148543 -0.24814250919209771 0 -0.0080727856436109482 -0.2481099565327444 0 -0.0080727856436109482 -0.2481099565327444 0 -0.0084819670471955304 -0.2367225590632196 0 0.0055632338660241776 -0.24332209518663511 0 -0.01660477195623393 -0.2403164687020414 0 -0.0084819670471955304 -0.2367225590632196 0 -0.02062871475200042 -0.2320366992723622 0 -0.01660477195623393 -0.2403164687020414 0 -0.0080727856436109482 -0.2481099565327444 0 -0.0084819670471955304 -0.2367225590632196 0 -0.0084819670471955304 -0.2367225590632196 0 -0.0075276580997289226 -0.21896018305478171 0 0.0032521440618358652 -0.23009641691855939 0 -0.0084819670471955304 -0.2367225590632196 0 -0.0075276580997289226 -0.21896018305478171 0 -0.02062871475200042 -0.2320366992723622 0 -0.0075276580997289226 -0.21896018305478171 0 -0.02062871475200042 -0.2320366992723622 0 -0.024832472176938718 -0.21885173135413241 0 -0.02974340118516787 -0.23585106297766359 0 -0.02062871475200042 -0.2320366992723622 0 -0.031998745265470661 -0.22641465662269231 0 -0.02062871475200042 -0.2320366992723622 0 -0.024832472176938718 -0.21885173135413241 0 -0.031998745265470661 -0.22641465662269231 0 -0.0075276580997289226 -0.21896018305478171 0 -0.024832472176938718 -0.21885173135413241 0 -0.0217915143334447 -0.19785215020996011 0 -0.024832472176938718 -0.21885173135413241 0 -0.0217915143334447 -0.19785215020996011 0 -0.042215728434048867 -0.21899496761086559 0 -0.0075276580997289226 -0.21896018305478171 0 -0.0217915143334447 -0.19785215020996011 0 0.003555539334036632 -0.19934620758084881 0 -0.0013673002328405961 -0.1767093328090546 0 -0.0217915143334447 -0.19785215020996011 0 0.003555539334036632 -0.19934620758084881 0 -0.029934926785222919 -0.1776443960910804 0 -0.0217915143334447 -0.19785215020996011 0 -0.034676635542126917 -0.191298641696723 0 -0.0217915143334447 -0.19785215020996011 0 -0.034676635542126917 -0.191298641696723 0 -0.04224094911505525 -0.20168175555289891 0 -0.048583433801033478 -0.18728911877980611 0 -0.034676635542126917 -0.191298641696723 0 -0.04224094911505525 -0.20168175555289891 0 -0.048583433801033478 -0.18728911877980611 0 -0.058327232484387218 -0.2013044317948425 0 -0.063770138428779252 -0.18079669395549949 0 -0.048583433801033478 -0.18728911877980611 0 -0.04224094911505525 -0.20168175555289891 0 -0.058327232484387218 -0.2013044317948425 0 -0.058327232484387218 -0.2013044317948425 0 -0.04785115009529034 -0.21335122322519601 0 -0.065984069430329237 -0.21594808513783789 0 -0.04224094911505525 -0.20168175555289891 0 -0.058327232484387218 -0.2013044317948425 0 -0.04785115009529034 -0.21335122322519601 0 -0.04785115009529034 -0.21335122322519601 0 -0.065984069430329237 -0.21594808513783789 0 -0.04785115009529034 -0.21335122322519601 0 -0.050089297127046031 -0.22131182591420251 0 -0.065984069430329237 -0.21594808513783789 0 -0.0217915143334447 -0.19785215020996011 0 -0.042215728434048867 -0.21899496761086559 0 -0.0217915143334447 -0.19785215020996011 0 -0.04224094911505525 -0.20168175555289891 0 -0.042215728434048867 -0.21899496761086559 0 -0.04224094911505525 -0.20168175555289891 0 -0.04785115009529034 -0.21335122322519601 0 -0.042215728434048867 -0.21899496761086559 0 -0.04785115009529034 -0.21335122322519601 0 -0.042215728434048867 -0.21899496761086559 0 -0.050089297127046031 -0.22131182591420251 0 -0.024832472176938718 -0.21885173135413241 0 -0.031998745265470661 -0.22641465662269231 0 -0.042215728434048867 -0.21899496761086559 0 -0.031998745265470661 -0.22641465662269231 0 -0.042215728434048867 -0.21899496761086559 0 -0.041320068815934301 -0.22639292378782619 0 -0.031998745265470661 -0.22641465662269231 0 -0.041320068815934301 -0.22639292378782619 0 -0.038133232148655979 -0.23444534332888789 0 -0.02974340118516787 -0.23585106297766359 0 -0.031998745265470661 -0.22641465662269231 0 -0.038133232148655979 -0.23444534332888789 0 -0.041320068815934301 -0.22639292378782619 0 -0.052151212760384272 -0.22988480121754831 0 -0.038133232148655979 -0.23444534332888789 0 -0.042215728434048867 -0.21899496761086559 0 -0.041320068815934301 -0.22639292378782619 0 -0.050089297127046031 -0.22131182591420251 0 -0.041320068815934301 -0.22639292378782619 0 -0.050089297127046031 -0.22131182591420251 0 -0.052151212760384272 -0.22988480121754831 0 -0.0567919256119837 -0.24387644547435741 0 -0.065984069430329237 -0.21594808513783789 0 -0.050089297127046031 -0.22131182591420251 0 -0.052151212760384272 -0.22988480121754831 0 -0.065984069430329237 -0.21594808513783789 0 -0.052151212760384272 -0.22988480121754831 0 -0.0567919256119837 -0.24387644547435741 0 -0.065984069430329237 -0.21594808513783789 0 -0.052151212760384272 -0.22988480121754831 0 -0.0567919256119837 -0.24387644547435741 0 -0.045207486351244337 -0.24272005325013779 0 -0.046517308340487992 -0.25474718453952289 0 -0.0567919256119837 -0.24387644547435741 0 -0.045207486351244337 -0.24272005325013779 0 -0.038581934025118947 -0.25114857380685968 0 -0.046517308340487992 -0.25474718453952289 0 -0.045207486351244337 -0.24272005325013779 0 -0.052151212760384272 -0.22988480121754831 0 -0.045207486351244337 -0.24272005325013779 0 -0.038133232148655979 -0.23444534332888789 0 -0.02974340118516787 -0.23585106297766359 0 -0.038133232148655979 -0.23444534332888789 0 -0.033387688564450117 -0.24425465961654741 0 -0.045207486351244337 -0.24272005325013779 0 -0.038133232148655979 -0.23444534332888789 0 -0.033387688564450117 -0.24425465961654741 0 -0.038581934025118947 -0.25114857380685968 0 -0.03064478186574425 -0.25326356670072259 0 -0.033387688564450117 -0.24425465961654741 0 -0.038581934025118947 -0.25114857380685968 0 -0.045207486351244337 -0.24272005325013779 0 -0.033387688564450117 -0.24425465961654741 0 -0.076282262678724011 -0.24169347649274159 0 -0.094544528280961701 -0.23130979592197831 0 -0.1005321994236209 -0.2431127607729493 0 -0.090174700483665673 -0.26498018187443112 0 -0.076282262678724011 -0.24169347649274159 0 -0.1005321994236209 -0.2431127607729493 0 -0.063484538676239377 -0.26413124226689111 0 -0.0567919256119837 -0.24387644547435741 0 -0.076282262678724011 -0.24169347649274159 0 -0.0567919256119837 -0.24387644547435741 0 -0.076282262678724011 -0.24169347649274159 0 -0.076216545617433393 -0.2267874217425101 0 -0.0567919256119837 -0.24387644547435741 0 -0.076216545617433393 -0.2267874217425101 0 -0.065984069430329237 -0.21594808513783789 0 -0.076216545617433393 -0.2267874217425101 0 -0.089079986681209755 -0.21925571071859279 0 -0.065984069430329237 -0.21594808513783789 0 -0.076282262678724011 -0.24169347649274159 0 -0.076216545617433393 -0.2267874217425101 0 -0.089079986681209755 -0.21925571071859279 0 -0.076282262678724011 -0.24169347649274159 0 -0.089079986681209755 -0.21925571071859279 0 -0.076282262678724011 -0.24169347649274159 0 -0.089079986681209755 -0.21925571071859279 0 -0.094544528280961701 -0.23130979592197831 0 -0.089079986681209755 -0.21925571071859279 0 -0.087982693832912948 -0.20610030108417279 0 -0.065984069430329237 -0.21594808513783789 0 -0.089079986681209755 -0.21925571071859279 0 -0.091681034097487346 -0.21469539259619891 0 -0.087982693832912948 -0.20610030108417279 0 -0.089079986681209755 -0.21925571071859279 0 -0.091681034097487346 -0.21469539259619891 0 -0.089079986681209755 -0.21925571071859279 0 -0.065984069430329237 -0.21594808513783789 0 -0.058327232484387218 -0.2013044317948425 0 -0.065984069430329237 -0.21594808513783789 0 -0.072928541530643487 -0.1948487939390374 0 -0.065984069430329237 -0.21594808513783789 0 -0.072928541530643487 -0.1948487939390374 0 -0.087982693832912948 -0.20610030108417279 0 -0.065984069430329237 -0.21594808513783789 0 -0.072928541530643487 -0.1948487939390374 0 -0.058327232484387218 -0.2013044317948425 0 -0.072928541530643487 -0.1948487939390374 0 -0.063770138428779252 -0.18079669395549949 0 -0.087982693832912948 -0.20610030108417279 0 -0.072928541530643487 -0.1948487939390374 0 -0.088647710124579282 -0.1895137930351245 0 -0.087982693832912948 -0.20610030108417279 0 -0.088647710124579282 -0.1895137930351245 0 -0.098413722631135098 -0.19641739989264009 0 -0.088647710124579282 -0.1895137930351245 0 -0.098413722631135098 -0.19641739989264009 0 -0.1039428787252024 -0.18306303235069041 0 -0.087982693832912948 -0.20610030108417279 0 -0.098413722631135098 -0.19641739989264009 0 -0.1018219586260966 -0.2062222809526808 0 -0.098413722631135098 -0.19641739989264009 0 -0.10967337184688419 -0.19718759204053191 0 -0.1018219586260966 -0.2062222809526808 0 -0.098413722631135098 -0.19641739989264009 0 -0.10967337184688419 -0.19718759204053191 0 -0.1039428787252024 -0.18306303235069041 0 -0.1039428787252024 -0.18306303235069041 0 -0.1280127438194481 -0.19237656196114411 0 -0.10967337184688419 -0.19718759204053191 0 -0.1178174188303993 -0.20556040013348681 0 -0.1280127438194481 -0.19237656196114411 0 -0.10967337184688419 -0.19718759204053191 0 -0.1039428787252024 -0.18306303235069041 0 -0.1280127438194481 -0.19237656196114411 0 -0.10967337184688419 -0.19718759204053191 0 -0.10961342770230489 -0.21003706569406461 0 -0.1178174188303993 -0.20556040013348681 0 -0.1178174188303993 -0.20556040013348681 0 -0.1109550451866443 -0.21888036136960631 0 -0.13246178853905299 -0.20873151589840269 0 -0.1109550451866443 -0.21888036136960631 0 -0.13246178853905299 -0.20873151589840269 0 -0.1109550451866443 -0.21888036136960631 0 -0.12407830270498089 -0.22426790937284519 0 -0.13246178853905299 -0.20873151589840269 0 -0.10961342770230489 -0.21003706569406461 0 -0.1178174188303993 -0.20556040013348681 0 -0.1109550451866443 -0.21888036136960631 0 -0.10961342770230489 -0.21003706569406461 0 -0.103172625086798 -0.22127395363072039 0 -0.1109550451866443 -0.21888036136960631 0 -0.10961342770230489 -0.21003706569406461 0 -0.1018219586260966 -0.2062222809526808 0 -0.103172625086798 -0.22127395363072039 0 -0.10967337184688419 -0.19718759204053191 0 -0.10961342770230489 -0.21003706569406461 0 -0.1018219586260966 -0.2062222809526808 0 -0.091681034097487346 -0.21469539259619891 0 -0.087982693832912948 -0.20610030108417279 0 -0.103172625086798 -0.22127395363072039 0 -0.089079986681209755 -0.21925571071859279 0 -0.091681034097487346 -0.21469539259619891 0 -0.103172625086798 -0.22127395363072039 0 -0.087982693832912948 -0.20610030108417279 0 -0.103172625086798 -0.22127395363072039 0 -0.087982693832912948 -0.20610030108417279 0 -0.1018219586260966 -0.2062222809526808 0 -0.103172625086798 -0.22127395363072039 0 -0.094544528280961701 -0.23130979592197831 0 -0.103172625086798 -0.22127395363072039 0 -0.1005321994236209 -0.2431127607729493 0 -0.089079986681209755 -0.21925571071859279 0 -0.103172625086798 -0.22127395363072039 0 -0.089079986681209755 -0.21925571071859279 0 -0.094544528280961701 -0.23130979592197831 0 -0.103172625086798 -0.22127395363072039 0 -0.103172625086798 -0.22127395363072039 0 -0.1223681628105569 -0.24044891992886891 0 -0.103172625086798 -0.22127395363072039 0 -0.12407830270498089 -0.22426790937284519 0 -0.1238233973506119 -0.23541481827178831 0 -0.103172625086798 -0.22127395363072039 0 -0.1223681628105569 -0.24044891992886891 0 -0.1238233973506119 -0.23541481827178831 0 -0.103172625086798 -0.22127395363072039 0 -0.12407830270498089 -0.22426790937284519 0 -0.103172625086798 -0.22127395363072039 0 -0.1109550451866443 -0.21888036136960631 0 -0.12407830270498089 -0.22426790937284519 0 -0.11757885349586771 -0.25701660664448461 0 -0.1223681628105569 -0.24044891992886891 0 -0.1005321994236209 -0.2431127607729493 0 -0.11757885349586771 -0.25701660664448461 0 -0.1223681628105569 -0.24044891992886891 0 -0.1223681628105569 -0.24044891992886891 0 -0.1238233973506119 -0.23541481827178831 0 -0.103172625086798 -0.22127395363072039 0 -0.1223681628105569 -0.24044891992886891 0 -0.1005321994236209 -0.2431127607729493 0 -0.088441251280713618 -0.1477167476767523 0 -0.085474651021334253 -0.13655174303235951 0 -0.077236065216807342 -0.1460130695171887 0 -0.088441251280713618 -0.1477167476767523 0 -0.077236065216807342 -0.1460130695171887 0 -0.072985053953480025 -0.15595005707556001 0 -0.088441251280713618 -0.1477167476767523 0 -0.093538562727787294 -0.15940564464812701 0 -0.098894310772838973 -0.14952020789867901 0 -0.088441251280713618 -0.1477167476767523 0 -0.085474651021334253 -0.13655174303235951 0 -0.095252038160572317 -0.1406191133899993 0 -0.085474651021334253 -0.13655174303235951 0 -0.095971306836852913 -0.13086642389395989 0 -0.095252038160572317 -0.1406191133899993 0 -0.082994471061899833 -0.1234246307735777 0 -0.085474651021334253 -0.13655174303235951 0 -0.095971306836852913 -0.13086642389395989 0 -0.082994471061899833 -0.1234246307735777 0 -0.085474651021334253 -0.13655174303235951 0 -0.073596501371478315 -0.1364787996572045 0 -0.085474651021334253 -0.13655174303235951 0 -0.073596501371478315 -0.1364787996572045 0 -0.077236065216807342 -0.1460130695171887 0 -0.06059931965736505 -0.14742373122833671 0 -0.060446148579459319 -0.1303024678998376 0 -0.073596501371478315 -0.1364787996572045 0 -0.082994471061899833 -0.1234246307735777 0 -0.073596501371478315 -0.1364787996572045 0 -0.071674103496310607 -0.1250344835198243 0 -0.060446148579459319 -0.1303024678998376 0 -0.073596501371478315 -0.1364787996572045 0 -0.071674103496310607 -0.1250344835198243 0 -0.06059931965736505 -0.14742373122833671 0 -0.073596501371478315 -0.1364787996572045 0 -0.077236065216807342 -0.1460130695171887 0 -0.057687804487617317 -0.16516521689311761 0 -0.06059931965736505 -0.14742373122833671 0 -0.072985053953480025 -0.15595005707556001 0 -0.06059931965736505 -0.14742373122833671 0 -0.077236065216807342 -0.1460130695171887 0 -0.072985053953480025 -0.15595005707556001 0 -0.057687804487617317 -0.16516521689311761 0 -0.079873013630956835 -0.17374950274023659 0 -0.057687804487617317 -0.16516521689311761 0 -0.072985053953480025 -0.15595005707556001 0 -0.079873013630956835 -0.17374950274023659 0 -0.072928541530643487 -0.1948487939390374 0 -0.079873013630956835 -0.17374950274023659 0 -0.057687804487617317 -0.16516521689311761 0 -0.063770138428779252 -0.18079669395549949 0 -0.079873013630956835 -0.17374950274023659 0 -0.072928541530643487 -0.1948487939390374 0 -0.063770138428779252 -0.18079669395549949 0 -0.079873013630956835 -0.17374950274023659 0 -0.072928541530643487 -0.1948487939390374 0 -0.088647710124579282 -0.1895137930351245 0 -0.079873013630956835 -0.17374950274023659 0 -0.079873013630956835 -0.17374950274023659 0 -0.1039428787252024 -0.18306303235069041 0 -0.088647710124579282 -0.1895137930351245 0 -0.079873013630956835 -0.17374950274023659 0 -0.1039428787252024 -0.18306303235069041 0 -0.088441251280713618 -0.1477167476767523 0 -0.079873013630956835 -0.17374950274023659 0 -0.079873013630956835 -0.17374950274023659 0 -0.093538562727787294 -0.15940564464812701 0 -0.098088850166783578 -0.16700629557107341 0 -0.088441251280713618 -0.1477167476767523 0 -0.079873013630956835 -0.17374950274023659 0 -0.093538562727787294 -0.15940564464812701 0 -0.088441251280713618 -0.1477167476767523 0 -0.072985053953480025 -0.15595005707556001 0 -0.079873013630956835 -0.17374950274023659 0 -0.093538562727787294 -0.15940564464812701 0 -0.098088850166783578 -0.16700629557107341 0 -0.1023953877876435 -0.15903546935389351 0 -0.098088850166783578 -0.16700629557107341 0 -0.1039428787252024 -0.18306303235069041 0 -0.1119878388851908 -0.16231915977259129 0 -0.098088850166783578 -0.16700629557107341 0 -0.1023953877876435 -0.15903546935389351 0 -0.1119878388851908 -0.16231915977259129 0 -0.079873013630956835 -0.17374950274023659 0 -0.098088850166783578 -0.16700629557107341 0 -0.1039428787252024 -0.18306303235069041 0 -0.1039428787252024 -0.18306303235069041 0 -0.11859204859796291 -0.17560578940816099 0 -0.1119878388851908 -0.16231915977259129 0 -0.1039428787252024 -0.18306303235069041 0 -0.11859204859796291 -0.17560578940816099 0 -0.1280127438194481 -0.19237656196114411 0 -0.1023953877876435 -0.15903546935389351 0 -0.1119878388851908 -0.16231915977259129 0 -0.1169630623746598 -0.14907522687480429 0 -0.11859204859796291 -0.17560578940816099 0 -0.1119878388851908 -0.16231915977259129 0 -0.12588679133122799 -0.1624874708491951 0 -0.1119878388851908 -0.16231915977259129 0 -0.1169630623746598 -0.14907522687480429 0 -0.12588679133122799 -0.1624874708491951 0 -0.1119878388851908 -0.16231915977259129 0 -0.1169630623746598 -0.14907522687480429 0 -0.1023953877876435 -0.15903546935389351 0 -0.1169630623746598 -0.14907522687480429 0 -0.098894310772838973 -0.14952020789867901 0 -0.1169630623746598 -0.14907522687480429 0 -0.098894310772838973 -0.14952020789867901 0 -0.1169630623746598 -0.14907522687480429 0 -0.098894310772838973 -0.14952020789867901 0 -0.1074786708911218 -0.1384404444482458 0 -0.088441251280713618 -0.1477167476767523 0 -0.098894310772838973 -0.14952020789867901 0 -0.095252038160572317 -0.1406191133899993 0 -0.098894310772838973 -0.14952020789867901 0 -0.095252038160572317 -0.1406191133899993 0 -0.1074786708911218 -0.1384404444482458 0 -0.093538562727787294 -0.15940564464812701 0 -0.1023953877876435 -0.15903546935389351 0 -0.098894310772838973 -0.14952020789867901 0 -0.1085913382140784 -0.11903379143832921 0 -0.095971306836852913 -0.13086642389395989 0 -0.1074786708911218 -0.1384404444482458 0 -0.095971306836852913 -0.13086642389395989 0 -0.095252038160572317 -0.1406191133899993 0 -0.1074786708911218 -0.1384404444482458 0 -0.1085913382140784 -0.11903379143832921 0 -0.1074786708911218 -0.1384404444482458 0 -0.12736410167423581 -0.1213878944680517 0 -0.1169630623746598 -0.14907522687480429 0 -0.1074786708911218 -0.1384404444482458 0 -0.12736410167423581 -0.1213878944680517 0 -0.1169630623746598 -0.14907522687480429 0 -0.12736410167423581 -0.1213878944680517 0 -0.13746664940214659 -0.13470709103134659 0 -0.12736410167423581 -0.1213878944680517 0 -0.14737054533773081 -0.1208951937003558 0 -0.1169630623746598 -0.14907522687480429 0 -0.13746664940214659 -0.13470709103134659 0 -0.12736410167423581 -0.1213878944680517 0 -0.1569759497016511 -0.14808982533941309 0 -0.14737054533773081 -0.1208951937003558 0 -0.13746664940214659 -0.13470709103134659 0 -0.1569759497016511 -0.14808982533941309 0 -0.14737054533773081 -0.1208951937003558 0 -0.1369695060381555 -0.1485825261071109 0 -0.1526603788815559 -0.1573596194762775 0 -0.1569759497016511 -0.14808982533941309 0 -0.13746664940214659 -0.13470709103134659 0 -0.1369695060381555 -0.1485825261071109 0 -0.1569759497016511 -0.14808982533941309 0 -0.1369695060381555 -0.1485825261071109 0 -0.1569759497016511 -0.14808982533941309 0 -0.1169630623746598 -0.14907522687480429 0 -0.1369695060381555 -0.1485825261071109 0 -0.1169630623746598 -0.14907522687480429 0 -0.1369695060381555 -0.1485825261071109 0 -0.12588679133122799 -0.1624874708491951 0 -0.1169630623746598 -0.14907522687480429 0 -0.13746664940214659 -0.13470709103134659 0 -0.1369695060381555 -0.1485825261071109 0 -0.11859204859796291 -0.17560578940816099 0 -0.12588679133122799 -0.1624874708491951 0 -0.13147554750711021 -0.17522771154146191 0 -0.12588679133122799 -0.1624874708491951 0 -0.13147554750711021 -0.17522771154146191 0 -0.14107140235061469 -0.16358211752318311 0 -0.13147554750711021 -0.17522771154146191 0 -0.14520517551865919 -0.17294749126987599 0 -0.14107140235061469 -0.16358211752318311 0 -0.1369695060381555 -0.1485825261071109 0 -0.12588679133122799 -0.1624874708491951 0 -0.14107140235061469 -0.16358211752318311 0 -0.11859204859796291 -0.17560578940816099 0 -0.13147554750711021 -0.17522771154146191 0 -0.1280127438194481 -0.19237656196114411 0 -0.13147554750711021 -0.17522771154146191 0 -0.1398254013782112 -0.18365029146927231 0 -0.1280127438194481 -0.19237656196114411 0 -0.13147554750711021 -0.17522771154146191 0 -0.1398254013782112 -0.18365029146927231 0 -0.14520517551865919 -0.17294749126987599 0 -0.1398254013782112 -0.18365029146927231 0 -0.14820117369214661 -0.18035874543477601 0 -0.1498687104188495 -0.18767128888863599 0 -0.1398254013782112 -0.18365029146927231 0 -0.14820117369214661 -0.18035874543477601 0 -0.14520517551865919 -0.17294749126987599 0 -0.14820117369214661 -0.18035874543477601 0 -0.14520517551865919 -0.17294749126987599 0 -0.1568216795970071 -0.17538216601134321 0 -0.14820117369214661 -0.18035874543477601 0 -0.15608754076248521 -0.18190001438557629 0 -0.1568216795970071 -0.17538216601134321 0 -0.14520517551865919 -0.17294749126987599 0 -0.15263532751206779 -0.16758471640843459 0 -0.1568216795970071 -0.17538216601134321 0 -0.14820117369214661 -0.18035874543477601 0 -0.15608754076248521 -0.18190001438557629 0 -0.1498687104188495 -0.18767128888863599 0 -0.15608754076248521 -0.18190001438557629 0 -0.1607184616130248 -0.18728683910860641 0 -0.1498687104188495 -0.18767128888863599 0 -0.1369695060381555 -0.1485825261071109 0 -0.14107140235061469 -0.16358211752318311 0 -0.1526603788815559 -0.1573596194762775 0 -0.14520517551865919 -0.17294749126987599 0 -0.14107140235061469 -0.16358211752318311 0 -0.15263532751206779 -0.16758471640843459 0 -0.15263532751206779 -0.16758471640843459 0 -0.1526603788815559 -0.1573596194762775 0 -0.16142564196989831 -0.16655703171874039 0 -0.14107140235061469 -0.16358211752318311 0 -0.15263532751206779 -0.16758471640843459 0 -0.1526603788815559 -0.1573596194762775 0 -0.1526603788815559 -0.1573596194762775 0 -0.16142564196989831 -0.16655703171874039 0 -0.16326087804426159 -0.16588359066980229 0 -0.16326087804426159 -0.16588359066980229 0 -0.1569759497016511 -0.14808982533941309 0 -0.1526603788815559 -0.1573596194762775 0 -0.16326087804426159 -0.16588359066980229 0 -0.1569759497016511 -0.14808982533941309 0 -0.1594122663447772 -0.17133307891758459 0 -0.16142564196989831 -0.16655703171874039 0 -0.16676641630013581 -0.17580840153182001 0 -0.15263532751206779 -0.16758471640843459 0 -0.1594122663447772 -0.17133307891758459 0 -0.16142564196989831 -0.16655703171874039 0 -0.16142564196989831 -0.16655703171874039 0 -0.16326087804426159 -0.16588359066980229 0 -0.16676641630013581 -0.17580840153182001 0 -0.15263532751206779 -0.16758471640843459 0 -0.1594122663447772 -0.17133307891758459 0 -0.1568216795970071 -0.17538216601134321 0 -0.16142564196989831 -0.16655703171874039 0 -0.16326087804426159 -0.16588359066980229 0 -0.16326087804426159 -0.16588359066980229 0 -0.16676641630013581 -0.17580840153182001 0 -0.1783922457352059 -0.17293489930968209 0 -0.16326087804426159 -0.16588359066980229 0 -0.16676641630013581 -0.17580840153182001 0 -0.15608754076248521 -0.18190001438557629 0 -0.1607184616130248 -0.18728683910860641 0 -0.16676641630013581 -0.17580840153182001 0 -0.15608754076248521 -0.18190001438557629 0 -0.1568216795970071 -0.17538216601134321 0 -0.16676641630013581 -0.17580840153182001 0 -0.1594122663447772 -0.17133307891758459 0 -0.1568216795970071 -0.17538216601134321 0 -0.16676641630013581 -0.17580840153182001 0 -0.1607184616130248 -0.18728683910860641 0 -0.16676641630013581 -0.17580840153182001 0 -0.17547527524387041 -0.1884338249559952 0 -0.17547527524387041 -0.1884338249559952 0 -0.1969820185962792 -0.17828497948479149 0 -0.1783922457352059 -0.17293489930968209 0 -0.17547527524387041 -0.1884338249559952 0 -0.1969820185962792 -0.17828497948479149 0 -0.16676641630013581 -0.17580840153182001 0 -0.1783922457352059 -0.17293489930968209 0 -0.17547527524387041 -0.1884338249559952 0 -0.16326087804426159 -0.16588359066980229 0 -0.18947664049148261 -0.1562636999060015 0 -0.16326087804426159 -0.16588359066980229 0 -0.18633417632017751 -0.14736681724080919 0 -0.18947664049148261 -0.1562636999060015 0 -0.16326087804426159 -0.16588359066980229 0 -0.1783922457352059 -0.17293489930968209 0 -0.18947664049148261 -0.1562636999060015 0 -0.18633417632017751 -0.14736681724080919 0 -0.16621773075288121 -0.1295318635244681 0 -0.18400621351090571 -0.1217110611121094 0 -0.16621773075288121 -0.1295318635244681 0 -0.1569759497016511 -0.14808982533941309 0 -0.14737054533773081 -0.1208951937003558 0 -0.18633417632017751 -0.14736681724080919 0 -0.16621773075288121 -0.1295318635244681 0 -0.1569759497016511 -0.14808982533941309 0 -0.18633417632017751 -0.14736681724080919 0 -0.1569759497016511 -0.14808982533941309 0 -0.16326087804426159 -0.16588359066980229 0 -0.18633417632017751 -0.14736681724080919 0 -0.1569759497016511 -0.14808982533941309 0 -0.1377523016625678 -0.25581657194563601 0 -0.15263230708737521 -0.24356194903458239 0 -0.13476861079800859 -0.2391754021203874 0 -0.15263230708737521 -0.24356194903458239 0 -0.13476861079800859 -0.2391754021203874 0 -0.14055595197029169 -0.22979662500526149 0 -0.1377523016625678 -0.25581657194563601 0 -0.1223681628105569 -0.24044891992886891 0 -0.13476861079800859 -0.2391754021203874 0 -0.1377523016625678 -0.25581657194563601 0 -0.1223681628105569 -0.24044891992886891 0 -0.1238233973506119 -0.23541481827178831 0 -0.13476861079800859 -0.2391754021203874 0 -0.13139441447274411 -0.22962184130071481 0 -0.1223681628105569 -0.24044891992886891 0 -0.1238233973506119 -0.23541481827178831 0 -0.13476861079800859 -0.2391754021203874 0 -0.13476861079800859 -0.2391754021203874 0 -0.14055595197029169 -0.22979662500526149 0 -0.13139441447274411 -0.22962184130071481 0 -0.12407830270498089 -0.22426790937284519 0 -0.1238233973506119 -0.23541481827178831 0 -0.13139441447274411 -0.22962184130071481 0 -0.12407830270498089 -0.22426790937284519 0 -0.13139441447274411 -0.22962184130071481 0 -0.13441394179160859 -0.22010184774946731 0 -0.14055595197029169 -0.22979662500526149 0 -0.13139441447274411 -0.22962184130071481 0 -0.13441394179160859 -0.22010184774946731 0 -0.14055595197029169 -0.22979662500526149 0 -0.13441394179160859 -0.22010184774946731 0 -0.14940536450650499 -0.21373664043116339 0 -0.15263230708737521 -0.24356194903458239 0 -0.14940536450650499 -0.21373664043116339 0 -0.15263230708737521 -0.24356194903458239 0 -0.14940536450650499 -0.21373664043116339 0 -0.16621803193972459 -0.22739125443424221 0 -0.15263230708737521 -0.24356194903458239 0 -0.14055595197029169 -0.22979662500526149 0 -0.14940536450650499 -0.21373664043116339 0 -0.14940536450650499 -0.21373664043116339 0 -0.13246178853905299 -0.20873151589840269 0 -0.1539685318914617 -0.1985826704271989 0 -0.13246178853905299 -0.20873151589840269 0 -0.1539685318914617 -0.1985826704271989 0 -0.13441394179160859 -0.22010184774946731 0 -0.14940536450650499 -0.21373664043116339 0 -0.13246178853905299 -0.20873151589840269 0 -0.12407830270498089 -0.22426790937284519 0 -0.13441394179160859 -0.22010184774946731 0 -0.13246178853905299 -0.20873151589840269 0 -0.1178174188303993 -0.20556040013348681 0 -0.13246178853905299 -0.20873151589840269 0 -0.1280127438194481 -0.19237656196114411 0 -0.13246178853905299 -0.20873151589840269 0 -0.1280127438194481 -0.19237656196114411 0 -0.14041115317576749 -0.19424917250638599 0 -0.1398254013782112 -0.18365029146927231 0 -0.1280127438194481 -0.19237656196114411 0 -0.14041115317576749 -0.19424917250638599 0 -0.13246178853905299 -0.20873151589840269 0 -0.14041115317576749 -0.19424917250638599 0 -0.1539685318914617 -0.1985826704271989 0 -0.14041115317576749 -0.19424917250638599 0 -0.1539685318914617 -0.1985826704271989 0 -0.1498687104188495 -0.18767128888863599 0 -0.1398254013782112 -0.18365029146927231 0 -0.14041115317576749 -0.19424917250638599 0 -0.1498687104188495 -0.18767128888863599 0 -0.1607184616130248 -0.18728683910860641 0 -0.1539685318914617 -0.1985826704271989 0 -0.1498687104188495 -0.18767128888863599 0 -0.1607184616130248 -0.18728683910860641 0 -0.1539685318914617 -0.1985826704271989 0 -0.17547527524387041 -0.1884338249559952 0 -0.1539685318914617 -0.1985826704271989 0 -0.17547527524387041 -0.1884338249559952 0 -0.16825702714884239 -0.20885775366498019 0 -0.1539685318914617 -0.1985826704271989 0 -0.17547527524387041 -0.1884338249559952 0 -0.17547527524387041 -0.1884338249559952 0 -0.18277425339256639 -0.2026996383603622 0 -0.16825702714884239 -0.20885775366498019 0 -0.17547527524387041 -0.1884338249559952 0 -0.18277425339256639 -0.2026996383603622 0 -0.1902080517791363 -0.1917922864575213 0 -0.18277425339256639 -0.2026996383603622 0 -0.16825702714884239 -0.20885775366498019 0 -0.18626938338499441 -0.22517712183416291 0 -0.14940536450650499 -0.21373664043116339 0 -0.1539685318914617 -0.1985826704271989 0 -0.16825702714884239 -0.20885775366498019 0 -0.14940536450650499 -0.21373664043116339 0 -0.16825702714884239 -0.20885775366498019 0 -0.16621803193972459 -0.22739125443424221 0 -0.16825702714884239 -0.20885775366498019 0 -0.16621803193972459 -0.22739125443424221 0 -0.18626938338499441 -0.22517712183416291 0 -0.16621803193972459 -0.22739125443424221 0 -0.18626938338499441 -0.22517712183416291 0 -0.1745260775709061 -0.24562280720632229 0 -0.18626938338499441 -0.22517712183416291 0 -0.1745260775709061 -0.24562280720632229 0 -0.19988453840298659 -0.24176205441804 0 -0.18626938338499441 -0.22517712183416291 0 -0.1745260775709061 -0.24562280720632229 0 -0.15263230708737521 -0.24356194903458239 0 -0.16621803193972459 -0.22739125443424221 0 -0.1745260775709061 -0.24562280720632229 0 -0.1689202540561075 -0.25519621835756329 0 -0.15263230708737521 -0.24356194903458239 0 -0.1745260775709061 -0.24562280720632229 0 -0.21854221021918649 -0.25236034283526498 0 -0.19988453840298659 -0.24176205441804 0 -0.21493562756427159 -0.22243862284749449 0 -0.19160736129165659 -0.25262396586623759 0 -0.1745260775709061 -0.24562280720632229 0 -0.19988453840298659 -0.24176205441804 0 -0.18626938338499441 -0.22517712183416291 0 -0.19988453840298659 -0.24176205441804 0 -0.21493562756427159 -0.22243862284749449 0 -0.21493562756427159 -0.22243862284749449 0 -0.19801268919908249 -0.2047314364620034 0 -0.21541309520260529 -0.20113031717637361 0 -0.18626938338499441 -0.22517712183416291 0 -0.19801268919908249 -0.2047314364620034 0 -0.18277425339256639 -0.2026996383603622 0 -0.18626938338499441 -0.22517712183416291 0 -0.19801268919908249 -0.2047314364620034 0 -0.18626938338499441 -0.22517712183416291 0 -0.21493562756427159 -0.22243862284749449 0 -0.19801268919908249 -0.2047314364620034 0 -0.19801268919908249 -0.2047314364620034 0 -0.1902080517791363 -0.1917922864575213 0 -0.20975599501317069 -0.18428575108984399 0 -0.18277425339256639 -0.2026996383603622 0 -0.19801268919908249 -0.2047314364620034 0 -0.1902080517791363 -0.1917922864575213 0 -0.21541309520260529 -0.20113031717637361 0 -0.20975599501317069 -0.18428575108984399 0 -0.229896455205026 -0.18225842567294781 0 -0.19801268919908249 -0.2047314364620034 0 -0.21541309520260529 -0.20113031717637361 0 -0.20975599501317069 -0.18428575108984399 0 -0.19801268919908249 -0.2047314364620034 0 -0.20975599501317069 -0.18428575108984399 0 -0.21541309520260529 -0.20113031717637361 0 -0.23384346774119599 -0.2034651679104556 0 -0.229896455205026 -0.18225842567294781 0 -0.24262172765942899 -0.19089247064050549 0 -0.25644706280453389 -0.1995927939493197 0 -0.25029992488695979 -0.1782534950292988 0 -0.24262172765942899 -0.19089247064050549 0 -0.23384346774119599 -0.2034651679104556 0 -0.25644706280453389 -0.1995927939493197 0 -0.24262172765942899 -0.19089247064050549 0 -0.23384346774119599 -0.2034651679104556 0 -0.229896455205026 -0.18225842567294781 0 -0.23384346774119599 -0.2034651679104556 0 -0.2377451423251814 -0.23136366228574551 0 -0.25674041691710447 -0.22108212323078871 0 -0.23384346774119599 -0.2034651679104556 0 -0.25674041691710447 -0.22108212323078871 0 -0.25644706280453389 -0.1995927939493197 0 -0.21493562756427159 -0.22243862284749449 0 -0.21541309520260529 -0.20113031717637361 0 -0.23384346774119599 -0.2034651679104556 0 -0.21493562756427159 -0.22243862284749449 0 -0.23384346774119599 -0.2034651679104556 0 -0.2377451423251814 -0.23136366228574551 0 -0.24465976002352091 -0.25387891845332877 0 -0.2377451423251814 -0.23136366228574551 0 -0.25992972331208369 -0.2410680052130979 0 -0.24465976002352091 -0.25387891845332877 0 -0.21854221021918649 -0.25236034283526498 0 -0.2377451423251814 -0.23136366228574551 0 -0.21854221021918649 -0.25236034283526498 0 -0.21493562756427159 -0.22243862284749449 0 -0.2377451423251814 -0.23136366228574551 0 -0.21854221021918649 -0.25236034283526498 0 -0.2377451423251814 -0.23136366228574551 0 -0.21569240293870359 -0.1466438091422006 0 -0.18947664049148261 -0.1562636999060015 0 -0.2105647825198341 -0.15627799774793921 0 -0.2105647825198341 -0.15627799774793921 0 -0.22149930082725899 -0.1638400657176845 0 -0.22047208921520459 -0.14652609931143951 0 -0.21569240293870359 -0.1466438091422006 0 -0.2105647825198341 -0.15627799774793921 0 -0.22047208921520459 -0.14652609931143951 0 -0.21569240293870359 -0.1466438091422006 0 -0.22047208921520459 -0.14652609931143951 0 -0.20228853596836749 -0.13187567246267581 0 -0.2244809527826766 -0.1321180186971766 0 -0.2129261089666101 -0.1196792574727195 0 -0.21569240293870359 -0.1466438091422006 0 -0.20228853596836749 -0.13187567246267581 0 -0.2244809527826766 -0.1321180186971766 0 -0.18633417632017751 -0.14736681724080919 0 -0.20228853596836749 -0.13187567246267581 0 -0.18400621351090571 -0.1217110611121094 0 -0.21569240293870359 -0.1466438091422006 0 -0.18947664049148261 -0.1562636999060015 0 -0.18633417632017751 -0.14736681724080919 0 -0.21569240293870359 -0.1466438091422006 0 -0.18947664049148261 -0.1562636999060015 0 -0.18633417632017751 -0.14736681724080919 0 -0.21569240293870359 -0.1466438091422006 0 -0.18633417632017751 -0.14736681724080919 0 -0.21569240293870359 -0.1466438091422006 0 -0.20228853596836749 -0.13187567246267581 0 -0.1783922457352059 -0.17293489930968209 0 -0.18947664049148261 -0.1562636999060015 0 -0.1969820185962792 -0.17828497948479149 0 -0.18947664049148261 -0.1562636999060015 0 -0.1969820185962792 -0.17828497948479149 0 -0.20568347912652049 -0.16811631466237001 0 -0.18947664049148261 -0.1562636999060015 0 -0.20568347912652049 -0.16811631466237001 0 -0.2105647825198341 -0.15627799774793921 0 -0.1902080517791363 -0.1917922864575213 0 -0.1969820185962792 -0.17828497948479149 0 -0.20975599501317069 -0.18428575108984399 0 -0.17547527524387041 -0.1884338249559952 0 -0.1902080517791363 -0.1917922864575213 0 -0.1969820185962792 -0.17828497948479149 0 -0.20975599501317069 -0.18428575108984399 0 -0.22149930082725899 -0.1638400657176845 0 -0.20975599501317069 -0.18428575108984399 0 -0.20568347912652049 -0.16811631466237001 0 -0.22149930082725899 -0.1638400657176845 0 -0.1969820185962792 -0.17828497948479149 0 -0.20975599501317069 -0.18428575108984399 0 -0.20568347912652049 -0.16811631466237001 0 -0.20568347912652049 -0.16811631466237001 0 -0.2105647825198341 -0.15627799774793921 0 -0.22149930082725899 -0.1638400657176845 0 -0.22149930082725899 -0.1638400657176845 0 -0.2402834514435094 -0.1667894474332684 0 -0.2341322288468432 -0.15422277024092529 0 -0.22149930082725899 -0.1638400657176845 0 -0.229896455205026 -0.18225842567294781 0 -0.2402834514435094 -0.1667894474332684 0 -0.20975599501317069 -0.18428575108984399 0 -0.22149930082725899 -0.1638400657176845 0 -0.229896455205026 -0.18225842567294781 0 -0.229896455205026 -0.18225842567294781 0 -0.2402834514435094 -0.1667894474332684 0 -0.25029992488695979 -0.1782534950292988 0 -0.24262172765942899 -0.19089247064050549 0 -0.229896455205026 -0.18225842567294781 0 -0.25029992488695979 -0.1782534950292988 0 -0.2402834514435094 -0.1667894474332684 0 -0.25029992488695979 -0.1782534950292988 0 -0.25761979100978533 -0.16665415002795461 0 -0.2402834514435094 -0.1667894474332684 0 -0.24825300788518309 -0.1555077779107997 0 -0.25761979100978533 -0.16665415002795461 0 -0.2402834514435094 -0.1667894474332684 0 -0.24825300788518309 -0.1555077779107997 0 -0.2341322288468432 -0.15422277024092529 0 -0.24825300788518309 -0.1555077779107997 0 -0.2405789555143194 -0.1375116727892334 0 -0.25601133851015478 -0.1487044986697981 0 -0.24825300788518309 -0.1555077779107997 0 -0.2341322288468432 -0.15422277024092529 0 -0.2405789555143194 -0.1375116727892334 0 -0.21569240293870359 -0.1466438091422006 0 -0.22047208921520459 -0.14652609931143951 0 -0.2405789555143194 -0.1375116727892334 0 -0.22149930082725899 -0.1638400657176845 0 -0.2341322288468432 -0.15422277024092529 0 -0.22047208921520459 -0.14652609931143951 0 -0.21569240293870359 -0.1466438091422006 0 -0.2405789555143194 -0.1375116727892334 0 -0.2341322288468432 -0.15422277024092529 0 -0.22047208921520459 -0.14652609931143951 0 -0.2405789555143194 -0.1375116727892334 0 -0.21569240293870359 -0.1466438091422006 0 -0.2244809527826766 -0.1321180186971766 0 -0.2405789555143194 -0.1375116727892334 0 -0.2244809527826766 -0.1321180186971766 0 -0.2405789555143194 -0.1375116727892334 0 -0.23651179230599079 -0.1199754775459997 0 -0.2405789555143194 -0.1375116727892334 0 -0.23651179230599079 -0.1199754775459997 0 -0.25054446979338107 -0.12912519928877991 0 -0.23651179230599079 -0.1199754775459997 0 -0.24959534238117709 -0.1078054475449232 0 -0.26009747564537128 -0.1202716976192799 0 -0.23651179230599079 -0.1199754775459997 0 -0.26009747564537128 -0.1202716976192799 0 -0.23651179230599079 -0.1199754775459997 0 -0.26009747564537128 -0.1202716976192799 0 -0.25054446979338107 -0.12912519928877991 0 -0.23651179230599079 -0.1199754775459997 0 -0.24959534238117709 -0.1078054475449232 0 -0.23746734258601571 -0.1067534300414448 0 -0.24098124084432149 -0.095291905336151436 0 -0.23746734258601571 -0.1067534300414448 0 -0.22473934926471251 -0.1042306158888877 0 -0.24959534238117709 -0.1078054475449232 0 -0.24098124084432149 -0.095291905336151436 0 -0.25687551172258971 -0.095275519396915032 0 -0.24959534238117709 -0.1078054475449232 0 -0.24098124084432149 -0.095291905336151436 0 -0.23746734258601571 -0.1067534300414448 0 -0.22473934926471251 -0.1042306158888877 0 -0.22774604229393439 -0.087804120453188278 0 -0.20897213189474381 -0.093424031558921927 0 -0.24098124084432149 -0.095291905336151436 0 -0.22473934926471251 -0.1042306158888877 0 -0.22774604229393439 -0.087804120453188278 0 -0.2244809527826766 -0.1321180186971766 0 -0.23651179230599079 -0.1199754775459997 0 -0.2129261089666101 -0.1196792574727195 0 -0.23651179230599079 -0.1199754775459997 0 -0.2129261089666101 -0.1196792574727195 0 -0.23651179230599079 -0.1199754775459997 0 -0.23746734258601571 -0.1067534300414448 0 -0.22473934926471251 -0.1042306158888877 0 -0.23651179230599079 -0.1199754775459997 0 -0.22473934926471251 -0.1042306158888877 0 -0.2129261089666101 -0.1196792574727195 0 -0.2466384096447127 -0.069214282175018252 0 -0.23144064811545881 -0.071679072189906365 0 -0.24006258296416741 -0.059977364163272567 0 -0.2466384096447127 -0.069214282175018252 0 -0.23867713564867771 -0.0818228939715063 0 -0.25106785873748549 -0.083001848322642804 0 -0.2466384096447127 -0.069214282175018252 0 -0.23867713564867771 -0.0818228939715063 0 -0.23144064811545881 -0.071679072189906365 0 -0.24098124084432149 -0.095291905336151436 0 -0.25106785873748549 -0.083001848322642804 0 -0.25687551172258971 -0.095275519396915032 0 -0.24098124084432149 -0.095291905336151436 0 -0.23867713564867771 -0.0818228939715063 0 -0.25106785873748549 -0.083001848322642804 0 -0.24098124084432149 -0.095291905336151436 0 -0.23867713564867771 -0.0818228939715063 0 -0.22774604229393439 -0.087804120453188278 0 -0.22048160989483939 -0.080833284582646742 0 -0.22774604229393439 -0.087804120453188278 0 -0.23144064811545881 -0.071679072189906365 0 -0.23867713564867771 -0.0818228939715063 0 -0.22774604229393439 -0.087804120453188278 0 -0.23144064811545881 -0.071679072189906365 0 -0.22048160989483939 -0.080833284582646742 0 -0.22774604229393439 -0.087804120453188278 0 -0.20897213189474381 -0.093424031558921927 0 -0.23144064811545881 -0.071679072189906365 0 -0.2137676172752207 -0.070425914128570383 0 -0.21856310265569601 -0.047427796698218422 0 -0.22048160989483939 -0.080833284582646742 0 -0.23144064811545881 -0.071679072189906365 0 -0.2137676172752207 -0.070425914128570383 0 -0.23144064811545881 -0.071679072189906365 0 -0.23092663332862359 -0.057189961691847993 0 -0.24006258296416741 -0.059977364163272567 0 -0.20335705558913081 -0.063140738221072371 0 -0.2137676172752207 -0.070425914128570383 0 -0.20224544779007569 -0.076575791796341275 0 -0.2137676172752207 -0.070425914128570383 0 -0.20897213189474381 -0.093424031558921927 0 -0.20224544779007569 -0.076575791796341275 0 -0.2137676172752207 -0.070425914128570383 0 -0.20897213189474381 -0.093424031558921927 0 -0.22048160989483939 -0.080833284582646742 0 -0.2137676172752207 -0.070425914128570383 0 -0.20897213189474381 -0.093424031558921927 0 -0.20897213189474381 -0.093424031558921927 0 -0.18864483179057751 -0.079783658531738119 0 -0.20224544779007569 -0.076575791796341275 0 -0.20897213189474381 -0.093424031558921927 0 -0.18864483179057751 -0.079783658531738119 0 -0.1843208979706715 -0.098582101900239388 0 -0.20335705558913081 -0.063140738221072371 0 -0.18864483179057751 -0.079783658531738119 0 -0.20224544779007569 -0.076575791796341275 0 -0.20335705558913081 -0.063140738221072371 0 -0.18864483179057751 -0.079783658531738119 0 -0.20335705558913081 -0.063140738221072371 0 -0.18864483179057751 -0.079783658531738119 0 -0.18476368522970901 -0.060313507398174523 0 -0.22473934926471251 -0.1042306158888877 0 -0.2129261089666101 -0.1196792574727195 0 -0.1994025973422491 -0.10829052452779669 0 -0.20228853596836749 -0.13187567246267581 0 -0.2129261089666101 -0.1196792574727195 0 -0.1994025973422491 -0.10829052452779669 0 -0.22473934926471251 -0.1042306158888877 0 -0.20897213189474381 -0.093424031558921927 0 -0.1994025973422491 -0.10829052452779669 0 -0.20897213189474381 -0.093424031558921927 0 -0.1994025973422491 -0.10829052452779669 0 -0.1843208979706715 -0.098582101900239388 0 -0.20228853596836749 -0.13187567246267581 0 -0.1994025973422491 -0.10829052452779669 0 -0.18400621351090571 -0.1217110611121094 0 -0.1994025973422491 -0.10829052452779669 0 -0.18400621351090571 -0.1217110611121094 0 -0.1843208979706715 -0.098582101900239388 0 -0.16621773075288121 -0.1295318635244681 0 -0.18400621351090571 -0.1217110611121094 0 -0.16647442841019139 -0.11035058163789351 0 -0.18400621351090571 -0.1217110611121094 0 -0.16647442841019139 -0.11035058163789351 0 -0.1843208979706715 -0.098582101900239388 0 -0.16621773075288121 -0.1295318635244681 0 -0.16647442841019139 -0.11035058163789351 0 -0.14737054533773081 -0.1208951937003558 0 -0.16647442841019139 -0.11035058163789351 0 -0.16521255597131029 -0.094363556792246006 0 -0.15171862691764881 -0.097019712797942706 0 -0.16647442841019139 -0.11035058163789351 0 -0.16521255597131029 -0.094363556792246006 0 -0.1843208979706715 -0.098582101900239388 0 -0.16521255597131029 -0.094363556792246006 0 -0.1843208979706715 -0.098582101900239388 0 -0.1718657805157274 -0.077566403117392158 0 -0.18864483179057751 -0.079783658531738119 0 -0.1843208979706715 -0.098582101900239388 0 -0.1718657805157274 -0.077566403117392158 0 -0.18864483179057751 -0.079783658531738119 0 -0.1718657805157274 -0.077566403117392158 0 -0.18476368522970901 -0.060313507398174523 0 -0.1718657805157274 -0.077566403117392158 0 -0.16766997596840549 -0.055069670457126463 0 -0.18476368522970901 -0.060313507398174523 0 -0.1718657805157274 -0.077566403117392158 0 -0.1555984100513392 -0.067553704814911478 0 -0.16766997596840549 -0.055069670457126463 0 -0.1718657805157274 -0.077566403117392158 0 -0.15451520526235171 -0.083858215916353424 0 -0.1555984100513392 -0.067553704814911478 0 -0.16521255597131029 -0.094363556792246006 0 -0.1718657805157274 -0.077566403117392158 0 -0.15451520526235171 -0.083858215916353424 0 -0.16521255597131029 -0.094363556792246006 0 -0.15451520526235171 -0.083858215916353424 0 -0.15171862691764881 -0.097019712797942706 0 -0.15451520526235171 -0.083858215916353424 0 -0.14334301715898221 -0.074859018030624863 0 -0.13903100861317999 -0.090330850909877913 0 -0.15451520526235171 -0.083858215916353424 0 -0.13903100861317999 -0.090330850909877913 0 -0.15171862691764881 -0.097019712797942706 0 -0.1377651409738101 -0.093700562061298426 0 -0.13903100861317999 -0.090330850909877913 0 -0.15171862691764881 -0.097019712797942706 0 -0.15451520526235171 -0.083858215916353424 0 -0.1555984100513392 -0.067553704814911478 0 -0.14334301715898221 -0.074859018030624863 0 -0.1555984100513392 -0.067553704814911478 0 -0.14334301715898221 -0.074859018030624863 0 -0.13945189113323761 -0.059806177835795588 0 -0.14334301715898221 -0.074859018030624863 0 -0.12930964035960699 -0.069761515268982097 0 -0.13945189113323761 -0.059806177835795588 0 -0.12930964035960699 -0.069761515268982097 0 -0.1377651409738101 -0.093700562061298426 0 -0.12930964035960699 -0.069761515268982097 0 -0.1377651409738101 -0.093700562061298426 0 -0.13903100861317999 -0.090330850909877913 0 -0.1189291253072135 -0.086669643832799348 0 -0.12930964035960699 -0.069761515268982097 0 -0.1377651409738101 -0.093700562061298426 0 -0.14334301715898221 -0.074859018030624863 0 -0.12930964035960699 -0.069761515268982097 0 -0.13903100861317999 -0.090330850909877913 0 -0.1377651409738101 -0.093700562061298426 0 -0.13903100861317999 -0.090330850909877913 0 -0.11893842975153809 -0.10446969177473921 0 -0.1377651409738101 -0.093700562061298426 0 -0.12736410167423581 -0.1213878944680517 0 -0.1377651409738101 -0.093700562061298426 0 -0.12736410167423581 -0.1213878944680517 0 -0.11893842975153809 -0.10446969177473921 0 -0.1189291253072135 -0.086669643832799348 0 -0.1377651409738101 -0.093700562061298426 0 -0.1377651409738101 -0.093700562061298426 0 -0.12736410167423581 -0.1213878944680517 0 -0.14737054533773081 -0.1208951937003558 0 -0.16647442841019139 -0.11035058163789351 0 -0.14737054533773081 -0.1208951937003558 0 -0.15171862691764881 -0.097019712797942706 0 -0.1377651409738101 -0.093700562061298426 0 -0.14737054533773081 -0.1208951937003558 0 -0.15171862691764881 -0.097019712797942706 0 -0.1377651409738101 -0.093700562061298426 0 -0.14737054533773081 -0.1208951937003558 0 -0.14925834278157041 -0.027771983247297551 0 -0.15381676672243971 -0.0048344028756085976 0 -0.16158573310271521 -0.019122381719964599 0 -0.14925834278157041 -0.027771983247297551 0 -0.15381676672243971 -0.0048344028756085976 0 -0.14925834278157041 -0.027771983247297551 0 -0.13622810944285851 -0.025664644749336048 0 -0.13728148428220571 -0.03631729474545041 0 -0.15381676672243971 -0.0048344028756085976 0 -0.13373576905839379 -0.01378162565115138 0 -0.13796817939809339 -7.5853332940862265e-05 0 -0.14925834278157041 -0.027771983247297551 0 -0.15381676672243971 -0.0048344028756085976 0 -0.13373576905839379 -0.01378162565115138 0 -0.1244522405185825 -0.00038769298458709092 0 -0.1246368416492639 -0.024787675353444869 0 -0.13373576905839379 -0.01378162565115138 0 -0.1244522405185825 -0.00038769298458709092 0 -0.13373576905839379 -0.01378162565115138 0 -0.13796817939809339 -7.5853332940862265e-05 0 -0.1244522405185825 -0.00038769298458709092 0 -0.13373576905839379 -0.01378162565115138 0 -0.1246368416492639 -0.024787675353444869 0 -0.13373576905839379 -0.01378162565115138 0 -0.13622810944285851 -0.025664644749336048 0 -0.14925834278157041 -0.027771983247297551 0 -0.13373576905839379 -0.01378162565115138 0 -0.13622810944285851 -0.025664644749336048 0 -0.1246368416492639 -0.024787675353444869 0 -0.13622810944285851 -0.025664644749336048 0 -0.13728148428220571 -0.03631729474545041 0 -0.1248214427799455 -0.0491876577223027 0 -0.1246368416492639 -0.024787675353444869 0 -0.13067566527459321 -0.039597081228004503 0 -0.1246368416492639 -0.024787675353444869 0 -0.13067566527459321 -0.039597081228004503 0 -0.13728148428220571 -0.03631729474545041 0 -0.1248214427799455 -0.0491876577223027 0 -0.13067566527459321 -0.039597081228004503 0 -0.1359628923869578 -0.048095697090820053 0 -0.13067566527459321 -0.039597081228004503 0 -0.13728148428220571 -0.03631729474545041 0 -0.1359628923869578 -0.048095697090820053 0 -0.13728148428220571 -0.03631729474545041 0 -0.1359628923869578 -0.048095697090820053 0 -0.14767594406259391 -0.049379474087132447 0 -0.1248214427799455 -0.0491876577223027 0 -0.12930964035960699 -0.069761515268982097 0 -0.13945189113323761 -0.059806177835795588 0 -0.1208541397454049 -0.045822468476665427 0 -0.12930964035960699 -0.069761515268982097 0 -0.1248214427799455 -0.0491876577223027 0 -0.1359628923869578 -0.048095697090820053 0 -0.13945189113323761 -0.059806177835795588 0 -0.1555984100513392 -0.067553704814911478 0 -0.13945189113323761 -0.059806177835795588 0 -0.14767594406259391 -0.049379474087132447 0 -0.1359628923869578 -0.048095697090820053 0 -0.13945189113323761 -0.059806177835795588 0 -0.14767594406259391 -0.049379474087132447 0 -0.14925834278157041 -0.027771983247297551 0 -0.14767594406259391 -0.049379474087132447 0 -0.16346190388351911 -0.035477368974388322 0 -0.14925834278157041 -0.027771983247297551 0 -0.13728148428220571 -0.03631729474545041 0 -0.14767594406259391 -0.049379474087132447 0 -0.14767594406259391 -0.049379474087132447 0 -0.16346190388351911 -0.035477368974388322 0 -0.16766997596840549 -0.055069670457126463 0 -0.16346190388351911 -0.035477368974388322 0 -0.16766997596840549 -0.055069670457126463 0 -0.1792130821544009 -0.041655239440509813 0 -0.1555984100513392 -0.067553704814911478 0 -0.14767594406259391 -0.049379474087132447 0 -0.16766997596840549 -0.055069670457126463 0 -0.16766997596840549 -0.055069670457126463 0 -0.18476368522970901 -0.060313507398174523 0 -0.1792130821544009 -0.041655239440509813 0 -0.18476368522970901 -0.060313507398174523 0 -0.1792130821544009 -0.041655239440509813 0 -0.19607578221694649 -0.043845816873478577 0 -0.16346190388351911 -0.035477368974388322 0 -0.1792130821544009 -0.041655239440509813 0 -0.1747539590121796 -0.02148713112583673 0 -0.1792130821544009 -0.041655239440509813 0 -0.1747539590121796 -0.02148713112583673 0 -0.18874747204970219 -0.028974905836781941 0 -0.1747539590121796 -0.02148713112583673 0 -0.18814241231787171 -0.014961103822567131 0 -0.18874747204970219 -0.028974905836781941 0 -0.14925834278157041 -0.027771983247297551 0 -0.16346190388351911 -0.035477368974388322 0 -0.16158573310271521 -0.019122381719964599 0 -0.16346190388351911 -0.035477368974388322 0 -0.1747539590121796 -0.02148713112583673 0 -0.16158573310271521 -0.019122381719964599 0 -0.1747539590121796 -0.02148713112583673 0 -0.16158573310271521 -0.019122381719964599 0 -0.1670666400728934 -0.0075955490013497832 0 -0.15381676672243971 -0.0048344028756085976 0 -0.1670666400728934 -0.0075955490013497832 0 -0.16872927738725291 0.0066655648670224509 0 -0.15381676672243971 -0.0048344028756085976 0 -0.16158573310271521 -0.019122381719964599 0 -0.1670666400728934 -0.0075955490013497832 0 -0.1670666400728934 -0.0075955490013497832 0 -0.1785064095432054 -0.0066611219507198768 0 -0.16872927738725291 0.0066655648670224509 0 -0.1747539590121796 -0.02148713112583673 0 -0.1670666400728934 -0.0075955490013497832 0 -0.1785064095432054 -0.0066611219507198768 0 -0.1747539590121796 -0.02148713112583673 0 -0.1785064095432054 -0.0066611219507198768 0 -0.18814241231787171 -0.014961103822567131 0 -0.1785064095432054 -0.0066611219507198768 0 -0.18814241231787171 -0.014961103822567131 0 -0.193034969706537 0.00064734206737222756 0 -0.20555212454711219 -0.022925237921517471 0 -0.20993853639106591 -0.0035380738047605968 0 -0.193034969706537 0.00064734206737222756 0 -0.18814241231787171 -0.014961103822567131 0 -0.20555212454711219 -0.022925237921517471 0 -0.193034969706537 0.00064734206737222756 0 -0.20555212454711219 -0.022925237921517471 0 -0.193034969706537 0.00064734206737222756 0 -0.20993853639106591 -0.0035380738047605968 0 -0.193034969706537 0.00064734206737222756 0 -0.18814241231787171 -0.014961103822567131 0 -0.18874747204970219 -0.028974905836781941 0 -0.20555212454711219 -0.022925237921517471 0 -0.20555212454711219 -0.022925237921517471 0 -0.21630961893328751 -0.01519709454307171 0 -0.22290571171937651 -0.026601576769118469 0 -0.20993853639106591 -0.0035380738047605968 0 -0.22684210307559549 -0.0077234896768903086 0 -0.21568563774484731 0.0082874278720449449 0 -0.20993853639106591 -0.0035380738047605968 0 -0.21630961893328751 -0.01519709454307171 0 -0.22684210307559549 -0.0077234896768903086 0 -0.20555212454711219 -0.022925237921517471 0 -0.20993853639106591 -0.0035380738047605968 0 -0.21630961893328751 -0.01519709454307171 0 -0.20993853639106591 -0.0035380738047605968 0 -0.22684210307559549 -0.0077234896768903086 0 -0.20335705558913081 -0.063140738221072371 0 -0.18476368522970901 -0.060313507398174523 0 -0.19607578221694649 -0.043845816873478577 0 -0.1792130821544009 -0.041655239440509813 0 -0.18874747204970219 -0.028974905836781941 0 -0.19607578221694649 -0.043845816873478577 0 -0.18874747204970219 -0.028974905836781941 0 -0.20555212454711219 -0.022925237921517471 0 -0.19607578221694649 -0.043845816873478577 0 -0.20555212454711219 -0.022925237921517471 0 -0.21856310265569601 -0.047427796698218422 0 -0.20555212454711219 -0.022925237921517471 0 -0.21856310265569601 -0.047427796698218422 0 -0.21896932036315811 -0.045479663861346789 0 -0.20555212454711219 -0.022925237921517471 0 -0.19607578221694649 -0.043845816873478577 0 -0.21856310265569601 -0.047427796698218422 0 -0.20555212454711219 -0.022925237921517471 0 -0.21896932036315811 -0.045479663861346789 0 -0.22290571171937651 -0.026601576769118469 0 -0.2137676172752207 -0.070425914128570383 0 -0.21856310265569601 -0.047427796698218422 0 -0.20335705558913081 -0.063140738221072371 0 -0.2137676172752207 -0.070425914128570383 0 -0.21856310265569601 -0.047427796698218422 0 -0.20335705558913081 -0.063140738221072371 0 -0.19607578221694649 -0.043845816873478577 0 -0.21856310265569601 -0.047427796698218422 0 -0.20335705558913081 -0.063140738221072371 0 -0.21856310265569601 -0.047427796698218422 0 -0.23144064811545881 -0.071679072189906365 0 -0.21856310265569601 -0.047427796698218422 0 -0.23092663332862359 -0.057189961691847993 0 -0.23144064811545881 -0.071679072189906365 0 -0.21856310265569601 -0.047427796698218422 0 -0.21856310265569601 -0.047427796698218422 0 -0.23092663332862359 -0.057189961691847993 0 -0.22458774444026389 -0.046948698447319907 0 -0.23092663332862359 -0.057189961691847993 0 -0.2320274706224234 -0.04981915803055513 0 -0.23892230415514151 -0.050781370399802413 0 -0.23092663332862359 -0.057189961691847993 0 -0.22458774444026389 -0.046948698447319907 0 -0.2320274706224234 -0.04981915803055513 0 -0.21896932036315811 -0.045479663861346789 0 -0.2306307955349908 -0.032287844280089482 0 -0.22290571171937651 -0.026601576769118469 0 -0.21896932036315811 -0.045479663861346789 0 -0.22290571171937651 -0.026601576769118469 0 -0.22458774444026389 -0.046948698447319907 0 -0.2320274706224234 -0.04981915803055513 0 -0.23529860714157019 -0.041169280456794459 0 -0.22458774444026389 -0.046948698447319907 0 -0.2306307955349908 -0.032287844280089482 0 -0.23529860714157019 -0.041169280456794459 0 -0.22458774444026389 -0.046948698447319907 0 -0.21896932036315811 -0.045479663861346789 0 -0.2306307955349908 -0.032287844280089482 0 -0.21856310265569601 -0.047427796698218422 0 -0.22458774444026389 -0.046948698447319907 0 -0.21896932036315811 -0.045479663861346789 0 -0.21856310265569601 -0.047427796698218422 0 -0.21896932036315811 -0.045479663861346789 0 -0.21896932036315811 -0.045479663861346789 0 -0.2306307955349908 -0.032287844280089482 0 -0.2306307955349908 -0.032287844280089482 0 -0.23529860714157019 -0.041169280456794459 0 -0.241537864008738 -0.030171217790278881 0 -0.24798951326795751 -0.035882587373858313 0 -0.23529860714157019 -0.041169280456794459 0 -0.241537864008738 -0.030171217790278881 0 -0.24798951326795751 -0.035882587373858313 0 -0.24357205858261219 -0.044359355700093257 0 -0.23529860714157019 -0.041169280456794459 0 -0.24798951326795751 -0.035882587373858313 0 -0.24357205858261219 -0.044359355700093257 0 -0.25238491957690051 -0.051022134359787842 0 -0.24357205858261219 -0.044359355700093257 0 -0.23529860714157019 -0.041169280456794459 0 -0.23892230415514151 -0.050781370399802413 0 -0.2466384096447127 -0.069214282175018252 0 -0.24006258296416741 -0.059977364163272567 0 -0.25238491957690051 -0.051022134359787842 0 -0.2320274706224234 -0.04981915803055513 0 -0.23529860714157019 -0.041169280456794459 0 -0.23892230415514151 -0.050781370399802413 0 -0.23892230415514151 -0.050781370399802413 0 -0.24006258296416741 -0.059977364163272567 0 -0.25238491957690051 -0.051022134359787842 0 -0.24357205858261219 -0.044359355700093257 0 -0.23892230415514151 -0.050781370399802413 0 -0.25238491957690051 -0.051022134359787842 0 -0.23092663332862359 -0.057189961691847993 0 -0.23892230415514151 -0.050781370399802413 0 -0.24006258296416741 -0.059977364163272567 0 -0.21630961893328751 -0.01519709454307171 0 -0.22684210307559549 -0.0077234896768903086 0 -0.22290571171937651 -0.026601576769118469 0 -0.22684210307559549 -0.0077234896768903086 0 -0.22290571171937651 -0.026601576769118469 0 -0.23226271327452069 -0.02198020745377605 0 -0.22684210307559549 -0.0077234896768903086 0 -0.22290571171937651 -0.026601576769118469 0 -0.2306307955349908 -0.032287844280089482 0 -0.22290571171937651 -0.026601576769118469 0 -0.23226271327452069 -0.02198020745377605 0 -0.22684210307559549 -0.0077234896768903086 0 -0.23226271327452069 -0.02198020745377605 0 -0.24229227070682269 -0.019096024698831499 0 -0.2306307955349908 -0.032287844280089482 0 -0.241537864008738 -0.030171217790278881 0 -0.24229227070682269 -0.019096024698831499 0 -0.2306307955349908 -0.032287844280089482 0 -0.23226271327452069 -0.02198020745377605 0 -0.24229227070682269 -0.019096024698831499 0 -0.2306307955349908 -0.032287844280089482 0 -0.24229227070682269 -0.019096024698831499 0 -0.24798951326795751 -0.035882587373858313 0 -0.241537864008738 -0.030171217790278881 0 -0.25387676547985721 -0.02452441136234379 0 -0.241537864008738 -0.030171217790278881 0 -0.24229227070682269 -0.019096024698831499 0 -0.25387676547985721 -0.02452441136234379 0 -0.24229227070682269 -0.019096024698831499 0 -0.24826461013585729 -0.013027819984466921 0 -0.25387676547985721 -0.02452441136234379 0 -0.22684210307559549 -0.0077234896768903086 0 -0.24826461013585729 -0.013027819984466921 0 -0.24598119983726671 0.0037338506766126851 0 -0.22684210307559549 -0.0077234896768903086 0 -0.24229227070682269 -0.019096024698831499 0 -0.24826461013585729 -0.013027819984466921 0 -0.22684210307559549 -0.0077234896768903086 0 -0.24826461013585729 -0.013027819984466921 0 -0.24826461013585729 -0.013027819984466921 0 -0.26003022337954462 -0.0038093911555793728 0 -0.24598119983726671 0.0037338506766126851 0 -0.24826461013585729 -0.013027819984466921 0 -0.26003022337954462 -0.0038093911555793728 0 -0.26968711719611937 -0.018332150292041979 0 -0.24826461013585729 -0.013027819984466921 0 -0.26968711719611937 -0.018332150292041979 0 -0.25387676547985721 -0.02452441136234379 0 -0.26968711719611937 -0.018332150292041979 0 -0.26155562347943467 -0.037861138146123199 0 -0.24826461013585729 -0.013027819984466921 0 -0.25387676547985721 -0.02452441136234379 0 -0.26968711719611937 -0.018332150292041979 0 -0.26968711719611937 -0.018332150292041979 0 -0.28953187906397732 -0.034281883787379987 0 -0.27524211720584768 -0.038538427260779863 0 -0.26003022337954462 -0.0038093911555793728 0 -0.26968711719611937 -0.018332150292041979 0 -0.27433688946420332 -0.0007833753365484626 0 -0.26968711719611937 -0.018332150292041979 0 -0.27433688946420332 -0.0007833753365484626 0 -0.28631392786639209 -0.0070506759659385472 0 -0.28631392786639209 -0.0070506759659385472 0 -0.29653674479957171 -0.021015146411400301 0 -0.3025805037907468 -0.0027432771802810229 0 -0.28631392786639209 -0.0070506759659385472 0 -0.3025805037907468 -0.0027432771802810229 0 -0.28842838408131971 0.0076205693905790281 0 -0.27433688946420332 -0.0007833753365484626 0 -0.28631392786639209 -0.0070506759659385472 0 -0.28842838408131971 0.0076205693905790281 0 -0.26968711719611937 -0.018332150292041979 0 -0.28631392786639209 -0.0070506759659385472 0 -0.29653674479957171 -0.021015146411400301 0 -0.26968711719611937 -0.018332150292041979 0 -0.29653674479957171 -0.021015146411400301 0 -0.28953187906397732 -0.034281883787379987 0 -0.29653674479957171 -0.021015146411400301 0 -0.28953187906397732 -0.034281883787379987 0 -0.31718310516035308 -0.038172790333745737 0 -0.29653674479957171 -0.021015146411400301 0 -0.31459326366374579 -0.01532774276474733 0 -0.31718310516035308 -0.038172790333745737 0 -0.29653674479957171 -0.021015146411400301 0 -0.3025805037907468 -0.0027432771802810229 0 -0.31459326366374579 -0.01532774276474733 0 -0.30229462048881822 -0.056161209871372138 0 -0.29850594913894141 -0.055440370537233663 0 -0.30849544073550722 -0.074776909133231664 0 -0.30229462048881822 -0.056161209871372138 0 -0.29366820665513949 -0.048519954280836622 0 -0.31370341578724742 -0.051143824177853653 0 -0.30229462048881822 -0.056161209871372138 0 -0.29850594913894141 -0.055440370537233663 0 -0.29366820665513949 -0.048519954280836622 0 -0.30229462048881822 -0.056161209871372138 0 -0.31629816603535338 -0.060261719535131632 0 -0.30229462048881822 -0.056161209871372138 0 -0.31178497446605258 -0.064623658022855565 0 -0.31629816603535338 -0.060261719535131632 0 -0.30229462048881822 -0.056161209871372138 0 -0.31370341578724742 -0.051143824177853653 0 -0.31629816603535338 -0.060261719535131632 0 -0.29366820665513949 -0.048519954280836622 0 -0.31718310516035308 -0.038172790333745737 0 -0.29366820665513949 -0.048519954280836622 0 -0.31718310516035308 -0.038172790333745737 0 -0.31370341578724742 -0.051143824177853653 0 -0.28953187906397732 -0.034281883787379987 0 -0.29366820665513949 -0.048519954280836622 0 -0.31718310516035308 -0.038172790333745737 0 -0.28953187906397732 -0.034281883787379987 0 -0.29366820665513949 -0.048519954280836622 0 -0.27524211720584768 -0.038538427260779863 0 -0.29366820665513949 -0.048519954280836622 0 -0.27015330814992611 -0.058867118227927437 0 -0.29366820665513949 -0.048519954280836622 0 -0.28660483069534037 -0.061918496488246169 0 -0.27015330814992611 -0.058867118227927437 0 -0.29850594913894141 -0.055440370537233663 0 -0.28660483069534037 -0.061918496488246169 0 -0.29557893925590151 -0.069462416794053169 0 -0.29850594913894141 -0.055440370537233663 0 -0.29366820665513949 -0.048519954280836622 0 -0.28660483069534037 -0.061918496488246169 0 -0.29366820665513949 -0.048519954280836622 0 -0.27015330814992611 -0.058867118227927437 0 -0.27524211720584768 -0.038538427260779863 0 -0.26968711719611937 -0.018332150292041979 0 -0.27524211720584768 -0.038538427260779863 0 -0.26155562347943467 -0.037861138146123199 0 -0.27015330814992611 -0.058867118227927437 0 -0.27524211720584768 -0.038538427260779863 0 -0.26155562347943467 -0.037861138146123199 0 -0.24798951326795751 -0.035882587373858313 0 -0.26155562347943467 -0.037861138146123199 0 -0.25238491957690051 -0.051022134359787842 0 -0.24798951326795751 -0.035882587373858313 0 -0.25387676547985721 -0.02452441136234379 0 -0.26155562347943467 -0.037861138146123199 0 -0.27015330814992611 -0.058867118227927437 0 -0.26155562347943467 -0.037861138146123199 0 -0.25238491957690051 -0.051022134359787842 0 -0.2466384096447127 -0.069214282175018252 0 -0.27015330814992611 -0.058867118227927437 0 -0.25238491957690051 -0.051022134359787842 0 -0.2466384096447127 -0.069214282175018252 0 -0.27015330814992611 -0.058867118227927437 0 -0.26102584033089798 -0.073534373921212107 0 -0.2466384096447127 -0.069214282175018252 0 -0.27015330814992611 -0.058867118227927437 0 -0.2466384096447127 -0.069214282175018252 0 -0.26102584033089798 -0.073534373921212107 0 -0.25106785873748549 -0.083001848322642804 0 -0.25106785873748549 -0.083001848322642804 0 -0.26431637422662529 -0.083961298504163229 0 -0.25687551172258971 -0.095275519396915032 0 -0.26431637422662529 -0.083961298504163229 0 -0.25687551172258971 -0.095275519396915032 0 -0.26922948176741379 -0.094556007429682482 0 -0.26102584033089798 -0.073534373921212107 0 -0.25106785873748549 -0.083001848322642804 0 -0.26431637422662529 -0.083961298504163229 0 -0.26431637422662529 -0.083961298504163229 0 -0.27622487875609619 -0.085738752979791055 0 -0.27411142324960069 -0.07331497732508381 0 -0.26431637422662529 -0.083961298504163229 0 -0.27622487875609619 -0.085738752979791055 0 -0.26922948176741379 -0.094556007429682482 0 -0.27622487875609619 -0.085738752979791055 0 -0.26922948176741379 -0.094556007429682482 0 -0.28208733676033698 -0.099544680508420066 0 -0.27622487875609619 -0.085738752979791055 0 -0.27411142324960069 -0.07331497732508381 0 -0.28634330733871821 -0.075869823829162894 0 -0.28660483069534037 -0.061918496488246169 0 -0.27015330814992611 -0.058867118227927437 0 -0.27411142324960069 -0.07331497732508381 0 -0.27015330814992611 -0.058867118227927437 0 -0.26102584033089798 -0.073534373921212107 0 -0.27411142324960069 -0.07331497732508381 0 -0.26102584033089798 -0.073534373921212107 0 -0.26431637422662529 -0.083961298504163229 0 -0.27411142324960069 -0.07331497732508381 0 -0.24959534238117709 -0.1078054475449232 0 -0.26009747564537128 -0.1202716976192799 0 -0.26511094786836592 -0.1069062435210571 0 -0.24959534238117709 -0.1078054475449232 0 -0.26511094786836592 -0.1069062435210571 0 -0.25687551172258971 -0.095275519396915032 0 -0.26511094786836592 -0.1069062435210571 0 -0.25687551172258971 -0.095275519396915032 0 -0.26922948176741379 -0.094556007429682482 0 -0.26511094786836592 -0.1069062435210571 0 -0.27676276389741278 -0.11052104179975 0 -0.28208733676033698 -0.099544680508420066 0 -0.26511094786836592 -0.1069062435210571 0 -0.26922948176741379 -0.094556007429682482 0 -0.28208733676033698 -0.099544680508420066 0 -0.26511094786836592 -0.1069062435210571 0 -0.28208733676033698 -0.099544680508420066 0 -0.26009747564537128 -0.1202716976192799 0 -0.28368315898475188 -0.1205679176925603 0 -0.26697405985724948 -0.1304210152969853 0 -0.26009747564537128 -0.1202716976192799 0 -0.27676276389741278 -0.11052104179975 0 -0.28368315898475188 -0.1205679176925603 0 -0.26009747564537128 -0.1202716976192799 0 -0.28368315898475188 -0.1205679176925603 0 -0.26009747564537128 -0.1202716976192799 0 -0.26511094786836592 -0.1069062435210571 0 -0.27676276389741278 -0.11052104179975 0 -0.28368315898475188 -0.1205679176925603 0 -0.30807566230962469 -0.12087427087378499 0 -0.28368315898475188 -0.1205679176925603 0 -0.29137344231852969 -0.1063755175941712 0 -0.30807566230962469 -0.12087427087378499 0 -0.27676276389741278 -0.11052104179975 0 -0.28368315898475188 -0.1205679176925603 0 -0.29137344231852969 -0.1063755175941712 0 -0.28368315898475188 -0.1205679176925603 0 -0.29137344231852969 -0.1063755175941712 0 -0.29137344231852969 -0.1063755175941712 0 -0.28208733676033698 -0.099544680508420066 0 -0.29906372565230788 -0.092183117495782341 0 -0.28208733676033698 -0.099544680508420066 0 -0.29906372565230788 -0.092183117495782341 0 -0.27676276389741278 -0.11052104179975 0 -0.29137344231852969 -0.1063755175941712 0 -0.28208733676033698 -0.099544680508420066 0 -0.29137344231852969 -0.1063755175941712 0 -0.29906372565230788 -0.092183117495782341 0 -0.30690970986333499 -0.10413412755240679 0 -0.29906372565230788 -0.092183117495782341 0 -0.31411573014289268 -0.085656035662949492 0 -0.29137344231852969 -0.1063755175941712 0 -0.30690970986333499 -0.10413412755240679 0 -0.29906372565230788 -0.092183117495782341 0 -0.28368315898475188 -0.1205679176925603 0 -0.30807566230962469 -0.12087427087378499 0 -0.30140371581860798 -0.1292511186866305 0 -0.29137344231852969 -0.1063755175941712 0 -0.30690970986333499 -0.10413412755240679 0 -0.30807566230962469 -0.12087427087378499 0 -0.29557893925590151 -0.069462416794053169 0 -0.28634330733871821 -0.075869823829162894 0 -0.29528406594296941 -0.079953964946478426 0 -0.28660483069534037 -0.061918496488246169 0 -0.29557893925590151 -0.069462416794053169 0 -0.28634330733871821 -0.075869823829162894 0 -0.28660483069534037 -0.061918496488246169 0 -0.27411142324960069 -0.07331497732508381 0 -0.28634330733871821 -0.075869823829162894 0 -0.27622487875609619 -0.085738752979791055 0 -0.28634330733871821 -0.075869823829162894 0 -0.28693891673241251 -0.08747755748016231 0 -0.28208733676033698 -0.099544680508420066 0 -0.28693891673241251 -0.08747755748016231 0 -0.29906372565230788 -0.092183117495782341 0 -0.27622487875609619 -0.085738752979791055 0 -0.28208733676033698 -0.099544680508420066 0 -0.28693891673241251 -0.08747755748016231 0 -0.28693891673241251 -0.08747755748016231 0 -0.29528406594296941 -0.079953964946478426 0 -0.29906372565230788 -0.092183117495782341 0 -0.28634330733871821 -0.075869823829162894 0 -0.28693891673241251 -0.08747755748016231 0 -0.29528406594296941 -0.079953964946478426 0 -0.29528406594296941 -0.079953964946478426 0 -0.29906372565230788 -0.092183117495782341 0 -0.30849544073550722 -0.074776909133231664 0 -0.29906372565230788 -0.092183117495782341 0 -0.30849544073550722 -0.074776909133231664 0 -0.29906372565230788 -0.092183117495782341 0 -0.30849544073550722 -0.074776909133231664 0 -0.31411573014289268 -0.085656035662949492 0 -0.29906372565230788 -0.092183117495782341 0 -0.31411573014289268 -0.085656035662949492 0 -0.30849544073550722 -0.074776909133231664 0 -0.31411573014289268 -0.085656035662949492 0 -0.30229462048881822 -0.056161209871372138 0 -0.30849544073550722 -0.074776909133231664 0 -0.31178497446605258 -0.064623658022855565 0 -0.29850594913894141 -0.055440370537233663 0 -0.29557893925590151 -0.069462416794053169 0 -0.30849544073550722 -0.074776909133231664 0 -0.30849544073550722 -0.074776909133231664 0 -0.31286059459191501 -0.066721027791507209 0 -0.29850594913894141 -0.055440370537233663 0 -0.30849544073550722 -0.074776909133231664 0 -0.29557893925590151 -0.069462416794053169 0 -0.29528406594296941 -0.079953964946478426 0 -0.30849544073550722 -0.074776909133231664 0 -0.30849544073550722 -0.074776909133231664 0 -0.31178497446605258 -0.064623658022855565 0 -0.31286059459191501 -0.066721027791507209 0 -0.31178497446605258 -0.064623658022855565 0 -0.31286059459191501 -0.066721027791507209 0 -0.31286059459191501 -0.066721027791507209 0 -0.32103296817657878 -0.082656476452658639 0 -0.31286059459191501 -0.066721027791507209 0 -0.32103296817657878 -0.082656476452658639 0 -0.32352590008436471 -0.062378140209921912 0 -0.31178497446605258 -0.064623658022855565 0 -0.31286059459191501 -0.066721027791507209 0 -0.31629816603535338 -0.060261719535131632 0 -0.30849544073550722 -0.074776909133231664 0 -0.31286059459191501 -0.066721027791507209 0 -0.32103296817657878 -0.082656476452658639 0 -0.31286059459191501 -0.066721027791507209 0 -0.31629816603535338 -0.060261719535131632 0 -0.31286059459191501 -0.066721027791507209 0 -0.31629816603535338 -0.060261719535131632 0 -0.32352590008436471 -0.062378140209921912 0 -0.32103296817657878 -0.082656476452658639 0 -0.33093834944883532 -0.101971145942244 0 -0.30849544073550722 -0.074776909133231664 0 -0.31411573014289268 -0.085656035662949492 0 -0.32103296817657878 -0.082656476452658639 0 -0.31411573014289268 -0.085656035662949492 0 -0.32103296817657878 -0.082656476452658639 0 -0.32329194788869442 -0.1034183298589804 0 -0.31411573014289268 -0.085656035662949492 0 -0.32103296817657878 -0.082656476452658639 0 -0.32103296817657878 -0.082656476452658639 0 -0.33692687914299491 -0.089632102483736459 0 -0.33093834944883532 -0.101971145942244 0 -0.32103296817657878 -0.082656476452658639 0 -0.33692687914299491 -0.089632102483736459 0 -0.3453529791357649 -0.07211045902320197 0 -0.32103296817657878 -0.082656476452658639 0 -0.3453529791357649 -0.07211045902320197 0 -0.32352590008436471 -0.062378140209921912 0 -0.34475717967991132 -0.068595070548471249 0 -0.3453529791357649 -0.07211045902320197 0 -0.32352590008436471 -0.062378140209921912 0 -0.34475717967991132 -0.068595070548471249 0 -0.32352590008436471 -0.062378140209921912 0 -0.32103296817657878 -0.082656476452658639 0 -0.3453529791357649 -0.07211045902320197 0 -0.30807566230962469 -0.12087427087378499 0 -0.32329194788869442 -0.1034183298589804 0 -0.33246816563449738 -0.1211806240550105 0 -0.30807566230962469 -0.12087427087378499 0 -0.33246816563449738 -0.1211806240550105 0 -0.30807566230962469 -0.12087427087378499 0 -0.32007374605487132 -0.12494213909402439 0 -0.33246816563449738 -0.1211806240550105 0 -0.30690970986333499 -0.10413412755240679 0 -0.30807566230962469 -0.12087427087378499 0 -0.32329194788869442 -0.1034183298589804 0 -0.32329194788869442 -0.1034183298589804 0 -0.33246816563449738 -0.1211806240550105 0 -0.32007374605487132 -0.12494213909402439 0 -0.33441303965894859 -0.1249452932850653 0 -0.30690970986333499 -0.10413412755240679 0 -0.31411573014289268 -0.085656035662949492 0 -0.32329194788869442 -0.1034183298589804 0 -0.32103296817657878 -0.082656476452658639 0 -0.32329194788869442 -0.1034183298589804 0 -0.33093834944883532 -0.101971145942244 0 -0.31411573014289268 -0.085656035662949492 0 -0.32329194788869442 -0.1034183298589804 0 -0.32329194788869442 -0.1034183298589804 0 -0.33093834944883532 -0.101971145942244 0 -0.33246816563449738 -0.1211806240550105 0 -0.33692687914299491 -0.089632102483736459 0 -0.33093834944883532 -0.101971145942244 0 -0.35038321981080389 -0.10179032851684799 0 -0.33093834944883532 -0.101971145942244 0 -0.34773438721257438 -0.1121772477149196 0 -0.35038321981080389 -0.10179032851684799 0 -0.33093834944883532 -0.101971145942244 0 -0.3408437307210912 -0.1212858154318297 0 -0.33093834944883532 -0.101971145942244 0 -0.3408437307210912 -0.1212858154318297 0 -0.33246816563449738 -0.1211806240550105 0 -0.33093834944883532 -0.101971145942244 0 -0.3408437307210912 -0.1212858154318297 0 -0.34773438721257438 -0.1121772477149196 0 -0.34272140335036932 -0.124947120862287 0 -0.3408437307210912 -0.1212858154318297 0 -0.33441303965894859 -0.1249452932850653 0 -0.3408437307210912 -0.1212858154318297 0 -0.33246816563449738 -0.1211806240550105 0 -0.34272140335036932 -0.124947120862287 0 -0.33441303965894859 -0.1249452932850653 0 -0.34272140335036932 -0.124947120862287 0 -0.3408437307210912 -0.1212858154318297 0 -0.32007374605487132 -0.12494213909402439 0 -0.33441303965894859 -0.1249452932850653 0 -0.33246816563449738 -0.1211806240550105 0 -0.3408437307210912 -0.1212858154318297 0 -0.33441303965894859 -0.1249452932850653 0 -0.33246816563449738 -0.1211806240550105 0 -0.33441303965894859 -0.1249452932850653 0 -0.33246816563449738 -0.1211806240550105 0 -0.34272140335036932 -0.124947120862287 0 -0.35433435295871402 -0.1214552484327875 0 -0.36893450279197471 -0.1249528869149899 0 -0.34272140335036932 -0.124947120862287 0 -0.36893450279197471 -0.1249528869149899 0 -0.3408437307210912 -0.1212858154318297 0 -0.35433435295871402 -0.1214552484327875 0 -0.3408437307210912 -0.1212858154318297 0 -0.35433435295871402 -0.1214552484327875 0 -0.34773438721257438 -0.1121772477149196 0 -0.34272140335036932 -0.124947120862287 0 -0.3408437307210912 -0.1212858154318297 0 -0.35433435295871402 -0.1214552484327875 0 -0.35433435295871402 -0.1214552484327875 0 -0.34773438721257438 -0.1121772477149196 0 -0.3623387343604032 -0.1125517513480446 0 -0.34773438721257438 -0.1121772477149196 0 -0.35038321981080389 -0.10179032851684799 0 -0.3623387343604032 -0.1125517513480446 0 -0.37380044498630338 -0.100392191664622 0 -0.3623387343604032 -0.1125517513480446 0 -0.3789649235099295 -0.11270856972454819 0 -0.35038321981080389 -0.10179032851684799 0 -0.37380044498630338 -0.100392191664622 0 -0.36747037526515469 -0.088210616938563927 0 -0.35038321981080389 -0.10179032851684799 0 -0.37380044498630338 -0.100392191664622 0 -0.3623387343604032 -0.1125517513480446 0 -0.3623387343604032 -0.1125517513480446 0 -0.36893450279197471 -0.1249528869149899 0 -0.3789649235099295 -0.11270856972454819 0 -0.35433435295871402 -0.1214552484327875 0 -0.3623387343604032 -0.1125517513480446 0 -0.36893450279197471 -0.1249528869149899 0 -0.34995192587724822 -0.070116192960804249 0 -0.35645509357982358 -0.081628608772215283 0 -0.36843110820579178 -0.075527255856609146 0 -0.34995192587724822 -0.070116192960804249 0 -0.36608399240098949 -0.063120758007335118 0 -0.35494834161021771 -0.06194377696909157 0 -0.34995192587724822 -0.070116192960804249 0 -0.36843110820579178 -0.075527255856609146 0 -0.34995192587724822 -0.070116192960804249 0 -0.36608399240098949 -0.063120758007335118 0 -0.34995192587724822 -0.070116192960804249 0 -0.34475717967991132 -0.068595070548471249 0 -0.35494834161021771 -0.06194377696909157 0 -0.34995192587724822 -0.070116192960804249 0 -0.34475717967991132 -0.068595070548471249 0 -0.34995192587724822 -0.070116192960804249 0 -0.34475717967991132 -0.068595070548471249 0 -0.3453529791357649 -0.07211045902320197 0 -0.34995192587724822 -0.070116192960804249 0 -0.3453529791357649 -0.07211045902320197 0 -0.34995192587724822 -0.070116192960804249 0 -0.3453529791357649 -0.07211045902320197 0 -0.35645509357982358 -0.081628608772215283 0 -0.34475717967991132 -0.068595070548471249 0 -0.3453529791357649 -0.07211045902320197 0 -0.35038321981080389 -0.10179032851684799 0 -0.35645509357982358 -0.081628608772215283 0 -0.36747037526515469 -0.088210616938563927 0 -0.35038321981080389 -0.10179032851684799 0 -0.3453529791357649 -0.07211045902320197 0 -0.35645509357982358 -0.081628608772215283 0 -0.33692687914299491 -0.089632102483736459 0 -0.35038321981080389 -0.10179032851684799 0 -0.3453529791357649 -0.07211045902320197 0 -0.35038321981080389 -0.10179032851684799 0 -0.3453529791357649 -0.07211045902320197 0 -0.36747037526515469 -0.088210616938563927 0 -0.36843110820579178 -0.075527255856609146 0 -0.38691029053433551 -0.080938318752413793 0 -0.35645509357982358 -0.081628608772215283 0 -0.36747037526515469 -0.088210616938563927 0 -0.36843110820579178 -0.075527255856609146 0 -0.34995192587724822 -0.070116192960804249 0 -0.36843110820579178 -0.075527255856609146 0 -0.36608399240098949 -0.063120758007335118 0 -0.36843110820579178 -0.075527255856609146 0 -0.36608399240098949 -0.063120758007335118 0 -0.37978412082390189 -0.068029865631836883 0 -0.36608399240098949 -0.063120758007335118 0 -0.37085155020467431 -0.050438611479832557 0 -0.38221605892473098 -0.056125323053866277 0 -0.36608399240098949 -0.063120758007335118 0 -0.38221605892473098 -0.056125323053866277 0 -0.37085155020467431 -0.050438611479832557 0 -0.36177701350261748 -0.054750595911384127 0 -0.36329546327126672 -0.041142767418341691 0 -0.36608399240098949 -0.063120758007335118 0 -0.36177701350261748 -0.054750595911384127 0 -0.35494834161021771 -0.06194377696909157 0 -0.36608399240098949 -0.063120758007335118 0 -0.37085155020467431 -0.050438611479832557 0 -0.36177701350261748 -0.054750595911384127 0 -0.36177701350261748 -0.054750595911384127 0 -0.35494834161021771 -0.06194377696909157 0 -0.35217159659032232 -0.05313626741746251 0 -0.34475717967991132 -0.068595070548471249 0 -0.35217159659032232 -0.05313626741746251 0 -0.34008173660725832 -0.04100860914713586 0 -0.36177701350261748 -0.054750595911384127 0 -0.35217159659032232 -0.05313626741746251 0 -0.36329546327126672 -0.041142767418341691 0 -0.34475717967991132 -0.068595070548471249 0 -0.35494834161021771 -0.06194377696909157 0 -0.35217159659032232 -0.05313626741746251 0 -0.35217159659032232 -0.05313626741746251 0 -0.35233090603521772 -0.034345905606361089 0 -0.36329546327126672 -0.041142767418341691 0 -0.35217159659032232 -0.05313626741746251 0 -0.35233090603521772 -0.034345905606361089 0 -0.34008173660725832 -0.04100860914713586 0 -0.35233090603521772 -0.034345905606361089 0 -0.34677261788783459 -0.022263095799622792 0 -0.34008173660725832 -0.04100860914713586 0 -0.35233090603521772 -0.034345905606361089 0 -0.36329546327126672 -0.041142767418341691 0 -0.36125368123050811 -0.029816691131076791 0 -0.36329546327126672 -0.041142767418341691 0 -0.37015544225173291 -0.03012439130571171 0 -0.36125368123050811 -0.029816691131076791 0 -0.37085155020467431 -0.050438611479832557 0 -0.36329546327126672 -0.041142767418341691 0 -0.37439980638912518 -0.038891661293645137 0 -0.36329546327126672 -0.041142767418341691 0 -0.37439980638912518 -0.038891661293645137 0 -0.37015544225173291 -0.03012439130571171 0 -0.37439980638912518 -0.038891661293645137 0 -0.37015544225173291 -0.03012439130571171 0 -0.37866743010551202 -0.02906954498465647 0 -0.37015544225173291 -0.03012439130571171 0 -0.37402384376206249 -0.023759624541515059 0 -0.37866743010551202 -0.02906954498465647 0 -0.37015544225173291 -0.03012439130571171 0 -0.37402384376206249 -0.023759624541515059 0 -0.36652472594663232 -0.022500501643346649 0 -0.37402384376206249 -0.023759624541515059 0 -0.37465439862472261 -0.016787835852634068 0 -0.36652472594663232 -0.022500501643346649 0 -0.37465439862472261 -0.016787835852634068 0 -0.36652472594663232 -0.022500501643346649 0 -0.3596530522362773 -0.017262546391789129 0 -0.36652472594663232 -0.022500501643346649 0 -0.3596530522362773 -0.017262546391789129 0 -0.35649867437881472 -0.022585523222405649 0 -0.36652472594663232 -0.022500501643346649 0 -0.36125368123050811 -0.029816691131076791 0 -0.35649867437881472 -0.022585523222405649 0 -0.37015544225173291 -0.03012439130571171 0 -0.36652472594663232 -0.022500501643346649 0 -0.36125368123050811 -0.029816691131076791 0 -0.37465439862472261 -0.016787835852634068 0 -0.3596530522362773 -0.017262546391789129 0 -0.34857824671955512 -0.007874197240844389 0 -0.37465439862472261 -0.016787835852634068 0 -0.3597652811465577 -0.0058215117475868012 0 -0.34857824671955512 -0.007874197240844389 0 -0.37465439862472261 -0.016787835852634068 0 -0.34857824671955512 -0.007874197240844389 0 -0.37126952376897032 -0.00085078512189483576 0 -0.36867541047690239 -0.006920070417115203 0 -0.36494834593608783 -0.001298186014321303 0 -0.37126952376897032 -0.00085078512189483576 0 -0.37464851222799189 -0.0076089195940836872 0 -0.37774077980655368 -0.001289555558904682 0 -0.37126952376897032 -0.00085078512189483576 0 -0.37464851222799189 -0.0076089195940836872 0 -0.36867541047690239 -0.006920070417115203 0 -0.37465439862472261 -0.016787835852634068 0 -0.36867541047690239 -0.006920070417115203 0 -0.3597652811465577 -0.0058215117475868012 0 -0.37465439862472261 -0.016787835852634068 0 -0.37464851222799189 -0.0076089195940836872 0 -0.36867541047690239 -0.006920070417115203 0 -0.36867541047690239 -0.006920070417115203 0 -0.3597652811465577 -0.0058215117475868012 0 -0.36494834593608783 -0.001298186014321303 0 -0.3597652811465577 -0.0058215117475868012 0 -0.36494834593608783 -0.001298186014321303 0 -0.35900139338342918 0.0020097317905480609 0 -0.3597652811465577 -0.0058215117475868012 0 -0.35221409618436439 -0.0049109655465913588 0 -0.34857824671955512 -0.007874197240844389 0 -0.3597652811465577 -0.0058215117475868012 0 -0.35509488683577939 -0.0004162838960613095 0 -0.35900139338342918 0.0020097317905480609 0 -0.3597652811465577 -0.0058215117475868012 0 -0.35509488683577939 -0.0004162838960613095 0 -0.35221409618436439 -0.0049109655465913588 0 -0.3596530522362773 -0.017262546391789129 0 -0.34857824671955512 -0.007874197240844389 0 -0.35200921551166209 -0.0165646739997149 0 -0.34857824671955512 -0.007874197240844389 0 -0.34618108527798752 -0.01472783018749277 0 -0.35200921551166209 -0.0165646739997149 0 -0.35233090603521772 -0.034345905606361089 0 -0.36125368123050811 -0.029816691131076791 0 -0.35649867437881472 -0.022585523222405649 0 -0.35233090603521772 -0.034345905606361089 0 -0.35649867437881472 -0.022585523222405649 0 -0.34677261788783459 -0.022263095799622792 0 -0.35649867437881472 -0.022585523222405649 0 -0.35200921551166209 -0.0165646739997149 0 -0.34677261788783459 -0.022263095799622792 0 -0.3596530522362773 -0.017262546391789129 0 -0.35649867437881472 -0.022585523222405649 0 -0.35200921551166209 -0.0165646739997149 0 -0.34618108527798752 -0.01472783018749277 0 -0.35200921551166209 -0.0165646739997149 0 -0.34677261788783459 -0.022263095799622792 0 -0.33540629353460438 -0.01342214774580049 0 -0.31718310516035308 -0.038172790333745737 0 -0.34008173660725832 -0.04100860914713586 0 -0.33540629353460438 -0.01342214774580049 0 -0.34008173660725832 -0.04100860914713586 0 -0.34677261788783459 -0.022263095799622792 0 -0.33540629353460438 -0.01342214774580049 0 -0.34008173660725832 -0.04100860914713586 0 -0.34618108527798752 -0.01472783018749277 0 -0.34677261788783459 -0.022263095799622792 0 -0.33540629353460438 -0.01342214774580049 0 -0.33540629353460438 -0.01342214774580049 0 -0.3204068892458079 -0.0014125807301150939 0 -0.33073085046195078 0.01416431365553468 0 -0.34857824671955512 -0.007874197240844389 0 -0.33540629353460438 -0.01342214774580049 0 -0.33073085046195078 0.01416431365553468 0 -0.34857824671955512 -0.007874197240844389 0 -0.34618108527798752 -0.01472783018749277 0 -0.33540629353460438 -0.01342214774580049 0 -0.3025805037907468 -0.0027432771802810229 0 -0.31459326366374579 -0.01532774276474733 0 -0.3204068892458079 -0.0014125807301150939 0 -0.33540629353460438 -0.01342214774580049 0 -0.31459326366374579 -0.01532774276474733 0 -0.3204068892458079 -0.0014125807301150939 0 -0.33540629353460438 -0.01342214774580049 0 -0.31459326366374579 -0.01532774276474733 0 -0.31718310516035308 -0.038172790333745737 0 -0.31718310516035308 -0.038172790333745737 0 -0.3268834079531176 -0.05023453433316457 0 -0.34008173660725832 -0.04100860914713586 0 -0.31718310516035308 -0.038172790333745737 0 -0.31370341578724742 -0.051143824177853653 0 -0.3268834079531176 -0.05023453433316457 0 -0.31370341578724742 -0.051143824177853653 0 -0.31629816603535338 -0.060261719535131632 0 -0.32352590008436471 -0.062378140209921912 0 -0.31629816603535338 -0.060261719535131632 0 -0.32352590008436471 -0.062378140209921912 0 -0.32352590008436471 -0.062378140209921912 0 -0.3268834079531176 -0.05023453433316457 0 -0.33381205608116321 -0.055554088559673351 0 -0.31370341578724742 -0.051143824177853653 0 -0.32352590008436471 -0.062378140209921912 0 -0.3268834079531176 -0.05023453433316457 0 -0.34475717967991132 -0.068595070548471249 0 -0.32352590008436471 -0.062378140209921912 0 -0.33381205608116321 -0.055554088559673351 0 -0.34475717967991132 -0.068595070548471249 0 -0.33381205608116321 -0.055554088559673351 0 -0.34008173660725832 -0.04100860914713586 0 -0.3268834079531176 -0.05023453433316457 0 -0.33381205608116321 -0.055554088559673351 0 -0.34008173660725832 -0.04100860914713586 0 -0.34475717967991132 -0.068595070548471249 0 -0.34008173660725832 -0.04100860914713586 0 -0.29131753467172561 -0.25675805269722002 0 -0.30769212114973271 -0.24578220261295139 0 -0.29241592956139478 -0.23974284613727589 0 -0.30769212114973271 -0.24578220261295139 0 -0.30829656048542242 -0.23127198481015249 0 -0.29241592956139478 -0.23974284613727589 0 -0.30829656048542242 -0.23127198481015249 0 -0.29279532374442052 -0.2217612167757172 0 -0.3129652712195421 -0.2114706657937139 0 -0.30829656048542242 -0.23127198481015249 0 -0.29279532374442052 -0.2217612167757172 0 -0.29241592956139478 -0.23974284613727589 0 -0.29279532374442052 -0.2217612167757172 0 -0.29241592956139478 -0.23974284613727589 0 -0.27798049023744681 -0.23352671123603991 0 -0.29279532374442052 -0.2217612167757172 0 -0.27798049023744681 -0.23352671123603991 0 -0.27449661508218531 -0.21747639879007349 0 -0.29131753467172561 -0.25675805269722002 0 -0.29241592956139478 -0.23974284613727589 0 -0.27722523139620658 -0.24922189107985179 0 -0.29241592956139478 -0.23974284613727589 0 -0.27722523139620658 -0.24922189107985179 0 -0.27798049023744681 -0.23352671123603991 0 -0.27722523139620658 -0.24922189107985179 0 -0.25992972331208369 -0.2410680052130979 0 -0.27798049023744681 -0.23352671123603991 0 -0.26398002587916253 -0.25656090854441049 0 -0.27722523139620658 -0.24922189107985179 0 -0.25992972331208369 -0.2410680052130979 0 -0.25992972331208369 -0.2410680052130979 0 -0.25674041691710447 -0.22108212323078871 0 -0.27798049023744681 -0.23352671123603991 0 -0.2377451423251814 -0.23136366228574551 0 -0.25992972331208369 -0.2410680052130979 0 -0.25674041691710447 -0.22108212323078871 0 -0.25674041691710447 -0.22108212323078871 0 -0.27798049023744681 -0.23352671123603991 0 -0.27449661508218531 -0.21747639879007349 0 -0.27449661508218531 -0.21747639879007349 0 -0.25644706280453389 -0.1995927939493197 0 -0.27817485521465529 -0.19463925610534399 0 -0.27449661508218531 -0.21747639879007349 0 -0.27817485521465529 -0.19463925610534399 0 -0.25674041691710447 -0.22108212323078871 0 -0.27449661508218531 -0.21747639879007349 0 -0.25644706280453389 -0.1995927939493197 0 -0.25644706280453389 -0.1995927939493197 0 -0.27817485521465529 -0.19463925610534399 0 -0.26629571781906192 -0.18034234132084431 0 -0.27817485521465529 -0.19463925610534399 0 -0.29367807880863189 -0.20345752952089671 0 -0.29386082525749962 -0.1848532680646672 0 -0.27449661508218531 -0.21747639879007349 0 -0.27817485521465529 -0.19463925610534399 0 -0.29367807880863189 -0.20345752952089671 0 -0.29279532374442052 -0.2217612167757172 0 -0.27449661508218531 -0.21747639879007349 0 -0.29367807880863189 -0.20345752952089671 0 -0.29279532374442052 -0.2217612167757172 0 -0.29367807880863189 -0.20345752952089671 0 -0.3129652712195421 -0.2114706657937139 0 -0.29367807880863189 -0.20345752952089671 0 -0.30717411826112789 -0.1920401195635244 0 -0.29386082525749962 -0.1848532680646672 0 -0.29367807880863189 -0.20345752952089671 0 -0.30717411826112789 -0.1920401195635244 0 -0.3129652712195421 -0.2114706657937139 0 -0.30551265723832022 -0.17938492804960809 0 -0.29677214667513702 -0.1677956617280158 0 -0.29386082525749962 -0.1848532680646672 0 -0.30717411826112789 -0.1920401195635244 0 -0.30551265723832022 -0.17938492804960809 0 -0.29386082525749962 -0.1848532680646672 0 -0.30717411826112789 -0.1920401195635244 0 -0.30551265723832022 -0.17938492804960809 0 -0.31489114071409963 -0.18333745750317351 0 -0.30551265723832022 -0.17938492804960809 0 -0.31220508881165993 -0.16846949012138551 0 -0.29677214667513702 -0.1677956617280158 0 -0.30551265723832022 -0.17938492804960809 0 -0.31220508881165993 -0.16846949012138551 0 -0.31489114071409963 -0.18333745750317351 0 -0.31220508881165993 -0.16846949012138551 0 -0.2949530938874384 -0.15245549241185349 0 -0.31498630483336881 -0.15987728715749039 0 -0.31220508881165993 -0.16846949012138551 0 -0.2949530938874384 -0.15245549241185349 0 -0.31220508881165993 -0.16846949012138551 0 -0.29677214667513702 -0.1677956617280158 0 -0.2949530938874384 -0.15245549241185349 0 -0.28185309534712533 -0.17180211342061449 0 -0.28553133547959519 -0.14896497073588499 0 -0.29677214667513702 -0.1677956617280158 0 -0.28185309534712533 -0.17180211342061449 0 -0.2949530938874384 -0.15245549241185349 0 -0.28185309534712533 -0.17180211342061449 0 -0.28553133547959519 -0.14896497073588499 0 -0.2949530938874384 -0.15245549241185349 0 -0.27817485521465529 -0.19463925610534399 0 -0.28185309534712533 -0.17180211342061449 0 -0.29386082525749962 -0.1848532680646672 0 -0.29677214667513702 -0.1677956617280158 0 -0.28185309534712533 -0.17180211342061449 0 -0.29386082525749962 -0.1848532680646672 0 -0.27817485521465529 -0.19463925610534399 0 -0.28185309534712533 -0.17180211342061449 0 -0.27817485521465529 -0.19463925610534399 0 -0.28185309534712533 -0.17180211342061449 0 -0.26629571781906192 -0.18034234132084431 0 -0.26629571781906192 -0.18034234132084431 0 -0.25029992488695979 -0.1782534950292988 0 -0.25761979100978533 -0.16665415002795461 0 -0.25644706280453389 -0.1995927939493197 0 -0.26629571781906192 -0.18034234132084431 0 -0.25029992488695979 -0.1782534950292988 0 -0.26629571781906192 -0.18034234132084431 0 -0.25761979100978533 -0.16665415002795461 0 -0.26933386928146391 -0.16300442301689841 0 -0.24825300788518309 -0.1555077779107997 0 -0.25761979100978533 -0.16665415002795461 0 -0.26108146703715113 -0.15708396540124031 0 -0.25761979100978533 -0.16665415002795461 0 -0.26108146703715113 -0.15708396540124031 0 -0.26933386928146391 -0.16300442301689841 0 -0.28185309534712533 -0.17180211342061449 0 -0.27598770130958522 -0.15333886838191951 0 -0.28553133547959519 -0.14896497073588499 0 -0.28185309534712533 -0.17180211342061449 0 -0.26629571781906192 -0.18034234132084431 0 -0.26933386928146391 -0.16300442301689841 0 -0.26108146703715113 -0.15708396540124031 0 -0.26933386928146391 -0.16300442301689841 0 -0.26726071412102442 -0.15087550168963329 0 -0.28185309534712533 -0.17180211342061449 0 -0.26933386928146391 -0.16300442301689841 0 -0.27598770130958522 -0.15333886838191951 0 -0.27598770130958522 -0.15333886838191951 0 -0.271177428866754 -0.14364721368904659 0 -0.28553133547959519 -0.14896497073588499 0 -0.271177428866754 -0.14364721368904659 0 -0.28662611268527088 -0.1421678116724244 0 -0.28553133547959519 -0.14896497073588499 0 -0.271177428866754 -0.14364721368904659 0 -0.28553133547959519 -0.14896497073588499 0 -0.271177428866754 -0.14364721368904659 0 -0.26726071412102442 -0.15087550168963329 0 -0.25891484533836889 -0.13910423861407881 0 -0.271177428866754 -0.14364721368904659 0 -0.26726071412102442 -0.15087550168963329 0 -0.27598770130958522 -0.15333886838191951 0 -0.271177428866754 -0.14364721368904659 0 -0.26726071412102442 -0.15087550168963329 0 -0.26933386928146391 -0.16300442301689841 0 -0.27598770130958522 -0.15333886838191951 0 -0.26726071412102442 -0.15087550168963329 0 -0.2405789555143194 -0.1375116727892334 0 -0.25601133851015478 -0.1487044986697981 0 -0.25891484533836889 -0.13910423861407881 0 -0.26108146703715113 -0.15708396540124031 0 -0.26726071412102442 -0.15087550168963329 0 -0.25601133851015478 -0.1487044986697981 0 -0.271177428866754 -0.14364721368904659 0 -0.25891484533836889 -0.13910423861407881 0 -0.26726071412102442 -0.15087550168963329 0 -0.25601133851015478 -0.1487044986697981 0 -0.25891484533836889 -0.13910423861407881 0 -0.24825300788518309 -0.1555077779107997 0 -0.26108146703715113 -0.15708396540124031 0 -0.25601133851015478 -0.1487044986697981 0 -0.26009747564537128 -0.1202716976192799 0 -0.25054446979338107 -0.12912519928877991 0 -0.26697405985724948 -0.1304210152969853 0 -0.25054446979338107 -0.12912519928877991 0 -0.25891484533836889 -0.13910423861407881 0 -0.26697405985724948 -0.1304210152969853 0 -0.2405789555143194 -0.1375116727892334 0 -0.25054446979338107 -0.12912519928877991 0 -0.25891484533836889 -0.13910423861407881 0 -0.28368315898475188 -0.1205679176925603 0 -0.271177428866754 -0.14364721368904659 0 -0.26697405985724948 -0.1304210152969853 0 -0.28368315898475188 -0.1205679176925603 0 -0.271177428866754 -0.14364721368904659 0 -0.28514813781506088 -0.1345929107172644 0 -0.28368315898475188 -0.1205679176925603 0 -0.271177428866754 -0.14364721368904659 0 -0.271177428866754 -0.14364721368904659 0 -0.25891484533836889 -0.13910423861407881 0 -0.26697405985724948 -0.1304210152969853 0 -0.271177428866754 -0.14364721368904659 0 -0.28514813781506088 -0.1345929107172644 0 -0.28662611268527088 -0.1421678116724244 0 -0.28368315898475188 -0.1205679176925603 0 -0.29492821592448881 -0.13453805291007029 0 -0.28514813781506088 -0.1345929107172644 0 -0.28368315898475188 -0.1205679176925603 0 -0.29492821592448881 -0.13453805291007029 0 -0.30140371581860798 -0.1292511186866305 0 -0.29492821592448881 -0.13453805291007029 0 -0.2912775948780732 -0.1389862943003273 0 -0.28514813781506088 -0.1345929107172644 0 -0.29657756063899582 -0.140013172184488 0 -0.29492821592448881 -0.13453805291007029 0 -0.2912775948780732 -0.1389862943003273 0 -0.2912775948780732 -0.1389862943003273 0 -0.28514813781506088 -0.1345929107172644 0 -0.28662611268527088 -0.1421678116724244 0 -0.28662611268527088 -0.1421678116724244 0 -0.28553133547959519 -0.14896497073588499 0 -0.28662611268527088 -0.1421678116724244 0 -0.28553133547959519 -0.14896497073588499 0 -0.28937009998544028 -0.14621975116982991 0 -0.28553133547959519 -0.14896497073588499 0 -0.2922536480049423 -0.1499497578362777 0 -0.28937009998544028 -0.14621975116982991 0 -0.28553133547959519 -0.14896497073588499 0 -0.2922536480049423 -0.1499497578362777 0 -0.2949530938874384 -0.15245549241185349 0 -0.28553133547959519 -0.14896497073588499 0 -0.2949530938874384 -0.15245549241185349 0 -0.2922536480049423 -0.1499497578362777 0 -0.2949530938874384 -0.15245549241185349 0 -0.29617843115691228 -0.14802272380236281 0 -0.2922536480049423 -0.1499497578362777 0 -0.2949530938874384 -0.15245549241185349 0 -0.2912775948780732 -0.1389862943003273 0 -0.28662611268527088 -0.1421678116724244 0 -0.29310794732654949 -0.1436195240173895 0 -0.28662611268527088 -0.1421678116724244 0 -0.28937009998544028 -0.14621975116982991 0 -0.29310794732654949 -0.1436195240173895 0 -0.2922536480049423 -0.1499497578362777 0 -0.28937009998544028 -0.14621975116982991 0 -0.29310794732654949 -0.1436195240173895 0 -0.29617843115691228 -0.14802272380236281 0 -0.29310794732654949 -0.1436195240173895 0 -0.29956135480037449 -0.14472193576336759 0 -0.2922536480049423 -0.1499497578362777 0 -0.29617843115691228 -0.14802272380236281 0 -0.29310794732654949 -0.1436195240173895 0 -0.29657756063899582 -0.140013172184488 0 -0.2912775948780732 -0.1389862943003273 0 -0.29310794732654949 -0.1436195240173895 0 -0.29657756063899582 -0.140013172184488 0 -0.29310794732654949 -0.1436195240173895 0 -0.29956135480037449 -0.14472193576336759 0 -0.29956135480037449 -0.14472193576336759 0 -0.30554397810907652 -0.146919348525368 0 -0.30456114821214081 -0.13888567554976469 0 -0.2949530938874384 -0.15245549241185349 0 -0.30620642865757891 -0.15285211384445899 0 -0.31498630483336881 -0.15987728715749039 0 -0.2949530938874384 -0.15245549241185349 0 -0.31498630483336881 -0.15987728715749039 0 -0.29657756063899582 -0.140013172184488 0 -0.29956135480037449 -0.14472193576336759 0 -0.30456114821214081 -0.13888567554976469 0 -0.29617843115691228 -0.14802272380236281 0 -0.29956135480037449 -0.14472193576336759 0 -0.30052761464898298 -0.14908162957255741 0 -0.29956135480037449 -0.14472193576336759 0 -0.30052761464898298 -0.14908162957255741 0 -0.30554397810907652 -0.146919348525368 0 -0.2949530938874384 -0.15245549241185349 0 -0.30052761464898298 -0.14908162957255741 0 -0.30620642865757891 -0.15285211384445899 0 -0.2949530938874384 -0.15245549241185349 0 -0.29617843115691228 -0.14802272380236281 0 -0.30052761464898298 -0.14908162957255741 0 -0.30052761464898298 -0.14908162957255741 0 -0.30620642865757891 -0.15285211384445899 0 -0.30554397810907652 -0.146919348525368 0 -0.30620642865757891 -0.15285211384445899 0 -0.31211863317072019 -0.1538765410016501 0 -0.31498630483336881 -0.15987728715749039 0 -0.30620642865757891 -0.15285211384445899 0 -0.31071230574427161 -0.15022116190891349 0 -0.30554397810907652 -0.146919348525368 0 -0.30620642865757891 -0.15285211384445899 0 -0.31071230574427161 -0.15022116190891349 0 -0.31211863317072019 -0.1538765410016501 0 -0.31246836027323899 -0.14497521722301901 0 -0.31246708178415561 -0.13872402753426441 0 -0.30456114821214081 -0.13888567554976469 0 -0.30554397810907652 -0.146919348525368 0 -0.31246836027323899 -0.14497521722301901 0 -0.30456114821214081 -0.13888567554976469 0 -0.31071230574427161 -0.15022116190891349 0 -0.30554397810907652 -0.146919348525368 0 -0.31246836027323899 -0.14497521722301901 0 -0.30140371581860798 -0.1292511186866305 0 -0.30456114821214081 -0.13888567554976469 0 -0.31280589771709483 -0.13181614145056869 0 -0.31246708178415561 -0.13872402753426441 0 -0.30456114821214081 -0.13888567554976469 0 -0.31280589771709483 -0.13181614145056869 0 -0.30807566230962469 -0.12087427087378499 0 -0.30140371581860798 -0.1292511186866305 0 -0.31280589771709483 -0.13181614145056869 0 -0.29657756063899582 -0.140013172184488 0 -0.29492821592448881 -0.13453805291007029 0 -0.30456114821214081 -0.13888567554976469 0 -0.29492821592448881 -0.13453805291007029 0 -0.30140371581860798 -0.1292511186866305 0 -0.30456114821214081 -0.13888567554976469 0 -0.3226930215385343 -0.13395567837890529 0 -0.31855308997834159 -0.13934265221991729 0 -0.32506280578504959 -0.14064102607364051 0 -0.3226930215385343 -0.13395567837890529 0 -0.32506280578504959 -0.14064102607364051 0 -0.33047387389575927 -0.1369340691945744 0 -0.3226930215385343 -0.13395567837890529 0 -0.32807010768985068 -0.12986880773923029 0 -0.33047387389575927 -0.1369340691945744 0 -0.32007374605487132 -0.12494213909402439 0 -0.33441303965894859 -0.1249452932850653 0 -0.32807010768985068 -0.12986880773923029 0 -0.32007374605487132 -0.12494213909402439 0 -0.3226930215385343 -0.13395567837890529 0 -0.32807010768985068 -0.12986880773923029 0 -0.32007374605487132 -0.12494213909402439 0 -0.3226930215385343 -0.13395567837890529 0 -0.31280589771709483 -0.13181614145056869 0 -0.30807566230962469 -0.12087427087378499 0 -0.32007374605487132 -0.12494213909402439 0 -0.31280589771709483 -0.13181614145056869 0 -0.3226930215385343 -0.13395567837890529 0 -0.31280589771709483 -0.13181614145056869 0 -0.31855308997834159 -0.13934265221991729 0 -0.31246708178415561 -0.13872402753426441 0 -0.31280589771709483 -0.13181614145056869 0 -0.31855308997834159 -0.13934265221991729 0 -0.31246836027323899 -0.14497521722301901 0 -0.31246708178415561 -0.13872402753426441 0 -0.31855308997834159 -0.13934265221991729 0 -0.31246836027323899 -0.14497521722301901 0 -0.31855308997834159 -0.13934265221991729 0 -0.32096396999162452 -0.14503749675666289 0 -0.31246836027323899 -0.14497521722301901 0 -0.31722412851074311 -0.15248258895007169 0 -0.32096396999162452 -0.14503749675666289 0 -0.31211863317072019 -0.1538765410016501 0 -0.31722412851074311 -0.15248258895007169 0 -0.31498630483336881 -0.15987728715749039 0 -0.31071230574427161 -0.15022116190891349 0 -0.31246836027323899 -0.14497521722301901 0 -0.31722412851074311 -0.15248258895007169 0 -0.31071230574427161 -0.15022116190891349 0 -0.31211863317072019 -0.1538765410016501 0 -0.31722412851074311 -0.15248258895007169 0 -0.32096396999162452 -0.14503749675666289 0 -0.32506280578504959 -0.14064102607364051 0 -0.33039285730051032 -0.1475567648151897 0 -0.31722412851074311 -0.15248258895007169 0 -0.32096396999162452 -0.14503749675666289 0 -0.33039285730051032 -0.1475567648151897 0 -0.31855308997834159 -0.13934265221991729 0 -0.32096396999162452 -0.14503749675666289 0 -0.32506280578504959 -0.14064102607364051 0 -0.33039285730051032 -0.1475567648151897 0 -0.33813688440009898 -0.15615522653291031 0 -0.34198145815712638 -0.1395953898376964 0 -0.32506280578504959 -0.14064102607364051 0 -0.33039285730051032 -0.1475567648151897 0 -0.33047387389575927 -0.1369340691945744 0 -0.31722412851074311 -0.15248258895007169 0 -0.33039285730051032 -0.1475567648151897 0 -0.33813688440009898 -0.15615522653291031 0 -0.33039285730051032 -0.1475567648151897 0 -0.34198145815712638 -0.1395953898376964 0 -0.33047387389575927 -0.1369340691945744 0 -0.33813688440009898 -0.15615522653291031 0 -0.34198145815712638 -0.1395953898376964 0 -0.34954987665533299 -0.15424548639031271 0 -0.34198145815712638 -0.1395953898376964 0 -0.3337346198504213 -0.1328358900141379 0 -0.33047387389575927 -0.1369340691945744 0 -0.32807010768985068 -0.12986880773923029 0 -0.3337346198504213 -0.1328358900141379 0 -0.33047387389575927 -0.1369340691945744 0 -0.33441303965894859 -0.1249452932850653 0 -0.32807010768985068 -0.12986880773923029 0 -0.3337346198504213 -0.1328358900141379 0 -0.33441303965894859 -0.1249452932850653 0 -0.34198145815712638 -0.1395953898376964 0 -0.34272140335036932 -0.124947120862287 0 -0.33441303965894859 -0.1249452932850653 0 -0.34198145815712638 -0.1395953898376964 0 -0.33441303965894859 -0.1249452932850653 0 -0.34198145815712638 -0.1395953898376964 0 -0.3337346198504213 -0.1328358900141379 0 -0.34272140335036932 -0.124947120862287 0 -0.35413341494744088 -0.14719959415449421 0 -0.34272140335036932 -0.124947120862287 0 -0.35599685079288468 -0.13305792836185981 0 -0.35413341494744088 -0.14719959415449421 0 -0.34272140335036932 -0.124947120862287 0 -0.34198145815712638 -0.1395953898376964 0 -0.35413341494744088 -0.14719959415449421 0 -0.34272140335036932 -0.124947120862287 0 -0.36893450279197471 -0.1249528869149899 0 -0.35599685079288468 -0.13305792836185981 0 -0.35599685079288468 -0.13305792836185981 0 -0.36484224068191412 -0.14157370685753851 0 -0.35413341494744088 -0.14719959415449421 0 -0.36893450279197471 -0.1249528869149899 0 -0.35599685079288468 -0.13305792836185981 0 -0.36484224068191412 -0.14157370685753851 0 -0.36893450279197471 -0.1249528869149899 0 -0.36484224068191412 -0.14157370685753851 0 -0.3777566452334315 -0.14913711856379011 0 -0.3679743334396014 -0.15408772885571331 0 -0.37696591512674532 -0.1609827341034305 0 -0.3777566452334315 -0.14913711856379011 0 -0.3679743334396014 -0.15408772885571331 0 -0.36484224068191412 -0.14157370685753851 0 -0.3777566452334315 -0.14913711856379011 0 -0.3679743334396014 -0.15408772885571331 0 -0.36484224068191412 -0.14157370685753851 0 -0.35413341494744088 -0.14719959415449421 0 -0.35413341494744088 -0.14719959415449421 0 -0.34954987665533299 -0.15424548639031271 0 -0.35445721343992059 -0.1619675590177023 0 -0.34198145815712638 -0.1395953898376964 0 -0.34954987665533299 -0.15424548639031271 0 -0.34198145815712638 -0.1395953898376964 0 -0.35413341494744088 -0.14719959415449421 0 -0.34954987665533299 -0.15424548639031271 0 -0.33813688440009898 -0.15615522653291031 0 -0.34954987665533299 -0.15424548639031271 0 -0.34648545334868369 -0.16311147615285329 0 -0.34648545334868369 -0.16311147615285329 0 -0.35788001493839611 -0.17576831496813999 0 -0.33501951577929873 -0.16729908190312789 0 -0.34954987665533299 -0.15424548639031271 0 -0.34648545334868369 -0.16311147615285329 0 -0.35445721343992059 -0.1619675590177023 0 -0.35413341494744088 -0.14719959415449421 0 -0.35445721343992059 -0.1619675590177023 0 -0.36554542654456429 -0.16945206744667471 0 -0.35788001493839611 -0.17576831496813999 0 -0.33501951577929873 -0.16729908190312789 0 -0.34648545334868369 -0.16311147615285329 0 -0.35445721343992059 -0.1619675590177023 0 -0.35788001493839611 -0.17576831496813999 0 -0.35445721343992059 -0.1619675590177023 0 -0.36554542654456429 -0.16945206744667471 0 -0.35788001493839611 -0.17576831496813999 0 -0.35413341494744088 -0.14719959415449421 0 -0.36554542654456429 -0.16945206744667471 0 -0.3679743334396014 -0.15408772885571331 0 -0.35413341494744088 -0.14719959415449421 0 -0.36554542654456429 -0.16945206744667471 0 -0.3679743334396014 -0.15408772885571331 0 -0.36554542654456429 -0.16945206744667471 0 -0.37696591512674532 -0.1609827341034305 0 -0.37016556171889331 -0.18126023377528719 0 -0.3536864721015115 -0.18284124587119119 0 -0.37235342842372432 -0.19838340983925429 0 -0.36554542654456429 -0.16945206744667471 0 -0.37016556171889331 -0.18126023377528719 0 -0.38426477739238413 -0.17192867897072969 0 -0.37016556171889331 -0.18126023377528719 0 -0.3536864721015115 -0.18284124587119119 0 -0.35788001493839611 -0.17576831496813999 0 -0.36554542654456429 -0.16945206744667471 0 -0.37016556171889331 -0.18126023377528719 0 -0.35788001493839611 -0.17576831496813999 0 -0.3536864721015115 -0.18284124587119119 0 -0.33501951577929873 -0.16729908190312789 0 -0.3536864721015115 -0.18284124587119119 0 -0.35788001493839611 -0.17576831496813999 0 -0.33501951577929873 -0.16729908190312789 0 -0.3536864721015115 -0.18284124587119119 0 -0.32945708373588178 -0.18448348783091689 0 -0.33501951577929873 -0.16729908190312789 0 -0.31722412851074311 -0.15248258895007169 0 -0.33813688440009898 -0.15615522653291031 0 -0.33501951577929873 -0.16729908190312789 0 -0.33813688440009898 -0.15615522653291031 0 -0.34648545334868369 -0.16311147615285329 0 -0.33501951577929873 -0.16729908190312789 0 -0.31722412851074311 -0.15248258895007169 0 -0.33501951577929873 -0.16729908190312789 0 -0.31722412851074311 -0.15248258895007169 0 -0.33501951577929873 -0.16729908190312789 0 -0.31498630483336881 -0.15987728715749039 0 -0.31220508881165993 -0.16846949012138551 0 -0.33501951577929873 -0.16729908190312789 0 -0.31498630483336881 -0.15987728715749039 0 -0.33501951577929873 -0.16729908190312789 0 -0.31498630483336881 -0.15987728715749039 0 -0.31220508881165993 -0.16846949012138551 0 -0.32945708373588178 -0.18448348783091689 0 -0.31489114071409963 -0.18333745750317351 0 -0.31220508881165993 -0.16846949012138551 0 -0.32945708373588178 -0.18448348783091689 0 -0.31220508881165993 -0.16846949012138551 0 -0.32945708373588178 -0.18448348783091689 0 -0.33501951577929873 -0.16729908190312789 0 -0.32945708373588178 -0.18448348783091689 0 -0.31489114071409963 -0.18333745750317351 0 -0.32010675552350842 -0.19230926195043291 0 -0.30717411826112789 -0.1920401195635244 0 -0.32010675552350842 -0.19230926195043291 0 -0.3129652712195421 -0.2114706657937139 0 -0.32945708373588178 -0.18448348783091689 0 -0.32010675552350842 -0.19230926195043291 0 -0.32566449460190838 -0.20326261146105551 0 -0.32010675552350842 -0.19230926195043291 0 -0.3129652712195421 -0.2114706657937139 0 -0.32566449460190838 -0.20326261146105551 0 -0.30717411826112789 -0.1920401195635244 0 -0.31489114071409963 -0.18333745750317351 0 -0.32010675552350842 -0.19230926195043291 0 -0.3129652712195421 -0.2114706657937139 0 -0.32566449460190838 -0.20326261146105551 0 -0.33208474862113468 -0.21873250337862821 0 -0.33208474862113468 -0.21873250337862821 0 -0.34670907866010381 -0.20049748554044841 0 -0.34896881396179619 -0.22434135344573131 0 -0.32566449460190838 -0.20326261146105551 0 -0.33208474862113468 -0.21873250337862821 0 -0.34670907866010381 -0.20049748554044841 0 -0.3536864721015115 -0.18284124587119119 0 -0.32945708373588178 -0.18448348783091689 0 -0.34670907866010381 -0.20049748554044841 0 -0.32945708373588178 -0.18448348783091689 0 -0.32566449460190838 -0.20326261146105551 0 -0.34670907866010381 -0.20049748554044841 0 -0.32945708373588178 -0.18448348783091689 0 -0.34670907866010381 -0.20049748554044841 0 -0.3536864721015115 -0.18284124587119119 0 -0.35917751319241631 -0.19955840612521841 0 -0.34670907866010381 -0.20049748554044841 0 -0.3536864721015115 -0.18284124587119119 0 -0.37235342842372432 -0.19838340983925429 0 -0.3536864721015115 -0.18284124587119119 0 -0.35917751319241631 -0.19955840612521841 0 -0.37235342842372432 -0.19838340983925429 0 -0.37235342842372432 -0.19838340983925429 0 -0.36396107358432572 -0.21651148324997979 0 -0.37772562505684643 -0.22219038377974651 0 -0.35917751319241631 -0.19955840612521841 0 -0.37235342842372432 -0.19838340983925429 0 -0.36396107358432572 -0.21651148324997979 0 -0.34670907866010381 -0.20049748554044841 0 -0.36396107358432572 -0.21651148324997979 0 -0.34896881396179619 -0.22434135344573131 0 -0.34670907866010381 -0.20049748554044841 0 -0.36396107358432572 -0.21651148324997979 0 -0.35917751319241631 -0.19955840612521841 0 -0.34670907866010381 -0.20049748554044841 0 -0.36396107358432572 -0.21651148324997979 0 -0.34896881396179619 -0.22434135344573131 0 -0.36764811873304098 -0.23322730847002751 0 -0.35305879752332059 -0.24486073726717009 0 -0.36396107358432572 -0.21651148324997979 0 -0.36764811873304098 -0.23322730847002751 0 -0.37772562505684643 -0.22219038377974651 0 -0.36396107358432572 -0.21651148324997979 0 -0.34896881396179619 -0.22434135344573131 0 -0.36764811873304098 -0.23322730847002751 0 -0.37533687834285862 -0.25417213976024849 0 -0.36764811873304098 -0.23322730847002751 0 -0.35305879752332059 -0.24486073726717009 0 -0.34896881396179619 -0.22434135344573131 0 -0.35305879752332059 -0.24486073726717009 0 -0.33568364413539042 -0.23615154195274179 0 -0.33623326073948312 -0.25365348176558788 0 -0.33568364413539042 -0.23615154195274179 0 -0.32213598881581812 -0.2442700999577708 0 -0.33623326073948312 -0.25365348176558788 0 -0.35305879752332059 -0.24486073726717009 0 -0.33568364413539042 -0.23615154195274179 0 -0.33208474862113468 -0.21873250337862821 0 -0.33568364413539042 -0.23615154195274179 0 -0.32219037366776621 -0.22897372759534659 0 -0.33208474862113468 -0.21873250337862821 0 -0.34896881396179619 -0.22434135344573131 0 -0.33568364413539042 -0.23615154195274179 0 -0.30829656048542242 -0.23127198481015249 0 -0.3129652712195421 -0.2114706657937139 0 -0.32219037366776621 -0.22897372759534659 0 -0.3129652712195421 -0.2114706657937139 0 -0.33208474862113468 -0.21873250337862821 0 -0.32219037366776621 -0.22897372759534659 0 -0.30769212114973271 -0.24578220261295139 0 -0.30829656048542242 -0.23127198481015249 0 -0.32213598881581812 -0.2442700999577708 0 -0.30829656048542242 -0.23127198481015249 0 -0.32219037366776621 -0.22897372759534659 0 -0.32213598881581812 -0.2442700999577708 0 -0.31968345090478489 -0.25798973640781447 0 -0.30769212114973271 -0.24578220261295139 0 -0.32213598881581812 -0.2442700999577708 0 -0.33568364413539042 -0.23615154195274179 0 -0.32219037366776621 -0.22897372759534659 0 -0.32213598881581812 -0.2442700999577708 0 -0.43598079583492633 -0.24721882136819351 0 -0.42311134176242837 -0.2304528026464861 0 -0.41615383063077721 -0.2466412503256647 0 -0.43598079583492633 -0.24721882136819351 0 -0.42311134176242837 -0.2304528026464861 0 -0.43908324849522451 -0.2287046610080686 0 -0.42311134176242837 -0.2304528026464861 0 -0.41411505562058892 -0.2091502018577929 0 -0.42948217154750851 -0.21815887616964899 0 -0.42311134176242837 -0.2304528026464861 0 -0.42948217154750851 -0.21815887616964899 0 -0.43908324849522451 -0.2287046610080686 0 -0.42948217154750851 -0.21815887616964899 0 -0.43955036875351089 -0.21658504913102711 0 -0.43908324849522451 -0.2287046610080686 0 -0.40619246279161347 -0.2313797712556602 0 -0.41411505562058892 -0.2091502018577929 0 -0.42311134176242837 -0.2304528026464861 0 -0.40619246279161347 -0.2313797712556602 0 -0.41411505562058892 -0.2091502018577929 0 -0.39826986996263802 -0.25360934065352753 0 -0.41615383063077721 -0.2466412503256647 0 -0.40619246279161347 -0.2313797712556602 0 -0.42311134176242837 -0.2304528026464861 0 -0.41615383063077721 -0.2466412503256647 0 -0.40619246279161347 -0.2313797712556602 0 -0.39826986996263802 -0.25360934065352753 0 -0.38632210934187061 -0.2364082567837591 0 -0.40619246279161347 -0.2313797712556602 0 -0.39826986996263802 -0.25360934065352753 0 -0.40619246279161347 -0.2313797712556602 0 -0.37533687834285862 -0.25417213976024849 0 -0.36764811873304098 -0.23322730847002751 0 -0.38632210934187061 -0.2364082567837591 0 -0.37533687834285862 -0.25417213976024849 0 -0.39826986996263802 -0.25360934065352753 0 -0.38632210934187061 -0.2364082567837591 0 -0.36764811873304098 -0.23322730847002751 0 -0.38632210934187061 -0.2364082567837591 0 -0.37772562505684643 -0.22219038377974651 0 -0.38632210934187061 -0.2364082567837591 0 -0.37772562505684643 -0.22219038377974651 0 -0.39102038474593709 -0.2139255738073175 0 -0.38632210934187061 -0.2364082567837591 0 -0.40619246279161347 -0.2313797712556602 0 -0.39102038474593709 -0.2139255738073175 0 -0.39102038474593709 -0.2139255738073175 0 -0.40351751052996843 -0.1957217498792192 0 -0.41411505562058892 -0.2091502018577929 0 -0.40619246279161347 -0.2313797712556602 0 -0.39102038474593709 -0.2139255738073175 0 -0.41411505562058892 -0.2091502018577929 0 -0.37235342842372432 -0.19838340983925429 0 -0.39102038474593709 -0.2139255738073175 0 -0.37235342842372432 -0.19838340983925429 0 -0.37772562505684643 -0.22219038377974651 0 -0.39102038474593709 -0.2139255738073175 0 -0.37016556171889331 -0.18126023377528719 0 -0.37235342842372432 -0.19838340983925429 0 -0.38726325091278008 -0.18918768555573329 0 -0.37235342842372432 -0.19838340983925429 0 -0.39102038474593709 -0.2139255738073175 0 -0.38726325091278008 -0.18918768555573329 0 -0.38726325091278008 -0.18918768555573329 0 -0.40351751052996843 -0.1957217498792192 0 -0.40315121292097328 -0.17942465571532731 0 -0.39102038474593709 -0.2139255738073175 0 -0.38726325091278008 -0.18918768555573329 0 -0.40351751052996843 -0.1957217498792192 0 -0.41411505562058892 -0.2091502018577929 0 -0.42203764844956237 -0.18692063245992491 0 -0.40351751052996843 -0.1957217498792192 0 -0.41411505562058892 -0.2091502018577929 0 -0.42203764844956237 -0.18692063245992491 0 -0.41411505562058892 -0.2091502018577929 0 -0.42948217154750851 -0.21815887616964899 0 -0.43155084310578928 -0.2059016662048701 0 -0.42948217154750851 -0.21815887616964899 0 -0.43155084310578928 -0.2059016662048701 0 -0.43955036875351089 -0.21658504913102711 0 -0.42203764844956237 -0.18692063245992491 0 -0.44484374680150301 -0.19597231310248839 0 -0.41411505562058892 -0.2091502018577929 0 -0.43155084310578928 -0.2059016662048701 0 -0.42203764844956237 -0.18692063245992491 0 -0.43155084310578928 -0.2059016662048701 0 -0.42203764844956237 -0.18692063245992491 0 -0.44484374680150301 -0.19597231310248839 0 -0.42203764844956237 -0.18692063245992491 0 -0.44134853753678083 -0.18159229851429221 0 -0.44484374680150301 -0.19597231310248839 0 -0.42203764844956237 -0.18692063245992491 0 -0.42880774722037651 -0.1679247830322266 0 -0.42203764844956237 -0.18692063245992491 0 -0.42880774722037651 -0.1679247830322266 0 -0.44134853753678083 -0.18159229851429221 0 -0.42880774722037651 -0.1679247830322266 0 -0.43557784599118871 -0.14892893360452769 0 -0.44631139980808621 -0.1631836851414229 0 -0.42880774722037651 -0.1679247830322266 0 -0.43557784599118871 -0.14892893360452769 0 -0.42880774722037651 -0.1679247830322266 0 -0.41236960909879722 -0.16540507401591409 0 -0.42079860369606048 -0.15043713941075901 0 -0.42203764844956237 -0.18692063245992491 0 -0.42880774722037651 -0.1679247830322266 0 -0.41236960909879722 -0.16540507401591409 0 -0.40351751052996843 -0.1957217498792192 0 -0.42203764844956237 -0.18692063245992491 0 -0.40315121292097328 -0.17942465571532731 0 -0.42203764844956237 -0.18692063245992491 0 -0.40315121292097328 -0.17942465571532731 0 -0.42203764844956237 -0.18692063245992491 0 -0.41236960909879722 -0.16540507401591409 0 -0.40315121292097328 -0.17942465571532731 0 -0.38726325091278008 -0.18918768555573329 0 -0.40315121292097328 -0.17942465571532731 0 -0.38426477739238413 -0.17192867897072969 0 -0.40315121292097328 -0.17942465571532731 0 -0.38426477739238413 -0.17192867897072969 0 -0.37016556171889331 -0.18126023377528719 0 -0.38726325091278008 -0.18918768555573329 0 -0.38426477739238413 -0.17192867897072969 0 -0.36554542654456429 -0.16945206744667471 0 -0.38426477739238413 -0.17192867897072969 0 -0.37696591512674532 -0.1609827341034305 0 -0.38426477739238413 -0.17192867897072969 0 -0.37696591512674532 -0.1609827341034305 0 -0.39230106084837368 -0.15838844905994759 0 -0.40315121292097328 -0.17942465571532731 0 -0.38426477739238413 -0.17192867897072969 0 -0.39230106084837368 -0.15838844905994759 0 -0.41236960909879722 -0.16540507401591409 0 -0.39230106084837368 -0.15838844905994759 0 -0.40587711449475489 -0.1449624873806776 0 -0.41236960909879722 -0.16540507401591409 0 -0.40315121292097328 -0.17942465571532731 0 -0.39230106084837368 -0.15838844905994759 0 -0.39230106084837368 -0.15838844905994759 0 -0.39162863389564362 -0.14105630786861159 0 -0.40587711449475489 -0.1449624873806776 0 -0.39230106084837368 -0.15838844905994759 0 -0.39162863389564362 -0.14105630786861159 0 -0.3777566452334315 -0.14913711856379011 0 -0.37696591512674532 -0.1609827341034305 0 -0.39230106084837368 -0.15838844905994759 0 -0.3777566452334315 -0.14913711856379011 0 -0.36893450279197471 -0.1249528869149899 0 -0.39162863389564362 -0.14105630786861159 0 -0.3777566452334315 -0.14913711856379011 0 -0.36893450279197471 -0.1249528869149899 0 -0.39162863389564362 -0.14105630786861159 0 -0.39514760223357998 -0.1249586529677193 0 -0.39162863389564362 -0.14105630786861159 0 -0.40587711449475489 -0.1449624873806776 0 -0.39514760223357998 -0.1249586529677193 0 -0.40587711449475489 -0.1449624873806776 0 -0.39514760223357998 -0.1249586529677193 0 -0.42136070167518519 -0.1249644190204488 0 -0.40587711449475489 -0.1449624873806776 0 -0.42079860369606048 -0.15043713941075901 0 -0.42136070167518519 -0.1249644190204488 0 -0.41236960909879722 -0.16540507401591409 0 -0.40587711449475489 -0.1449624873806776 0 -0.42079860369606048 -0.15043713941075901 0 -0.42079860369606048 -0.15043713941075901 0 -0.43557784599118871 -0.14892893360452769 0 -0.42136070167518519 -0.1249644190204488 0 -0.42880774722037651 -0.1679247830322266 0 -0.42079860369606048 -0.15043713941075901 0 -0.43557784599118871 -0.14892893360452769 0 -0.43557784599118871 -0.14892893360452769 0 -0.42136070167518519 -0.1249644190204488 0 -0.44757380111679052 -0.12497018507317829 0 -0.43557784599118871 -0.14892893360452769 0 -0.45596445488588 -0.14427568033770541 0 -0.44757380111679052 -0.12497018507317829 0 -0.43557784599118871 -0.14892893360452769 0 -0.45596445488588 -0.14427568033770541 0 -0.44631139980808621 -0.1631836851414229 0 -0.45596445488588 -0.14427568033770541 0 -0.46278066629215481 -0.1610158872753634 0 -0.44631139980808621 -0.1631836851414229 0 -0.45596445488588 -0.14427568033770541 0 -0.47930750267908417 -0.1480635854121114 0 -0.46278066629215481 -0.1610158872753634 0 -0.45596445488588 -0.14427568033770541 0 -0.44757380111679052 -0.12497018507317829 0 -0.47378690055839578 -0.1249759511259078 0 -0.48827360080937021 -0.13531742911399189 0 -0.47930750267908417 -0.1480635854121114 0 -0.47378690055839578 -0.1249759511259078 0 -0.45596445488588 -0.14427568033770541 0 -0.47930750267908417 -0.1480635854121114 0 -0.47378690055839578 -0.1249759511259078 0 -0.48827360080937021 -0.13531742911399189 0 -0.5 -0.14324846273931111 0 -0.50000000000000111 -0.12498171717863731 0 -0.48827360080937021 -0.13531742911399189 0 -0.47378690055839578 -0.1249759511259078 0 -0.50000000000000111 -0.12498171717863731 0 -0.5 -0.14324846273931111 0 -0.47930750267908417 -0.1480635854121114 0 -0.49999999999999961 -0.161515208299985 0 -0.48827360080937021 -0.13531742911399189 0 -0.5 -0.14324846273931111 0 -0.47930750267908417 -0.1480635854121114 0 -0.47930750267908417 -0.1480635854121114 0 -0.47738728335761421 -0.1682509267597351 0 -0.46278066629215481 -0.1610158872753634 0 -0.47738728335761421 -0.1682509267597351 0 -0.49999999999999961 -0.161515208299985 0 -0.48839409620634278 -0.18039624849769001 0 -0.49999999999999961 -0.161515208299985 0 -0.48839409620634278 -0.18039624849769001 0 -0.47930750267908417 -0.1480635854121114 0 -0.47738728335761421 -0.1682509267597351 0 -0.49999999999999961 -0.161515208299985 0 -0.49999999999999961 -0.161515208299985 0 -0.5 -0.18618779176616679 0 -0.48839409620634278 -0.18039624849769001 0 -0.5 -0.18618779176616679 0 -0.48839409620634278 -0.18039624849769001 0 -0.48957789370491162 -0.19386933705848941 0 -0.47738728335761421 -0.1682509267597351 0 -0.48839409620634278 -0.18039624849769001 0 -0.47328693949397721 -0.18411760774338479 0 -0.47738728335761421 -0.1682509267597351 0 -0.47328693949397721 -0.18411760774338479 0 -0.45860677246597031 -0.17520894370368309 0 -0.47328693949397721 -0.18411760774338479 0 -0.45860677246597031 -0.17520894370368309 0 -0.45906836497473352 -0.19043479360484361 0 -0.47738728335761421 -0.1682509267597351 0 -0.45860677246597031 -0.17520894370368309 0 -0.46278066629215481 -0.1610158872753634 0 -0.45860677246597031 -0.17520894370368309 0 -0.46278066629215481 -0.1610158872753634 0 -0.44631139980808621 -0.1631836851414229 0 -0.42880774722037651 -0.1679247830322266 0 -0.44631139980808621 -0.1631836851414229 0 -0.44134853753678083 -0.18159229851429221 0 -0.45860677246597031 -0.17520894370368309 0 -0.44631139980808621 -0.1631836851414229 0 -0.44134853753678083 -0.18159229851429221 0 -0.45860677246597031 -0.17520894370368309 0 -0.44134853753678083 -0.18159229851429221 0 -0.45906836497473352 -0.19043479360484361 0 -0.44134853753678083 -0.18159229851429221 0 -0.45906836497473352 -0.19043479360484361 0 -0.44134853753678083 -0.18159229851429221 0 -0.44484374680150301 -0.19597231310248839 0 -0.45906836497473352 -0.19043479360484361 0 -0.43155084310578928 -0.2059016662048701 0 -0.44484374680150301 -0.19597231310248839 0 -0.44343463088850471 -0.20721188330797369 0 -0.43155084310578928 -0.2059016662048701 0 -0.44343463088850471 -0.20721188330797369 0 -0.43955036875351089 -0.21658504913102711 0 -0.44343463088850471 -0.20721188330797369 0 -0.43955036875351089 -0.21658504913102711 0 -0.44966782191270221 -0.21345696714665749 0 -0.44966782191270221 -0.21345696714665749 0 -0.45691127413918359 -0.218140336649912 0 -0.44903912237987481 -0.22310222333220869 0 -0.43955036875351089 -0.21658504913102711 0 -0.44966782191270221 -0.21345696714665749 0 -0.44903912237987481 -0.22310222333220869 0 -0.44484374680150301 -0.19597231310248839 0 -0.44343463088850471 -0.20721188330797369 0 -0.45285363365211462 -0.2065344908709397 0 -0.44343463088850471 -0.20721188330797369 0 -0.44966782191270221 -0.21345696714665749 0 -0.45285363365211462 -0.2065344908709397 0 -0.45285363365211462 -0.2065344908709397 0 -0.4586721235044201 -0.2110072970525271 0 -0.46764984515344349 -0.20502399374505181 0 -0.44966782191270221 -0.21345696714665749 0 -0.45285363365211462 -0.2065344908709397 0 -0.4586721235044201 -0.2110072970525271 0 -0.44966782191270221 -0.21345696714665749 0 -0.4586721235044201 -0.2110072970525271 0 -0.45691127413918359 -0.218140336649912 0 -0.4586721235044201 -0.2110072970525271 0 -0.45691127413918359 -0.218140336649912 0 -0.46757130244775341 -0.21427176676618889 0 -0.4586721235044201 -0.2110072970525271 0 -0.46757130244775341 -0.21427176676618889 0 -0.46764984515344349 -0.20502399374505181 0 -0.44484374680150301 -0.19597231310248839 0 -0.46764984515344349 -0.20502399374505181 0 -0.45906836497473352 -0.19043479360484361 0 -0.44484374680150301 -0.19597231310248839 0 -0.45285363365211462 -0.2065344908709397 0 -0.46764984515344349 -0.20502399374505181 0 -0.45906836497473352 -0.19043479360484361 0 -0.47678819241268611 -0.1992772886953951 0 -0.44484374680150301 -0.19597231310248839 0 -0.46764984515344349 -0.20502399374505181 0 -0.46764984515344349 -0.20502399374505181 0 -0.45906836497473352 -0.19043479360484361 0 -0.47678819241268611 -0.1992772886953951 0 -0.47328693949397721 -0.18411760774338479 0 -0.45906836497473352 -0.19043479360484361 0 -0.47678819241268611 -0.1992772886953951 0 -0.48839409620634278 -0.18039624849769001 0 -0.47328693949397721 -0.18411760774338479 0 -0.47678819241268611 -0.1992772886953951 0 -0.48839409620634278 -0.18039624849769001 0 -0.47678819241268611 -0.1992772886953951 0 -0.47678819241268611 -0.1992772886953951 0 -0.48957789370491162 -0.19386933705848941 0 -0.50000000000000222 -0.21086037523234849 0 -0.48839409620634278 -0.18039624849769001 0 -0.47678819241268611 -0.1992772886953951 0 -0.48957789370491162 -0.19386933705848941 0 -0.5 -0.18618779176616679 0 -0.48957789370491162 -0.19386933705848941 0 -0.50000000000000222 -0.21086037523234849 0 -0.50000000000000222 -0.21086037523234849 0 -0.48101414991814051 -0.21220490785157131 0 -0.4775447229854059 -0.22535576830415929 0 -0.47678819241268611 -0.1992772886953951 0 -0.50000000000000222 -0.21086037523234849 0 -0.47678819241268611 -0.1992772886953951 0 -0.50000000000000222 -0.21086037523234849 0 -0.48101414991814051 -0.21220490785157131 0 -0.46757130244775341 -0.21427176676618889 0 -0.47678819241268611 -0.1992772886953951 0 -0.48101414991814051 -0.21220490785157131 0 -0.46757130244775341 -0.21427176676618889 0 -0.47678819241268611 -0.1992772886953951 0 -0.46757130244775341 -0.21427176676618889 0 -0.46764984515344349 -0.20502399374505181 0 -0.47678819241268611 -0.1992772886953951 0 -0.46757130244775341 -0.21427176676618889 0 -0.48101414991814051 -0.21220490785157131 0 -0.4775447229854059 -0.22535576830415929 0 -0.46757130244775341 -0.21427176676618889 0 -0.4775447229854059 -0.22535576830415929 0 -0.46571952953094348 -0.22577651025912229 0 -0.4775447229854059 -0.22535576830415929 0 -0.4726071657750785 -0.240360200228666 0 -0.45676275941016609 -0.23628729483617639 0 -0.50000000000000222 -0.21086037523234849 0 -0.4775447229854059 -0.22535576830415929 0 -0.48548116721245049 -0.23774912910784329 0 -0.50000000000000222 -0.21086037523234849 0 -0.5 -0.2401545466321974 0 -0.48548116721245049 -0.23774912910784329 0 -0.48050148842732221 -0.25523221810557922 0 -0.5 -0.2401545466321974 0 -0.48548116721245049 -0.23774912910784329 0 -0.48050148842732221 -0.25523221810557922 0 -0.4726071657750785 -0.240360200228666 0 -0.46267023581878858 -0.24817136713935201 0 -0.48050148842732221 -0.25523221810557922 0 -0.48548116721245049 -0.23774912910784329 0 -0.4726071657750785 -0.240360200228666 0 -0.4775447229854059 -0.22535576830415929 0 -0.48548116721245049 -0.23774912910784329 0 -0.4726071657750785 -0.240360200228666 0 -0.4726071657750785 -0.240360200228666 0 -0.46267023581878858 -0.24817136713935201 0 -0.45676275941016609 -0.23628729483617639 0 -0.46267023581878858 -0.24817136713935201 0 -0.45676275941016609 -0.23628729483617639 0 -0.45139902778349827 -0.24711062934306771 0 -0.4775447229854059 -0.22535576830415929 0 -0.45676275941016609 -0.23628729483617639 0 -0.46571952953094348 -0.22577651025912229 0 -0.4775447229854059 -0.22535576830415929 0 -0.45676275941016609 -0.23628729483617639 0 -0.46757130244775341 -0.21427176676618889 0 -0.45835441248282049 -0.22926624483698249 0 -0.45691127413918359 -0.218140336649912 0 -0.46757130244775341 -0.21427176676618889 0 -0.45835441248282049 -0.22926624483698249 0 -0.46757130244775341 -0.21427176676618889 0 -0.46571952953094348 -0.22577651025912229 0 -0.45835441248282049 -0.22926624483698249 0 -0.45691127413918359 -0.218140336649912 0 -0.45835441248282049 -0.22926624483698249 0 -0.44903912237987481 -0.22310222333220869 0 -0.45676275941016609 -0.23628729483617639 0 -0.46571952953094348 -0.22577651025912229 0 -0.45835441248282049 -0.22926624483698249 0 -0.45676275941016609 -0.23628729483617639 0 -0.45835441248282049 -0.22926624483698249 0 -0.44784406772060242 -0.23291584907632601 0 -0.45835441248282049 -0.22926624483698249 0 -0.44784406772060242 -0.23291584907632601 0 -0.44903912237987481 -0.22310222333220869 0 -0.44784406772060242 -0.23291584907632601 0 -0.44903912237987481 -0.22310222333220869 0 -0.43908324849522451 -0.2287046610080686 0 -0.43955036875351089 -0.21658504913102711 0 -0.44903912237987481 -0.22310222333220869 0 -0.43908324849522451 -0.2287046610080686 0 -0.43598079583492633 -0.24721882136819351 0 -0.44784406772060242 -0.23291584907632601 0 -0.43908324849522451 -0.2287046610080686 0 -0.43598079583492633 -0.24721882136819351 0 -0.45676275941016609 -0.23628729483617639 0 -0.45139902778349827 -0.24711062934306771 0 -0.43598079583492633 -0.24721882136819351 0 -0.45676275941016609 -0.23628729483617639 0 -0.44784406772060242 -0.23291584907632601 0 -0.43598079583492633 -0.24721882136819351 0 -0.45676275941016609 -0.23628729483617639 0 -0.41513049604948221 -0.033942569896895612 0 -0.42680670243505803 -0.034615113076212713 0 -0.40073055052989021 -0.025701474464423758 0 -0.41513049604948221 -0.033942569896895612 0 -0.42462943043776058 -0.041038039404546971 0 -0.40237332615973681 -0.030676944162886681 0 -0.42462943043776058 -0.041038039404546971 0 -0.40237332615973681 -0.030676944162886681 0 -0.41105872637709778 -0.041104419315527559 0 -0.42462943043776058 -0.041038039404546971 0 -0.40237332615973681 -0.030676944162886681 0 -0.41795689190558921 -0.046390941043723911 0 -0.41105872637709778 -0.041104419315527559 0 -0.42462943043776058 -0.041038039404546971 0 -0.41513049604948221 -0.033942569896895612 0 -0.42462943043776058 -0.041038039404546971 0 -0.4243569293735685 -0.037306081984415762 0 -0.41105872637709778 -0.041104419315527559 0 -0.4050251302254127 -0.045922345921936697 0 -0.40306291723554027 -0.039039715031688543 0 -0.41795689190558921 -0.046390941043723911 0 -0.41105872637709778 -0.041104419315527559 0 -0.41174405323292163 -0.047949206462353358 0 -0.41105872637709778 -0.041104419315527559 0 -0.41174405323292163 -0.047949206462353358 0 -0.4050251302254127 -0.045922345921936697 0 -0.41174405323292163 -0.047949206462353358 0 -0.4050251302254127 -0.045922345921936697 0 -0.40603099279739802 -0.054788986838451827 0 -0.41174405323292163 -0.047949206462353358 0 -0.4187470457232762 -0.053937065845881961 0 -0.40603099279739802 -0.054788986838451827 0 -0.4187470457232762 -0.053937065845881961 0 -0.40603099279739802 -0.054788986838451827 0 -0.41284572228237681 -0.064006668923108523 0 -0.4187470457232762 -0.053937065845881961 0 -0.41284572228237681 -0.064006668923108523 0 -0.42746868386642678 -0.066478460468227696 0 -0.41795689190558921 -0.046390941043723911 0 -0.41174405323292163 -0.047949206462353358 0 -0.4187470457232762 -0.053937065845881961 0 -0.41795689190558921 -0.046390941043723911 0 -0.4187470457232762 -0.053937065845881961 0 -0.42320145590089769 -0.048540393412862697 0 -0.42320145590089769 -0.048540393412862697 0 -0.43147245553696489 -0.05279552735729795 0 -0.42462943043776058 -0.041038039404546971 0 -0.4187470457232762 -0.053937065845881961 0 -0.42320145590089769 -0.048540393412862697 0 -0.43147245553696489 -0.05279552735729795 0 -0.43147245553696489 -0.05279552735729795 0 -0.42462943043776058 -0.041038039404546971 0 -0.44688553471578463 -0.051399134646207288 0 -0.4187470457232762 -0.053937065845881961 0 -0.43147245553696489 -0.05279552735729795 0 -0.42746868386642678 -0.066478460468227696 0 -0.43147245553696489 -0.05279552735729795 0 -0.42746868386642678 -0.066478460468227696 0 -0.43950717444435422 -0.063784996514660589 0 -0.42818951741271921 -0.038310772776573528 0 -0.43628267576141971 -0.035329403205585218 0 -0.44688553471578463 -0.051399134646207288 0 -0.42462943043776058 -0.041038039404546971 0 -0.42818951741271921 -0.038310772776573528 0 -0.44688553471578463 -0.051399134646207288 0 -0.42462943043776058 -0.041038039404546971 0 -0.44688553471578463 -0.051399134646207288 0 -0.41795689190558921 -0.046390941043723911 0 -0.42320145590089769 -0.048540393412862697 0 -0.42462943043776058 -0.041038039404546971 0 -0.41513049604948221 -0.033942569896895612 0 -0.4243569293735685 -0.037306081984415762 0 -0.42680670243505803 -0.034615113076212713 0 -0.42462943043776058 -0.041038039404546971 0 -0.4243569293735685 -0.037306081984415762 0 -0.42818951741271921 -0.038310772776573528 0 -0.42818951741271921 -0.038310772776573528 0 -0.42680670243505803 -0.034615113076212713 0 -0.4243569293735685 -0.037306081984415762 0 -0.42818951741271921 -0.038310772776573528 0 -0.42680670243505803 -0.034615113076212713 0 -0.42818951741271921 -0.038310772776573528 0 -0.42680670243505803 -0.034615113076212713 0 -0.42995577540377822 -0.032900560567165532 0 -0.42818951741271921 -0.038310772776573528 0 -0.42995577540377822 -0.032900560567165532 0 -0.43628267576141971 -0.035329403205585218 0 -0.42995577540377822 -0.032900560567165532 0 -0.43628267576141971 -0.035329403205585218 0 -0.4327931004709421 -0.029092843067932112 0 -0.42680670243505803 -0.034615113076212713 0 -0.4285090787839364 -0.025262373234060161 0 -0.41794895562780338 -0.01094222954485795 0 -0.42680670243505803 -0.034615113076212713 0 -0.41794895562780338 -0.01094222954485795 0 -0.43628267576141971 -0.035329403205585218 0 -0.4327931004709421 -0.029092843067932112 0 -0.43710875721387199 -0.026668229939385779 0 -0.42995577540377822 -0.032900560567165532 0 -0.4327931004709421 -0.029092843067932112 0 -0.4285090787839364 -0.025262373234060161 0 -0.43210921519170409 -0.025303648393463829 0 -0.43710875721387199 -0.026668229939385779 0 -0.43108579893039811 -0.01948839847471974 0 -0.4327931004709421 -0.029092843067932112 0 -0.43210921519170409 -0.025303648393463829 0 -0.4285090787839364 -0.025262373234060161 0 -0.4327931004709421 -0.029092843067932112 0 -0.43210921519170409 -0.025303648393463829 0 -0.43710875721387199 -0.026668229939385779 0 -0.43108579893039811 -0.01948839847471974 0 -0.43397544616601241 -0.014244232554068349 0 -0.43928417642389239 -0.017661557407765791 0 -0.43710875721387199 -0.026668229939385779 0 -0.43108579893039811 -0.01948839847471974 0 -0.43928417642389239 -0.017661557407765791 0 -0.43210921519170409 -0.025303648393463829 0 -0.43108579893039811 -0.01948839847471974 0 -0.4285090787839364 -0.025262373234060161 0 -0.43108579893039811 -0.01948839847471974 0 -0.4285090787839364 -0.025262373234060161 0 -0.41794895562780338 -0.01094222954485795 0 -0.42680670243505803 -0.034615113076212713 0 -0.42995577540377822 -0.032900560567165532 0 -0.4285090787839364 -0.025262373234060161 0 -0.43591977417237449 -0.008065469867085449 0 -0.42907061680018699 -0.010664914002041091 0 -0.42583279771702431 0.00046528033667210148 0 -0.43108579893039811 -0.01948839847471974 0 -0.43397544616601241 -0.014244232554068349 0 -0.42907061680018699 -0.010664914002041091 0 -0.43591977417237449 -0.008065469867085449 0 -0.43397544616601241 -0.014244232554068349 0 -0.43928417642389239 -0.017661557407765791 0 -0.43591977417237449 -0.008065469867085449 0 -0.43397544616601241 -0.014244232554068349 0 -0.42907061680018699 -0.010664914002041091 0 -0.43108579893039811 -0.01948839847471974 0 -0.42907061680018699 -0.010664914002041091 0 -0.41794895562780338 -0.01094222954485795 0 -0.42907061680018699 -0.010664914002041091 0 -0.41794895562780338 -0.01094222954485795 0 -0.42583279771702431 0.00046528033667210148 0 -0.41794895562780338 -0.01094222954485795 0 -0.4102220184461346 -0.019351118920435541 0 -0.40021295305484711 -0.013852611056198059 0 -0.41794895562780338 -0.01094222954485795 0 -0.40352261506359649 -0.001038070178381474 0 -0.40021295305484711 -0.013852611056198059 0 -0.42680670243505803 -0.034615113076212713 0 -0.41794895562780338 -0.01094222954485795 0 -0.4102220184461346 -0.019351118920435541 0 -0.42680670243505803 -0.034615113076212713 0 -0.4102220184461346 -0.019351118920435541 0 -0.40073055052989021 -0.025701474464423758 0 -0.42680670243505803 -0.034615113076212713 0 -0.40073055052989021 -0.025701474464423758 0 -0.41513049604948221 -0.033942569896895612 0 -0.40073055052989021 -0.025701474464423758 0 -0.40237332615973681 -0.030676944162886681 0 -0.40073055052989021 -0.025701474464423758 0 -0.40237332615973681 -0.030676944162886681 0 -0.38011722188171299 -0.020315848921226409 0 -0.40237332615973681 -0.030676944162886681 0 -0.38011722188171299 -0.020315848921226409 0 -0.4102220184461346 -0.019351118920435541 0 -0.40073055052989021 -0.025701474464423758 0 -0.40021295305484711 -0.013852611056198059 0 -0.40073055052989021 -0.025701474464423758 0 -0.40021295305484711 -0.013852611056198059 0 -0.38745402304870558 -0.01483805838738575 0 -0.40352261506359649 -0.001038070178381474 0 -0.40021295305484711 -0.013852611056198059 0 -0.39408165103759368 -0.0019794594859314238 0 -0.40021295305484711 -0.013852611056198059 0 -0.39408165103759368 -0.0019794594859314238 0 -0.39005949432245718 -0.0085411321607220259 0 -0.40021295305484711 -0.013852611056198059 0 -0.39005949432245718 -0.0085411321607220259 0 -0.38745402304870558 -0.01483805838738575 0 -0.39408165103759368 -0.0019794594859314238 0 -0.3848191179490616 -0.0027051675553946518 0 -0.39005949432245718 -0.0085411321607220259 0 -0.3848191179490616 -0.0027051675553946518 0 -0.38372972652207787 -0.0093303643187002475 0 -0.39005949432245718 -0.0085411321607220259 0 -0.38372972652207787 -0.0093303643187002475 0 -0.38745402304870558 -0.01483805838738575 0 -0.3791207175096093 -0.01135650732177081 0 -0.38372972652207787 -0.0093303643187002475 0 -0.39005949432245718 -0.0085411321607220259 0 -0.38745402304870558 -0.01483805838738575 0 -0.37465439862472261 -0.016787835852634068 0 -0.37464851222799189 -0.0076089195940836872 0 -0.3791207175096093 -0.01135650732177081 0 -0.37465439862472261 -0.016787835852634068 0 -0.38745402304870558 -0.01483805838738575 0 -0.3791207175096093 -0.01135650732177081 0 -0.37464851222799189 -0.0076089195940836872 0 -0.3791207175096093 -0.01135650732177081 0 -0.37960876280762101 -0.0064231604720931881 0 -0.38372972652207787 -0.0093303643187002475 0 -0.3791207175096093 -0.01135650732177081 0 -0.37960876280762101 -0.0064231604720931881 0 -0.3848191179490616 -0.0027051675553946518 0 -0.38372972652207787 -0.0093303643187002475 0 -0.37960876280762101 -0.0064231604720931881 0 -0.37464851222799189 -0.0076089195940836872 0 -0.37960876280762101 -0.0064231604720931881 0 -0.37774077980655368 -0.001289555558904682 0 -0.3848191179490616 -0.0027051675553946518 0 -0.37960876280762101 -0.0064231604720931881 0 -0.37774077980655368 -0.001289555558904682 0 -0.37465439862472261 -0.016787835852634068 0 -0.40073055052989021 -0.025701474464423758 0 -0.38745402304870558 -0.01483805838738575 0 -0.40237332615973681 -0.030676944162886681 0 -0.38781453024876661 -0.02996800237218563 0 -0.38011722188171299 -0.020315848921226409 0 -0.37465439862472261 -0.016787835852634068 0 -0.40073055052989021 -0.025701474464423758 0 -0.38011722188171299 -0.020315848921226409 0 -0.37465439862472261 -0.016787835852634068 0 -0.40073055052989021 -0.025701474464423758 0 -0.37402384376206249 -0.023759624541515059 0 -0.37465439862472261 -0.016787835852634068 0 -0.38011722188171299 -0.020315848921226409 0 -0.37402384376206249 -0.023759624541515059 0 -0.38011722188171299 -0.020315848921226409 0 -0.37866743010551202 -0.02906954498465647 0 -0.38781453024876661 -0.02996800237218563 0 -0.38011722188171299 -0.020315848921226409 0 -0.37866743010551202 -0.02906954498465647 0 -0.37439980638912518 -0.038891661293645137 0 -0.37866743010551202 -0.02906954498465647 0 -0.38394575501216083 -0.036535335565972972 0 -0.37439980638912518 -0.038891661293645137 0 -0.37993408630244868 -0.045501240077299353 0 -0.38394575501216083 -0.036535335565972972 0 -0.37085155020467431 -0.050438611479832557 0 -0.37439980638912518 -0.038891661293645137 0 -0.37993408630244868 -0.045501240077299353 0 -0.37993408630244868 -0.045501240077299353 0 -0.38895054345211377 -0.045335196083553769 0 -0.38394575501216083 -0.036535335565972972 0 -0.38895054345211377 -0.045335196083553769 0 -0.38394575501216083 -0.036535335565972972 0 -0.39396365166307989 -0.03445798481758762 0 -0.38781453024876661 -0.02996800237218563 0 -0.38394575501216083 -0.036535335565972972 0 -0.39396365166307989 -0.03445798481758762 0 -0.38781453024876661 -0.02996800237218563 0 -0.37866743010551202 -0.02906954498465647 0 -0.38394575501216083 -0.036535335565972972 0 -0.40237332615973681 -0.030676944162886681 0 -0.38781453024876661 -0.02996800237218563 0 -0.39396365166307989 -0.03445798481758762 0 -0.39396365166307989 -0.03445798481758762 0 -0.39750411751227832 -0.042292212187568533 0 -0.39928834571923882 -0.035924112998793431 0 -0.38895054345211377 -0.045335196083553769 0 -0.39396365166307989 -0.03445798481758762 0 -0.39750411751227832 -0.042292212187568533 0 -0.39750411751227832 -0.042292212187568533 0 -0.4050251302254127 -0.045922345921936697 0 -0.40306291723554027 -0.039039715031688543 0 -0.39750411751227832 -0.042292212187568533 0 -0.40306291723554027 -0.039039715031688543 0 -0.39928834571923882 -0.035924112998793431 0 -0.40237332615973681 -0.030676944162886681 0 -0.39396365166307989 -0.03445798481758762 0 -0.39928834571923882 -0.035924112998793431 0 -0.41105872637709778 -0.041104419315527559 0 -0.40237332615973681 -0.030676944162886681 0 -0.40306291723554027 -0.039039715031688543 0 -0.40237332615973681 -0.030676944162886681 0 -0.40306291723554027 -0.039039715031688543 0 -0.39928834571923882 -0.035924112998793431 0 -0.40603099279739802 -0.054788986838451827 0 -0.39527915405366182 -0.064437672488960096 0 -0.41284572228237681 -0.064006668923108523 0 -0.40603099279739802 -0.054788986838451827 0 -0.39443592701229091 -0.053019652188425637 0 -0.39527915405366182 -0.064437672488960096 0 -0.4050251302254127 -0.045922345921936697 0 -0.40603099279739802 -0.054788986838451827 0 -0.39443592701229091 -0.053019652188425637 0 -0.39750411751227832 -0.042292212187568533 0 -0.4050251302254127 -0.045922345921936697 0 -0.39443592701229091 -0.053019652188425637 0 -0.38895054345211377 -0.045335196083553769 0 -0.39750411751227832 -0.042292212187568533 0 -0.39443592701229091 -0.053019652188425637 0 -0.39443592701229091 -0.053019652188425637 0 -0.38221605892473098 -0.056125323053866277 0 -0.39527915405366182 -0.064437672488960096 0 -0.36608399240098949 -0.063120758007335118 0 -0.38221605892473098 -0.056125323053866277 0 -0.37978412082390189 -0.068029865631836883 0 -0.38895054345211377 -0.045335196083553769 0 -0.39443592701229091 -0.053019652188425637 0 -0.38221605892473098 -0.056125323053866277 0 -0.37993408630244868 -0.045501240077299353 0 -0.38895054345211377 -0.045335196083553769 0 -0.38221605892473098 -0.056125323053866277 0 -0.37085155020467431 -0.050438611479832557 0 -0.37993408630244868 -0.045501240077299353 0 -0.38221605892473098 -0.056125323053866277 0 -0.36843110820579178 -0.075527255856609146 0 -0.37978412082390189 -0.068029865631836883 0 -0.38691029053433551 -0.080938318752413793 0 -0.37978412082390189 -0.068029865631836883 0 -0.38691029053433551 -0.080938318752413793 0 -0.39527915405366182 -0.064437672488960096 0 -0.38221605892473098 -0.056125323053866277 0 -0.37978412082390189 -0.068029865631836883 0 -0.39527915405366182 -0.064437672488960096 0 -0.37380044498630338 -0.100392191664622 0 -0.36747037526515469 -0.088210616938563927 0 -0.38691029053433551 -0.080938318752413793 0 -0.36843110820579178 -0.075527255856609146 0 -0.38691029053433551 -0.080938318752413793 0 -0.40007542381043809 -0.086939242353532731 0 -0.39460333317738627 -0.1006873657273652 0 -0.41352047356827321 -0.0909948847898496 0 -0.38691029053433551 -0.080938318752413793 0 -0.40007542381043809 -0.086939242353532731 0 -0.40767355229219521 -0.074626636544090755 0 -0.38691029053433551 -0.080938318752413793 0 -0.40007542381043809 -0.086939242353532731 0 -0.39460333317738627 -0.1006873657273652 0 -0.38691029053433551 -0.080938318752413793 0 -0.39527915405366182 -0.064437672488960096 0 -0.40767355229219521 -0.074626636544090755 0 -0.39527915405366182 -0.064437672488960096 0 -0.41284572228237681 -0.064006668923108523 0 -0.40767355229219521 -0.074626636544090755 0 -0.36893450279197471 -0.1249528869149899 0 -0.3789649235099295 -0.11270856972454819 0 -0.39514760223357998 -0.1249586529677193 0 -0.36893450279197471 -0.1249528869149899 0 -0.39514760223357998 -0.1249586529677193 0 -0.3789649235099295 -0.11270856972454819 0 -0.39460333317738627 -0.1006873657273652 0 -0.39514760223357998 -0.1249586529677193 0 -0.37380044498630338 -0.100392191664622 0 -0.38691029053433551 -0.080938318752413793 0 -0.39460333317738627 -0.1006873657273652 0 -0.37380044498630338 -0.100392191664622 0 -0.3789649235099295 -0.11270856972454819 0 -0.39460333317738627 -0.1006873657273652 0 -0.39460333317738627 -0.1006873657273652 0 -0.39514760223357998 -0.1249586529677193 0 -0.4114708495464785 -0.1093321351213095 0 -0.42136070167518519 -0.1249644190204488 0 -0.4114708495464785 -0.1093321351213095 0 -0.43272213707796769 -0.1050553531011644 0 -0.39514760223357998 -0.1249586529677193 0 -0.42136070167518519 -0.1249644190204488 0 -0.39514760223357998 -0.1249586529677193 0 -0.42136070167518519 -0.1249644190204488 0 -0.4114708495464785 -0.1093321351213095 0 -0.39460333317738627 -0.1006873657273652 0 -0.4114708495464785 -0.1093321351213095 0 -0.41352047356827321 -0.0909948847898496 0 -0.4114708495464785 -0.1093321351213095 0 -0.43272213707796769 -0.1050553531011644 0 -0.41352047356827321 -0.0909948847898496 0 -0.42136070167518519 -0.1249644190204488 0 -0.43272213707796769 -0.1050553531011644 0 -0.44757380111679052 -0.12497018507317829 0 -0.42136070167518519 -0.1249644190204488 0 -0.44757380111679052 -0.12497018507317829 0 -0.42023793718526542 -0.076451056482049876 0 -0.41284572228237681 -0.064006668923108523 0 -0.42746868386642678 -0.066478460468227696 0 -0.42023793718526542 -0.076451056482049876 0 -0.41284572228237681 -0.064006668923108523 0 -0.40767355229219521 -0.074626636544090755 0 -0.42023793718526542 -0.076451056482049876 0 -0.40767355229219521 -0.074626636544090755 0 -0.41352047356827321 -0.0909948847898496 0 -0.40007542381043809 -0.086939242353532731 0 -0.40767355229219521 -0.074626636544090755 0 -0.41352047356827321 -0.0909948847898496 0 -0.42023793718526542 -0.076451056482049876 0 -0.41352047356827321 -0.0909948847898496 0 -0.43051036701793649 -0.083964229305721505 0 -0.43272213707796769 -0.1050553531011644 0 -0.41352047356827321 -0.0909948847898496 0 -0.43051036701793649 -0.083964229305721505 0 -0.43272213707796769 -0.1050553531011644 0 -0.43051036701793649 -0.083964229305721505 0 -0.44869793539396702 -0.090613631575090198 0 -0.43051036701793649 -0.083964229305721505 0 -0.42746868386642678 -0.066478460468227696 0 -0.43938561630945938 -0.075374003134316428 0 -0.42023793718526542 -0.076451056482049876 0 -0.43051036701793649 -0.083964229305721505 0 -0.42746868386642678 -0.066478460468227696 0 -0.42746868386642678 -0.066478460468227696 0 -0.43950717444435422 -0.063784996514660589 0 -0.43938561630945938 -0.075374003134316428 0 -0.43950717444435422 -0.063784996514660589 0 -0.45074392082461212 -0.072028697807882153 0 -0.43938561630945938 -0.075374003134316428 0 -0.43051036701793649 -0.083964229305721505 0 -0.43938561630945938 -0.075374003134316428 0 -0.44869793539396702 -0.090613631575090198 0 -0.45074392082461212 -0.072028697807882153 0 -0.43938561630945938 -0.075374003134316428 0 -0.44869793539396702 -0.090613631575090198 0 -0.45074392082461212 -0.072028697807882153 0 -0.44869793539396702 -0.090613631575090198 0 -0.4647336852437608 -0.080388630180202481 0 -0.44869793539396702 -0.090613631575090198 0 -0.4647336852437608 -0.080388630180202481 0 -0.47380622041468068 -0.096022360055862885 0 -0.4647336852437608 -0.080388630180202481 0 -0.46264955769922828 -0.069236149835977229 0 -0.47254815090776853 -0.069469283055039688 0 -0.45074392082461212 -0.072028697807882153 0 -0.46264955769922828 -0.069236149835977229 0 -0.44688553471578463 -0.051399134646207288 0 -0.46264955769922828 -0.069236149835977229 0 -0.47254815090776853 -0.069469283055039688 0 -0.46914163899380801 -0.061760229887868598 0 -0.45074392082461212 -0.072028697807882153 0 -0.4647336852437608 -0.080388630180202481 0 -0.46264955769922828 -0.069236149835977229 0 -0.43272213707796769 -0.1050553531011644 0 -0.44757380111679052 -0.12497018507317829 0 -0.46022938895027038 -0.10869066194517669 0 -0.43272213707796769 -0.1050553531011644 0 -0.44869793539396702 -0.090613631575090198 0 -0.46022938895027038 -0.10869066194517669 0 -0.44869793539396702 -0.090613631575090198 0 -0.46022938895027038 -0.10869066194517669 0 -0.47380622041468068 -0.096022360055862885 0 -0.44757380111679052 -0.12497018507317829 0 -0.47378690055839578 -0.1249759511259078 0 -0.44757380111679052 -0.12497018507317829 0 -0.46022938895027038 -0.10869066194517669 0 -0.47378690055839578 -0.1249759511259078 0 -0.46022938895027038 -0.10869066194517669 0 -0.47378690055839578 -0.1249759511259078 0 -0.48374478807960558 -0.1092121363906397 0 -0.46022938895027038 -0.10869066194517669 0 -0.48374478807960558 -0.1092121363906397 0 -0.47380622041468068 -0.096022360055862885 0 -0.48374478807960558 -0.1092121363906397 0 -0.47380622041468068 -0.096022360055862885 0 -0.48832582805197727 -0.092109142267116931 0 -0.48374478807960558 -0.1092121363906397 0 -0.5 -0.10055386622176241 0 -0.48832582805197727 -0.092109142267116931 0 -0.47378690055839578 -0.1249759511259078 0 -0.48374478807960558 -0.1092121363906397 0 -0.50000000000000111 -0.12498171717863731 0 -0.48374478807960558 -0.1092121363906397 0 -0.5 -0.10055386622176241 0 -0.50000000000000111 -0.12498171717863731 0 -0.47378690055839578 -0.1249759511259078 0 -0.50000000000000111 -0.12498171717863731 0 -0.47254815090776853 -0.069469283055039688 0 -0.47913967023945842 -0.082463322467565006 0 -0.48457081949690362 -0.068943122576377761 0 -0.47913967023945842 -0.082463322467565006 0 -0.48808502354595151 -0.080031310268457945 0 -0.48457081949690362 -0.068943122576377761 0 -0.48457081949690362 -0.068943122576377761 0 -0.46914163899380801 -0.061760229887868598 0 -0.48457081949690362 -0.068943122576377761 0 -0.48230491698392047 -0.057318093012348498 0 -0.46914163899380801 -0.061760229887868598 0 -0.47254815090776853 -0.069469283055039688 0 -0.48457081949690362 -0.068943122576377761 0 -0.46914163899380801 -0.061760229887868598 0 -0.47254815090776853 -0.069469283055039688 0 -0.46914163899380801 -0.061760229887868598 0 -0.4647336852437608 -0.080388630180202481 0 -0.47254815090776853 -0.069469283055039688 0 -0.47913967023945842 -0.082463322467565006 0 -0.4647336852437608 -0.080388630180202481 0 -0.47380622041468068 -0.096022360055862885 0 -0.47913967023945842 -0.082463322467565006 0 -0.47380622041468068 -0.096022360055862885 0 -0.47913967023945842 -0.082463322467565006 0 -0.48832582805197727 -0.092109142267116931 0 -0.5 -0.10055386622176241 0 -0.48832582805197727 -0.092109142267116931 0 -0.499999999999999 -0.07612601526488752 0 -0.48808502354595151 -0.080031310268457945 0 -0.48832582805197727 -0.092109142267116931 0 -0.499999999999999 -0.07612601526488752 0 -0.47913967023945842 -0.082463322467565006 0 -0.48808502354595151 -0.080031310268457945 0 -0.48832582805197727 -0.092109142267116931 0 -0.499999999999999 -0.07612601526488752 0 -0.48457081949690362 -0.068943122576377761 0 -0.499999999999999 -0.07612601526488752 0 -0.48457081949690362 -0.068943122576377761 0 -0.5 -0.055081012739928707 0 -0.48808502354595151 -0.080031310268457945 0 -0.499999999999999 -0.07612601526488752 0 -0.48457081949690362 -0.068943122576377761 0 -0.48457081949690362 -0.068943122576377761 0 -0.5 -0.055081012739928707 0 -0.48230491698392047 -0.057318093012348498 0 -0.5 -0.055081012739928707 0 -0.48157039955536241 -0.044558511477442143 0 -0.48230491698392047 -0.057318093012348498 0 -0.5 -0.055081012739928707 0 -0.500000000000004 -0.034036010214970061 0 -0.48157039955536241 -0.044558511477442143 0 -0.500000000000004 -0.034036010214970061 0 -0.48157039955536241 -0.044558511477442143 0 -0.48148290990478199 -0.029591545163434652 0 -0.48157039955536241 -0.044558511477442143 0 -0.45768975774058179 -0.035844230274481748 0 -0.48148290990478199 -0.029591545163434652 0 -0.48157039955536241 -0.044558511477442143 0 -0.46914163899380801 -0.061760229887868598 0 -0.45768975774058179 -0.035844230274481748 0 -0.48157039955536241 -0.044558511477442143 0 -0.48230491698392047 -0.057318093012348498 0 -0.46914163899380801 -0.061760229887868598 0 -0.46914163899380801 -0.061760229887868598 0 -0.45768975774058179 -0.035844230274481748 0 -0.44688553471578463 -0.051399134646207288 0 -0.46914163899380801 -0.061760229887868598 0 -0.45768975774058179 -0.035844230274481748 0 -0.46264955769922828 -0.069236149835977229 0 -0.46914163899380801 -0.061760229887868598 0 -0.44688553471578463 -0.051399134646207288 0 -0.46914163899380801 -0.061760229887868598 0 -0.44688553471578463 -0.051399134646207288 0 -0.43628267576141971 -0.035329403205585218 0 -0.44354830351403418 -0.034418653902415733 0 -0.44688553471578463 -0.051399134646207288 0 -0.45768975774058179 -0.035844230274481748 0 -0.44354830351403418 -0.034418653902415733 0 -0.44688553471578463 -0.051399134646207288 0 -0.45768975774058179 -0.035844230274481748 0 -0.44354830351403418 -0.034418653902415733 0 -0.44312252706978628 -0.024928407146411868 0 -0.43628267576141971 -0.035329403205585218 0 -0.43710875721387199 -0.026668229939385779 0 -0.44354830351403418 -0.034418653902415733 0 -0.43950717444435422 -0.063784996514660589 0 -0.45074392082461212 -0.072028697807882153 0 -0.44688553471578463 -0.051399134646207288 0 -0.43147245553696489 -0.05279552735729795 0 -0.43950717444435422 -0.063784996514660589 0 -0.44688553471578463 -0.051399134646207288 0 -0.43591977417237449 -0.008065469867085449 0 -0.44623787648735791 -0.0099282306610938807 0 -0.43740981058492812 0.01004998492246997 0 -0.43591977417237449 -0.008065469867085449 0 -0.44623787648735791 -0.0099282306610938807 0 -0.43928417642389239 -0.017661557407765791 0 -0.43591977417237449 -0.008065469867085449 0 -0.44623787648735791 -0.0099282306610938807 0 -0.43710875721387199 -0.026668229939385779 0 -0.43928417642389239 -0.017661557407765791 0 -0.44312252706978628 -0.024928407146411868 0 -0.45768975774058179 -0.035844230274481748 0 -0.44623787648735791 -0.0099282306610938807 0 -0.44312252706978628 -0.024928407146411868 0 -0.45768975774058179 -0.035844230274481748 0 -0.44623787648735791 -0.0099282306610938807 0 -0.44623787648735791 -0.0099282306610938807 0 -0.43928417642389239 -0.017661557407765791 0 -0.44312252706978628 -0.024928407146411868 0 -0.43710875721387199 -0.026668229939385779 0 -0.44354830351403418 -0.034418653902415733 0 -0.44312252706978628 -0.024928407146411868 0 -0.45768975774058179 -0.035844230274481748 0 -0.44623787648735791 -0.0099282306610938807 0 -0.47146408957177099 -0.01448240150379307 0 -0.44623787648735791 -0.0099282306610938807 0 -0.47146408957177099 -0.01448240150379307 0 -0.44623787648735791 -0.0099282306610938807 0 -0.47146408957177099 -0.01448240150379307 0 -0.46048772545436639 0.0043098071123656434 0 -0.47146408957177099 -0.01448240150379307 0 -0.47882554305316488 -0.0018417715126103191 0 -0.46048772545436639 0.0043098071123656434 0 -0.47146408957177099 -0.01448240150379307 0 -0.47882554305316488 -0.0018417715126103191 0 -0.49669030265618502 -0.01903657234648758 0 -0.47146408957177099 -0.01448240150379307 0 -0.49669030265618502 -0.01903657234648758 0 -0.47146408957177099 -0.01448240150379307 0 -0.48148290990478199 -0.029591545163434652 0 -0.49669030265618502 -0.01903657234648758 0 -0.45768975774058179 -0.035844230274481748 0 -0.47146408957177099 -0.01448240150379307 0 -0.48148290990478199 -0.029591545163434652 0 -0.500000000000004 -0.034036010214970061 0 -0.48148290990478199 -0.029591545163434652 0 -0.49669030265618502 -0.01903657234648758 0 -0.49669030265618502 -0.01903657234648758 0 -0.50000000000000056 -0.019634082844440681 0 -0.500000000000004 -0.034036010214970061 0 -0.49669030265618502 -0.01903657234648758 0 -0.500000000000004 -0.034036010214970061 0 -0.49669030265618502 -0.01903657234648758 0 -0.50000000000000056 -0.019634082844440681 0 -0.47882554305316488 -0.0018417715126103191 0 -0.49669030265618502 -0.01903657234648758 0 -0.49160980924365538 0.0039880541876541054 0 -0.49669030265618502 -0.01903657234648758 0 -0.49160980924365538 0.0039880541876541054 0 -0.49669030265618502 -0.01903657234648758 0 -0.50000000000000056 -0.019634082844440681 0 -0.49160980924365538 0.0039880541876541054 0 -0.50000000000000056 -0.019634082844440681 0 -0.49160980924365538 0.0039880541876541054 0 -0.50000000000000033 0.009303662189531537 0 -0.49160980924365538 0.0039880541876541054 0 -0.48652931583112352 0.027012680721795381 0 -0.49160980924365538 0.0039880541876541054 0 -0.50000000000000033 0.009303662189531537 0 -0.48652931583112352 0.027012680721795381 0 -0.50000000000000033 0.009303662189531537 0 -0.5 0.03611151152349279 0 -0.49175907743105379 0.031398254416965428 0 -0.50000000000000033 0.009303662189531537 0 -0.49175907743105379 0.031398254416965428 0 -0.50000000000000033 0.009303662189531537 0 -0.48652931583112352 0.027012680721795381 0 -0.49175907743105379 0.031398254416965428 0 -0.48652931583112352 0.027012680721795381 0 -0.47387578833984401 0.016012254987208822 0 -0.46815351836101687 0.031449839152918539 0 -0.49160980924365538 0.0039880541876541054 0 -0.48652931583112352 0.027012680721795381 0 -0.47387578833984401 0.016012254987208822 0 -0.47882554305316488 -0.0018417715126103191 0 -0.49160980924365538 0.0039880541876541054 0 -0.47387578833984401 0.016012254987208822 0 -0.47882554305316488 -0.0018417715126103191 0 -0.47387578833984401 0.016012254987208822 0 -0.46048772545436639 0.0043098071123656434 0 -0.49282352307895688 0.045257754500502748 0 -0.5 0.03611151152349279 0 -0.5 0.062919360857453976 0 -0.49282352307895688 0.045257754500502748 0 -0.48351815486210709 0.053492846644399093 0 -0.5 0.062919360857453976 0 -0.49175907743105379 0.031398254416965428 0 -0.48144882241859149 0.050037307255936581 0 -0.48351815486210709 0.053492846644399093 0 -0.48652931583112352 0.027012680721795381 0 -0.49175907743105379 0.031398254416965428 0 -0.48144882241859149 0.050037307255936581 0 -0.49175907743105379 0.031398254416965428 0 -0.48351815486210709 0.053492846644399093 0 -0.49282352307895688 0.045257754500502748 0 -0.49175907743105379 0.031398254416965428 0 -0.48351815486210709 0.053492846644399093 0 -0.49282352307895688 0.045257754500502748 0 -0.5 0.03611151152349279 0 -0.49175907743105379 0.031398254416965428 0 -0.48144882241859149 0.050037307255936581 0 -0.4639696453013944 0.043374392403556838 0 -0.46815351836101687 0.031449839152918539 0 -0.48652931583112352 0.027012680721795381 0 -0.48144882241859149 0.050037307255936581 0 -0.48652931583112352 0.027012680721795381 0 -0.48144882241859149 0.050037307255936581 0 -0.46815351836101687 0.031449839152918539 0 -0.48144882241859149 0.050037307255936581 0 -0.45709786057011947 0.055708105081253657 0 -0.47636832900606041 0.073061933790077832 0 -0.48144882241859149 0.050037307255936581 0 -0.48351815486210709 0.053492846644399093 0 -0.47636832900606041 0.073061933790077832 0 -0.48144882241859149 0.050037307255936581 0 -0.47636832900606041 0.073061933790077832 0 -0.48144882241859149 0.050037307255936581 0 -0.45709786057011947 0.055708105081253657 0 -0.4639696453013944 0.043374392403556838 0 -0.45709786057011947 0.055708105081253657 0 -0.4639696453013944 0.043374392403556838 0 -0.45299045524759751 0.034902057762674861 0 -0.4639696453013944 0.043374392403556838 0 -0.46815351836101687 0.031449839152918539 0 -0.45299045524759751 0.034902057762674861 0 -0.46815351836101687 0.031449839152918539 0 -0.45299045524759751 0.034902057762674861 0 -0.45709786057011947 0.055708105081253657 0 -0.45299045524759751 0.034902057762674861 0 -0.43782739213417787 0.038354276372430232 0 -0.45299045524759751 0.034902057762674861 0 -0.43782739213417787 0.038354276372430232 0 -0.45299045524759751 0.034902057762674861 0 -0.43782739213417787 0.038354276372430232 0 -0.44297011017848281 0.02707887027054981 0 -0.45709786057011947 0.055708105081253657 0 -0.43782739213417787 0.038354276372430232 0 -0.43187248081207541 0.055496176207803817 0 -0.45709786057011947 0.055708105081253657 0 -0.43782739213417787 0.038354276372430232 0 -0.45709786057011947 0.055708105081253657 0 -0.43187248081207541 0.055496176207803817 0 -0.43763284036668942 0.072255399145110422 0 -0.47387578833984401 0.016012254987208822 0 -0.46048772545436639 0.0043098071123656434 0 -0.45598123469437257 0.020633802368031268 0 -0.47387578833984401 0.016012254987208822 0 -0.46815351836101687 0.031449839152918539 0 -0.45598123469437257 0.020633802368031268 0 -0.46815351836101687 0.031449839152918539 0 -0.45299045524759751 0.034902057762674861 0 -0.45598123469437257 0.020633802368031268 0 -0.45598123469437257 0.020633802368031268 0 -0.44297011017848281 0.02707887027054981 0 -0.43740981058492812 0.01004998492246997 0 -0.45299045524759751 0.034902057762674861 0 -0.45598123469437257 0.020633802368031268 0 -0.44297011017848281 0.02707887027054981 0 -0.46048772545436639 0.0043098071123656434 0 -0.45598123469437257 0.020633802368031268 0 -0.43740981058492812 0.01004998492246997 0 -0.44623787648735791 -0.0099282306610938807 0 -0.46048772545436639 0.0043098071123656434 0 -0.43740981058492812 0.01004998492246997 0 -0.44623787648735791 -0.0099282306610938807 0 -0.43740981058492812 0.01004998492246997 0 -0.43591977417237449 -0.008065469867085449 0 -0.43740981058492812 0.01004998492246997 0 -0.42583279771702431 0.00046528033667210148 0 -0.43740981058492812 0.01004998492246997 0 -0.42292027786463471 0.01349413118407828 0 -0.42583279771702431 0.00046528033667210148 0 -0.41794895562780338 -0.01094222954485795 0 -0.40909120882054839 0.01273065398649661 0 -0.41794895562780338 -0.01094222954485795 0 -0.40352261506359649 -0.001038070178381474 0 -0.40909120882054839 0.01273065398649661 0 -0.42292027786463471 0.01349413118407828 0 -0.42583279771702431 0.00046528033667210148 0 -0.40909120882054839 0.01273065398649661 0 -0.41794895562780338 -0.01094222954485795 0 -0.42583279771702431 0.00046528033667210148 0 -0.40909120882054839 0.01273065398649661 0 -0.40909120882054839 0.01273065398649661 0 -0.41494363987246979 0.023236645495722939 0 -0.40023346201329341 0.036403537517851137 0 -0.41494363987246979 0.023236645495722939 0 -0.41436175989852531 0.033604495869393458 0 -0.40023346201329341 0.036403537517851137 0 -0.42292027786463471 0.01349413118407828 0 -0.41494363987246979 0.023236645495722939 0 -0.424969395700869 0.026775135554755129 0 -0.42292027786463471 0.01349413118407828 0 -0.40909120882054839 0.01273065398649661 0 -0.41494363987246979 0.023236645495722939 0 -0.41494363987246979 0.023236645495722939 0 -0.41896391809246269 0.029132761591660509 0 -0.41436175989852531 0.033604495869393458 0 -0.41494363987246979 0.023236645495722939 0 -0.41896391809246269 0.029132761591660509 0 -0.424969395700869 0.026775135554755129 0 -0.41896391809246269 0.029132761591660509 0 -0.424969395700869 0.026775135554755129 0 -0.42158087689798668 0.032914769446770492 0 -0.424969395700869 0.026775135554755129 0 -0.42858174468249838 0.030028200506033911 0 -0.42158087689798668 0.032914769446770492 0 -0.44297011017848281 0.02707887027054981 0 -0.43740981058492812 0.01004998492246997 0 -0.42858174468249838 0.030028200506033911 0 -0.43740981058492812 0.01004998492246997 0 -0.42292027786463471 0.01349413118407828 0 -0.424969395700869 0.026775135554755129 0 -0.43740981058492812 0.01004998492246997 0 -0.42858174468249838 0.030028200506033911 0 -0.43740981058492812 0.01004998492246997 0 -0.424969395700869 0.026775135554755129 0 -0.42858174468249838 0.030028200506033911 0 -0.424969395700869 0.026775135554755129 0 -0.42858174468249838 0.030028200506033911 0 -0.43782739213417787 0.038354276372430232 0 -0.44297011017848281 0.02707887027054981 0 -0.42858174468249838 0.030028200506033911 0 -0.43782739213417787 0.038354276372430232 0 -0.42858174468249838 0.030028200506033911 0 -0.42345682706553001 0.041626064651069543 0 -0.43782739213417787 0.038354276372430232 0 -0.42345682706553001 0.041626064651069543 0 -0.43187248081207541 0.055496176207803817 0 -0.43782739213417787 0.038354276372430232 0 -0.42858174468249838 0.030028200506033911 0 -0.43782739213417787 0.038354276372430232 0 -0.42345682706553001 0.041626064651069543 0 -0.42858174468249838 0.030028200506033911 0 -0.42345682706553001 0.041626064651069543 0 -0.42158087689798668 0.032914769446770492 0 -0.42858174468249838 0.030028200506033911 0 -0.42345682706553001 0.041626064651069543 0 -0.42345682706553001 0.041626064651069543 0 -0.43187248081207541 0.055496176207803817 0 -0.4177568865966339 0.054525225210098782 0 -0.43187248081207541 0.055496176207803817 0 -0.4177568865966339 0.054525225210098782 0 -0.41753301535116211 0.067129086497859855 0 -0.42345682706553001 0.041626064651069543 0 -0.4177568865966339 0.054525225210098782 0 -0.40276573021624068 0.046336866753853997 0 -0.4177568865966339 0.054525225210098782 0 -0.40750332447406851 0.057375884956624552 0 -0.41753301535116211 0.067129086497859855 0 -0.42345682706553001 0.041626064651069543 0 -0.4177568865966339 0.054525225210098782 0 -0.4177568865966339 0.054525225210098782 0 -0.40750332447406851 0.057375884956624552 0 -0.40276573021624068 0.046336866753853997 0 -0.42345682706553001 0.041626064651069543 0 -0.40276573021624068 0.046336866753853997 0 -0.42345682706553001 0.041626064651069543 0 -0.41020444479839763 0.039492741198042178 0 -0.40276573021624068 0.046336866753853997 0 -0.42345682706553001 0.041626064651069543 0 -0.41436175989852531 0.033604495869393458 0 -0.42158087689798668 0.032914769446770492 0 -0.42345682706553001 0.041626064651069543 0 -0.41436175989852531 0.033604495869393458 0 -0.41020444479839763 0.039492741198042178 0 -0.41896391809246269 0.029132761591660509 0 -0.41436175989852531 0.033604495869393458 0 -0.42158087689798668 0.032914769446770492 0 -0.41436175989852531 0.033604495869393458 0 -0.41020444479839763 0.039492741198042178 0 -0.40023346201329341 0.036403537517851137 0 -0.40276573021624068 0.046336866753853997 0 -0.38207463336695202 0.051047668856640811 0 -0.38772007791329738 0.03985096685417347 0 -0.41020444479839763 0.039492741198042178 0 -0.40023346201329341 0.036403537517851137 0 -0.40276573021624068 0.046336866753853997 0 -0.40023346201329341 0.036403537517851137 0 -0.40276573021624068 0.046336866753853997 0 -0.38772007791329738 0.03985096685417347 0 -0.40023346201329341 0.036403537517851137 0 -0.38772007791329738 0.03985096685417347 0 -0.38925836826538629 0.030805614435688099 0 -0.40276573021624068 0.046336866753853997 0 -0.38207463336695202 0.051047668856640811 0 -0.40276573021624068 0.046336866753853997 0 -0.39689466156197101 0.057407184083191301 0 -0.38207463336695202 0.051047668856640811 0 -0.40750332447406851 0.057375884956624552 0 -0.39689466156197101 0.057407184083191301 0 -0.40210564328563447 0.066115584712721373 0 -0.40750332447406851 0.057375884956624552 0 -0.40276573021624068 0.046336866753853997 0 -0.39689466156197101 0.057407184083191301 0 -0.38207463336695202 0.051047668856640811 0 -0.38848633305814179 0.065600711414542545 0 -0.36891219827968119 0.060077996683558232 0 -0.39689466156197101 0.057407184083191301 0 -0.38207463336695202 0.051047668856640811 0 -0.38848633305814179 0.065600711414542545 0 -0.38772007791329738 0.03985096685417347 0 -0.37937813184432773 0.031366277704107569 0 -0.38925836826538629 0.030805614435688099 0 -0.38207463336695202 0.051047668856640811 0 -0.38772007791329738 0.03985096685417347 0 -0.37261014177358448 0.043145835856899219 0 -0.38772007791329738 0.03985096685417347 0 -0.37937813184432773 0.031366277704107569 0 -0.37261014177358448 0.043145835856899219 0 -0.37937813184432773 0.031366277704107569 0 -0.38391758338059062 0.022870450659759161 0 -0.37479293228070759 0.022502646493578662 0 -0.37937813184432773 0.031366277704107569 0 -0.38925836826538629 0.030805614435688099 0 -0.38391758338059062 0.022870450659759161 0 -0.38925836826538629 0.030805614435688099 0 -0.38391758338059062 0.022870450659759161 0 -0.3946160130735708 0.021551959563878339 0 -0.38391758338059062 0.022870450659759161 0 -0.38667067902898572 0.013842153393714489 0 -0.3946160130735708 0.021551959563878339 0 -0.38391758338059062 0.022870450659759161 0 -0.3778438638662554 0.014761087644765769 0 -0.38667067902898572 0.013842153393714489 0 -0.38391758338059062 0.022870450659759161 0 -0.3778438638662554 0.014761087644765769 0 -0.37479293228070759 0.022502646493578662 0 -0.3778438638662554 0.014761087644765769 0 -0.38165634421242611 0.0056742618597281089 0 -0.38667067902898572 0.013842153393714489 0 -0.3778438638662554 0.014761087644765769 0 -0.38165634421242611 0.0056742618597281089 0 -0.37464316483836829 0.0066416053135349984 0 -0.37774077980655368 -0.001289555558904682 0 -0.38165634421242611 0.0056742618597281089 0 -0.37464316483836829 0.0066416053135349984 0 -0.3848191179490616 -0.0027051675553946518 0 -0.37774077980655368 -0.001289555558904682 0 -0.38165634421242611 0.0056742618597281089 0 -0.3848191179490616 -0.0027051675553946518 0 -0.38165634421242611 0.0056742618597281089 0 -0.38845980705381639 0.0057813395070211177 0 -0.39408165103759368 -0.0019794594859314238 0 -0.3848191179490616 -0.0027051675553946518 0 -0.38845980705381639 0.0057813395070211177 0 -0.38845980705381639 0.0057813395070211177 0 -0.38667067902898572 0.013842153393714489 0 -0.39627830677719 0.008853295208583448 0 -0.38165634421242611 0.0056742618597281089 0 -0.38845980705381639 0.0057813395070211177 0 -0.38667067902898572 0.013842153393714489 0 -0.38667067902898572 0.013842153393714489 0 -0.39627830677719 0.008853295208583448 0 -0.3946160130735708 0.021551959563878339 0 -0.39408165103759368 -0.0019794594859314238 0 -0.38845980705381639 0.0057813395070211177 0 -0.39627830677719 0.008853295208583448 0 -0.40352261506359649 -0.001038070178381474 0 -0.39408165103759368 -0.0019794594859314238 0 -0.39627830677719 0.008853295208583448 0 -0.40352261506359649 -0.001038070178381474 0 -0.40909120882054839 0.01273065398649661 0 -0.39627830677719 0.008853295208583448 0 -0.40909120882054839 0.01273065398649661 0 -0.39627830677719 0.008853295208583448 0 -0.3946160130735708 0.021551959563878339 0 -0.40909120882054839 0.01273065398649661 0 -0.40023346201329341 0.036403537517851137 0 -0.3946160130735708 0.021551959563878339 0 -0.40909120882054839 0.01273065398649661 0 -0.40023346201329341 0.036403537517851137 0 -0.40023346201329341 0.036403537517851137 0 -0.38925836826538629 0.030805614435688099 0 -0.3946160130735708 0.021551959563878339 0 -0.38696142946532958 0.1003701901717608 0 -0.40164011277457379 0.081352107660276216 0 -0.40864304721671202 0.1107171055473533 0 -0.38750957741872682 0.11885909540365321 0 -0.40864304721671202 0.1107171055473533 0 -0.39401402549175851 0.1361747599337243 0 -0.38750957741872682 0.11885909540365321 0 -0.38696142946532958 0.1003701901717608 0 -0.40864304721671202 0.1107171055473533 0 -0.38750957741872682 0.11885909540365321 0 -0.38696142946532958 0.1003701901717608 0 -0.36904533532088801 0.1177582563576956 0 -0.38696142946532958 0.1003701901717608 0 -0.37090825683648998 0.098456277756480637 0 -0.36904533532088801 0.1177582563576956 0 -0.37929074908003868 0.077603726490867345 0 -0.40164011277457379 0.081352107660276216 0 -0.38696142946532958 0.1003701901717608 0 -0.37929074908003868 0.077603726490867345 0 -0.40164011277457379 0.081352107660276216 0 -0.38696142946532958 0.1003701901717608 0 -0.37929074908003868 0.077603726490867345 0 -0.37090825683648998 0.098456277756480637 0 -0.37929074908003868 0.077603726490867345 0 -0.38848633305814179 0.065600711414542545 0 -0.36891219827968119 0.060077996683558232 0 -0.37929074908003868 0.077603726490867345 0 -0.38848633305814179 0.065600711414542545 0 -0.40164011277457379 0.081352107660276216 0 -0.38848633305814179 0.065600711414542545 0 -0.40210564328563447 0.066115584712721373 0 -0.40164011277457379 0.081352107660276216 0 -0.39689466156197101 0.057407184083191301 0 -0.38848633305814179 0.065600711414542545 0 -0.40210564328563447 0.066115584712721373 0 -0.40164011277457379 0.081352107660276216 0 -0.42398947646910912 0.085100488829685086 0 -0.40164011277457379 0.081352107660276216 0 -0.42398947646910912 0.085100488829685086 0 -0.40864304721671202 0.1107171055473533 0 -0.40210564328563447 0.066115584712721373 0 -0.40164011277457379 0.081352107660276216 0 -0.41753301535116211 0.067129086497859855 0 -0.40164011277457379 0.081352107660276216 0 -0.41753301535116211 0.067129086497859855 0 -0.42398947646910912 0.085100488829685086 0 -0.40750332447406851 0.057375884956624552 0 -0.40210564328563447 0.066115584712721373 0 -0.41753301535116211 0.067129086497859855 0 -0.41753301535116211 0.067129086497859855 0 -0.42398947646910912 0.085100488829685086 0 -0.43763284036668942 0.072255399145110422 0 -0.43187248081207541 0.055496176207803817 0 -0.41753301535116211 0.067129086497859855 0 -0.43763284036668942 0.072255399145110422 0 -0.42398947646910912 0.085100488829685086 0 -0.44633884016364428 0.088848869999093971 0 -0.42398947646910912 0.085100488829685086 0 -0.43763284036668942 0.072255399145110422 0 -0.44633884016364428 0.088848869999093971 0 -0.42398947646910912 0.085100488829685086 0 -0.42906186480059683 0.10519001099972999 0 -0.44633884016364428 0.088848869999093971 0 -0.42398947646910912 0.085100488829685086 0 -0.42906186480059683 0.10519001099972999 0 -0.40864304721671202 0.1107171055473533 0 -0.40864304721671202 0.1107171055473533 0 -0.43267942878230348 0.12559175737704789 0 -0.42906186480059683 0.10519001099972999 0 -0.40864304721671202 0.1107171055473533 0 -0.43267942878230348 0.12559175737704789 0 -0.42906186480059683 0.10519001099972999 0 -0.4489383204882843 0.11104189391905871 0 -0.43267942878230348 0.12559175737704789 0 -0.4489383204882843 0.11104189391905871 0 -0.45289828098281221 0.1241297055338681 0 -0.43267942878230348 0.12559175737704789 0 -0.4489383204882843 0.11104189391905871 0 -0.43267942878230348 0.12559175737704789 0 -0.42906186480059683 0.10519001099972999 0 -0.4489383204882843 0.11104189391905871 0 -0.44633884016364428 0.088848869999093971 0 -0.4489383204882843 0.11104189391905871 0 -0.44633884016364428 0.088848869999093971 0 -0.47121921728662652 0.096397536200283296 0 -0.46607010556719342 0.11973313861048911 0 -0.47121921728662652 0.096397536200283296 0 -0.4489383204882843 0.11104189391905871 0 -0.46607010556719342 0.11973313861048911 0 -0.47121921728662652 0.096397536200283296 0 -0.4489383204882843 0.11104189391905871 0 -0.45289828098281221 0.1241297055338681 0 -0.46607010556719342 0.11973313861048911 0 -0.45709786057011947 0.055708105081253657 0 -0.43763284036668942 0.072255399145110422 0 -0.45544766770060358 0.07348919590478746 0 -0.43763284036668942 0.072255399145110422 0 -0.44633884016364428 0.088848869999093971 0 -0.45544766770060358 0.07348919590478746 0 -0.44633884016364428 0.088848869999093971 0 -0.45544766770060358 0.07348919590478746 0 -0.47121921728662652 0.096397536200283296 0 -0.45544766770060358 0.07348919590478746 0 -0.47636832900606041 0.073061933790077832 0 -0.47121921728662652 0.096397536200283296 0 -0.45709786057011947 0.055708105081253657 0 -0.47636832900606041 0.073061933790077832 0 -0.45709786057011947 0.055708105081253657 0 -0.45544766770060358 0.07348919590478746 0 -0.47636832900606041 0.073061933790077832 0 -0.48351815486210709 0.053492846644399093 0 -0.47636832900606041 0.073061933790077832 0 -0.49140909277123612 0.074197219851226057 0 -0.47636832900606041 0.073061933790077832 0 -0.48274454235378189 0.091705374172880549 0 -0.47121921728662652 0.096397536200283296 0 -0.47636832900606041 0.073061933790077832 0 -0.47121921728662652 0.096397536200283296 0 -0.47636832900606041 0.073061933790077832 0 -0.49715897998801373 0.091784747772784503 0 -0.5 0.089727210191415163 0 -0.49715897998801373 0.091784747772784503 0 -0.49140909277123612 0.074197219851226057 0 -0.47636832900606041 0.073061933790077832 0 -0.48274454235378189 0.091705374172880549 0 -0.49715897998801373 0.091784747772784503 0 -0.47636832900606041 0.073061933790077832 0 -0.49715897998801373 0.091784747772784503 0 -0.49140909277123612 0.074197219851226057 0 -0.5 0.089727210191415163 0 -0.5 0.062919360857453976 0 -0.49140909277123612 0.074197219851226057 0 -0.48351815486210709 0.053492846644399093 0 -0.5 0.062919360857453976 0 -0.49140909277123612 0.074197219851226057 0 -0.46607010556719342 0.11973313861048911 0 -0.48623164313442779 0.1055772789283768 0 -0.48453668432005692 0.123143207324586 0 -0.46607010556719342 0.11973313861048911 0 -0.47121921728662652 0.096397536200283296 0 -0.48623164313442779 0.1055772789283768 0 -0.48274454235378189 0.091705374172880549 0 -0.47121921728662652 0.096397536200283296 0 -0.48623164313442779 0.1055772789283768 0 -0.5 0.089727210191415163 0 -0.49715897998801373 0.091784747772784503 0 -0.5 0.1165350595253765 0 -0.49715897998801373 0.091784747772784503 0 -0.48623164313442779 0.1055772789283768 0 -0.5 0.1165350595253765 0 -0.48274454235378189 0.091705374172880549 0 -0.49715897998801373 0.091784747772784503 0 -0.48623164313442779 0.1055772789283768 0 -0.48623164313442779 0.1055772789283768 0 -0.5 0.1165350595253765 0 -0.48453668432005692 0.123143207324586 0 -0.5 0.1165350595253765 0 -0.48453668432005692 0.123143207324586 0 -0.5 0.1433429088593379 0 -0.48453668432005692 0.123143207324586 0 -0.48049738108946538 0.1379484740379 0 -0.5 0.1433429088593379 0 -0.46607010556719342 0.11973313861048911 0 -0.48453668432005692 0.123143207324586 0 -0.48049738108946538 0.1379484740379 0 -0.46607010556719342 0.11973313861048911 0 -0.48049738108946538 0.1379484740379 0 -0.46092099384776192 0.14306874102069511 0 -0.48464943840857888 0.15775282940309851 0 -0.46990863904630059 0.1670362475492525 0 -0.46092099384776192 0.14306874102069511 0 -0.48464943840857888 0.15775282940309851 0 -0.46092099384776192 0.14306874102069511 0 -0.48049738108946538 0.1379484740379 0 -0.48464943840857888 0.15775282940309851 0 -0.46092099384776192 0.14306874102069511 0 -0.48049738108946538 0.1379484740379 0 -0.5 0.1433429088593379 0 -0.48464943840857888 0.15775282940309851 0 -0.48464943840857888 0.15775282940309851 0 -0.5 0.17015075819329931 0 -0.4898809761324775 0.17912292006808481 0 -0.5 0.1433429088593379 0 -0.48464943840857888 0.15775282940309851 0 -0.5 0.17015075819329931 0 -0.48464943840857888 0.15775282940309851 0 -0.4898809761324775 0.17912292006808481 0 -0.47865635922375932 0.17909963177513319 0 -0.5 0.17015075819329931 0 -0.4898809761324775 0.17912292006808481 0 -0.5 0.19695860752726069 0 -0.4898809761324775 0.17912292006808481 0 -0.47865635922375932 0.17909963177513319 0 -0.48609908303004917 0.1916527734416324 0 -0.47865635922375932 0.17909963177513319 0 -0.47279817792341111 0.1948006201282925 0 -0.47865635922375932 0.17909963177513319 0 -0.46589335310649882 0.18744802338852329 0 -0.47279817792341111 0.1948006201282925 0 -0.47865635922375932 0.17909963177513319 0 -0.46927870962167312 0.17493875400548389 0 -0.46990863904630059 0.1670362475492525 0 -0.47865635922375932 0.17909963177513319 0 -0.46927870962167312 0.17493875400548389 0 -0.46555461593459269 0.18128722400797501 0 -0.47865635922375932 0.17909963177513319 0 -0.46589335310649882 0.18744802338852329 0 -0.46555461593459269 0.18128722400797501 0 -0.48464943840857888 0.15775282940309851 0 -0.47865635922375932 0.17909963177513319 0 -0.46990863904630059 0.1670362475492525 0 -0.45742932361540911 0.15889287394486271 0 -0.45393765338305497 0.17471700686903011 0 -0.46990863904630059 0.1670362475492525 0 -0.45742932361540911 0.15889287394486271 0 -0.46092099384776192 0.14306874102069511 0 -0.45742932361540911 0.15889287394486271 0 -0.46299522428203971 0.17233191268957501 0 -0.45393765338305497 0.17471700686903011 0 -0.46927870962167312 0.17493875400548389 0 -0.46990863904630059 0.1670362475492525 0 -0.46299522428203971 0.17233191268957501 0 -0.46990863904630059 0.1670362475492525 0 -0.45742932361540911 0.15889287394486271 0 -0.46299522428203971 0.17233191268957501 0 -0.46589335310649882 0.18744802338852329 0 -0.46555461593459269 0.18128722400797501 0 -0.45393765338305497 0.17471700686903011 0 -0.46589335310649882 0.18744802338852329 0 -0.46555461593459269 0.18128722400797501 0 -0.46927870962167312 0.17493875400548389 0 -0.46555461593459269 0.18128722400797501 0 -0.46299522428203971 0.17233191268957501 0 -0.46555461593459269 0.18128722400797501 0 -0.46299522428203971 0.17233191268957501 0 -0.45393765338305497 0.17471700686903011 0 -0.46589335310649882 0.18744802338852329 0 -0.45393765338305497 0.17471700686903011 0 -0.45393765338305497 0.17471700686903011 0 -0.44047241453070329 0.18324079402305421 0 -0.44820564853932793 0.20069426145875721 0 -0.45393765338305497 0.17471700686903011 0 -0.44047241453070329 0.18324079402305421 0 -0.44174290600336708 0.16173144065936321 0 -0.45742932361540911 0.15889287394486271 0 -0.44174290600336708 0.16173144065936321 0 -0.44616928685712581 0.1494742970518641 0 -0.45742932361540911 0.15889287394486271 0 -0.45393765338305497 0.17471700686903011 0 -0.44174290600336708 0.16173144065936321 0 -0.45393765338305497 0.17471700686903011 0 -0.44174290600336708 0.16173144065936321 0 -0.44174290600336708 0.16173144065936321 0 -0.44616928685712581 0.1494742970518641 0 -0.43187713239064979 0.1573343508491826 0 -0.44616928685712581 0.1494742970518641 0 -0.43700896048386301 0.14249666109927989 0 -0.43187713239064979 0.1573343508491826 0 -0.44616928685712581 0.1494742970518641 0 -0.44680021131503311 0.13433024919887079 0 -0.46092099384776192 0.14306874102069511 0 -0.44616928685712581 0.1494742970518641 0 -0.44680021131503311 0.13433024919887079 0 -0.43700896048386301 0.14249666109927989 0 -0.45289828098281221 0.1241297055338681 0 -0.44680021131503311 0.13433024919887079 0 -0.43267942878230348 0.12559175737704789 0 -0.44680021131503311 0.13433024919887079 0 -0.43267942878230348 0.12559175737704789 0 -0.43700896048386301 0.14249666109927989 0 -0.44680021131503311 0.13433024919887079 0 -0.43267942878230348 0.12559175737704789 0 -0.45289828098281221 0.1241297055338681 0 -0.44680021131503311 0.13433024919887079 0 -0.46092099384776192 0.14306874102069511 0 -0.46607010556719342 0.11973313861048911 0 -0.46092099384776192 0.14306874102069511 0 -0.45289828098281221 0.1241297055338681 0 -0.46607010556719342 0.11973313861048911 0 -0.46092099384776192 0.14306874102069511 0 -0.44680021131503311 0.13433024919887079 0 -0.46092099384776192 0.14306874102069511 0 -0.45742932361540911 0.15889287394486271 0 -0.46092099384776192 0.14306874102069511 0 -0.45742932361540911 0.15889287394486271 0 -0.44616928685712581 0.1494742970518641 0 -0.46092099384776192 0.14306874102069511 0 -0.46853242371352971 0.23544625301742969 0 -0.46993231893463527 0.26090691788180947 0 -0.48177750529808522 0.24619974485466931 0 -0.46853242371352971 0.23544625301742969 0 -0.46993231893463527 0.26090691788180947 0 -0.48177750529808522 0.24619974485466931 0 -0.48375626182904402 0.22755154475287301 0 -0.46853242371352971 0.23544625301742969 0 -0.48177750529808522 0.24619974485466931 0 -0.5 0.2461359573144368 0 -0.48375626182904402 0.22755154475287301 0 -0.5 0.2461359573144368 0 -0.48375626182904402 0.22755154475287301 0 -0.49999999999999978 0.22376645686122221 0 -0.48375626182904402 0.22755154475287301 0 -0.48639908896170481 0.20928353849475789 0 -0.5 0.2461359573144368 0 -0.49999999999999978 0.22376645686122221 0 -0.48375626182904402 0.22755154475287301 0 -0.47173343442327142 0.22048762952866541 0 -0.46713252849242448 0.20998558815304991 0 -0.46853242371352971 0.23544625301742969 0 -0.48375626182904402 0.22755154475287301 0 -0.47173343442327142 0.22048762952866541 0 -0.4670472636537164 0.20843482960316059 0 -0.48375626182904402 0.22755154475287301 0 -0.47173343442327142 0.22048762952866541 0 -0.46853242371352971 0.23544625301742969 0 -0.48375626182904402 0.22755154475287301 0 -0.4670472636537164 0.20843482960316059 0 -0.48639908896170481 0.20928353849475789 0 -0.47279817792341111 0.1948006201282925 0 -0.4670472636537164 0.20843482960316059 0 -0.48375626182904402 0.22755154475287301 0 -0.48639908896170481 0.20928353849475789 0 -0.4670472636537164 0.20843482960316059 0 -0.49999999999999978 0.22376645686122221 0 -0.48639908896170481 0.20928353849475789 0 -0.5 0.19695860752726069 0 -0.49999999999999978 0.22376645686122221 0 -0.48639908896170481 0.20928353849475789 0 -0.48639908896170481 0.20928353849475789 0 -0.5 0.19695860752726069 0 -0.48609908303004917 0.1916527734416324 0 -0.4898809761324775 0.17912292006808481 0 -0.5 0.19695860752726069 0 -0.48609908303004917 0.1916527734416324 0 -0.48639908896170481 0.20928353849475789 0 -0.48609908303004917 0.1916527734416324 0 -0.47279817792341111 0.1948006201282925 0 -0.47865635922375932 0.17909963177513319 0 -0.48609908303004917 0.1916527734416324 0 -0.47279817792341111 0.1948006201282925 0 -0.48639908896170481 0.20928353849475789 0 -0.47279817792341111 0.1948006201282925 0 -0.47279817792341111 0.1948006201282925 0 -0.4670472636537164 0.20843482960316059 0 -0.46589335310649882 0.18744802338852329 0 -0.47279817792341111 0.1948006201282925 0 -0.46589335310649882 0.18744802338852329 0 -0.4603250720810298 0.20074399020462361 0 -0.4670472636537164 0.20843482960316059 0 -0.46589335310649882 0.18744802338852329 0 -0.45393765338305497 0.17471700686903011 0 -0.44820564853932793 0.20069426145875721 0 -0.46589335310649882 0.18744802338852329 0 -0.4603250720810298 0.20074399020462361 0 -0.44820564853932793 0.20069426145875721 0 -0.46589335310649882 0.18744802338852329 0 -0.47279817792341111 0.1948006201282925 0 -0.4670472636537164 0.20843482960316059 0 -0.46589335310649882 0.18744802338852329 0 -0.4670472636537164 0.20843482960316059 0 -0.45393765338305497 0.17471700686903011 0 -0.44820564853932793 0.20069426145875721 0 -0.44820564853932793 0.20069426145875721 0 -0.45427794118362658 0.21265328965042851 0 -0.44247364369559788 0.22667151604848371 0 -0.44820564853932793 0.20069426145875721 0 -0.44247364369559788 0.22667151604848371 0 -0.44820564853932793 0.20069426145875721 0 -0.44247364369559788 0.22667151604848371 0 -0.42336320141575168 0.21609666274764849 0 -0.45880341375183131 0.2186303689721085 0 -0.45427794118362658 0.21265328965042851 0 -0.46188137931700068 0.21002659871962689 0 -0.45880341375183131 0.2186303689721085 0 -0.45427794118362658 0.21265328965042851 0 -0.4536201791639074 0.2236252940046442 0 -0.4603250720810298 0.20074399020462361 0 -0.45427794118362658 0.21265328965042851 0 -0.46188137931700068 0.21002659871962689 0 -0.4603250720810298 0.20074399020462361 0 -0.44820564853932793 0.20069426145875721 0 -0.45427794118362658 0.21265328965042851 0 -0.4603250720810298 0.20074399020462361 0 -0.46188137931700068 0.21002659871962689 0 -0.4670472636537164 0.20843482960316059 0 -0.4603250720810298 0.20074399020462361 0 -0.4670472636537164 0.20843482960316059 0 -0.46188137931700068 0.21002659871962689 0 -0.4670472636537164 0.20843482960316059 0 -0.46713252849242448 0.20998558815304991 0 -0.4670472636537164 0.20843482960316059 0 -0.46713252849242448 0.20998558815304991 0 -0.47173343442327142 0.22048762952866541 0 -0.4670472636537164 0.20843482960316059 0 -0.46713252849242448 0.20998558815304991 0 -0.45880341375183131 0.2186303689721085 0 -0.46188137931700068 0.21002659871962689 0 -0.46713252849242448 0.20998558815304991 0 -0.46713252849242448 0.20998558815304991 0 -0.45710504060219709 0.23686107433279269 0 -0.46713252849242448 0.20998558815304991 0 -0.45710504060219709 0.23686107433279269 0 -0.46853242371352971 0.23544625301742969 0 -0.45880341375183131 0.2186303689721085 0 -0.46713252849242448 0.20998558815304991 0 -0.45710504060219709 0.23686107433279269 0 -0.45880341375183131 0.2186303689721085 0 -0.4536201791639074 0.2236252940046442 0 -0.45710504060219709 0.23686107433279269 0 -0.46713252849242448 0.20998558815304991 0 -0.46853242371352971 0.23544625301742969 0 -0.45427794118362658 0.21265328965042851 0 -0.4536201791639074 0.2236252940046442 0 -0.44247364369559788 0.22667151604848371 0 -0.4536201791639074 0.2236252940046442 0 -0.44247364369559788 0.22667151604848371 0 -0.45710504060219709 0.23686107433279269 0 -0.44247364369559788 0.22667151604848371 0 -0.4367416388518679 0.25264877063821017 0 -0.44247364369559788 0.22667151604848371 0 -0.45710504060219709 0.23686107433279269 0 -0.4367416388518679 0.25264877063821017 0 -0.45710504060219709 0.23686107433279269 0 -0.46853242371352971 0.23544625301742969 0 -0.46993231893463527 0.26090691788180947 0 -0.41931835140954682 0.23739665832436521 0 -0.40367044579520373 0.24132688110038639 0 -0.41175872593851298 0.2549478601346914 0 -0.41931835140954682 0.23739665832436521 0 -0.40790513800462019 0.22799805468035339 0 -0.40367044579520373 0.24132688110038639 0 -0.41931835140954682 0.23739665832436521 0 -0.4367416388518679 0.25264877063821017 0 -0.41175872593851298 0.2549478601346914 0 -0.44247364369559788 0.22667151604848371 0 -0.41931835140954682 0.23739665832436521 0 -0.4367416388518679 0.25264877063821017 0 -0.44247364369559788 0.22667151604848371 0 -0.41931835140954682 0.23739665832436521 0 -0.42336320141575168 0.21609666274764849 0 -0.41931835140954682 0.23739665832436521 0 -0.40790513800462019 0.22799805468035339 0 -0.42336320141575168 0.21609666274764849 0 -0.40790513800462019 0.22799805468035339 0 -0.42336320141575168 0.21609666274764849 0 -0.40538393777915788 0.2123952851453417 0 -0.42336320141575168 0.21609666274764849 0 -0.42071240458675369 0.1920614743917832 0 -0.40538393777915788 0.2123952851453417 0 -0.44820564853932793 0.20069426145875721 0 -0.42336320141575168 0.21609666274764849 0 -0.42071240458675369 0.1920614743917832 0 -0.44047241453070329 0.18324079402305421 0 -0.44820564853932793 0.20069426145875721 0 -0.42071240458675369 0.1920614743917832 0 -0.42071240458675369 0.1920614743917832 0 -0.40538393777915788 0.2123952851453417 0 -0.42071240458675369 0.1920614743917832 0 -0.4022878927449296 0.1970928012265635 0 -0.40298680868332198 0.18508216307238631 0 -0.42071240458675369 0.1920614743917832 0 -0.4022878927449296 0.1970928012265635 0 -0.40538393777915788 0.2123952851453417 0 -0.4022878927449296 0.1970928012265635 0 -0.39286614404695941 0.1920732104686422 0 -0.40298680868332198 0.18508216307238631 0 -0.4022878927449296 0.1970928012265635 0 -0.39286614404695941 0.1920732104686422 0 -0.39380007669083689 0.206464460861051 0 -0.38422654444444693 0.2008322729754812 0 -0.38088029112643113 0.1825210369279657 0 -0.38422654444444693 0.2008322729754812 0 -0.38088029112643113 0.1825210369279657 0 -0.36802074197771562 0.19700904511440151 0 -0.38422654444444693 0.2008322729754812 0 -0.37368745339656201 0.20924711939208951 0 -0.36802074197771562 0.19700904511440151 0 -0.39286614404695941 0.1920732104686422 0 -0.38422654444444693 0.2008322729754812 0 -0.38088029112643113 0.1825210369279657 0 -0.39286614404695941 0.1920732104686422 0 -0.38422654444444693 0.2008322729754812 0 -0.39380007669083689 0.206464460861051 0 -0.38422654444444693 0.2008322729754812 0 -0.38757279776246373 0.21914350902299659 0 -0.38757279776246373 0.21914350902299659 0 -0.36800338097472479 0.22147713987588341 0 -0.37368745339656201 0.20924711939208951 0 -0.38422654444444693 0.2008322729754812 0 -0.39380007669083689 0.206464460861051 0 -0.38757279776246373 0.21914350902299659 0 -0.38422654444444693 0.2008322729754812 0 -0.38757279776246373 0.21914350902299659 0 -0.37368745339656201 0.20924711939208951 0 -0.39141353052387118 0.2186855059784025 0 -0.39380007669083689 0.206464460861051 0 -0.38757279776246373 0.21914350902299659 0 -0.39141353052387118 0.2186855059784025 0 -0.39380007669083689 0.206464460861051 0 -0.40538393777915788 0.2123952851453417 0 -0.4022878927449296 0.1970928012265635 0 -0.39380007669083689 0.206464460861051 0 -0.40538393777915788 0.2123952851453417 0 -0.40790513800462019 0.22799805468035339 0 -0.39005547097156312 0.23272909589890109 0 -0.40367044579520373 0.24132688110038639 0 -0.39141353052387118 0.2186855059784025 0 -0.40538393777915788 0.2123952851453417 0 -0.39005547097156312 0.23272909589890109 0 -0.40790513800462019 0.22799805468035339 0 -0.40538393777915788 0.2123952851453417 0 -0.39005547097156312 0.23272909589890109 0 -0.40538393777915788 0.2123952851453417 0 -0.39005547097156312 0.23272909589890109 0 -0.38757279776246373 0.21914350902299659 0 -0.39005547097156312 0.23272909589890109 0 -0.38757279776246373 0.21914350902299659 0 -0.36800338097472479 0.22147713987588341 0 -0.39141353052387118 0.2186855059784025 0 -0.38757279776246373 0.21914350902299659 0 -0.39005547097156312 0.23272909589890109 0 -0.38757279776246373 0.21914350902299659 0 -0.37939186114838758 0.22424627805714001 0 -0.36800338097472479 0.22147713987588341 0 -0.38757279776246373 0.21914350902299659 0 -0.37939186114838758 0.22424627805714001 0 -0.39005547097156312 0.23272909589890109 0 -0.39141353052387118 0.2186855059784025 0 -0.38757279776246373 0.21914350902299659 0 -0.37939186114838758 0.22424627805714001 0 -0.37477717689163992 0.25299635056682518 0 -0.39005547097156312 0.23272909589890109 0 -0.39384597734802013 0.25347135609337229 0 -0.37477717689163992 0.25299635056682518 0 -0.37939186114838758 0.22424627805714001 0 -0.39005547097156312 0.23272909589890109 0 -0.37477717689163992 0.25299635056682518 0 -0.39005547097156312 0.23272909589890109 0 -0.37477717689163992 0.25299635056682518 0 -0.40367044579520373 0.24132688110038639 0 -0.41175872593851298 0.2549478601346914 0 -0.39384597734802013 0.25347135609337229 0 -0.39005547097156312 0.23272909589890109 0 -0.39384597734802013 0.25347135609337229 0 -0.39005547097156312 0.23272909589890109 0 -0.40367044579520373 0.24132688110038639 0 -0.39384597734802013 0.25347135609337229 0 -0.41485942150404181 0.14153864215909739 0 -0.41553858058260518 0.15317901213210369 0 -0.42574561826610652 0.14613969243370301 0 -0.41553858058260518 0.15317901213210369 0 -0.42574561826610652 0.14613969243370301 0 -0.42127399236650492 0.15770626544657529 0 -0.41485942150404181 0.14153864215909739 0 -0.41553858058260518 0.15317901213210369 0 -0.4044664398419977 0.15594807455379561 0 -0.40864304721671202 0.1107171055473533 0 -0.41485942150404181 0.14153864215909739 0 -0.43267942878230348 0.12559175737704789 0 -0.41485942150404181 0.14153864215909739 0 -0.43267942878230348 0.12559175737704789 0 -0.42574561826610652 0.14613969243370301 0 -0.43267942878230348 0.12559175737704789 0 -0.43700896048386301 0.14249666109927989 0 -0.42574561826610652 0.14613969243370301 0 -0.41485942150404181 0.14153864215909739 0 -0.43267942878230348 0.12559175737704789 0 -0.42574561826610652 0.14613969243370301 0 -0.43187713239064979 0.1573343508491826 0 -0.42127399236650492 0.15770626544657529 0 -0.43700896048386301 0.14249666109927989 0 -0.42574561826610652 0.14613969243370301 0 -0.43187713239064979 0.1573343508491826 0 -0.43187713239064979 0.1573343508491826 0 -0.42946357341586749 0.17496324995209989 0 -0.4216380035134229 0.16659483191912641 0 -0.44174290600336708 0.16173144065936321 0 -0.43187713239064979 0.1573343508491826 0 -0.42946357341586749 0.17496324995209989 0 -0.43187713239064979 0.1573343508491826 0 -0.42127399236650492 0.15770626544657529 0 -0.4216380035134229 0.16659483191912641 0 -0.44047241453070329 0.18324079402305421 0 -0.44174290600336708 0.16173144065936321 0 -0.42946357341586749 0.17496324995209989 0 -0.44047241453070329 0.18324079402305421 0 -0.42071240458675369 0.1920614743917832 0 -0.42946357341586749 0.17496324995209989 0 -0.42071240458675369 0.1920614743917832 0 -0.42946357341586749 0.17496324995209989 0 -0.41235879422937732 0.17543682721938669 0 -0.42071240458675369 0.1920614743917832 0 -0.41235879422937732 0.17543682721938669 0 -0.40298680868332198 0.18508216307238631 0 -0.42946357341586749 0.17496324995209989 0 -0.41235879422937732 0.17543682721938669 0 -0.4216380035134229 0.16659483191912641 0 -0.41553858058260518 0.15317901213210369 0 -0.42127399236650492 0.15770626544657529 0 -0.41302135350813218 0.1630654313638546 0 -0.42127399236650492 0.15770626544657529 0 -0.4216380035134229 0.16659483191912641 0 -0.41302135350813218 0.1630654313638546 0 -0.41235879422937732 0.17543682721938669 0 -0.4216380035134229 0.16659483191912641 0 -0.41302135350813218 0.1630654313638546 0 -0.41235879422937732 0.17543682721938669 0 -0.41302135350813218 0.1630654313638546 0 -0.40449990094882532 0.16792382984329149 0 -0.41302135350813218 0.1630654313638546 0 -0.40449990094882532 0.16792382984329149 0 -0.4044664398419977 0.15594807455379561 0 -0.41553858058260518 0.15317901213210369 0 -0.41302135350813218 0.1630654313638546 0 -0.4044664398419977 0.15594807455379561 0 -0.3926733654842145 0.1692345557408807 0 -0.4044664398419977 0.15594807455379561 0 -0.40449990094882532 0.16792382984329149 0 -0.3926733654842145 0.1692345557408807 0 -0.40078474618547688 0.17571320347163299 0 -0.40449990094882532 0.16792382984329149 0 -0.3926733654842145 0.1692345557408807 0 -0.4044664398419977 0.15594807455379561 0 -0.3926733654842145 0.1692345557408807 0 -0.39703941422577987 0.15748552694114659 0 -0.4044664398419977 0.15594807455379561 0 -0.40298680868332198 0.18508216307238631 0 -0.40078474618547688 0.17571320347163299 0 -0.39301525059178999 0.18044652774840561 0 -0.41235879422937732 0.17543682721938669 0 -0.40298680868332198 0.18508216307238631 0 -0.40078474618547688 0.17571320347163299 0 -0.41235879422937732 0.17543682721938669 0 -0.40449990094882532 0.16792382984329149 0 -0.40078474618547688 0.17571320347163299 0 -0.3926733654842145 0.1692345557408807 0 -0.40078474618547688 0.17571320347163299 0 -0.39301525059178999 0.18044652774840561 0 -0.39286614404695941 0.1920732104686422 0 -0.40298680868332198 0.18508216307238631 0 -0.39301525059178999 0.18044652774840561 0 -0.39286614404695941 0.1920732104686422 0 -0.39301525059178999 0.18044652774840561 0 -0.38088029112643113 0.1825210369279657 0 -0.3926733654842145 0.1692345557408807 0 -0.38088029112643113 0.1825210369279657 0 -0.3926733654842145 0.1692345557408807 0 -0.39301525059178999 0.18044652774840561 0 -0.38088029112643113 0.1825210369279657 0 -0.3926733654842145 0.1692345557408807 0 -0.37921940694751782 0.17343241172319571 0 -0.38088029112643113 0.1825210369279657 0 -0.37921940694751782 0.17343241172319571 0 -0.38088029112643113 0.1825210369279657 0 -0.37921940694751782 0.17343241172319571 0 -0.38088029112643113 0.1825210369279657 0 -0.37283571032282492 0.1791450959532255 0 -0.3784015845151173 0.16895715591276281 0 -0.37283571032282492 0.1791450959532255 0 -0.37921940694751782 0.17343241172319571 0 -0.3784015845151173 0.16895715591276281 0 -0.37283571032282492 0.1791450959532255 0 -0.37921940694751782 0.17343241172319571 0 -0.37283571032282492 0.1791450959532255 0 -0.39703941422577987 0.15748552694114659 0 -0.37921940694751782 0.17343241172319571 0 -0.38193020105096481 0.16249827228531991 0 -0.3784015845151173 0.16895715591276281 0 -0.38193020105096481 0.16249827228531991 0 -0.37372345991800282 0.14335770613522919 0 -0.39703941422577987 0.15748552694114659 0 -0.37921940694751782 0.17343241172319571 0 -0.3926733654842145 0.1692345557408807 0 -0.39703941422577987 0.15748552694114659 0 -0.37921940694751782 0.17343241172319571 0 -0.39703941422577987 0.15748552694114659 0 -0.38193020105096481 0.16249827228531991 0 -0.38598126975628672 0.1494316781992327 0 -0.37921940694751782 0.17343241172319571 0 -0.3784015845151173 0.16895715591276281 0 -0.38193020105096481 0.16249827228531991 0 -0.3784015845151173 0.16895715591276281 0 -0.38193020105096481 0.16249827228531991 0 -0.37921940694751782 0.17343241172319571 0 -0.3784015845151173 0.16895715591276281 0 -0.38598126975628672 0.1494316781992327 0 -0.39401402549175851 0.1361747599337243 0 -0.37372345991800282 0.14335770613522919 0 -0.38193020105096481 0.16249827228531991 0 -0.38598126975628672 0.1494316781992327 0 -0.37372345991800282 0.14335770613522919 0 -0.3784015845151173 0.16895715591276281 0 -0.37372345991800282 0.14335770613522919 0 -0.39703941422577987 0.15748552694114659 0 -0.38598126975628672 0.1494316781992327 0 -0.39401402549175851 0.1361747599337243 0 -0.41485942150404181 0.14153864215909739 0 -0.39703941422577987 0.15748552694114659 0 -0.39401402549175851 0.1361747599337243 0 -0.41485942150404181 0.14153864215909739 0 -0.39703941422577987 0.15748552694114659 0 -0.4044664398419977 0.15594807455379561 0 -0.41485942150404181 0.14153864215909739 0 -0.39703941422577987 0.15748552694114659 0 -0.40864304721671202 0.1107171055473533 0 -0.41485942150404181 0.14153864215909739 0 -0.39401402549175851 0.1361747599337243 0 -0.38750957741872682 0.11885909540365321 0 -0.37372345991800282 0.14335770613522919 0 -0.36904533532088801 0.1177582563576956 0 -0.38750957741872682 0.11885909540365321 0 -0.39401402549175851 0.1361747599337243 0 -0.37372345991800282 0.14335770613522919 0 -0.35823941519022368 0.13573745574644491 0 -0.37372345991800282 0.14335770613522919 0 -0.36904533532088801 0.1177582563576956 0 -0.37372345991800282 0.14335770613522919 0 -0.36904533532088801 0.1177582563576956 0 -0.35823941519022368 0.13573745574644491 0 -0.34455851703438989 0.13305210298766909 0 -0.35158166360451942 0.11704707172714621 0 -0.35823941519022368 0.13573745574644491 0 -0.34455851703438989 0.13305210298766909 0 -0.34873147585397152 0.15030858297792049 0 -0.35823941519022368 0.13573745574644491 0 -0.34873147585397152 0.15030858297792049 0 -0.36179603940957061 0.15290101429300901 0 -0.34873147585397152 0.15030858297792049 0 -0.34720568730415252 0.1616956217090188 0 -0.33647431770126862 0.14798842126345041 0 -0.34873147585397152 0.15030858297792049 0 -0.36179603940957061 0.15290101429300901 0 -0.35552330674067661 0.16014073544654131 0 -0.35823941519022368 0.13573745574644491 0 -0.36179603940957061 0.15290101429300901 0 -0.37372345991800282 0.14335770613522919 0 -0.3784015845151173 0.16895715591276281 0 -0.36179603940957061 0.15290101429300901 0 -0.37372345991800282 0.14335770613522919 0 -0.3784015845151173 0.16895715591276281 0 -0.36179603940957061 0.15290101429300901 0 -0.3628088848288224 0.16705289795690309 0 -0.3784015845151173 0.16895715591276281 0 -0.3628088848288224 0.16705289795690309 0 -0.36959790597703868 0.17377317275203899 0 -0.36179603940957061 0.15290101429300901 0 -0.3628088848288224 0.16705289795690309 0 -0.35552330674067661 0.16014073544654131 0 -0.38088029112643113 0.1825210369279657 0 -0.37283571032282492 0.1791450959532255 0 -0.36802074197771562 0.19700904511440151 0 -0.37283571032282492 0.1791450959532255 0 -0.36399845157591232 0.19532107462703119 0 -0.37283571032282492 0.1791450959532255 0 -0.36261880381503758 0.18828806813974089 0 -0.3784015845151173 0.16895715591276281 0 -0.36959790597703868 0.17377317275203899 0 -0.37283571032282492 0.1791450959532255 0 -0.36959790597703868 0.17377317275203899 0 -0.37283571032282492 0.1791450959532255 0 -0.36409588864576692 0.17933358541092431 0 -0.3628088848288224 0.16705289795690309 0 -0.36959790597703868 0.17377317275203899 0 -0.36409588864576692 0.17933358541092431 0 -0.3628088848288224 0.16705289795690309 0 -0.36409588864576692 0.17933358541092431 0 -0.35614161380151321 0.17761165346375071 0 -0.36409588864576692 0.17933358541092431 0 -0.35797279878738592 0.18411861580098379 0 -0.35614161380151321 0.17761165346375071 0 -0.36409588864576692 0.17933358541092431 0 -0.35797279878738592 0.18411861580098379 0 -0.36261880381503758 0.18828806813974089 0 -0.37283571032282492 0.1791450959532255 0 -0.36409588864576692 0.17933358541092431 0 -0.36261880381503758 0.18828806813974089 0 -0.35797279878738592 0.18411861580098379 0 -0.35614161380151321 0.17761165346375071 0 -0.35065229879255438 0.18593262723135329 0 -0.35797279878738592 0.18411861580098379 0 -0.35065229879255438 0.18593262723135329 0 -0.35645772166264922 0.19211102842263869 0 -0.35614161380151321 0.17761165346375071 0 -0.34811061985946878 0.17434540014992381 0 -0.35436851446084039 0.1683048517912053 0 -0.35614161380151321 0.17761165346375071 0 -0.34811061985946878 0.17434540014992381 0 -0.35065229879255438 0.18593262723135329 0 -0.35065229879255438 0.18593262723135329 0 -0.34227569468909552 0.1811403169530669 0 -0.33993633525554889 0.19055096072852831 0 -0.34811061985946878 0.17434540014992381 0 -0.35065229879255438 0.18593262723135329 0 -0.34227569468909552 0.1811403169530669 0 -0.35552330674067661 0.16014073544654131 0 -0.35436851446084039 0.1683048517912053 0 -0.34720568730415252 0.1616956217090188 0 -0.3628088848288224 0.16705289795690309 0 -0.35614161380151321 0.17761165346375071 0 -0.35436851446084039 0.1683048517912053 0 -0.3628088848288224 0.16705289795690309 0 -0.35552330674067661 0.16014073544654131 0 -0.35436851446084039 0.1683048517912053 0 -0.34811061985946878 0.17434540014992381 0 -0.34720568730415252 0.1616956217090188 0 -0.33801991010865667 0.17138732975114751 0 -0.34811061985946878 0.17434540014992381 0 -0.35436851446084039 0.1683048517912053 0 -0.34720568730415252 0.1616956217090188 0 -0.34873147585397152 0.15030858297792049 0 -0.35552330674067661 0.16014073544654131 0 -0.34720568730415252 0.1616956217090188 0 -0.34720568730415252 0.1616956217090188 0 -0.33801991010865667 0.17138732975114751 0 -0.33092539158612982 0.1609515407851054 0 -0.34720568730415252 0.1616956217090188 0 -0.33092539158612982 0.1609515407851054 0 -0.33647431770126862 0.14798842126345041 0 -0.33801991010865667 0.17138732975114751 0 -0.33092539158612982 0.1609515407851054 0 -0.3265778886375873 0.17202186172735501 0 -0.34227569468909552 0.1811403169530669 0 -0.33183788287013261 0.1831818366374682 0 -0.33993633525554889 0.19055096072852831 0 -0.34811061985946878 0.17434540014992381 0 -0.33801991010865667 0.17138732975114751 0 -0.34227569468909552 0.1811403169530669 0 -0.33801991010865667 0.17138732975114751 0 -0.34227569468909552 0.1811403169530669 0 -0.33183788287013261 0.1831818366374682 0 -0.33801991010865667 0.17138732975114751 0 -0.33183788287013261 0.1831818366374682 0 -0.3265778886375873 0.17202186172735501 0 -0.3265778886375873 0.17202186172735501 0 -0.31632076704925127 0.18575639557221951 0 -0.3167678101826048 0.16359462978275929 0 -0.33183788287013261 0.1831818366374682 0 -0.3265778886375873 0.17202186172735501 0 -0.31632076704925127 0.18575639557221951 0 -0.33092539158612982 0.1609515407851054 0 -0.3167678101826048 0.16359462978275929 0 -0.32050673558250908 0.1490213804769015 0 -0.33092539158612982 0.1609515407851054 0 -0.3265778886375873 0.17202186172735501 0 -0.3167678101826048 0.16359462978275929 0 -0.32050673558250908 0.1490213804769015 0 -0.30739524272803709 0.15185112365938391 0 -0.31211500736378339 0.1240031522641292 0 -0.3167678101826048 0.16359462978275929 0 -0.32050673558250908 0.1490213804769015 0 -0.30739524272803709 0.15185112365938391 0 -0.32050673558250908 0.1490213804769015 0 -0.30739524272803709 0.15185112365938391 0 -0.32919359534549508 0.13424827028365749 0 -0.31211500736378339 0.1240031522641292 0 -0.33231339904552459 0.1171762944261375 0 -0.32050673558250908 0.1490213804769015 0 -0.32919359534549508 0.13424827028365749 0 -0.31211500736378339 0.1240031522641292 0 -0.34455851703438989 0.13305210298766909 0 -0.32919359534549508 0.13424827028365749 0 -0.33231339904552459 0.1171762944261375 0 -0.34455851703438989 0.13305210298766909 0 -0.32919359534549508 0.13424827028365749 0 -0.33647431770126862 0.14798842126345041 0 -0.32050673558250908 0.1490213804769015 0 -0.32919359534549508 0.13424827028365749 0 -0.33647431770126862 0.14798842126345041 0 -0.33092539158612982 0.1609515407851054 0 -0.32050673558250908 0.1490213804769015 0 -0.33647431770126862 0.14798842126345041 0 -0.34455851703438989 0.13305210298766909 0 -0.34873147585397152 0.15030858297792049 0 -0.33647431770126862 0.14798842126345041 0 -0.35416421148584648 0.23888623464626721 0 -0.34843396418698602 0.22381077072877051 0 -0.33845336435013867 0.242079554605789 0 -0.35416421148584648 0.23888623464626721 0 -0.33845336435013867 0.242079554605789 0 -0.35464358931248319 0.25491115920099722 0 -0.37939186114838758 0.22424627805714001 0 -0.37013679196984273 0.23750613219799629 0 -0.37477717689163992 0.25299635056682518 0 -0.37013679196984273 0.23750613219799629 0 -0.35464358931248319 0.25491115920099722 0 -0.37477717689163992 0.25299635056682518 0 -0.35416421148584648 0.23888623464626721 0 -0.37013679196984273 0.23750613219799629 0 -0.35464358931248319 0.25491115920099722 0 -0.35416421148584648 0.23888623464626721 0 -0.37013679196984273 0.23750613219799629 0 -0.36148561266771267 0.2305011068434443 0 -0.36148561266771267 0.2305011068434443 0 -0.36975441169016687 0.228432664243616 0 -0.36800338097472479 0.22147713987588341 0 -0.37013679196984273 0.23750613219799629 0 -0.36148561266771267 0.2305011068434443 0 -0.36975441169016687 0.228432664243616 0 -0.37939186114838758 0.22424627805714001 0 -0.37013679196984273 0.23750613219799629 0 -0.36975441169016687 0.228432664243616 0 -0.37939186114838758 0.22424627805714001 0 -0.36975441169016687 0.228432664243616 0 -0.36800338097472479 0.22147713987588341 0 -0.36800338097472479 0.22147713987588341 0 -0.34843396418698602 0.22381077072877051 0 -0.35516119282899983 0.21149705330083701 0 -0.36148561266771267 0.2305011068434443 0 -0.36800338097472479 0.22147713987588341 0 -0.34843396418698602 0.22381077072877051 0 -0.36800338097472479 0.22147713987588341 0 -0.34843396418698602 0.22381077072877051 0 -0.35416421148584648 0.23888623464626721 0 -0.36148561266771267 0.2305011068434443 0 -0.34843396418698602 0.22381077072877051 0 -0.34843396418698602 0.22381077072877051 0 -0.34802604401402371 0.21953575615482759 0 -0.33982416592956399 0.21665757569738961 0 -0.34802604401402371 0.21953575615482759 0 -0.34581283434165899 0.20861347152532789 0 -0.33982416592956399 0.21665757569738961 0 -0.34802604401402371 0.21953575615482759 0 -0.34581283434165899 0.20861347152532789 0 -0.35516119282899983 0.21149705330083701 0 -0.34843396418698602 0.22381077072877051 0 -0.34802604401402371 0.21953575615482759 0 -0.35516119282899983 0.21149705330083701 0 -0.34581283434165899 0.20861347152532789 0 -0.35516119282899983 0.21149705330083701 0 -0.35389383475621161 0.20092716755479181 0 -0.34802604401402371 0.21953575615482759 0 -0.35516119282899983 0.21149705330083701 0 -0.34843396418698602 0.22381077072877051 0 -0.35516119282899983 0.21149705330083701 0 -0.36800338097472479 0.22147713987588341 0 -0.35516119282899983 0.21149705330083701 0 -0.37368745339656201 0.20924711939208951 0 -0.35516119282899983 0.21149705330083701 0 -0.37368745339656201 0.20924711939208951 0 -0.36802074197771562 0.19700904511440151 0 -0.35516119282899983 0.21149705330083701 0 -0.36399845157591232 0.19532107462703119 0 -0.35516119282899983 0.21149705330083701 0 -0.36802074197771562 0.19700904511440151 0 -0.37283571032282492 0.1791450959532255 0 -0.36399845157591232 0.19532107462703119 0 -0.36261880381503758 0.18828806813974089 0 -0.37283571032282492 0.1791450959532255 0 -0.36399845157591232 0.19532107462703119 0 -0.36802074197771562 0.19700904511440151 0 -0.35516119282899983 0.21149705330083701 0 -0.36399845157591232 0.19532107462703119 0 -0.36802074197771562 0.19700904511440151 0 -0.38088029112643113 0.1825210369279657 0 -0.36802074197771562 0.19700904511440151 0 -0.36399845157591232 0.19532107462703119 0 -0.36261880381503758 0.18828806813974089 0 -0.35645772166264922 0.19211102842263869 0 -0.35797279878738592 0.18411861580098379 0 -0.36261880381503758 0.18828806813974089 0 -0.35645772166264922 0.19211102842263869 0 -0.35065229879255438 0.18593262723135329 0 -0.35645772166264922 0.19211102842263869 0 -0.34803897337183792 0.19709320989812409 0 -0.35516119282899983 0.21149705330083701 0 -0.36399845157591232 0.19532107462703119 0 -0.35389383475621161 0.20092716755479181 0 -0.35645772166264922 0.19211102842263869 0 -0.35389383475621161 0.20092716755479181 0 -0.34803897337183792 0.19709320989812409 0 -0.36399845157591232 0.19532107462703119 0 -0.35645772166264922 0.19211102842263869 0 -0.35389383475621161 0.20092716755479181 0 -0.34581283434165899 0.20861347152532789 0 -0.35389383475621161 0.20092716755479181 0 -0.34803897337183792 0.19709320989812409 0 -0.34581283434165899 0.20861347152532789 0 -0.34803897337183792 0.19709320989812409 0 -0.33933674095816863 0.19971543786353729 0 -0.35065229879255438 0.18593262723135329 0 -0.34803897337183792 0.19709320989812409 0 -0.33993633525554889 0.19055096072852831 0 -0.33993633525554889 0.19055096072852831 0 -0.33933674095816863 0.19971543786353729 0 -0.33069942903629101 0.19625725860753851 0 -0.34803897337183792 0.19709320989812409 0 -0.33993633525554889 0.19055096072852831 0 -0.33933674095816863 0.19971543786353729 0 -0.33933674095816863 0.19971543786353729 0 -0.33069942903629101 0.19625725860753851 0 -0.33422481296465362 0.2080963853910347 0 -0.33183788287013261 0.1831818366374682 0 -0.33993633525554889 0.19055096072852831 0 -0.33069942903629101 0.19625725860753851 0 -0.31632076704925127 0.18575639557221951 0 -0.33069942903629101 0.19625725860753851 0 -0.32036655352850157 0.2095523693350691 0 -0.33183788287013261 0.1831818366374682 0 -0.31632076704925127 0.18575639557221951 0 -0.33069942903629101 0.19625725860753851 0 -0.32036655352850157 0.2095523693350691 0 -0.32458589997660492 0.2266546254550818 0 -0.30779163400160159 0.21927945841494459 0 -0.32036655352850157 0.2095523693350691 0 -0.32934906837639222 0.21536895119528529 0 -0.32458589997660492 0.2266546254550818 0 -0.32036655352850157 0.2095523693350691 0 -0.32934906837639222 0.21536895119528529 0 -0.33422481296465362 0.2080963853910347 0 -0.32934906837639222 0.21536895119528529 0 -0.33422481296465362 0.2080963853910347 0 -0.33982416592956399 0.21665757569738961 0 -0.33069942903629101 0.19625725860753851 0 -0.32036655352850157 0.2095523693350691 0 -0.33422481296465362 0.2080963853910347 0 -0.34581283434165899 0.20861347152532789 0 -0.33933674095816863 0.19971543786353729 0 -0.33422481296465362 0.2080963853910347 0 -0.34581283434165899 0.20861347152532789 0 -0.33422481296465362 0.2080963853910347 0 -0.33982416592956399 0.21665757569738961 0 -0.34843396418698602 0.22381077072877051 0 -0.33982416592956399 0.21665757569738961 0 -0.32458589997660492 0.2266546254550818 0 -0.34843396418698602 0.22381077072877051 0 -0.32458589997660492 0.2266546254550818 0 -0.34843396418698602 0.22381077072877051 0 -0.32458589997660492 0.2266546254550818 0 -0.33845336435013867 0.242079554605789 0 -0.34843396418698602 0.22381077072877051 0 -0.33845336435013867 0.242079554605789 0 -0.32934906837639222 0.21536895119528529 0 -0.33982416592956399 0.21665757569738961 0 -0.32458589997660492 0.2266546254550818 0 -0.32458589997660492 0.2266546254550818 0 -0.30073783576622393 0.22949848018139329 0 -0.32458589997660492 0.2266546254550818 0 -0.32455092720978362 0.24357057421839101 0 -0.31122576982003303 0.23714335435801151 0 -0.32455092720978362 0.24357057421839101 0 -0.311575650220281 0.24878047680599949 0 -0.31122576982003303 0.23714335435801151 0 -0.32458589997660492 0.2266546254550818 0 -0.32455092720978362 0.24357057421839101 0 -0.33845336435013867 0.242079554605789 0 -0.32455092720978362 0.24357057421839101 0 -0.33845336435013867 0.242079554605789 0 -0.32847276451329022 0.26034833848280681 0 -0.29310990672191722 0.23613872254877591 0 -0.29467853592727078 0.23721261512919359 0 -0.28985028671148488 0.25537141990030859 0 -0.29310990672191722 0.23613872254877591 0 -0.27131573767068418 0.22826101281380451 0 -0.28058301219108422 0.24181621635705669 0 -0.29310990672191722 0.23613872254877591 0 -0.28985028671148488 0.25537141990030859 0 -0.29310990672191722 0.23613872254877591 0 -0.28058301219108422 0.24181621635705669 0 -0.28985028671148488 0.25537141990030859 0 -0.28058301219108422 0.24181621635705669 0 -0.28985028671148488 0.25537141990030859 0 -0.29310990672191722 0.23613872254877591 0 -0.29467853592727078 0.23721261512919359 0 -0.29467853592727078 0.23721261512919359 0 -0.31122576982003303 0.23714335435801151 0 -0.30073783576622393 0.22949848018139329 0 -0.29467853592727078 0.23721261512919359 0 -0.311575650220281 0.24878047680599949 0 -0.31122576982003303 0.23714335435801151 0 -0.29467853592727078 0.23721261512919359 0 -0.311575650220281 0.24878047680599949 0 -0.29467853592727078 0.23721261512919359 0 -0.311575650220281 0.24878047680599949 0 -0.29523766041035199 0.26325150879709891 0 -0.32458589997660492 0.2266546254550818 0 -0.30073783576622393 0.22949848018139329 0 -0.30779163400160159 0.21927945841494459 0 -0.32458589997660492 0.2266546254550818 0 -0.31122576982003303 0.23714335435801151 0 -0.30073783576622393 0.22949848018139329 0 -0.30073783576622393 0.22949848018139329 0 -0.30779163400160159 0.21927945841494459 0 -0.29448167989639912 0.22804486553003031 0 -0.29310990672191722 0.23613872254877591 0 -0.29448167989639912 0.22804486553003031 0 -0.27369133376421262 0.22284465576077489 0 -0.29448167989639912 0.22804486553003031 0 -0.2838712618875629 0.21479465795795599 0 -0.27369133376421262 0.22284465576077489 0 -0.29448167989639912 0.22804486553003031 0 -0.29413635243235581 0.21196267741475219 0 -0.29310990672191722 0.23613872254877591 0 -0.27369133376421262 0.22284465576077489 0 -0.29467853592727078 0.23721261512919359 0 -0.30073783576622393 0.22949848018139329 0 -0.29448167989639912 0.22804486553003031 0 -0.29310990672191722 0.23613872254877591 0 -0.29467853592727078 0.23721261512919359 0 -0.29448167989639912 0.22804486553003031 0 -0.29467853592727078 0.23721261512919359 0 -0.29448167989639912 0.22804486553003031 0 -0.29310990672191722 0.23613872254877591 0 -0.29448167989639912 0.22804486553003031 0 -0.29413635243235581 0.21196267741475219 0 -0.29878620084027852 0.20264695157314819 0 -0.29379102496831272 0.19588048929947419 0 -0.29448167989639912 0.22804486553003031 0 -0.29413635243235581 0.21196267741475219 0 -0.29878620084027852 0.20264695157314819 0 -0.29448167989639912 0.22804486553003031 0 -0.29878620084027852 0.20264695157314819 0 -0.29413635243235581 0.21196267741475219 0 -0.29379102496831272 0.19588048929947419 0 -0.28522308967114912 0.20452327137286261 0 -0.29413635243235581 0.21196267741475219 0 -0.29379102496831272 0.19588048929947419 0 -0.29448167989639912 0.22804486553003031 0 -0.2838712618875629 0.21479465795795599 0 -0.29413635243235581 0.21196267741475219 0 -0.2838712618875629 0.21479465795795599 0 -0.28522308967114912 0.20452327137286261 0 -0.29413635243235581 0.21196267741475219 0 -0.32036655352850157 0.2095523693350691 0 -0.30779163400160159 0.21927945841494459 0 -0.29878620084027852 0.20264695157314819 0 -0.30779163400160159 0.21927945841494459 0 -0.29448167989639912 0.22804486553003031 0 -0.29878620084027852 0.20264695157314819 0 -0.29878620084027852 0.20264695157314819 0 -0.29379102496831272 0.19588048929947419 0 -0.30309072178415769 0.17724903761626601 0 -0.31632076704925127 0.18575639557221951 0 -0.29878620084027852 0.20264695157314819 0 -0.30309072178415769 0.17724903761626601 0 -0.31632076704925127 0.18575639557221951 0 -0.32036655352850157 0.2095523693350691 0 -0.29878620084027852 0.20264695157314819 0 -0.29878620084027852 0.20264695157314819 0 -0.30309072178415769 0.17724903761626601 0 -0.28522308967114912 0.20452327137286261 0 -0.29379102496831272 0.19588048929947419 0 -0.28124953787461371 0.1935735916895788 0 -0.29379102496831272 0.19588048929947419 0 -0.28124953787461371 0.1935735916895788 0 -0.28752446549241689 0.1832489647230989 0 -0.28124953787461371 0.1935735916895788 0 -0.2659766044530758 0.19238405035351089 0 -0.27494974420821611 0.1793112011395637 0 -0.28522308967114912 0.20452327137286261 0 -0.28124953787461371 0.1935735916895788 0 -0.27431068871210279 0.20621206129374381 0 -0.28124953787461371 0.1935735916895788 0 -0.2659766044530758 0.19238405035351089 0 -0.27431068871210279 0.20621206129374381 0 -0.25427276080650663 0.20955058897277601 0 -0.24947341468037071 0.1874691479585941 0 -0.2659766044530758 0.19238405035351089 0 -0.25427276080650663 0.20955058897277601 0 -0.24947341468037071 0.1874691479585941 0 -0.2659766044530758 0.19238405035351089 0 -0.25427276080650663 0.20955058897277601 0 -0.27431068871210279 0.20621206129374381 0 -0.25427276080650663 0.20955058897277601 0 -0.27369133376421262 0.22284465576077489 0 -0.25427276080650663 0.20955058897277601 0 -0.25977281016601761 0.2185578892770178 0 -0.27369133376421262 0.22284465576077489 0 -0.25427276080650663 0.20955058897277601 0 -0.25561524088587501 0.21572724177218369 0 -0.25977281016601761 0.2185578892770178 0 -0.25427276080650663 0.20955058897277601 0 -0.25561524088587501 0.21572724177218369 0 -0.24333230173327219 0.21221501244476959 0 -0.25427276080650663 0.20955058897277601 0 -0.25561524088587501 0.21572724177218369 0 -0.25427276080650663 0.20955058897277601 0 -0.27431068871210279 0.20621206129374381 0 -0.27369133376421262 0.22284465576077489 0 -0.2838712618875629 0.21479465795795599 0 -0.27431068871210279 0.20621206129374381 0 -0.27369133376421262 0.22284465576077489 0 -0.2838712618875629 0.21479465795795599 0 -0.28522308967114912 0.20452327137286261 0 -0.27431068871210279 0.20621206129374381 0 -0.29310990672191722 0.23613872254877591 0 -0.27369133376421262 0.22284465576077489 0 -0.27131573767068418 0.22826101281380451 0 -0.27131573767068418 0.22826101281380451 0 -0.26439065681250729 0.2289784260688752 0 -0.26819560602517328 0.23507842756581021 0 -0.27131573767068418 0.22826101281380451 0 -0.26675876456119929 0.22568570462696191 0 -0.26439065681250729 0.2289784260688752 0 -0.27369133376421262 0.22284465576077489 0 -0.26675876456119929 0.22568570462696191 0 -0.26371349664181459 0.22286429712754721 0 -0.25977281016601761 0.2185578892770178 0 -0.27369133376421262 0.22284465576077489 0 -0.26371349664181459 0.22286429712754721 0 -0.27369133376421262 0.22284465576077489 0 -0.27131573767068418 0.22826101281380451 0 -0.26675876456119929 0.22568570462696191 0 -0.26675876456119929 0.22568570462696191 0 -0.26371349664181459 0.22286429712754721 0 -0.26068259791677789 0.22548013136380779 0 -0.26068259791677789 0.22548013136380779 0 -0.25678634991227811 0.22260498734460241 0 -0.2574101570832959 0.22971939663687391 0 -0.26371349664181459 0.22286429712754721 0 -0.26068259791677789 0.22548013136380779 0 -0.25678634991227811 0.22260498734460241 0 -0.25977281016601761 0.2185578892770178 0 -0.26371349664181459 0.22286429712754721 0 -0.25678634991227811 0.22260498734460241 0 -0.25561524088587501 0.21572724177218369 0 -0.25977281016601761 0.2185578892770178 0 -0.25678634991227811 0.22260498734460241 0 -0.25678634991227811 0.22260498734460241 0 -0.249817319625419 0.2274340479663062 0 -0.24904636230289101 0.22050689045355901 0 -0.25561524088587501 0.21572724177218369 0 -0.25678634991227811 0.22260498734460241 0 -0.24904636230289101 0.22050689045355901 0 -0.25109603964961891 0.234366577265785 0 -0.2574101570832959 0.22971939663687391 0 -0.249817319625419 0.2274340479663062 0 -0.25678634991227811 0.22260498734460241 0 -0.2574101570832959 0.22971939663687391 0 -0.249817319625419 0.2274340479663062 0 -0.2574101570832959 0.22971939663687391 0 -0.26439065681250729 0.2289784260688752 0 -0.26193406046231932 0.2344272911270443 0 -0.26068259791677789 0.22548013136380779 0 -0.2574101570832959 0.22971939663687391 0 -0.26439065681250729 0.2289784260688752 0 -0.26675876456119929 0.22568570462696191 0 -0.26068259791677789 0.22548013136380779 0 -0.26439065681250729 0.2289784260688752 0 -0.26439065681250729 0.2289784260688752 0 -0.26193406046231932 0.2344272911270443 0 -0.26819560602517328 0.23507842756581021 0 -0.26193406046231932 0.2344272911270443 0 -0.26614348890836192 0.24293385421211869 0 -0.26819560602517328 0.23507842756581021 0 -0.2574101570832959 0.22971939663687391 0 -0.26193406046231932 0.2344272911270443 0 -0.25699538715464082 0.23905233796863981 0 -0.26193406046231932 0.2344272911270443 0 -0.25699538715464082 0.23905233796863981 0 -0.26614348890836192 0.24293385421211869 0 -0.25109603964961891 0.234366577265785 0 -0.25699538715464082 0.23905233796863981 0 -0.2470081454867771 0.2422065880623451 0 -0.25109603964961891 0.234366577265785 0 -0.2574101570832959 0.22971939663687391 0 -0.25699538715464082 0.23905233796863981 0 -0.25699538715464082 0.23905233796863981 0 -0.25693865295534157 0.25278860643768353 0 -0.2470081454867771 0.2422065880623451 0 -0.25699538715464082 0.23905233796863981 0 -0.26614348890836192 0.24293385421211869 0 -0.25693865295534157 0.25278860643768353 0 -0.26614348890836192 0.24293385421211869 0 -0.2724296921133022 0.25217156250687062 0 -0.25693865295534157 0.25278860643768353 0 -0.26614348890836192 0.24293385421211869 0 -0.28058301219108422 0.24181621635705669 0 -0.2724296921133022 0.25217156250687062 0 -0.28058301219108422 0.24181621635705669 0 -0.28985028671148488 0.25537141990030859 0 -0.2724296921133022 0.25217156250687062 0 -0.26614348890836192 0.24293385421211869 0 -0.26819560602517328 0.23507842756581021 0 -0.28058301219108422 0.24181621635705669 0 -0.27131573767068418 0.22826101281380451 0 -0.26819560602517328 0.23507842756581021 0 -0.28058301219108422 0.24181621635705669 0 -0.27131573767068418 0.22826101281380451 0 -0.28058301219108422 0.24181621635705669 0 -0.29326612220823411 0.13512644163735801 0 -0.28648818467010168 0.15636331808772699 0 -0.27141175194646833 0.1445184244171912 0 -0.29326612220823411 0.13512644163735801 0 -0.30739524272803709 0.15185112365938391 0 -0.28648818467010168 0.15636331808772699 0 -0.30739524272803709 0.15185112365938391 0 -0.31211500736378339 0.1240031522641292 0 -0.29326612220823411 0.13512644163735801 0 -0.30739524272803709 0.15185112365938391 0 -0.31211500736378339 0.1240031522641292 0 -0.30739524272803709 0.15185112365938391 0 -0.28648818467010168 0.15636331808772699 0 -0.30739524272803709 0.15185112365938391 0 -0.30309072178415769 0.17724903761626601 0 -0.3167678101826048 0.16359462978275929 0 -0.30739524272803709 0.15185112365938391 0 -0.30309072178415769 0.17724903761626601 0 -0.30739524272803709 0.15185112365938391 0 -0.30309072178415769 0.17724903761626601 0 -0.28648818467010168 0.15636331808772699 0 -0.31632076704925127 0.18575639557221951 0 -0.3167678101826048 0.16359462978275929 0 -0.30309072178415769 0.17724903761626601 0 -0.30309072178415769 0.17724903761626601 0 -0.28752446549241689 0.1832489647230989 0 -0.28381669143151822 0.17107272026056419 0 -0.29379102496831272 0.19588048929947419 0 -0.30309072178415769 0.17724903761626601 0 -0.28752446549241689 0.1832489647230989 0 -0.28752446549241689 0.1832489647230989 0 -0.28381669143151822 0.17107272026056419 0 -0.27494974420821611 0.1793112011395637 0 -0.30309072178415769 0.17724903761626601 0 -0.28648818467010168 0.15636331808772699 0 -0.28381669143151822 0.17107272026056419 0 -0.28648818467010168 0.15636331808772699 0 -0.28381669143151822 0.17107272026056419 0 -0.26558112661216632 0.16087551251606999 0 -0.28381669143151822 0.17107272026056419 0 -0.27494974420821611 0.1793112011395637 0 -0.26558112661216632 0.16087551251606999 0 -0.28648818467010168 0.15636331808772699 0 -0.26558112661216632 0.16087551251606999 0 -0.27494974420821611 0.1793112011395637 0 -0.26084394980388648 0.17618123618614701 0 -0.26558112661216632 0.16087551251606999 0 -0.2659766044530758 0.19238405035351089 0 -0.27494974420821611 0.1793112011395637 0 -0.26084394980388648 0.17618123618614701 0 -0.28124953787461371 0.1935735916895788 0 -0.28752446549241689 0.1832489647230989 0 -0.27494974420821611 0.1793112011395637 0 -0.2659766044530758 0.19238405035351089 0 -0.26084394980388648 0.17618123618614701 0 -0.24947341468037071 0.1874691479585941 0 -0.26084394980388648 0.17618123618614701 0 -0.24467406855423091 0.1653877069444131 0 -0.24947341468037071 0.1874691479585941 0 -0.26558112661216632 0.16087551251606999 0 -0.24467406855423091 0.1653877069444131 0 -0.26558112661216632 0.16087551251606999 0 -0.2543915534089356 0.15018751405662761 0 -0.24467406855423091 0.1653877069444131 0 -0.26084394980388648 0.17618123618614701 0 -0.26558112661216632 0.16087551251606999 0 -0.24467406855423091 0.1653877069444131 0 -0.26558112661216632 0.16087551251606999 0 -0.2543915534089356 0.15018751405662761 0 -0.27141175194646833 0.1445184244171912 0 -0.2543915534089356 0.15018751405662761 0 -0.27141175194646833 0.1445184244171912 0 -0.25477231595188199 0.13792181725732239 0 -0.28648818467010168 0.15636331808772699 0 -0.26558112661216632 0.16087551251606999 0 -0.27141175194646833 0.1445184244171912 0 -0.29326612220823411 0.13512644163735801 0 -0.27141175194646833 0.1445184244171912 0 -0.27545980130109921 0.1239996051278405 0 -0.27141175194646833 0.1445184244171912 0 -0.25477231595188199 0.13792181725732239 0 -0.27545980130109921 0.1239996051278405 0 -0.25477231595188199 0.13792181725732239 0 -0.27545980130109921 0.1239996051278405 0 -0.25477231595188199 0.13792181725732239 0 -0.27545980130109921 0.1239996051278405 0 -0.2495823492922267 0.12121763785839371 0 -0.25610310449345419 0.1041046972302731 0 -0.27545980130109921 0.1239996051278405 0 -0.2495823492922267 0.12121763785839371 0 -0.25610310449345419 0.1041046972302731 0 -0.25413031243694739 0.089521027236778197 0 -0.2427234934652894 0.090762762990284518 0 -0.25610310449345419 0.1041046972302731 0 -0.26471001572300679 0.091779207982481292 0 -0.25413031243694739 0.089521027236778197 0 -0.25610310449345419 0.1041046972302731 0 -0.27632390472144541 0.10600366135062909 0 -0.26471001572300679 0.091779207982481292 0 -0.27632390472144541 0.10600366135062909 0 -0.27815219556391091 0.091433986845849968 0 -0.26471001572300679 0.091779207982481292 0 -0.27632390472144541 0.10600366135062909 0 -0.28783094919658059 0.096999283795453681 0 -0.27815219556391091 0.091433986845849968 0 -0.25610310449345419 0.1041046972302731 0 -0.27632390472144541 0.10600366135062909 0 -0.27545980130109921 0.1239996051278405 0 -0.27545980130109921 0.1239996051278405 0 -0.29614728665031642 0.1100773929983587 0 -0.29326612220823411 0.13512644163735801 0 -0.27545980130109921 0.1239996051278405 0 -0.29614728665031642 0.1100773929983587 0 -0.27632390472144541 0.10600366135062909 0 -0.27545980130109921 0.1239996051278405 0 -0.29614728665031642 0.1100773929983587 0 -0.27632390472144541 0.10600366135062909 0 -0.29614728665031642 0.1100773929983587 0 -0.28783094919658059 0.096999283795453681 0 -0.29614728665031642 0.1100773929983587 0 -0.28783094919658059 0.096999283795453681 0 -0.29903425758953422 0.090155638130954882 0 -0.29614728665031642 0.1100773929983587 0 -0.29903425758953422 0.090155638130954882 0 -0.31683477199953253 0.096155180868875256 0 -0.29614728665031642 0.1100773929983587 0 -0.31683477199953253 0.096155180868875256 0 -0.29614728665031642 0.1100773929983587 0 -0.31211500736378339 0.1240031522641292 0 -0.31683477199953253 0.096155180868875256 0 -0.29326612220823411 0.13512644163735801 0 -0.29614728665031642 0.1100773929983587 0 -0.31211500736378339 0.1240031522641292 0 -0.30635830999651792 0.07761242167179265 0 -0.30189037325813839 0.060543452134012458 0 -0.32146679815367007 0.068824891797761426 0 -0.30635830999651792 0.07761242167179265 0 -0.29256534898171721 0.072382945427359638 0 -0.30189037325813839 0.060543452134012458 0 -0.30635830999651792 0.07761242167179265 0 -0.29903425758953422 0.090155638130954882 0 -0.29256534898171721 0.072382945427359638 0 -0.30635830999651792 0.07761242167179265 0 -0.29903425758953422 0.090155638130954882 0 -0.31683477199953253 0.096155180868875256 0 -0.29903425758953422 0.090155638130954882 0 -0.28572263353681682 0.08337299634339973 0 -0.29256534898171721 0.072382945427359638 0 -0.28783094919658059 0.096999283795453681 0 -0.29903425758953422 0.090155638130954882 0 -0.28572263353681682 0.08337299634339973 0 -0.28783094919658059 0.096999283795453681 0 -0.28572263353681682 0.08337299634339973 0 -0.27815219556391091 0.091433986845849968 0 -0.28572263353681682 0.08337299634339973 0 -0.29256534898171721 0.072382945427359638 0 -0.28059357561043269 0.073644623599786935 0 -0.29256534898171721 0.072382945427359638 0 -0.29088471103165969 0.062671374321780771 0 -0.30189037325813839 0.060543452134012458 0 -0.29256534898171721 0.072382945427359638 0 -0.29088471103165969 0.062671374321780771 0 -0.28261649390190829 0.064291953838756216 0 -0.29256534898171721 0.072382945427359638 0 -0.28261649390190829 0.064291953838756216 0 -0.28059357561043269 0.073644623599786935 0 -0.28261649390190829 0.064291953838756216 0 -0.27678196032587499 0.069585006034529676 0 -0.27195195811963518 0.06635492754641531 0 -0.26855373331756138 0.063547936276670339 0 -0.27195195811963518 0.06635492754641531 0 -0.25743728825439521 0.07924270920583569 0 -0.28261649390190829 0.064291953838756216 0 -0.27678196032587499 0.069585006034529676 0 -0.28059357561043269 0.073644623599786935 0 -0.27678196032587499 0.069585006034529676 0 -0.27196581367152378 0.074048519153160283 0 -0.27195195811963518 0.06635492754641531 0 -0.27678196032587499 0.069585006034529676 0 -0.28059357561043269 0.073644623599786935 0 -0.27196581367152378 0.074048519153160283 0 -0.28059357561043269 0.073644623599786935 0 -0.27196581367152378 0.074048519153160283 0 -0.27303575277029413 0.081855029780232597 0 -0.27196581367152378 0.074048519153160283 0 -0.27195195811963518 0.06635492754641531 0 -0.25743728825439521 0.07924270920583569 0 -0.28572263353681682 0.08337299634339973 0 -0.27815219556391091 0.091433986845849968 0 -0.27303575277029413 0.081855029780232597 0 -0.28572263353681682 0.08337299634339973 0 -0.28059357561043269 0.073644623599786935 0 -0.27303575277029413 0.081855029780232597 0 -0.27196581367152378 0.074048519153160283 0 -0.27303575277029413 0.081855029780232597 0 -0.25743728825439521 0.07924270920583569 0 -0.27815219556391091 0.091433986845849968 0 -0.27303575277029413 0.081855029780232597 0 -0.26471001572300679 0.091779207982481292 0 -0.26471001572300679 0.091779207982481292 0 -0.25743728825439521 0.07924270920583569 0 -0.25413031243694739 0.089521027236778197 0 -0.27303575277029413 0.081855029780232597 0 -0.26471001572300679 0.091779207982481292 0 -0.25743728825439521 0.07924270920583569 0 -0.25743728825439521 0.07924270920583569 0 -0.25064083865024739 0.073628726666345984 0 -0.24857020570659841 0.081659589420377987 0 -0.25743728825439521 0.07924270920583569 0 -0.25413031243694739 0.089521027236778197 0 -0.24857020570659841 0.081659589420377987 0 -0.26855373331756138 0.063547936276670339 0 -0.25743728825439521 0.07924270920583569 0 -0.25064083865024739 0.073628726666345984 0 -0.26855373331756138 0.063547936276670339 0 -0.25064083865024739 0.073628726666345984 0 -0.2562734301216873 0.062061687155910393 0 -0.26855373331756138 0.063547936276670339 0 -0.25064083865024739 0.073628726666345984 0 -0.27195195811963518 0.06635492754641531 0 -0.25743728825439521 0.07924270920583569 0 -0.25064083865024739 0.073628726666345984 0 -0.2562734301216873 0.062061687155910393 0 -0.24829977196364941 0.065213336215906109 0 -0.2623477931936597 0.053657636987073307 0 -0.25116276906762952 0.054241108780248931 0 -0.26153642505613889 0.036367366133998442 0 -0.2562734301216873 0.062061687155910393 0 -0.2623477931936597 0.053657636987073307 0 -0.25116276906762952 0.054241108780248931 0 -0.2562734301216873 0.062061687155910393 0 -0.25116276906762952 0.054241108780248931 0 -0.24829977196364941 0.065213336215906109 0 -0.26855373331756138 0.063547936276670339 0 -0.2562734301216873 0.062061687155910393 0 -0.2623477931936597 0.053657636987073307 0 -0.25116276906762952 0.054241108780248931 0 -0.26153642505613889 0.036367366133998442 0 -0.239388393447095 0.04766651035075449 0 -0.2623477931936597 0.053657636987073307 0 -0.26153642505613889 0.036367366133998442 0 -0.27323710809808138 0.049716314049096537 0 -0.26153642505613889 0.036367366133998442 0 -0.28732673365434691 0.040933413293477772 0 -0.26153642505613889 0.036367366133998442 0 -0.2825074511423824 0.030310297232740709 0 -0.28732673365434691 0.040933413293477772 0 -0.26153642505613889 0.036367366133998442 0 -0.27323710809808138 0.049716314049096537 0 -0.28732673365434691 0.040933413293477772 0 -0.26855373331756138 0.063547936276670339 0 -0.27195195811963518 0.06635492754641531 0 -0.28646662798487532 0.053467145886994819 0 -0.26855373331756138 0.063547936276670339 0 -0.28646662798487532 0.053467145886994819 0 -0.26855373331756138 0.063547936276670339 0 -0.27323710809808138 0.049716314049096537 0 -0.28646662798487532 0.053467145886994819 0 -0.27195195811963518 0.06635492754641531 0 -0.28646662798487532 0.053467145886994819 0 -0.28261649390190829 0.064291953838756216 0 -0.27195195811963518 0.06635492754641531 0 -0.28646662798487532 0.053467145886994819 0 -0.26855373331756138 0.063547936276670339 0 -0.2623477931936597 0.053657636987073307 0 -0.27323710809808138 0.049716314049096537 0 -0.26176261374782622 0.0098260211376069873 0 -0.24854849079604721 0.020569936005881421 0 -0.24598119983726671 0.0037338506766126851 0 -0.26003022337954462 -0.0038093911555793728 0 -0.26176261374782622 0.0098260211376069873 0 -0.24598119983726671 0.0037338506766126851 0 -0.26003022337954462 -0.0038093911555793728 0 -0.27433688946420332 -0.0007833753365484626 0 -0.26176261374782622 0.0098260211376069873 0 -0.26153642505613889 0.036367366133998442 0 -0.26176261374782622 0.0098260211376069873 0 -0.24854849079604721 0.020569936005881421 0 -0.26153642505613889 0.036367366133998442 0 -0.26176261374782622 0.0098260211376069873 0 -0.27684491432135683 0.017453585025194441 0 -0.26153642505613889 0.036367366133998442 0 -0.27684491432135683 0.017453585025194441 0 -0.2825074511423824 0.030310297232740709 0 -0.27433688946420332 -0.0007833753365484626 0 -0.26176261374782622 0.0098260211376069873 0 -0.27684491432135683 0.017453585025194441 0 -0.27433688946420332 -0.0007833753365484626 0 -0.27684491432135683 0.017453585025194441 0 -0.28842838408131971 0.0076205693905790281 0 -0.28842838408131971 0.0076205693905790281 0 -0.29131927560690712 0.022062190579302341 0 -0.29989828236451899 0.011495108916467369 0 -0.27684491432135683 0.017453585025194441 0 -0.29131927560690712 0.022062190579302341 0 -0.2825074511423824 0.030310297232740709 0 -0.27684491432135683 0.017453585025194441 0 -0.28842838408131971 0.0076205693905790281 0 -0.29131927560690712 0.022062190579302341 0 -0.29131927560690712 0.022062190579302341 0 -0.2825074511423824 0.030310297232740709 0 -0.29550990707316249 0.034734931131730561 0 -0.29131927560690712 0.022062190579302341 0 -0.30587597075389272 0.02137954460474218 0 -0.29550990707316249 0.034734931131730561 0 -0.30587597075389272 0.02137954460474218 0 -0.29550990707316249 0.034734931131730561 0 -0.30859873922341308 0.03381572977126493 0 -0.29131927560690712 0.022062190579302341 0 -0.30587597075389272 0.02137954460474218 0 -0.29989828236451899 0.011495108916467369 0 -0.3025805037907468 -0.0027432771802810229 0 -0.3204068892458079 -0.0014125807301150939 0 -0.31128727758972891 0.0091565171879943417 0 -0.30587597075389272 0.02137954460474218 0 -0.29989828236451899 0.011495108916467369 0 -0.31128727758972891 0.0091565171879943417 0 -0.3025805037907468 -0.0027432771802810229 0 -0.29989828236451899 0.011495108916467369 0 -0.31128727758972891 0.0091565171879943417 0 -0.3025805037907468 -0.0027432771802810229 0 -0.28842838408131971 0.0076205693905790281 0 -0.29989828236451899 0.011495108916467369 0 -0.28646662798487532 0.053467145886994819 0 -0.304010183261538 0.043594207608826187 0 -0.29088471103165969 0.062671374321780771 0 -0.28646662798487532 0.053467145886994819 0 -0.30189037325813839 0.060543452134012458 0 -0.29088471103165969 0.062671374321780771 0 -0.28261649390190829 0.064291953838756216 0 -0.28646662798487532 0.053467145886994819 0 -0.27323710809808138 0.049716314049096537 0 -0.28646662798487532 0.053467145886994819 0 -0.28732673365434691 0.040933413293477772 0 -0.28646662798487532 0.053467145886994819 0 -0.29550990707316249 0.034734931131730561 0 -0.30859873922341308 0.03381572977126493 0 -0.28646662798487532 0.053467145886994819 0 -0.28732673365434691 0.040933413293477772 0 -0.29550990707316249 0.034734931131730561 0 -0.2825074511423824 0.030310297232740709 0 -0.28732673365434691 0.040933413293477772 0 -0.29550990707316249 0.034734931131730561 0 -0.28646662798487532 0.053467145886994819 0 -0.30859873922341308 0.03381572977126493 0 -0.28646662798487532 0.053467145886994819 0 -0.304010183261538 0.043594207608826187 0 -0.30859873922341308 0.03381572977126493 0 -0.304010183261538 0.043594207608826187 0 -0.30859873922341308 0.03381572977126493 0 -0.32155373853820057 0.033721269330657687 0 -0.304010183261538 0.043594207608826187 0 -0.3137915997446068 0.051476736654279882 0 -0.31549181974187701 0.042926529004151233 0 -0.28646662798487532 0.053467145886994819 0 -0.304010183261538 0.043594207608826187 0 -0.30189037325813839 0.060543452134012458 0 -0.30189037325813839 0.060543452134012458 0 -0.3137915997446068 0.051476736654279882 0 -0.32146679815367007 0.068824891797761426 0 -0.304010183261538 0.043594207608826187 0 -0.30189037325813839 0.060543452134012458 0 -0.3137915997446068 0.051476736654279882 0 -0.3137915997446068 0.051476736654279882 0 -0.32609882430781029 0.041494602726648067 0 -0.32146679815367007 0.068824891797761426 0 -0.32609882430781029 0.041494602726648067 0 -0.32146679815367007 0.068824891797761426 0 -0.3137915997446068 0.051476736654279882 0 -0.31549181974187701 0.042926529004151233 0 -0.32609882430781029 0.041494602726648067 0 -0.304010183261538 0.043594207608826187 0 -0.31549181974187701 0.042926529004151233 0 -0.32155373853820057 0.033721269330657687 0 -0.304010183261538 0.043594207608826187 0 -0.32155373853820057 0.033721269330657687 0 -0.31549181974187701 0.042926529004151233 0 -0.32155373853820057 0.033721269330657687 0 -0.32609882430781029 0.041494602726648067 0 -0.32609882430781029 0.041494602726648067 0 -0.34385517732675519 0.031131612817745031 0 -0.35163198926140088 0.046228739452983239 0 -0.32609882430781029 0.041494602726648067 0 -0.338272543408071 0.060603673933957783 0 -0.32146679815367007 0.068824891797761426 0 -0.32609882430781029 0.041494602726648067 0 -0.338272543408071 0.060603673933957783 0 -0.35163198926140088 0.046228739452983239 0 -0.3204068892458079 -0.0014125807301150939 0 -0.31128727758972891 0.0091565171879943417 0 -0.33073085046195078 0.01416431365553468 0 -0.30587597075389272 0.02137954460474218 0 -0.31128727758972891 0.0091565171879943417 0 -0.33073085046195078 0.01416431365553468 0 -0.30859873922341308 0.03381572977126493 0 -0.33073085046195078 0.01416431365553468 0 -0.30587597075389272 0.02137954460474218 0 -0.30859873922341308 0.03381572977126493 0 -0.33073085046195078 0.01416431365553468 0 -0.32155373853820057 0.033721269330657687 0 -0.32609882430781029 0.041494602726648067 0 -0.33073085046195078 0.01416431365553468 0 -0.30859873922341308 0.03381572977126493 0 -0.32155373853820057 0.033721269330657687 0 -0.33073085046195078 0.01416431365553468 0 -0.32609882430781029 0.041494602726648067 0 -0.33073085046195078 0.01416431365553468 0 -0.33073085046195078 0.01416431365553468 0 -0.34385517732675519 0.031131612817745031 0 -0.35381837275022032 0.01853105722209741 0 -0.32609882430781029 0.041494602726648067 0 -0.33073085046195078 0.01416431365553468 0 -0.34385517732675519 0.031131612817745031 0 -0.33540629353460438 -0.01342214774580049 0 -0.33073085046195078 0.01416431365553468 0 -0.35221409618436439 -0.0049109655465913588 0 -0.33073085046195078 0.01416431365553468 0 -0.35221409618436439 -0.0049109655465913588 0 -0.34857824671955512 -0.007874197240844389 0 -0.33073085046195078 0.01416431365553468 0 -0.35221409618436439 -0.0049109655465913588 0 -0.33073085046195078 0.01416431365553468 0 -0.34939877662876639 0.0070576099193848619 0 -0.33073085046195078 0.01416431365553468 0 -0.34939877662876639 0.0070576099193848619 0 -0.35381837275022032 0.01853105722209741 0 -0.35900139338342918 0.0020097317905480609 0 -0.34939877662876639 0.0070576099193848619 0 -0.35834074471334648 0.0096788928264882005 0 -0.35509488683577939 -0.0004162838960613095 0 -0.35900139338342918 0.0020097317905480609 0 -0.34939877662876639 0.0070576099193848619 0 -0.35509488683577939 -0.0004162838960613095 0 -0.35221409618436439 -0.0049109655465913588 0 -0.34939877662876639 0.0070576099193848619 0 -0.34939877662876639 0.0070576099193848619 0 -0.35834074471334648 0.0096788928264882005 0 -0.35381837275022032 0.01853105722209741 0 -0.34385517732675519 0.031131612817745031 0 -0.35381837275022032 0.01853105722209741 0 -0.36551724687399623 0.028318485711261141 0 -0.37937813184432773 0.031366277704107569 0 -0.36551724687399623 0.028318485711261141 0 -0.37479293228070759 0.022502646493578662 0 -0.36551724687399623 0.028318485711261141 0 -0.37479293228070759 0.022502646493578662 0 -0.36730783543836809 0.01519693074799966 0 -0.3778438638662554 0.014761087644765769 0 -0.37479293228070759 0.022502646493578662 0 -0.36730783543836809 0.01519693074799966 0 -0.35381837275022032 0.01853105722209741 0 -0.36551724687399623 0.028318485711261141 0 -0.36730783543836809 0.01519693074799966 0 -0.35834074471334648 0.0096788928264882005 0 -0.36730783543836809 0.01519693074799966 0 -0.36603012090457948 0.0050917054244422654 0 -0.35834074471334648 0.0096788928264882005 0 -0.35381837275022032 0.01853105722209741 0 -0.36730783543836809 0.01519693074799966 0 -0.36730783543836809 0.01519693074799966 0 -0.37464316483836829 0.0066416053135349984 0 -0.36603012090457948 0.0050917054244422654 0 -0.3778438638662554 0.014761087644765769 0 -0.36730783543836809 0.01519693074799966 0 -0.37464316483836829 0.0066416053135349984 0 -0.37126952376897032 -0.00085078512189483576 0 -0.37774077980655368 -0.001289555558904682 0 -0.37464316483836829 0.0066416053135349984 0 -0.37126952376897032 -0.00085078512189483576 0 -0.37464316483836829 0.0066416053135349984 0 -0.36603012090457948 0.0050917054244422654 0 -0.37126952376897032 -0.00085078512189483576 0 -0.36494834593608783 -0.001298186014321303 0 -0.36603012090457948 0.0050917054244422654 0 -0.36494834593608783 -0.001298186014321303 0 -0.35900139338342918 0.0020097317905480609 0 -0.36603012090457948 0.0050917054244422654 0 -0.35900139338342918 0.0020097317905480609 0 -0.35834074471334648 0.0096788928264882005 0 -0.36603012090457948 0.0050917054244422654 0 -0.35163198926140088 0.046228739452983239 0 -0.36891219827968119 0.060077996683558232 0 -0.35298131256760962 0.063034912088641357 0 -0.338272543408071 0.060603673933957783 0 -0.35163198926140088 0.046228739452983239 0 -0.35298131256760962 0.063034912088641357 0 -0.34385517732675519 0.031131612817745031 0 -0.36551724687399623 0.028318485711261141 0 -0.35163198926140088 0.046228739452983239 0 -0.36551724687399623 0.028318485711261141 0 -0.35163198926140088 0.046228739452983239 0 -0.37261014177358448 0.043145835856899219 0 -0.37937813184432773 0.031366277704107569 0 -0.36551724687399623 0.028318485711261141 0 -0.37261014177358448 0.043145835856899219 0 -0.35163198926140088 0.046228739452983239 0 -0.37261014177358448 0.043145835856899219 0 -0.36891219827968119 0.060077996683558232 0 -0.38207463336695202 0.051047668856640811 0 -0.37261014177358448 0.043145835856899219 0 -0.36891219827968119 0.060077996683558232 0 -0.37929074908003868 0.077603726490867345 0 -0.35694138538550352 0.073855345321458488 0 -0.37929074908003868 0.077603726490867345 0 -0.36891219827968119 0.060077996683558232 0 -0.35694138538550352 0.073855345321458488 0 -0.36891219827968119 0.060077996683558232 0 -0.35298131256760962 0.063034912088641357 0 -0.35694138538550352 0.073855345321458488 0 -0.35298131256760962 0.063034912088641357 0 -0.35694138538550352 0.073855345321458488 0 -0.34914844650339177 0.074408805051249083 0 -0.35694138538550352 0.073855345321458488 0 -0.34914844650339177 0.074408805051249083 0 -0.35387282561504041 0.085789381247760657 0 -0.338272543408071 0.060603673933957783 0 -0.35298131256760962 0.063034912088641357 0 -0.34914844650339177 0.074408805051249083 0 -0.34914844650339177 0.074408805051249083 0 -0.35387282561504041 0.085789381247760657 0 -0.33299160925146271 0.085281992960062933 0 -0.35694138538550352 0.073855345321458488 0 -0.35387282561504041 0.085789381247760657 0 -0.36438159895332511 0.085691586513687634 0 -0.35387282561504041 0.085789381247760657 0 -0.36438159895332511 0.085691586513687634 0 -0.35579278546844412 0.098564625017930646 0 -0.37929074908003868 0.077603726490867345 0 -0.35694138538550352 0.073855345321458488 0 -0.36438159895332511 0.085691586513687634 0 -0.37929074908003868 0.077603726490867345 0 -0.36438159895332511 0.085691586513687634 0 -0.37090825683648998 0.098456277756480637 0 -0.37090825683648998 0.098456277756480637 0 -0.36904533532088801 0.1177582563576956 0 -0.35579278546844412 0.098564625017930646 0 -0.36438159895332511 0.085691586513687634 0 -0.37090825683648998 0.098456277756480637 0 -0.35579278546844412 0.098564625017930646 0 -0.35823941519022368 0.13573745574644491 0 -0.36904533532088801 0.1177582563576956 0 -0.35158166360451942 0.11704707172714621 0 -0.36904533532088801 0.1177582563576956 0 -0.35158166360451942 0.11704707172714621 0 -0.35579278546844412 0.098564625017930646 0 -0.35158166360451942 0.11704707172714621 0 -0.35579278546844412 0.098564625017930646 0 -0.34047962299512569 0.099373871294989508 0 -0.35387282561504041 0.085789381247760657 0 -0.35579278546844412 0.098564625017930646 0 -0.34047962299512569 0.099373871294989508 0 -0.34047962299512569 0.099373871294989508 0 -0.33231339904552459 0.1171762944261375 0 -0.31683477199953253 0.096155180868875256 0 -0.34455851703438989 0.13305210298766909 0 -0.35158166360451942 0.11704707172714621 0 -0.33231339904552459 0.1171762944261375 0 -0.35158166360451942 0.11704707172714621 0 -0.34047962299512569 0.099373871294989508 0 -0.33231339904552459 0.1171762944261375 0 -0.31211500736378339 0.1240031522641292 0 -0.31683477199953253 0.096155180868875256 0 -0.31211500736378339 0.1240031522641292 0 -0.33231339904552459 0.1171762944261375 0 -0.31683477199953253 0.096155180868875256 0 -0.30635830999651792 0.07761242167179265 0 -0.31683477199953253 0.096155180868875256 0 -0.32146679815367007 0.068824891797761426 0 -0.31683477199953253 0.096155180868875256 0 -0.32146679815367007 0.068824891797761426 0 -0.33299160925146271 0.085281992960062933 0 -0.31683477199953253 0.096155180868875256 0 -0.32146679815367007 0.068824891797761426 0 -0.31683477199953253 0.096155180868875256 0 -0.33299160925146271 0.085281992960062933 0 -0.338272543408071 0.060603673933957783 0 -0.32146679815367007 0.068824891797761426 0 -0.33576809196089219 0.072507027900731907 0 -0.32146679815367007 0.068824891797761426 0 -0.33576809196089219 0.072507027900731907 0 -0.33299160925146271 0.085281992960062933 0 -0.34914844650339177 0.074408805051249083 0 -0.33576809196089219 0.072507027900731907 0 -0.33299160925146271 0.085281992960062933 0 -0.338272543408071 0.060603673933957783 0 -0.34914844650339177 0.074408805051249083 0 -0.33576809196089219 0.072507027900731907 0 -0.35387282561504041 0.085789381247760657 0 -0.34047962299512569 0.099373871294989508 0 -0.33299160925146271 0.085281992960062933 0 -0.34914844650339177 0.074408805051249083 0 -0.33299160925146271 0.085281992960062933 0 -0.34047962299512569 0.099373871294989508 0 -0.31683477199953253 0.096155180868875256 0 -0.33299160925146271 0.085281992960062933 0 -0.3938434845513461 0.48000301234504228 0 -0.4154786193197833 0.47000451851756458 0 -0.40908183102320411 0.4845696213484928 0 -0.3938434845513461 0.48000301234504228 0 -0.40110135887996978 0.47332954189399812 0 -0.4154786193197833 0.47000451851756458 0 -0.3938434845513461 0.48000301234504228 0 -0.4154786193197833 0.47000451851756458 0 -0.3938434845513461 0.48000301234504228 0 -0.40110135887996978 0.47332954189399812 0 -0.38930270813857232 0.46778113184491188 0 -0.3938434845513461 0.48000301234504228 0 -0.39546946259238258 0.49128185561313598 0 -0.40908183102320411 0.4845696213484928 0 -0.40521342881326272 0.5 0 -0.39546946259238258 0.49128185561313598 0 -0.37789332191386737 0.5 0 -0.40521342881326272 0.5 0 -0.39546946259238258 0.49128185561313598 0 -0.40908183102320411 0.4845696213484928 0 -0.3938434845513461 0.48000301234504228 0 -0.39546946259238258 0.49128185561313598 0 -0.38517353549973538 0.49039659604947999 0 -0.3938434845513461 0.48000301234504228 0 -0.37220834978290879 0.49000150617251997 0 -0.39546946259238258 0.49128185561313598 0 -0.38517353549973538 0.49039659604947999 0 -0.37789332191386737 0.5 0 -0.3938434845513461 0.48000301234504228 0 -0.38517353549973538 0.49039659604947999 0 -0.37220834978290879 0.49000150617251997 0 -0.38517353549973538 0.49039659604947999 0 -0.37789332191386737 0.5 0 -0.37220834978290879 0.49000150617251997 0 -0.3938434845513461 0.48000301234504228 0 -0.37805640255927542 0.47903421333972468 0 -0.3842367001720054 0.47454362448235632 0 -0.3938434845513461 0.48000301234504228 0 -0.37805640255927542 0.47903421333972468 0 -0.37220834978290879 0.49000150617251997 0 -0.3842367001720054 0.47454362448235632 0 -0.37701653082709469 0.46900635458093531 0 -0.38930270813857232 0.46778113184491188 0 -0.3938434845513461 0.48000301234504228 0 -0.3842367001720054 0.47454362448235632 0 -0.38930270813857232 0.46778113184491188 0 -0.37805640255927542 0.47903421333972468 0 -0.3842367001720054 0.47454362448235632 0 -0.37701653082709469 0.46900635458093531 0 -0.37701653082709469 0.46900635458093531 0 -0.38677844954541418 0.45747132953460651 0 -0.37376195539900242 0.45249759326054367 0 -0.37701653082709469 0.46900635458093531 0 -0.38677844954541418 0.45747132953460651 0 -0.38930270813857232 0.46778113184491188 0 -0.38473584783684761 0.44354080077547992 0 -0.36778315087773072 0.43214877602771662 0 -0.37376195539900242 0.45249759326054367 0 -0.38677844954541418 0.45747132953460651 0 -0.38473584783684761 0.44354080077547992 0 -0.37376195539900242 0.45249759326054367 0 -0.38677844954541418 0.45747132953460651 0 -0.38473584783684761 0.44354080077547992 0 -0.39843898125590987 0.45231631840454728 0 -0.39843898125590987 0.45231631840454728 0 -0.4072920944712265 0.44499890251068641 0 -0.39856520721893041 0.43647578570475237 0 -0.38473584783684761 0.44354080077547992 0 -0.39843898125590987 0.45231631840454728 0 -0.39856520721893041 0.43647578570475237 0 -0.39843898125590987 0.45231631840454728 0 -0.39841490533913748 0.46178879282826651 0 -0.41709791082295028 0.45456801136960878 0 -0.40110135887996978 0.47332954189399812 0 -0.39841490533913748 0.46178879282826651 0 -0.41709791082295028 0.45456801136960878 0 -0.38677844954541418 0.45747132953460651 0 -0.38930270813857232 0.46778113184491188 0 -0.39841490533913748 0.46178879282826651 0 -0.40110135887996978 0.47332954189399812 0 -0.38930270813857232 0.46778113184491188 0 -0.39841490533913748 0.46178879282826651 0 -0.38677844954541418 0.45747132953460651 0 -0.39843898125590987 0.45231631840454728 0 -0.39841490533913748 0.46178879282826651 0 -0.40110135887996978 0.47332954189399812 0 -0.41709791082295028 0.45456801136960878 0 -0.4154786193197833 0.47000451851756458 0 -0.40110135887996978 0.47332954189399812 0 -0.41709791082295028 0.45456801136960878 0 -0.41709791082295028 0.45456801136960878 0 -0.42692569345801529 0.46340213249295897 0 -0.4154786193197833 0.47000451851756458 0 -0.41709791082295028 0.45456801136960878 0 -0.43309446276593089 0.43580648084521972 0 -0.41506627858711548 0.4366354945638371 0 -0.39843898125590987 0.45231631840454728 0 -0.41709791082295028 0.45456801136960878 0 -0.4072920944712265 0.44499890251068641 0 -0.4072920944712265 0.44499890251068641 0 -0.41506627858711548 0.4366354945638371 0 -0.39856520721893041 0.43647578570475237 0 -0.41709791082295028 0.45456801136960878 0 -0.4072920944712265 0.44499890251068641 0 -0.41506627858711548 0.4366354945638371 0 -0.41709791082295028 0.45456801136960878 0 -0.43251943231727258 0.45189802077753072 0 -0.43309446276593089 0.43580648084521972 0 -0.41709791082295028 0.45456801136960878 0 -0.43309446276593089 0.43580648084521972 0 -0.43251943231727258 0.45189802077753072 0 -0.44285055445462801 0.44408738363144917 0 -0.43309446276593089 0.43580648084521972 0 -0.43251943231727258 0.45189802077753072 0 -0.42692569345801529 0.46340213249295897 0 -0.44262854008483871 0.46162609554841733 0 -0.42692569345801529 0.46340213249295897 0 -0.43014133963940671 0.47900644757454591 0 -0.44262854008483871 0.46162609554841733 0 -0.41709791082295028 0.45456801136960878 0 -0.43251943231727258 0.45189802077753072 0 -0.42692569345801529 0.46340213249295897 0 -0.42692569345801529 0.46340213249295897 0 -0.43014133963940671 0.47900644757454591 0 -0.4154786193197833 0.47000451851756458 0 -0.43014133963940671 0.47900644757454591 0 -0.4154786193197833 0.47000451851756458 0 -0.40908183102320411 0.4845696213484928 0 -0.40521342881326272 0.5 0 -0.40908183102320411 0.4845696213484928 0 -0.43253353571265801 0.5 0 -0.43014133963940671 0.47900644757454591 0 -0.40908183102320411 0.4845696213484928 0 -0.43253353571265801 0.5 0 -0.43014133963940671 0.47900644757454591 0 -0.43253353571265801 0.5 0 -0.44984012809851409 0.48033494727474779 0 -0.43253353571265801 0.5 0 -0.44984012809851409 0.48033494727474779 0 -0.45985364261205308 0.50000000000000111 0 -0.43014133963940671 0.47900644757454591 0 -0.44984012809851409 0.48033494727474779 0 -0.44262854008483871 0.46162609554841733 0 -0.44984012809851409 0.48033494727474779 0 -0.47312811744354261 0.47395110078869013 0 -0.45820768181792781 0.46325373185340701 0 -0.45985364261205308 0.50000000000000111 0 -0.47312811744354261 0.47395110078869013 0 -0.44984012809851409 0.48033494727474779 0 -0.45985364261205308 0.50000000000000111 0 -0.47312811744354261 0.47395110078869013 0 -0.5 0.5 0 -0.47312811744354261 0.47395110078869013 0 -0.49999999999999972 0.44664233614409321 0 -0.45985364261205308 0.50000000000000111 0 -0.5 0.5 0 -0.47312811744354261 0.47395110078869013 0 -0.48640259227503152 0.44790220157737892 0 -0.49999999999999972 0.44664233614409321 0 -0.47883616718389621 0.43347798499105172 0 -0.49999999999999972 0.44664233614409321 0 -0.47883616718389621 0.43347798499105172 0 -0.47312811744354261 0.47395110078869013 0 -0.48640259227503152 0.44790220157737892 0 -0.49999999999999972 0.44664233614409321 0 -0.47312811744354261 0.47395110078869013 0 -0.48640259227503152 0.44790220157737892 0 -0.47312811744354261 0.47395110078869013 0 -0.48640259227503152 0.44790220157737892 0 -0.46932328621444303 0.45009797021529852 0 -0.46932328621444303 0.45009797021529852 0 -0.46288197751253979 0.435741310408158 0 -0.47883616718389621 0.43347798499105172 0 -0.48640259227503152 0.44790220157737892 0 -0.46932328621444303 0.45009797021529852 0 -0.47883616718389621 0.43347798499105172 0 -0.46932328621444303 0.45009797021529852 0 -0.45653044061400749 0.44574373859450739 0 -0.46288197751253979 0.435741310408158 0 -0.46932328621444303 0.45009797021529852 0 -0.45653044061400749 0.44574373859450739 0 -0.45820768181792781 0.46325373185340701 0 -0.45653044061400749 0.44574373859450739 0 -0.44988321330808601 0.43264183945635343 0 -0.46288197751253979 0.435741310408158 0 -0.47312811744354261 0.47395110078869013 0 -0.46932328621444303 0.45009797021529852 0 -0.45820768181792781 0.46325373185340701 0 -0.45653044061400749 0.44574373859450739 0 -0.45820768181792781 0.46325373185340701 0 -0.44262854008483871 0.46162609554841733 0 -0.44984012809851409 0.48033494727474779 0 -0.45820768181792781 0.46325373185340701 0 -0.44262854008483871 0.46162609554841733 0 -0.43251943231727258 0.45189802077753072 0 -0.44262854008483871 0.46162609554841733 0 -0.44285055445462801 0.44408738363144917 0 -0.45653044061400749 0.44574373859450739 0 -0.44262854008483871 0.46162609554841733 0 -0.44285055445462801 0.44408738363144917 0 -0.44285055445462801 0.44408738363144917 0 -0.44988321330808601 0.43264183945635343 0 -0.43309446276593089 0.43580648084521972 0 -0.45653044061400749 0.44574373859450739 0 -0.44285055445462801 0.44408738363144917 0 -0.44988321330808601 0.43264183945635343 0 -0.44909101470891138 0.41704495032083061 0 -0.43309446276593089 0.43580648084521972 0 -0.44988321330808601 0.43264183945635343 0 -0.44909101470891138 0.41704495032083061 0 -0.43309446276593089 0.43580648084521972 0 -0.44988321330808601 0.43264183945635343 0 -0.44909101470891138 0.41704495032083061 0 -0.45767233436779298 0.42031363383801013 0 -0.44909101470891138 0.41704495032083061 0 -0.43642708593841462 0.41129790334070748 0 -0.43309446276593089 0.43580648084521972 0 -0.44909101470891138 0.41704495032083061 0 -0.44923652684218601 0.40651161443480333 0 -0.43642708593841462 0.41129790334070748 0 -0.44909101470891138 0.41704495032083061 0 -0.46310762304278369 0.4136785712167641 0 -0.46508756665189233 0.39828341979644161 0 -0.44909101470891138 0.41704495032083061 0 -0.46508756665189233 0.39828341979644161 0 -0.44909101470891138 0.41704495032083061 0 -0.44923652684218601 0.40651161443480333 0 -0.46508756665189233 0.39828341979644161 0 -0.44909101470891138 0.41704495032083061 0 -0.45767233436779298 0.42031363383801013 0 -0.46310762304278369 0.4136785712167641 0 -0.45767233436779298 0.42031363383801013 0 -0.46310762304278369 0.4136785712167641 0 -0.4689935185142321 0.42014913325858988 0 -0.46310762304278369 0.4136785712167641 0 -0.47635794946245552 0.41312634298853379 0 -0.46508756665189233 0.39828341979644161 0 -0.45767233436779298 0.42031363383801013 0 -0.47883616718389621 0.43347798499105172 0 -0.4689935185142321 0.42014913325858988 0 -0.45767233436779298 0.42031363383801013 0 -0.46288197751253979 0.435741310408158 0 -0.47883616718389621 0.43347798499105172 0 -0.45767233436779298 0.42031363383801013 0 -0.47883616718389621 0.43347798499105172 0 -0.44988321330808601 0.43264183945635343 0 -0.45767233436779298 0.42031363383801013 0 -0.46288197751253979 0.435741310408158 0 -0.47883616718389621 0.43347798499105172 0 -0.47635794946245552 0.41312634298853379 0 -0.48714440641974271 0.42351608680749347 0 -0.47883616718389621 0.43347798499105172 0 -0.4689935185142321 0.42014913325858988 0 -0.47635794946245552 0.41312634298853379 0 -0.46310762304278369 0.4136785712167641 0 -0.4689935185142321 0.42014913325858988 0 -0.47635794946245552 0.41312634298853379 0 -0.47635794946245552 0.41312634298853379 0 -0.48901457958177968 0.41012265573874179 0 -0.48254378332594611 0.39722493186941499 0 -0.47635794946245552 0.41312634298853379 0 -0.48901457958177968 0.41012265573874179 0 -0.48714440641974271 0.42351608680749347 0 -0.48901457958177968 0.41012265573874179 0 -0.5 0.42140439004324071 0 -0.49999999999999978 0.39616644394238798 0 -0.48901457958177968 0.41012265573874179 0 -0.5 0.42140439004324071 0 -0.48714440641974271 0.42351608680749347 0 -0.49999999999999972 0.44664233614409321 0 -0.47883616718389621 0.43347798499105172 0 -0.48714440641974271 0.42351608680749347 0 -0.49999999999999972 0.44664233614409321 0 -0.5 0.42140439004324071 0 -0.48714440641974271 0.42351608680749347 0 -0.49007778645481631 0.38142997617552599 0 -0.49999999999999978 0.39616644394238798 0 -0.50000000000000311 0.3685517992903854 0 -0.49007778645481631 0.38142997617552599 0 -0.47611467569506138 0.38535029247959018 0 -0.48714178473823078 0.37241716516273898 0 -0.49999999999999978 0.39616644394238798 0 -0.48254378332594611 0.39722493186941499 0 -0.48901457958177968 0.41012265573874179 0 -0.49999999999999978 0.39616644394238798 0 -0.48254378332594611 0.39722493186941499 0 -0.49007778645481631 0.38142997617552599 0 -0.49999999999999978 0.39616644394238798 0 -0.48254378332594611 0.39722493186941499 0 -0.48254378332594611 0.39722493186941499 0 -0.46508756665189233 0.39828341979644161 0 -0.47635794946245552 0.41312634298853379 0 -0.48254378332594611 0.39722493186941499 0 -0.46508756665189233 0.39828341979644161 0 -0.48254378332594611 0.39722493186941499 0 -0.47611467569506138 0.38535029247959018 0 -0.46508756665189233 0.39828341979644161 0 -0.47611467569506138 0.38535029247959018 0 -0.46508756665189233 0.39828341979644161 0 -0.49007778645481631 0.38142997617552599 0 -0.48254378332594611 0.39722493186941499 0 -0.47611467569506138 0.38535029247959018 0 -0.47611467569506138 0.38535029247959018 0 -0.47397397291215421 0.37493689296344251 0 -0.48714178473823078 0.37241716516273898 0 -0.47611467569506138 0.38535029247959018 0 -0.48714178473823078 0.37241716516273898 0 -0.46871814716203669 0.37906981455344119 0 -0.46360543106569913 0.37231654924431878 0 -0.47397397291215421 0.37493689296344251 0 -0.47611467569506138 0.38535029247959018 0 -0.46871814716203669 0.37906981455344119 0 -0.47397397291215421 0.37493689296344251 0 -0.46871814716203669 0.37906981455344119 0 -0.46117850897523233 0.38367552352641338 0 -0.46360543106569913 0.37231654924431878 0 -0.47611467569506138 0.38535029247959018 0 -0.46871814716203669 0.37906981455344119 0 -0.46117850897523233 0.38367552352641338 0 -0.47611467569506138 0.38535029247959018 0 -0.46117850897523233 0.38367552352641338 0 -0.46508756665189233 0.39828341979644161 0 -0.46117850897523233 0.38367552352641338 0 -0.45400385251667602 0.39093091030285698 0 -0.45110956684876158 0.38402681738971201 0 -0.46117850897523233 0.38367552352641338 0 -0.45110956684876158 0.38402681738971201 0 -0.44813402172652672 0.37354371539476261 0 -0.46117850897523233 0.38367552352641338 0 -0.44813402172652672 0.37354371539476261 0 -0.46360543106569913 0.37231654924431878 0 -0.44923652684218601 0.40651161443480333 0 -0.46508756665189233 0.39828341979644161 0 -0.44634044006952572 0.39942018428123321 0 -0.46508756665189233 0.39828341979644161 0 -0.45400385251667602 0.39093091030285698 0 -0.44634044006952572 0.39942018428123321 0 -0.46508756665189233 0.39828341979644161 0 -0.44634044006952572 0.39942018428123321 0 -0.46117850897523233 0.38367552352641338 0 -0.46508756665189233 0.39828341979644161 0 -0.45400385251667602 0.39093091030285698 0 -0.45400385251667602 0.39093091030285698 0 -0.44634044006952572 0.39942018428123321 0 -0.44518347515021223 0.38837251913440451 0 -0.44634044006952572 0.39942018428123321 0 -0.44518347515021223 0.38837251913440451 0 -0.43728617553129168 0.39370672697544878 0 -0.44923652684218601 0.40651161443480333 0 -0.44634044006952572 0.39942018428123321 0 -0.43642708593841462 0.41129790334070748 0 -0.45110956684876158 0.38402681738971201 0 -0.44480856609964842 0.38185924381796288 0 -0.44813402172652672 0.37354371539476261 0 -0.45400385251667602 0.39093091030285698 0 -0.45110956684876158 0.38402681738971201 0 -0.44518347515021223 0.38837251913440451 0 -0.45110956684876158 0.38402681738971201 0 -0.44518347515021223 0.38837251913440451 0 -0.44480856609964842 0.38185924381796288 0 -0.44518347515021223 0.38837251913440451 0 -0.43913693036841173 0.38484964203092692 0 -0.43002747341826991 0.3864772557201327 0 -0.44518347515021223 0.38837251913440451 0 -0.43002747341826991 0.3864772557201327 0 -0.44518347515021223 0.38837251913440451 0 -0.43913693036841173 0.38484964203092692 0 -0.44480856609964842 0.38185924381796288 0 -0.44480856609964842 0.38185924381796288 0 -0.4393591315165738 0.37762743775392832 0 -0.44813402172652672 0.37354371539476261 0 -0.43913693036841173 0.38484964203092692 0 -0.44480856609964842 0.38185924381796288 0 -0.4393591315165738 0.37762743775392832 0 -0.43913693036841173 0.38484964203092692 0 -0.43173797726570751 0.37658334167695551 0 -0.43913693036841173 0.38484964203092692 0 -0.43173797726570751 0.37658334167695551 0 -0.43002747341826991 0.3864772557201327 0 -0.43913693036841173 0.38484964203092692 0 -0.4393591315165738 0.37762743775392832 0 -0.43173797726570751 0.37658334167695551 0 -0.4393591315165738 0.37762743775392832 0 -0.43173797726570751 0.37658334167695551 0 -0.4325639091043616 0.37180597819459837 0 -0.43173797726570751 0.37658334167695551 0 -0.43002747341826991 0.3864772557201327 0 -0.44518347515021223 0.38837251913440451 0 -0.43002747341826991 0.3864772557201327 0 -0.43728617553129168 0.39370672697544878 0 -0.43002747341826991 0.3864772557201327 0 -0.41472776448615789 0.38456402166930481 0 -0.42117367656598032 0.39254991666010941 0 -0.43002747341826991 0.3864772557201327 0 -0.41472776448615789 0.38456402166930481 0 -0.43002747341826991 0.3864772557201327 0 -0.42328890360694349 0.38021744503538613 0 -0.41472776448615789 0.38456402166930481 0 -0.43173797726570751 0.37658334167695551 0 -0.43002747341826991 0.3864772557201327 0 -0.42328890360694349 0.38021744503538613 0 -0.43173797726570751 0.37658334167695551 0 -0.42328890360694349 0.38021744503538613 0 -0.42689564018809201 0.37117335838025439 0 -0.40881671944059661 0.37920357314115732 0 -0.42689564018809201 0.37117335838025439 0 -0.42328890360694349 0.38021744503538613 0 -0.40881671944059661 0.37920357314115732 0 -0.42689564018809201 0.37117335838025439 0 -0.42328890360694349 0.38021744503538613 0 -0.41472776448615789 0.38456402166930481 0 -0.40881671944059661 0.37920357314115732 0 -0.41472776448615789 0.38456402166930481 0 -0.40724106840129259 0.39428871981441299 0 -0.42117367656598032 0.39254991666010941 0 -0.41472776448615789 0.38456402166930481 0 -0.40826438028753348 0.3817067557430866 0 -0.39942805555404642 0.38265078761847338 0 -0.41472776448615789 0.38456402166930481 0 -0.40724106840129259 0.39428871981441299 0 -0.39942805555404642 0.38265078761847338 0 -0.41472776448615789 0.38456402166930481 0 -0.39942805555404642 0.38265078761847338 0 -0.40881671944059661 0.37920357314115732 0 -0.39942805555404642 0.38265078761847338 0 -0.41098055992701871 0.3693971202961519 0 -0.40826438028753348 0.3817067557430866 0 -0.40881671944059661 0.37920357314115732 0 -0.41472776448615789 0.38456402166930481 0 -0.40826438028753348 0.3817067557430866 0 -0.40881671944059661 0.37920357314115732 0 -0.40724106840129259 0.39428871981441299 0 -0.4157685575788832 0.40127396331749671 0 -0.40157856791931718 0.40704460823596672 0 -0.42117367656598032 0.39254991666010941 0 -0.4157685575788832 0.40127396331749671 0 -0.42759331348715912 0.40055694876602499 0 -0.40724106840129259 0.39428871981441299 0 -0.42117367656598032 0.39254991666010941 0 -0.4157685575788832 0.40127396331749671 0 -0.4157685575788832 0.40127396331749671 0 -0.42759331348715912 0.40055694876602499 0 -0.44634044006952572 0.39942018428123321 0 -0.42759331348715912 0.40055694876602499 0 -0.44634044006952572 0.39942018428123321 0 -0.42759331348715912 0.40055694876602499 0 -0.43728617553129168 0.39370672697544878 0 -0.44634044006952572 0.39942018428123321 0 -0.42759331348715912 0.40055694876602499 0 -0.43642708593841462 0.41129790334070748 0 -0.43002747341826991 0.3864772557201327 0 -0.42117367656598032 0.39254991666010941 0 -0.42759331348715912 0.40055694876602499 0 -0.43002747341826991 0.3864772557201327 0 -0.42759331348715912 0.40055694876602499 0 -0.43002747341826991 0.3864772557201327 0 -0.42759331348715912 0.40055694876602499 0 -0.43728617553129168 0.39370672697544878 0 -0.43642708593841462 0.41129790334070748 0 -0.42449994900394461 0.41844961959922572 0 -0.43309446276593089 0.43580648084521972 0 -0.42759331348715912 0.40055694876602499 0 -0.43642708593841462 0.41129790334070748 0 -0.42449994900394461 0.41844961959922572 0 -0.4157685575788832 0.40127396331749671 0 -0.42759331348715912 0.40055694876602499 0 -0.42449994900394461 0.41844961959922572 0 -0.42759331348715912 0.40055694876602499 0 -0.42449994900394461 0.41844961959922572 0 -0.42449994900394461 0.41844961959922572 0 -0.43309446276593089 0.43580648084521972 0 -0.41506627858711548 0.4366354945638371 0 -0.42449994900394461 0.41844961959922572 0 -0.41506627858711548 0.4366354945638371 0 -0.40746949035714619 0.42222882353716701 0 -0.41506627858711548 0.4366354945638371 0 -0.40746949035714619 0.42222882353716701 0 -0.39856520721893041 0.43647578570475237 0 -0.42449994900394461 0.41844961959922572 0 -0.40746949035714619 0.42222882353716701 0 -0.41232914121482278 0.41224925367246401 0 -0.4157685575788832 0.40127396331749671 0 -0.42449994900394461 0.41844961959922572 0 -0.41232914121482278 0.41224925367246401 0 -0.4157685575788832 0.40127396331749671 0 -0.41232914121482278 0.41224925367246401 0 -0.40157856791931718 0.40704460823596672 0 -0.40746949035714619 0.42222882353716701 0 -0.41232914121482278 0.41224925367246401 0 -0.40157856791931718 0.40704460823596672 0 -0.40746949035714619 0.42222882353716701 0 -0.40157856791931718 0.40704460823596672 0 -0.39298749241221759 0.42119507937603923 0 -0.40746949035714619 0.42222882353716701 0 -0.39298749241221759 0.42119507937603923 0 -0.39856520721893041 0.43647578570475237 0 -0.39298749241221759 0.42119507937603923 0 -0.39856520721893041 0.43647578570475237 0 -0.38373994498284608 0.43043669407259588 0 -0.38373994498284608 0.43043669407259588 0 -0.37668454372729859 0.41206883315114529 0 -0.36778315087773072 0.43214877602771662 0 -0.38473584783684761 0.44354080077547992 0 -0.38373994498284608 0.43043669407259588 0 -0.36778315087773072 0.43214877602771662 0 -0.38473584783684761 0.44354080077547992 0 -0.39856520721893041 0.43647578570475237 0 -0.38373994498284608 0.43043669407259588 0 -0.40157856791931718 0.40704460823596672 0 -0.39298749241221759 0.42119507937603923 0 -0.37668454372729859 0.41206883315114529 0 -0.39298749241221759 0.42119507937603923 0 -0.38373994498284608 0.43043669407259588 0 -0.37668454372729859 0.41206883315114529 0 -0.40157856791931718 0.40704460823596672 0 -0.37668454372729859 0.41206883315114529 0 -0.37668454372729859 0.41206883315114529 0 -0.37844474563582792 0.390355182046278 0 -0.39076978830337122 0.39764902138512792 0 -0.40157856791931718 0.40704460823596672 0 -0.37668454372729859 0.41206883315114529 0 -0.39076978830337122 0.39764902138512792 0 -0.38141148745950948 0.38039780936179463 0 -0.39942805555404642 0.38265078761847338 0 -0.37844474563582792 0.390355182046278 0 -0.39942805555404642 0.38265078761847338 0 -0.38141148745950948 0.38039780936179463 0 -0.37844474563582792 0.390355182046278 0 -0.39942805555404642 0.38265078761847338 0 -0.37844474563582792 0.390355182046278 0 -0.39942805555404642 0.38265078761847338 0 -0.39076978830337122 0.39764902138512792 0 -0.38141148745950948 0.38039780936179463 0 -0.39942805555404642 0.38265078761847338 0 -0.39128338495032239 0.36719877308275878 0 -0.40826438028753348 0.3817067557430866 0 -0.40881671944059661 0.37920357314115732 0 -0.39942805555404642 0.38265078761847338 0 -0.40881671944059661 0.37920357314115732 0 -0.39942805555404642 0.38265078761847338 0 -0.40724106840129259 0.39428871981441299 0 -0.40157856791931718 0.40704460823596672 0 -0.39076978830337122 0.39764902138512792 0 -0.40724106840129259 0.39428871981441299 0 -0.39942805555404642 0.38265078761847338 0 -0.39076978830337122 0.39764902138512792 0 -0.39259889148010241 0.34864188780489069 0 -0.39999637464883392 0.35559476271013252 0 -0.38966798311544332 0.35610238881872369 0 -0.39259889148010241 0.34864188780489069 0 -0.39999637464883392 0.35559476271013252 0 -0.40046159691170069 0.34164056661102238 0 -0.39999637464883392 0.35559476271013252 0 -0.40046159691170069 0.34164056661102238 0 -0.41381361947694889 0.35655778899711688 0 -0.39999637464883392 0.35559476271013252 0 -0.40397412088998857 0.3623881668075713 0 -0.41381361947694889 0.35655778899711688 0 -0.39128338495032239 0.36719877308275878 0 -0.41098055992701871 0.3693971202961519 0 -0.40397412088998857 0.3623881668075713 0 -0.39128338495032239 0.36719877308275878 0 -0.41098055992701871 0.3693971202961519 0 -0.39942805555404642 0.38265078761847338 0 -0.39128338495032239 0.36719877308275878 0 -0.41098055992701871 0.3693971202961519 0 -0.39999637464883392 0.35559476271013252 0 -0.39128338495032239 0.36719877308275878 0 -0.38966798311544332 0.35610238881872369 0 -0.39999637464883392 0.35559476271013252 0 -0.40397412088998857 0.3623881668075713 0 -0.39128338495032239 0.36719877308275878 0 -0.39128338495032239 0.36719877308275878 0 -0.38070440212728118 0.35956436367519867 0 -0.38966798311544332 0.35610238881872369 0 -0.39128338495032239 0.36719877308275878 0 -0.38070440212728118 0.35956436367519867 0 -0.37158620997362618 0.36500042586936587 0 -0.39128338495032239 0.36719877308275878 0 -0.37158620997362618 0.36500042586936587 0 -0.38141148745950948 0.38039780936179463 0 -0.39128338495032239 0.36719877308275878 0 -0.37158620997362618 0.36500042586936587 0 -0.38070440212728118 0.35956436367519867 0 -0.38259242285128608 0.34975193996759602 0 -0.36960199921418602 0.35731180584905542 0 -0.38259242285128608 0.34975193996759602 0 -0.37580907906339922 0.33647878059299557 0 -0.36960199921418602 0.35731180584905542 0 -0.38070440212728118 0.35956436367519867 0 -0.38966798311544332 0.35610238881872369 0 -0.38259242285128608 0.34975193996759602 0 -0.39259889148010241 0.34864188780489069 0 -0.38966798311544332 0.35610238881872369 0 -0.38259242285128608 0.34975193996759602 0 -0.39259889148010241 0.34864188780489069 0 -0.38259242285128608 0.34975193996759602 0 -0.38794720083446621 0.34059934721089508 0 -0.38259242285128608 0.34975193996759602 0 -0.37580907906339922 0.33647878059299557 0 -0.38794720083446621 0.34059934721089508 0 -0.37580907906339922 0.33647878059299557 0 -0.38794720083446621 0.34059934721089508 0 -0.38710957434645199 0.32672334422492838 0 -0.37580907906339922 0.33647878059299557 0 -0.38201615891261242 0.31564575533693578 0 -0.38201615891261242 0.31564575533693578 0 -0.38336946241093189 0.30974931290420182 0 -0.36531193472093021 0.32454274932608829 0 -0.37580907906339922 0.33647878059299557 0 -0.38201615891261242 0.31564575533693578 0 -0.38710957434645199 0.32672334422492838 0 -0.38201615891261242 0.31564575533693578 0 -0.39350880394476312 0.31593875705230262 0 -0.38336946241093189 0.30974931290420182 0 -0.38201615891261242 0.31564575533693578 0 -0.38710957434645199 0.32672334422492838 0 -0.39350880394476312 0.31593875705230262 0 -0.38710957434645199 0.32672334422492838 0 -0.39350880394476312 0.31593875705230262 0 -0.39921774374196328 0.327754485124091 0 -0.39350880394476312 0.31593875705230262 0 -0.39921774374196328 0.327754485124091 0 -0.40602554896887638 0.32011992980008452 0 -0.39921774374196328 0.327754485124091 0 -0.40602554896887638 0.32011992980008452 0 -0.40814721749945931 0.33505042297199122 0 -0.38794720083446621 0.34059934721089508 0 -0.38710957434645199 0.32672334422492838 0 -0.40046159691170069 0.34164056661102238 0 -0.39259889148010241 0.34864188780489069 0 -0.38794720083446621 0.34059934721089508 0 -0.40046159691170069 0.34164056661102238 0 -0.38710957434645199 0.32672334422492838 0 -0.39921774374196328 0.327754485124091 0 -0.40046159691170069 0.34164056661102238 0 -0.38710957434645199 0.32672334422492838 0 -0.40046159691170069 0.34164056661102238 0 -0.39921774374196328 0.327754485124091 0 -0.40046159691170069 0.34164056661102238 0 -0.40814721749945931 0.33505042297199122 0 -0.40814721749945931 0.33505042297199122 0 -0.41954562432067788 0.33058053440738988 0 -0.41381361947694889 0.35655778899711688 0 -0.41954562432067788 0.33058053440738988 0 -0.41381361947694889 0.35655778899711688 0 -0.40602554896887638 0.32011992980008452 0 -0.40814721749945931 0.33505042297199122 0 -0.41954562432067788 0.33058053440738988 0 -0.40602554896887638 0.32011992980008452 0 -0.41954562432067788 0.33058053440738988 0 -0.42527762916440792 0.30460327981766322 0 -0.41954562432067788 0.33058053440738988 0 -0.42527762916440792 0.30460327981766322 0 -0.41954562432067788 0.33058053440738988 0 -0.44001701522470671 0.31606260091672289 0 -0.42527762916440792 0.30460327981766322 0 -0.41954562432067788 0.33058053440738988 0 -0.42420657124029282 0.3485159257420361 0 -0.43843079740841773 0.33787066219507811 0 -0.41954562432067788 0.33058053440738988 0 -0.43843079740841773 0.33787066219507811 0 -0.44001701522470671 0.31606260091672289 0 -0.42420657124029282 0.3485159257420361 0 -0.43459164588172849 0.36007712215754689 0 -0.43843079740841773 0.33787066219507811 0 -0.42420657124029282 0.3485159257420361 0 -0.41381361947694889 0.35655778899711688 0 -0.43459164588172849 0.36007712215754689 0 -0.41381361947694889 0.35655778899711688 0 -0.43459164588172849 0.36007712215754689 0 -0.43459164588172849 0.36007712215754689 0 -0.43843079740841773 0.33787066219507811 0 -0.40046159691170069 0.34164056661102238 0 -0.40814721749945931 0.33505042297199122 0 -0.41381361947694889 0.35655778899711688 0 -0.41954562432067788 0.33058053440738988 0 -0.42420657124029282 0.3485159257420361 0 -0.41381361947694889 0.35655778899711688 0 -0.39999637464883392 0.35559476271013252 0 -0.41381361947694889 0.35655778899711688 0 -0.40046159691170069 0.34164056661102238 0 -0.41381361947694889 0.35655778899711688 0 -0.41381361947694889 0.35655778899711688 0 -0.41098055992701871 0.3693971202961519 0 -0.42689564018809201 0.37117335838025439 0 -0.41098055992701871 0.3693971202961519 0 -0.42689564018809201 0.37117335838025439 0 -0.40881671944059661 0.37920357314115732 0 -0.41098055992701871 0.3693971202961519 0 -0.42689564018809201 0.37117335838025439 0 -0.40881671944059661 0.37920357314115732 0 -0.41098055992701871 0.3693971202961519 0 -0.40397412088998857 0.3623881668075713 0 -0.41381361947694889 0.35655778899711688 0 -0.41098055992701871 0.3693971202961519 0 -0.41381361947694889 0.35655778899711688 0 -0.41098055992701871 0.3693971202961519 0 -0.41381361947694889 0.35655778899711688 0 -0.42689564018809201 0.37117335838025439 0 -0.41381361947694889 0.35655778899711688 0 -0.42907199843085347 0.36486274908666949 0 -0.43459164588172849 0.36007712215754689 0 -0.42689564018809201 0.37117335838025439 0 -0.42907199843085347 0.36486274908666949 0 -0.42980351636605002 0.37149789839679431 0 -0.43173797726570751 0.37658334167695551 0 -0.42689564018809201 0.37117335838025439 0 -0.43173797726570751 0.37658334167695551 0 -0.42689564018809201 0.37117335838025439 0 -0.42980351636605002 0.37149789839679431 0 -0.42689564018809201 0.37117335838025439 0 -0.42980351636605002 0.37149789839679431 0 -0.41381361947694889 0.35655778899711688 0 -0.42689564018809201 0.37117335838025439 0 -0.42907199843085347 0.36486274908666949 0 -0.43459164588172849 0.36007712215754689 0 -0.4325639091043616 0.37180597819459837 0 -0.42907199843085347 0.36486274908666949 0 -0.43459164588172849 0.36007712215754689 0 -0.4325639091043616 0.37180597819459837 0 -0.43173797726570751 0.37658334167695551 0 -0.4325639091043616 0.37180597819459837 0 -0.43173797726570751 0.37658334167695551 0 -0.4325639091043616 0.37180597819459837 0 -0.42980351636605002 0.37149789839679431 0 -0.4325639091043616 0.37180597819459837 0 -0.42980351636605002 0.37149789839679431 0 -0.42907199843085347 0.36486274908666949 0 -0.4325639091043616 0.37180597819459837 0 -0.42980351636605002 0.37149789839679431 0 -0.4393591315165738 0.37762743775392832 0 -0.4325639091043616 0.37180597819459837 0 -0.44813402172652672 0.37354371539476261 0 -0.4325639091043616 0.37180597819459837 0 -0.44813402172652672 0.37354371539476261 0 -0.4325639091043616 0.37180597819459837 0 -0.44813402172652672 0.37354371539476261 0 -0.45404419213644692 0.3625975043188554 0 -0.43459164588172849 0.36007712215754689 0 -0.45404419213644692 0.3625975043188554 0 -0.43459164588172849 0.36007712215754689 0 -0.4325639091043616 0.37180597819459837 0 -0.45404419213644692 0.3625975043188554 0 -0.4325639091043616 0.37180597819459837 0 -0.45404419213644692 0.3625975043188554 0 -0.43459164588172849 0.36007712215754689 0 -0.44549025602952702 0.35300777224981977 0 -0.45404419213644692 0.3625975043188554 0 -0.44549025602952702 0.35300777224981977 0 -0.45575207180717081 0.34762579988211101 0 -0.43843079740841773 0.33787066219507811 0 -0.43459164588172849 0.36007712215754689 0 -0.44549025602952702 0.35300777224981977 0 -0.43843079740841773 0.33787066219507811 0 -0.44549025602952702 0.35300777224981977 0 -0.45575207180717081 0.34762579988211101 0 -0.45404419213644692 0.3625975043188554 0 -0.45575207180717081 0.34762579988211101 0 -0.46674234051517471 0.35793515390827568 0 -0.45404419213644692 0.3625975043188554 0 -0.45575207180717081 0.34762579988211101 0 -0.46674234051517471 0.35793515390827568 0 -0.46933267881425472 0.34565439271282838 0 -0.45404419213644692 0.3625975043188554 0 -0.47441064506165659 0.36523629740895902 0 -0.46674234051517471 0.35793515390827568 0 -0.45404419213644692 0.3625975043188554 0 -0.47441064506165659 0.36523629740895902 0 -0.45404419213644692 0.3625975043188554 0 -0.46360543106569913 0.37231654924431878 0 -0.47441064506165659 0.36523629740895902 0 -0.44813402172652672 0.37354371539476261 0 -0.45404419213644692 0.3625975043188554 0 -0.46360543106569913 0.37231654924431878 0 -0.46674234051517471 0.35793515390827568 0 -0.45404419213644692 0.3625975043188554 0 -0.46360543106569913 0.37231654924431878 0 -0.47397397291215421 0.37493689296344251 0 -0.47441064506165659 0.36523629740895902 0 -0.47441064506165659 0.36523629740895902 0 -0.48058358620238051 0.35168401037216412 0 -0.49477709798686631 0.36787509049906381 0 -0.47397397291215421 0.37493689296344251 0 -0.47441064506165659 0.36523629740895902 0 -0.48714178473823078 0.37241716516273898 0 -0.46674234051517471 0.35793515390827568 0 -0.47441064506165659 0.36523629740895902 0 -0.48058358620238051 0.35168401037216412 0 -0.46674234051517471 0.35793515390827568 0 -0.46933267881425472 0.34565439271282838 0 -0.48058358620238051 0.35168401037216412 0 -0.46933267881425472 0.34565439271282838 0 -0.48058358620238051 0.35168401037216412 0 -0.48121002056386808 0.3369363626790518 0 -0.48058358620238051 0.35168401037216412 0 -0.49703354506598713 0.34759711953555122 0 -0.48121002056386808 0.3369363626790518 0 -0.49703354506598713 0.34759711953555122 0 -0.5 0.34812631329607491 0 -0.49477709798686631 0.36787509049906381 0 -0.48058358620238051 0.35168401037216412 0 -0.49703354506598713 0.34759711953555122 0 -0.49477709798686631 0.36787509049906381 0 -0.49703354506598713 0.34759711953555122 0 -0.49477709798686631 0.36787509049906381 0 -0.5 0.34812631329607491 0 -0.50000000000000311 0.3685517992903854 0 -0.49477709798686631 0.36787509049906381 0 -0.47441064506165659 0.36523629740895902 0 -0.49477709798686631 0.36787509049906381 0 -0.48714178473823078 0.37241716516273898 0 -0.47441064506165659 0.36523629740895902 0 -0.49477709798686631 0.36787509049906381 0 -0.49007778645481631 0.38142997617552599 0 -0.50000000000000311 0.3685517992903854 0 -0.49477709798686631 0.36787509049906381 0 -0.50000000000000311 0.3685517992903854 0 -0.49477709798686631 0.36787509049906381 0 -0.49007778645481631 0.38142997617552599 0 -0.49477709798686631 0.36787509049906381 0 -0.48714178473823078 0.37241716516273898 0 -0.4992899921451075 0.32731914857203848 0 -0.47890896772952718 0.31636292681222472 0 -0.4992899921451075 0.32731914857203848 0 -0.48121002056386808 0.3369363626790518 0 -0.47890896772952718 0.31636292681222472 0 -0.49999999999999989 0.32093853419885771 0 -0.47890896772952718 0.31636292681222472 0 -0.48920120729889771 0.30786362236022019 0 -0.49999999999999989 0.32093853419885771 0 -0.4992899921451075 0.32731914857203848 0 -0.47890896772952718 0.31636292681222472 0 -0.49999999999999989 0.32093853419885771 0 -0.4992899921451075 0.32731914857203848 0 -0.49703354506598713 0.34759711953555122 0 -0.4992899921451075 0.32731914857203848 0 -0.49703354506598713 0.34759711953555122 0 -0.4992899921451075 0.32731914857203848 0 -0.48121002056386808 0.3369363626790518 0 -0.49703354506598713 0.34759711953555122 0 -0.5 0.34812631329607491 0 -0.4992899921451075 0.32731914857203848 0 -0.46933267881425472 0.34565439271282838 0 -0.48121002056386808 0.3369363626790518 0 -0.46237537498267961 0.3340906367225393 0 -0.48121002056386808 0.3369363626790518 0 -0.47890896772952718 0.31636292681222472 0 -0.46237537498267961 0.3340906367225393 0 -0.47890896772952718 0.31636292681222472 0 -0.45636509730576869 0.32029680939338251 0 -0.45852794331394758 0.30540670505240958 0 -0.47890896772952718 0.31636292681222472 0 -0.45636509730576869 0.32029680939338251 0 -0.46237537498267961 0.3340906367225393 0 -0.45575207180717081 0.34762579988211101 0 -0.46933267881425472 0.34565439271282838 0 -0.46237537498267961 0.3340906367225393 0 -0.45575207180717081 0.34762579988211101 0 -0.46237537498267961 0.3340906367225393 0 -0.43843079740841773 0.33787066219507811 0 -0.45636509730576869 0.32029680939338251 0 -0.46237537498267961 0.3340906367225393 0 -0.43843079740841773 0.33787066219507811 0 -0.45636509730576869 0.32029680939338251 0 -0.43843079740841773 0.33787066219507811 0 -0.44001701522470671 0.31606260091672289 0 -0.45636509730576869 0.32029680939338251 0 -0.44001701522470671 0.31606260091672289 0 -0.45852794331394758 0.30540670505240958 0 -0.4381469188983681 0.2944504832925946 0 -0.45852794331394758 0.30540670505240958 0 -0.44001701522470671 0.31606260091672289 0 -0.4381469188983681 0.2944504832925946 0 -0.45852794331394758 0.30540670505240958 0 -0.4381469188983681 0.2944504832925946 0 -0.4447805513699985 0.27737231294201392 0 -0.43100963400813791 0.27862602522793672 0 -0.4381469188983681 0.2944504832925946 0 -0.45724976864254441 0.28334965182257721 0 -0.4447805513699985 0.27737231294201392 0 -0.4381469188983681 0.2944504832925946 0 -0.45724976864254441 0.28334965182257721 0 -0.45852794331394758 0.30540670505240958 0 -0.45724976864254441 0.28334965182257721 0 -0.45852794331394758 0.30540670505240958 0 -0.47789586146606378 0.29814868652574811 0 -0.47890896772952718 0.31636292681222472 0 -0.45852794331394758 0.30540670505240958 0 -0.47890896772952718 0.31636292681222472 0 -0.47789586146606378 0.29814868652574811 0 -0.48920120729889771 0.30786362236022019 0 -0.47890896772952718 0.31636292681222472 0 -0.45852794331394758 0.30540670505240958 0 -0.47789586146606378 0.29814868652574811 0 -0.45724976864254441 0.28334965182257721 0 -0.47789586146606378 0.29814868652574811 0 -0.48102565218130672 0.27929705551177292 0 -0.5 0.29600434190405073 0 -0.5 0.27107014960924369 0 -0.48102565218130672 0.27929705551177292 0 -0.47789586146606378 0.29814868652574811 0 -0.5 0.29600434190405073 0 -0.48102565218130672 0.27929705551177292 0 -0.47789586146606378 0.29814868652574811 0 -0.5 0.29600434190405073 0 -0.48920120729889771 0.30786362236022019 0 -0.49999999999999989 0.32093853419885771 0 -0.5 0.29600434190405073 0 -0.48920120729889771 0.30786362236022019 0 -0.48177750529808522 0.24619974485466931 0 -0.5 0.2461359573144368 0 -0.48654709528280549 0.26072196503438649 0 -0.5 0.2461359573144368 0 -0.48654709528280549 0.26072196503438649 0 -0.5 0.27107014960924369 0 -0.48654709528280549 0.26072196503438649 0 -0.5 0.27107014960924369 0 -0.48102565218130672 0.27929705551177292 0 -0.48654709528280549 0.26072196503438649 0 -0.48102565218130672 0.27929705551177292 0 -0.46993231893463527 0.26090691788180947 0 -0.45724976864254441 0.28334965182257721 0 -0.48102565218130672 0.27929705551177292 0 -0.46993231893463527 0.26090691788180947 0 -0.48177750529808522 0.24619974485466931 0 -0.48654709528280549 0.26072196503438649 0 -0.46993231893463527 0.26090691788180947 0 -0.45710504060219709 0.23686107433279269 0 -0.46993231893463527 0.26090691788180947 0 -0.44707755271196942 0.2637365605125353 0 -0.45724976864254441 0.28334965182257721 0 -0.46993231893463527 0.26090691788180947 0 -0.44707755271196942 0.2637365605125353 0 -0.45724976864254441 0.28334965182257721 0 -0.4447805513699985 0.27737231294201392 0 -0.44707755271196942 0.2637365605125353 0 -0.4447805513699985 0.27737231294201392 0 -0.44707755271196942 0.2637365605125353 0 -0.43100963400813791 0.27862602522793672 0 -0.45710504060219709 0.23686107433279269 0 -0.44707755271196942 0.2637365605125353 0 -0.44707755271196942 0.2637365605125353 0 -0.4367416388518679 0.25264877063821017 0 -0.43100963400813791 0.27862602522793672 0 -0.45710504060219709 0.23686107433279269 0 -0.44707755271196942 0.2637365605125353 0 -0.4367416388518679 0.25264877063821017 0 -0.4367416388518679 0.25264877063821017 0 -0.41175872593851298 0.2549478601346914 0 -0.41885046316002428 0.26850948483906401 0 -0.41175872593851298 0.2549478601346914 0 -0.41885046316002428 0.26850948483906401 0 -0.3976364837244763 0.27421361628784369 0 -0.41885046316002428 0.26850948483906401 0 -0.41710583327712653 0.28211115190663788 0 -0.3976364837244763 0.27421361628784369 0 -0.41885046316002428 0.26850948483906401 0 -0.43100963400813791 0.27862602522793672 0 -0.41710583327712653 0.28211115190663788 0 -0.4367416388518679 0.25264877063821017 0 -0.43100963400813791 0.27862602522793672 0 -0.4367416388518679 0.25264877063821017 0 -0.41885046316002428 0.26850948483906401 0 -0.43100963400813791 0.27862602522793672 0 -0.4381469188983681 0.2944504832925946 0 -0.43100963400813791 0.27862602522793672 0 -0.42527762916440792 0.30460327981766322 0 -0.43100963400813791 0.27862602522793672 0 -0.42527762916440792 0.30460327981766322 0 -0.41710583327712653 0.28211115190663788 0 -0.43100963400813791 0.27862602522793672 0 -0.42527762916440792 0.30460327981766322 0 -0.44001701522470671 0.31606260091672289 0 -0.4381469188983681 0.2944504832925946 0 -0.42527762916440792 0.30460327981766322 0 -0.40602554896887638 0.32011992980008452 0 -0.42527762916440792 0.30460327981766322 0 -0.4014269901009333 0.29495587648231503 0 -0.41710583327712653 0.28211115190663788 0 -0.4014269901009333 0.29495587648231503 0 -0.42527762916440792 0.30460327981766322 0 -0.41710583327712653 0.28211115190663788 0 -0.4014269901009333 0.29495587648231503 0 -0.41710583327712653 0.28211115190663788 0 -0.4014269901009333 0.29495587648231503 0 -0.3976364837244763 0.27421361628784369 0 -0.4014269901009333 0.29495587648231503 0 -0.38389766901197209 0.2919764357376447 0 -0.3976364837244763 0.27421361628784369 0 -0.4014269901009333 0.29495587648231503 0 -0.3976364837244763 0.27421361628784369 0 -0.39350880394476312 0.31593875705230262 0 -0.40602554896887638 0.32011992980008452 0 -0.4014269901009333 0.29495587648231503 0 -0.4014269901009333 0.29495587648231503 0 -0.38336946241093189 0.30974931290420182 0 -0.40602554896887638 0.32011992980008452 0 -0.4014269901009333 0.29495587648231503 0 -0.39350880394476312 0.31593875705230262 0 -0.4014269901009333 0.29495587648231503 0 -0.38336946241093189 0.30974931290420182 0 -0.38336946241093189 0.30974931290420182 0 -0.38389766901197209 0.2919764357376447 0 -0.36596935852520629 0.30787018431111951 0 -0.4014269901009333 0.29495587648231503 0 -0.38336946241093189 0.30974931290420182 0 -0.38389766901197209 0.2919764357376447 0 -0.38389766901197209 0.2919764357376447 0 -0.3839238193794226 0.27871888045260418 0 -0.3976364837244763 0.27421361628784369 0 -0.38389766901197209 0.2919764357376447 0 -0.3839238193794226 0.27871888045260418 0 -0.3703732677084236 0.2804332674389724 0 -0.3839238193794226 0.27871888045260418 0 -0.38378785707281859 0.2682522023459562 0 -0.3703732677084236 0.2804332674389724 0 -0.38378785707281859 0.2682522023459562 0 -0.37477717689163992 0.25299635056682518 0 -0.3703732677084236 0.2804332674389724 0 -0.3839238193794226 0.27871888045260418 0 -0.38378785707281859 0.2682522023459562 0 -0.3976364837244763 0.27421361628784369 0 -0.38378785707281859 0.2682522023459562 0 -0.39384597734802013 0.25347135609337229 0 -0.37477717689163992 0.25299635056682518 0 -0.39384597734802013 0.25347135609337229 0 -0.3976364837244763 0.27421361628784369 0 -0.41175872593851298 0.2549478601346914 0 -0.39384597734802013 0.25347135609337229 0 -0.3976364837244763 0.27421361628784369 0 -0.38378785707281859 0.2682522023459562 0 -0.39384597734802013 0.25347135609337229 0 -0.3976364837244763 0.27421361628784369 0 -0.35834524103505527 0.27479395617319979 0 -0.34490227433735798 0.27909378963084902 0 -0.35045174428906722 0.28677843618767362 0 -0.35834524103505527 0.27479395617319979 0 -0.34490227433735798 0.27909378963084902 0 -0.34728570068091402 0.2661688508290645 0 -0.34728570068091402 0.2661688508290645 0 -0.35464358931248319 0.25491115920099722 0 -0.34150965816976359 0.25817059719828012 0 -0.33845336435013867 0.242079554605789 0 -0.35464358931248319 0.25491115920099722 0 -0.34150965816976359 0.25817059719828012 0 -0.35834524103505527 0.27479395617319979 0 -0.34728570068091402 0.2661688508290645 0 -0.35464358931248319 0.25491115920099722 0 -0.35834524103505527 0.27479395617319979 0 -0.37477717689163992 0.25299635056682518 0 -0.35834524103505527 0.27479395617319979 0 -0.35464358931248319 0.25491115920099722 0 -0.37477717689163992 0.25299635056682518 0 -0.37477717689163992 0.25299635056682518 0 -0.3703732677084236 0.2804332674389724 0 -0.35834524103505527 0.27479395617319979 0 -0.37477717689163992 0.25299635056682518 0 -0.3703732677084236 0.2804332674389724 0 -0.3703732677084236 0.2804332674389724 0 -0.36596935852520629 0.30787018431111951 0 -0.38389766901197209 0.2919764357376447 0 -0.3703732677084236 0.2804332674389724 0 -0.36596935852520629 0.30787018431111951 0 -0.35834524103505527 0.27479395617319979 0 -0.3703732677084236 0.2804332674389724 0 -0.35925388220638338 0.290827281626163 0 -0.3703732677084236 0.2804332674389724 0 -0.36596935852520629 0.30787018431111951 0 -0.35925388220638338 0.290827281626163 0 -0.36596935852520629 0.30787018431111951 0 -0.35645499353340299 0.30154574554434233 0 -0.35925388220638338 0.290827281626163 0 -0.36596935852520629 0.30787018431111951 0 -0.35645499353340299 0.30154574554434233 0 -0.35774913989266272 0.31391262040183171 0 -0.35645499353340299 0.30154574554434233 0 -0.35013945535461871 0.3105838988596446 0 -0.35774913989266272 0.31391262040183171 0 -0.35645499353340299 0.30154574554434233 0 -0.34780240298166087 0.30288468022079579 0 -0.35285886900803182 0.29452238055293539 0 -0.34780240298166087 0.30288468022079579 0 -0.34622635383862083 0.29383585221412489 0 -0.33932813284697128 0.29730713825443927 0 -0.34780240298166087 0.30288468022079579 0 -0.35285886900803182 0.29452238055293539 0 -0.34622635383862083 0.29383585221412489 0 -0.34780240298166087 0.30288468022079579 0 -0.34514961405368982 0.30758965292055213 0 -0.33997231501418312 0.30473657218964828 0 -0.35645499353340299 0.30154574554434233 0 -0.34780240298166087 0.30288468022079579 0 -0.35013945535461871 0.3105838988596446 0 -0.34780240298166087 0.30288468022079579 0 -0.34514961405368982 0.30758965292055213 0 -0.35013945535461871 0.3105838988596446 0 -0.34514961405368982 0.30758965292055213 0 -0.35013945535461871 0.3105838988596446 0 -0.34268428286429659 0.31215346041211978 0 -0.35834524103505527 0.27479395617319979 0 -0.35925388220638338 0.290827281626163 0 -0.35045174428906722 0.28677843618767362 0 -0.35645499353340299 0.30154574554434233 0 -0.35925388220638338 0.290827281626163 0 -0.35285886900803182 0.29452238055293539 0 -0.35925388220638338 0.290827281626163 0 -0.35285886900803182 0.29452238055293539 0 -0.35045174428906722 0.28677843618767362 0 -0.35285886900803182 0.29452238055293539 0 -0.34622635383862083 0.29383585221412489 0 -0.35045174428906722 0.28677843618767362 0 -0.34622635383862083 0.29383585221412489 0 -0.35045174428906722 0.28677843618767362 0 -0.34088660642111013 0.2879281286912172 0 -0.34490227433735798 0.27909378963084902 0 -0.35045174428906722 0.28677843618767362 0 -0.34088660642111013 0.2879281286912172 0 -0.34490227433735798 0.27909378963084902 0 -0.34088660642111013 0.2879281286912172 0 -0.33262910378125132 0.278293493462413 0 -0.34088660642111013 0.2879281286912172 0 -0.33227483086849752 0.29261385498347509 0 -0.33932813284697128 0.29730713825443927 0 -0.34622635383862083 0.29383585221412489 0 -0.34088660642111013 0.2879281286912172 0 -0.33932813284697128 0.29730713825443927 0 -0.33227483086849752 0.29261385498347509 0 -0.32398535199451511 0.28524421774589648 0 -0.33262910378125132 0.278293493462413 0 -0.34088660642111013 0.2879281286912172 0 -0.33227483086849752 0.29261385498347509 0 -0.33262910378125132 0.278293493462413 0 -0.33718535734333338 0.30882123026638569 0 -0.34268428286429659 0.31215346041211978 0 -0.33477104767585758 0.31524888829805342 0 -0.33718535734333338 0.30882123026638569 0 -0.34268428286429659 0.31215346041211978 0 -0.33997231501418312 0.30473657218964828 0 -0.34514961405368982 0.30758965292055213 0 -0.34268428286429659 0.31215346041211978 0 -0.33997231501418312 0.30473657218964828 0 -0.33718535734333338 0.30882123026638569 0 -0.33997231501418312 0.30473657218964828 0 -0.33396296217470239 0.30554582684384218 0 -0.33997231501418312 0.30473657218964828 0 -0.33932813284697128 0.29730713825443927 0 -0.33396296217470239 0.30554582684384218 0 -0.34780240298166087 0.30288468022079579 0 -0.33997231501418312 0.30473657218964828 0 -0.33932813284697128 0.29730713825443927 0 -0.33227483086849752 0.29261385498347509 0 -0.33396296217470239 0.30554582684384218 0 -0.32251037119006698 0.3031431883822347 0 -0.33227483086849752 0.29261385498347509 0 -0.33932813284697128 0.29730713825443927 0 -0.33396296217470239 0.30554582684384218 0 -0.33718535734333338 0.30882123026638569 0 -0.33396296217470239 0.30554582684384218 0 -0.33477104767585758 0.31524888829805342 0 -0.33396296217470239 0.30554582684384218 0 -0.32251037119006698 0.3031431883822347 0 -0.33219148171911272 0.31730370811833031 0 -0.32251037119006698 0.3031431883822347 0 -0.31456388983813333 0.31636814557902659 0 -0.33219148171911272 0.31730370811833031 0 -0.32251037119006698 0.3031431883822347 0 -0.31282926066102218 0.28898266864613842 0 -0.30402337591517081 0.3051012194244167 0 -0.32251037119006698 0.3031431883822347 0 -0.30402337591517081 0.3051012194244167 0 -0.31456388983813333 0.31636814557902659 0 -0.32251037119006698 0.3031431883822347 0 -0.33219148171911272 0.31730370811833031 0 -0.33227483086849752 0.29261385498347509 0 -0.32251037119006698 0.3031431883822347 0 -0.32398535199451511 0.28524421774589648 0 -0.32251037119006698 0.3031431883822347 0 -0.32398535199451511 0.28524421774589648 0 -0.31282926066102218 0.28898266864613842 0 -0.32251037119006698 0.3031431883822347 0 -0.31282926066102218 0.28898266864613842 0 -0.31282926066102218 0.28898266864613842 0 -0.32065101258715689 0.274665503564473 0 -0.32398535199451511 0.28524421774589648 0 -0.31282926066102218 0.28898266864613842 0 -0.32065101258715689 0.274665503564473 0 -0.32065101258715689 0.274665503564473 0 -0.32847276451329022 0.26034833848280681 0 -0.31199410965335322 0.26463258327439948 0 -0.32065101258715689 0.274665503564473 0 -0.33262910378125132 0.278293493462413 0 -0.32847276451329022 0.26034833848280681 0 -0.31282926066102218 0.28898266864613842 0 -0.32065101258715689 0.274665503564473 0 -0.30403346053568642 0.27611708872161922 0 -0.32065101258715689 0.274665503564473 0 -0.32847276451329022 0.26034833848280681 0 -0.32398535199451511 0.28524421774589648 0 -0.32065101258715689 0.274665503564473 0 -0.33262910378125132 0.278293493462413 0 -0.33262910378125132 0.278293493462413 0 -0.33869287199199061 0.26734508287274228 0 -0.32847276451329022 0.26034833848280681 0 -0.34490227433735798 0.27909378963084902 0 -0.34728570068091402 0.2661688508290645 0 -0.33869287199199061 0.26734508287274228 0 -0.34490227433735798 0.27909378963084902 0 -0.33262910378125132 0.278293493462413 0 -0.33869287199199061 0.26734508287274228 0 -0.33845336435013867 0.242079554605789 0 -0.34150965816976359 0.25817059719828012 0 -0.32847276451329022 0.26034833848280681 0 -0.33845336435013867 0.242079554605789 0 -0.32847276451329022 0.26034833848280681 0 -0.34728570068091402 0.2661688508290645 0 -0.33869287199199061 0.26734508287274228 0 -0.34150965816976359 0.25817059719828012 0 -0.33869287199199061 0.26734508287274228 0 -0.34150965816976359 0.25817059719828012 0 -0.32847276451329022 0.26034833848280681 0 -0.33869287199199061 0.26734508287274228 0 -0.32847276451329022 0.26034833848280681 0 -0.311575650220281 0.24878047680599949 0 -0.32847276451329022 0.26034833848280681 0 -0.311575650220281 0.24878047680599949 0 -0.32847276451329022 0.26034833848280681 0 -0.31199410965335322 0.26463258327439948 0 -0.32455092720978362 0.24357057421839101 0 -0.311575650220281 0.24878047680599949 0 -0.32847276451329022 0.26034833848280681 0 -0.311575650220281 0.24878047680599949 0 -0.31199410965335322 0.26463258327439948 0 -0.29523766041035199 0.26325150879709891 0 -0.30403346053568642 0.27611708872161922 0 -0.29523766041035199 0.26325150879709891 0 -0.29574151564778611 0.28671646758259889 0 -0.31199410965335322 0.26463258327439948 0 -0.30403346053568642 0.27611708872161922 0 -0.29523766041035199 0.26325150879709891 0 -0.32065101258715689 0.274665503564473 0 -0.31199410965335322 0.26463258327439948 0 -0.30403346053568642 0.27611708872161922 0 -0.30403346053568642 0.27611708872161922 0 -0.29523766041035199 0.26325150879709891 0 -0.28985028671148488 0.25537141990030859 0 -0.26863301980023729 0.26794771562718522 0 -0.28534189936007232 0.28197220440765719 0 -0.29523766041035199 0.26325150879709891 0 -0.29574151564778611 0.28671646758259889 0 -0.29523766041035199 0.26325150879709891 0 -0.29574151564778611 0.28671646758259889 0 -0.28534189936007232 0.28197220440765719 0 -0.28985028671148488 0.25537141990030859 0 -0.29523766041035199 0.26325150879709891 0 -0.28534189936007232 0.28197220440765719 0 -0.28985028671148488 0.25537141990030859 0 -0.28534189936007232 0.28197220440765719 0 -0.29467853592727078 0.23721261512919359 0 -0.29523766041035199 0.26325150879709891 0 -0.29467853592727078 0.23721261512919359 0 -0.28985028671148488 0.25537141990030859 0 -0.29523766041035199 0.26325150879709891 0 -0.28985028671148488 0.25537141990030859 0 -0.29523766041035199 0.26325150879709891 0 -0.28985028671148488 0.25537141990030859 0 -0.2724296921133022 0.25217156250687062 0 -0.26863301980023729 0.26794771562718522 0 -0.2724296921133022 0.25217156250687062 0 -0.26863301980023729 0.26794771562718522 0 -0.25693865295534157 0.25278860643768353 0 -0.26863301980023729 0.26794771562718522 0 -0.26277913973510902 0.29023342414179659 0 -0.28534189936007232 0.28197220440765719 0 -0.26277913973510902 0.29023342414179659 0 -0.2447247674615598 0.2718938593685879 0 -0.26863301980023729 0.26794771562718522 0 -0.26277913973510902 0.29023342414179659 0 -0.2447247674615598 0.2718938593685879 0 -0.26863301980023729 0.26794771562718522 0 -0.25693865295534157 0.25278860643768353 0 -0.2447247674615598 0.2718938593685879 0 -0.26277913973510902 0.29023342414179659 0 -0.25757488899104952 0.31786411623381933 0 -0.2366570207200871 0.30010935915934539 0 -0.26277913973510902 0.29023342414179659 0 -0.28083351200865853 0.30857298891500562 0 -0.28534189936007232 0.28197220440765719 0 -0.26277913973510902 0.29023342414179659 0 -0.28083351200865853 0.30857298891500562 0 -0.26277913973510902 0.29023342414179659 0 -0.28083351200865853 0.30857298891500562 0 -0.25757488899104952 0.31786411623381933 0 -0.28083351200865853 0.30857298891500562 0 -0.29574151564778611 0.28671646758259889 0 -0.30402337591517081 0.3051012194244167 0 -0.28083351200865853 0.30857298891500562 0 -0.29574151564778611 0.28671646758259889 0 -0.28534189936007232 0.28197220440765719 0 -0.28083351200865853 0.30857298891500562 0 -0.28534189936007232 0.28197220440765719 0 -0.31282926066102218 0.28898266864613842 0 -0.29574151564778611 0.28671646758259889 0 -0.30402337591517081 0.3051012194244167 0 -0.31282926066102218 0.28898266864613842 0 -0.30403346053568642 0.27611708872161922 0 -0.29574151564778611 0.28671646758259889 0 -0.31282926066102218 0.28898266864613842 0 -0.30403346053568642 0.27611708872161922 0 -0.31282926066102218 0.28898266864613842 0 -0.30402337591517081 0.3051012194244167 0 -0.30402337591517081 0.3051012194244167 0 -0.29932851783868691 0.32736014762988469 0 -0.31456388983813333 0.31636814557902659 0 -0.29932851783868691 0.32736014762988469 0 -0.31400963374603508 0.33178692824556621 0 -0.31456388983813333 0.31636814557902659 0 -0.29582778577295937 0.3462701483728044 0 -0.31354931950312093 0.34747342072874071 0 -0.31400963374603508 0.33178692824556621 0 -0.29582778577295937 0.3462701483728044 0 -0.31400963374603508 0.33178692824556621 0 -0.29932851783868691 0.32736014762988469 0 -0.29582778577295937 0.3462701483728044 0 -0.31400963374603508 0.33178692824556621 0 -0.29932851783868691 0.32736014762988469 0 -0.27670802547122531 0.33291454828341721 0 -0.29582778577295937 0.3462701483728044 0 -0.27670802547122531 0.33291454828341721 0 -0.29582778577295937 0.3462701483728044 0 -0.28186865011063378 0.34863084123191301 0 -0.28083351200865853 0.30857298891500562 0 -0.30402337591517081 0.3051012194244167 0 -0.29932851783868691 0.32736014762988469 0 -0.28083351200865853 0.30857298891500562 0 -0.29932851783868691 0.32736014762988469 0 -0.28083351200865853 0.30857298891500562 0 -0.29932851783868691 0.32736014762988469 0 -0.27670802547122531 0.33291454828341721 0 -0.28083351200865853 0.30857298891500562 0 -0.27670802547122531 0.33291454828341721 0 -0.25757488899104952 0.31786411623381933 0 -0.28083351200865853 0.30857298891500562 0 -0.27670802547122531 0.33291454828341721 0 -0.27670802547122531 0.33291454828341721 0 -0.25757488899104952 0.31786411623381933 0 -0.25368472498167011 0.34420349485172652 0 -0.2613799420943046 0.36179346951182628 0 -0.25453646971320443 0.37462232419521813 0 -0.26689531734350652 0.36931705260985792 0 -0.2613799420943046 0.36179346951182628 0 -0.25453646971320443 0.37462232419521813 0 -0.24822911175635759 0.36217347122335058 0 -0.25368472498167011 0.34420349485172652 0 -0.27258253893379292 0.35725610765182902 0 -0.2613799420943046 0.36179346951182628 0 -0.25368472498167011 0.34420349485172652 0 -0.24822911175635759 0.36217347122335058 0 -0.2613799420943046 0.36179346951182628 0 -0.25368472498167011 0.34420349485172652 0 -0.27258253893379292 0.35725610765182902 0 -0.27670802547122531 0.33291454828341721 0 -0.27258253893379292 0.35725610765182902 0 -0.27670802547122531 0.33291454828341721 0 -0.27258253893379292 0.35725610765182902 0 -0.28186865011063378 0.34863084123191301 0 -0.27670802547122531 0.33291454828341721 0 -0.25368472498167011 0.34420349485172652 0 -0.27258253893379292 0.35725610765182902 0 -0.27258253893379292 0.35725610765182902 0 -0.27764593779988228 0.36075336850004069 0 -0.28186865011063378 0.34863084123191301 0 -0.27258253893379292 0.35725610765182902 0 -0.27764593779988228 0.36075336850004069 0 -0.27764593779988228 0.36075336850004069 0 -0.27110701654299552 0.36596211494311248 0 -0.28943519450698252 0.3688961411714532 0 -0.27110701654299552 0.36596211494311248 0 -0.28943519450698252 0.3688961411714532 0 -0.27110701654299552 0.36596211494311248 0 -0.28943519450698252 0.3688961411714532 0 -0.28084635904778937 0.37544065550995409 0 -0.27258253893379292 0.35725610765182902 0 -0.27764593779988228 0.36075336850004069 0 -0.27110701654299552 0.36596211494311248 0 -0.27764593779988228 0.36075336850004069 0 -0.27110701654299552 0.36596211494311248 0 -0.2613799420943046 0.36179346951182628 0 -0.27258253893379292 0.35725610765182902 0 -0.27110701654299552 0.36596211494311248 0 -0.2613799420943046 0.36179346951182628 0 -0.27110701654299552 0.36596211494311248 0 -0.26689531734350652 0.36931705260985792 0 -0.27258253893379292 0.35725610765182902 0 -0.27110701654299552 0.36596211494311248 0 -0.27110701654299552 0.36596211494311248 0 -0.26689531734350652 0.36931705260985792 0 -0.27110701654299552 0.36596211494311248 0 -0.28084635904778937 0.37544065550995409 0 -0.27663284499009211 0.37939207802828528 0 -0.28943519450698252 0.3688961411714532 0 -0.28685204816290072 0.37621819500323123 0 -0.28084635904778937 0.37544065550995409 0 -0.27764593779988228 0.36075336850004069 0 -0.28943519450698252 0.3688961411714532 0 -0.29551252006441958 0.37309371542857861 0 -0.28943519450698252 0.3688961411714532 0 -0.28685204816290072 0.37621819500323123 0 -0.29551252006441958 0.37309371542857861 0 -0.28943519450698252 0.3688961411714532 0 -0.27764593779988228 0.36075336850004069 0 -0.29582778577295937 0.3462701483728044 0 -0.27764593779988228 0.36075336850004069 0 -0.29582778577295937 0.3462701483728044 0 -0.28186865011063378 0.34863084123191301 0 -0.28943519450698252 0.3688961411714532 0 -0.29582778577295937 0.3462701483728044 0 -0.30300283950081008 0.36051339397403093 0 -0.27764593779988228 0.36075336850004069 0 -0.28943519450698252 0.3688961411714532 0 -0.29582778577295937 0.3462701483728044 0 -0.29582778577295937 0.3462701483728044 0 -0.30300283950081008 0.36051339397403093 0 -0.31354931950312093 0.34747342072874071 0 -0.28943519450698252 0.3688961411714532 0 -0.31408843612631249 0.37197903781600761 0 -0.28943519450698252 0.3688961411714532 0 -0.30300283950081008 0.36051339397403093 0 -0.31408843612631249 0.37197903781600761 0 -0.29551252006441958 0.37309371542857861 0 -0.28943519450698252 0.3688961411714532 0 -0.31408843612631249 0.37197903781600761 0 -0.30300283950081008 0.36051339397403093 0 -0.31408843612631249 0.37197903781600761 0 -0.32472866683278162 0.35786931268145811 0 -0.31408843612631249 0.37197903781600761 0 -0.32472866683278162 0.35786931268145811 0 -0.33874167774564268 0.3750619344605613 0 -0.31408843612631249 0.37197903781600761 0 -0.33874167774564268 0.3750619344605613 0 -0.33942470910854639 0.36092010030626542 0 -0.32472866683278162 0.35786931268145811 0 -0.33874167774564268 0.3750619344605613 0 -0.33942470910854639 0.36092010030626542 0 -0.3497530714632448 0.36534695126967459 0 -0.33874167774564268 0.3750619344605613 0 -0.33815763529499693 0.35089104021064632 0 -0.32472866683278162 0.35786931268145811 0 -0.33017767166301859 0.34092732036984391 0 -0.33815763529499693 0.35089104021064632 0 -0.33017767166301859 0.34092732036984391 0 -0.34251680356524339 0.34321741671518669 0 -0.33815763529499693 0.35089104021064632 0 -0.3460879504978186 0.35511096805544279 0 -0.34556584107983002 0.34849125976349993 0 -0.33815763529499693 0.35089104021064632 0 -0.34251680356524339 0.34321741671518669 0 -0.34556584107983002 0.34849125976349993 0 -0.33942470910854639 0.36092010030626542 0 -0.33815763529499693 0.35089104021064632 0 -0.3460879504978186 0.35511096805544279 0 -0.33942470910854639 0.36092010030626542 0 -0.33815763529499693 0.35089104021064632 0 -0.32472866683278162 0.35786931268145811 0 -0.31354931950312093 0.34747342072874071 0 -0.32472866683278162 0.35786931268145811 0 -0.33017767166301859 0.34092732036984391 0 -0.30300283950081008 0.36051339397403093 0 -0.31354931950312093 0.34747342072874071 0 -0.32472866683278162 0.35786931268145811 0 -0.31400963374603508 0.33178692824556621 0 -0.33219148171911272 0.31730370811833031 0 -0.33017767166301859 0.34092732036984391 0 -0.31354931950312093 0.34747342072874071 0 -0.31400963374603508 0.33178692824556621 0 -0.33017767166301859 0.34092732036984391 0 -0.31400963374603508 0.33178692824556621 0 -0.33219148171911272 0.31730370811833031 0 -0.31400963374603508 0.33178692824556621 0 -0.31456388983813333 0.31636814557902659 0 -0.33219148171911272 0.31730370811833031 0 -0.33477104767585758 0.31524888829805342 0 -0.33219148171911272 0.31730370811833031 0 -0.34795343649956839 0.3209401758966518 0 -0.33219148171911272 0.31730370811833031 0 -0.34725440703092858 0.33933618574797492 0 -0.34795343649956839 0.3209401758966518 0 -0.33396296217470239 0.30554582684384218 0 -0.33477104767585758 0.31524888829805342 0 -0.33219148171911272 0.31730370811833031 0 -0.33477104767585758 0.31524888829805342 0 -0.33219148171911272 0.31730370811833031 0 -0.34268428286429659 0.31215346041211978 0 -0.33477104767585758 0.31524888829805342 0 -0.34795343649956839 0.3209401758966518 0 -0.33219148171911272 0.31730370811833031 0 -0.34725440703092858 0.33933618574797492 0 -0.33219148171911272 0.31730370811833031 0 -0.33017767166301859 0.34092732036984391 0 -0.34725440703092858 0.33933618574797492 0 -0.33017767166301859 0.34092732036984391 0 -0.34251680356524339 0.34321741671518669 0 -0.34725440703092858 0.33933618574797492 0 -0.34725440703092858 0.33933618574797492 0 -0.34795343649956839 0.3209401758966518 0 -0.36531193472093021 0.32454274932608829 0 -0.34251680356524339 0.34321741671518669 0 -0.35002774160894051 0.34339273059465159 0 -0.34725440703092858 0.33933618574797492 0 -0.34725440703092858 0.33933618574797492 0 -0.35848812135385522 0.33902175933596412 0 -0.36531193472093021 0.32454274932608829 0 -0.34725440703092858 0.33933618574797492 0 -0.36531193472093021 0.32454274932608829 0 -0.34251680356524339 0.34321741671518669 0 -0.34725440703092858 0.33933618574797492 0 -0.35002774160894051 0.34339273059465159 0 -0.34725440703092858 0.33933618574797492 0 -0.35002774160894051 0.34339273059465159 0 -0.35848812135385522 0.33902175933596412 0 -0.35712059876301439 0.34740413424876382 0 -0.35002774160894051 0.34339273059465159 0 -0.34725440703092858 0.33933618574797492 0 -0.35848812135385522 0.33902175933596412 0 -0.34795343649956839 0.3209401758966518 0 -0.35774913989266272 0.31391262040183171 0 -0.36531193472093021 0.32454274932608829 0 -0.35013945535461871 0.3105838988596446 0 -0.34268428286429659 0.31215346041211978 0 -0.34795343649956839 0.3209401758966518 0 -0.35013945535461871 0.3105838988596446 0 -0.34795343649956839 0.3209401758966518 0 -0.35774913989266272 0.31391262040183171 0 -0.38336946241093189 0.30974931290420182 0 -0.36596935852520629 0.30787018431111951 0 -0.36531193472093021 0.32454274932608829 0 -0.36596935852520629 0.30787018431111951 0 -0.35774913989266272 0.31391262040183171 0 -0.36531193472093021 0.32454274932608829 0 -0.37580907906339922 0.33647878059299557 0 -0.38201615891261242 0.31564575533693578 0 -0.36531193472093021 0.32454274932608829 0 -0.38336946241093189 0.30974931290420182 0 -0.36531193472093021 0.32454274932608829 0 -0.35848812135385522 0.33902175933596412 0 -0.36629538785756799 0.33494858662202331 0 -0.36491865814174967 0.34450616947628299 0 -0.35848812135385522 0.33902175933596412 0 -0.36491865814174967 0.34450616947628299 0 -0.35712059876301439 0.34740413424876382 0 -0.35848812135385522 0.33902175933596412 0 -0.36531193472093021 0.32454274932608829 0 -0.36629538785756799 0.33494858662202331 0 -0.37580907906339922 0.33647878059299557 0 -0.36531193472093021 0.32454274932608829 0 -0.36629538785756799 0.33494858662202331 0 -0.37580907906339922 0.33647878059299557 0 -0.36629538785756799 0.33494858662202331 0 -0.36491865814174967 0.34450616947628299 0 -0.37580907906339922 0.33647878059299557 0 -0.36491865814174967 0.34450616947628299 0 -0.36960199921418602 0.35731180584905542 0 -0.37580907906339922 0.33647878059299557 0 -0.36960199921418602 0.35731180584905542 0 -0.36491865814174967 0.34450616947628299 0 -0.36204010283369881 0.35293053614415609 0 -0.35712059876301439 0.34740413424876382 0 -0.36491865814174967 0.34450616947628299 0 -0.36204010283369881 0.35293053614415609 0 -0.36960199921418602 0.35731180584905542 0 -0.36231373349064938 0.3583368008115923 0 -0.36204010283369881 0.35293053614415609 0 -0.35577634304253192 0.35617190760009498 0 -0.36231373349064938 0.3583368008115923 0 -0.36204010283369881 0.35293053614415609 0 -0.36960199921418602 0.35731180584905542 0 -0.36960199921418602 0.35731180584905542 0 -0.36339491936497281 0.37814483110511521 0 -0.36960199921418602 0.35731180584905542 0 -0.37158620997362618 0.36500042586936587 0 -0.36339491936497281 0.37814483110511521 0 -0.36960199921418602 0.35731180584905542 0 -0.36108579844600058 0.36545797327707619 0 -0.36339491936497281 0.37814483110511521 0 -0.38141148745950948 0.38039780936179463 0 -0.37158620997362618 0.36500042586936587 0 -0.36339491936497281 0.37814483110511521 0 -0.38070440212728118 0.35956436367519867 0 -0.36960199921418602 0.35731180584905542 0 -0.37158620997362618 0.36500042586936587 0 -0.36231373349064938 0.3583368008115923 0 -0.36108579844600058 0.36545797327707619 0 -0.35577634304253192 0.35617190760009498 0 -0.36231373349064938 0.3583368008115923 0 -0.36960199921418602 0.35731180584905542 0 -0.36108579844600058 0.36545797327707619 0 -0.36108579844600058 0.36545797327707619 0 -0.3497530714632448 0.36534695126967459 0 -0.35577634304253192 0.35617190760009498 0 -0.3497530714632448 0.36534695126967459 0 -0.36339491936497281 0.37814483110511521 0 -0.33874167774564268 0.3750619344605613 0 -0.36108579844600058 0.36545797327707619 0 -0.3497530714632448 0.36534695126967459 0 -0.36339491936497281 0.37814483110511521 0 -0.33942470910854639 0.36092010030626542 0 -0.3497530714632448 0.36534695126967459 0 -0.3460879504978186 0.35511096805544279 0 -0.3497530714632448 0.36534695126967459 0 -0.3460879504978186 0.35511096805544279 0 -0.35577634304253192 0.35617190760009498 0 -0.3460879504978186 0.35511096805544279 0 -0.35103907443215082 0.34984414324157243 0 -0.35577634304253192 0.35617190760009498 0 -0.3460879504978186 0.35511096805544279 0 -0.34556584107983002 0.34849125976349993 0 -0.35103907443215082 0.34984414324157243 0 -0.34251680356524339 0.34321741671518669 0 -0.35002774160894051 0.34339273059465159 0 -0.34556584107983002 0.34849125976349993 0 -0.35002774160894051 0.34339273059465159 0 -0.34556584107983002 0.34849125976349993 0 -0.35103907443215082 0.34984414324157243 0 -0.35103907443215082 0.34984414324157243 0 -0.35712059876301439 0.34740413424876382 0 -0.35577634304253192 0.35617190760009498 0 -0.35002774160894051 0.34339273059465159 0 -0.35103907443215082 0.34984414324157243 0 -0.35712059876301439 0.34740413424876382 0 -0.36204010283369881 0.35293053614415609 0 -0.35712059876301439 0.34740413424876382 0 -0.35577634304253192 0.35617190760009498 0 -0.35746143571760969 0.39805957647408341 0 -0.33700984602307921 0.4055687403903776 0 -0.35746143571760969 0.39805957647408341 0 -0.36339491936497281 0.37814483110511521 0 -0.33874167774564268 0.3750619344605613 0 -0.36339491936497281 0.37814483110511521 0 -0.33874167774564268 0.3750619344605613 0 -0.38141148745950948 0.38039780936179463 0 -0.37844474563582792 0.390355182046278 0 -0.36339491936497281 0.37814483110511521 0 -0.37844474563582792 0.390355182046278 0 -0.35746143571760969 0.39805957647408341 0 -0.36339491936497281 0.37814483110511521 0 -0.35746143571760969 0.39805957647408341 0 -0.36339491936497281 0.37814483110511521 0 -0.38141148745950948 0.38039780936179463 0 -0.36339491936497281 0.37814483110511521 0 -0.37668454372729859 0.41206883315114529 0 -0.37844474563582792 0.390355182046278 0 -0.35746143571760969 0.39805957647408341 0 -0.37844474563582792 0.390355182046278 0 -0.35746143571760969 0.39805957647408341 0 -0.37668454372729859 0.41206883315114529 0 -0.36778315087773072 0.43214877602771662 0 -0.35179051953527918 0.41709305806631919 0 -0.37668454372729859 0.41206883315114529 0 -0.35746143571760969 0.39805957647408341 0 -0.35179051953527918 0.41709305806631919 0 -0.37668454372729859 0.41206883315114529 0 -0.35179051953527918 0.41709305806631919 0 -0.36778315087773072 0.43214877602771662 0 -0.35179051953527918 0.41709305806631919 0 -0.34355933144160938 0.44471966407244162 0 -0.35179051953527918 0.41709305806631919 0 -0.34355933144160938 0.44471966407244162 0 -0.35746143571760969 0.39805957647408341 0 -0.35179051953527918 0.41709305806631919 0 -0.33700984602307921 0.4055687403903776 0 -0.35746143571760969 0.39805957647408341 0 -0.35179051953527918 0.41709305806631919 0 -0.35179051953527918 0.41709305806631919 0 -0.33092261172728182 0.42130471390500562 0 -0.33700984602307921 0.4055687403903776 0 -0.35179051953527918 0.41709305806631919 0 -0.33092261172728182 0.42130471390500562 0 -0.33092261172728182 0.42130471390500562 0 -0.31655825632854873 0.41307790430667191 0 -0.33700984602307921 0.4055687403903776 0 -0.35179051953527918 0.41709305806631919 0 -0.33092261172728182 0.42130471390500562 0 -0.34355933144160938 0.44471966407244162 0 -0.33092261172728182 0.42130471390500562 0 -0.32304151796324199 0.43794530689545591 0 -0.34355933144160938 0.44471966407244162 0 -0.33092261172728182 0.42130471390500562 0 -0.31005470391928353 0.42551636974368717 0 -0.32304151796324199 0.43794530689545591 0 -0.33092261172728182 0.42130471390500562 0 -0.31005470391928353 0.42551636974368717 0 -0.31005470391928353 0.42551636974368717 0 -0.30636015846579262 0.44081646755455739 0 -0.32304151796324199 0.43794530689545591 0 -0.31655825632854873 0.41307790430667191 0 -0.32178824989383492 0.40044082628072353 0 -0.33700984602307921 0.4055687403903776 0 -0.33092261172728182 0.42130471390500562 0 -0.31655825632854873 0.41307790430667191 0 -0.31005470391928353 0.42551636974368717 0 -0.31655825632854873 0.41307790430667191 0 -0.33700984602307921 0.4055687403903776 0 -0.31655825632854873 0.41307790430667191 0 -0.32178824989383492 0.40044082628072353 0 -0.30820761894760612 0.40180007281058999 0 -0.31589124725359768 0.39098578459502642 0 -0.32178824989383492 0.40044082628072353 0 -0.30820761894760612 0.40180007281058999 0 -0.31589124725359768 0.39098578459502642 0 -0.32178824989383492 0.40044082628072353 0 -0.33127428091634248 0.39077162930095188 0 -0.35746143571760969 0.39805957647408341 0 -0.33127428091634248 0.39077162930095188 0 -0.33700984602307921 0.4055687403903776 0 -0.32178824989383492 0.40044082628072353 0 -0.33127428091634248 0.39077162930095188 0 -0.33700984602307921 0.4055687403903776 0 -0.35746143571760969 0.39805957647408341 0 -0.33127428091634248 0.39077162930095188 0 -0.33874167774564268 0.3750619344605613 0 -0.31408843612631249 0.37197903781600761 0 -0.33127428091634248 0.39077162930095188 0 -0.33874167774564268 0.3750619344605613 0 -0.31408843612631249 0.37197903781600761 0 -0.31589124725359768 0.39098578459502642 0 -0.33127428091634248 0.39077162930095188 0 -0.29551252006441958 0.37309371542857861 0 -0.31408843612631249 0.37197903781600761 0 -0.30568017353146049 0.38157918508743732 0 -0.31408843612631249 0.37197903781600761 0 -0.31589124725359768 0.39098578459502642 0 -0.30568017353146049 0.38157918508743732 0 -0.31589124725359768 0.39098578459502642 0 -0.30568017353146049 0.38157918508743732 0 -0.30603649680964828 0.39194203915736708 0 -0.30568017353146049 0.38157918508743732 0 -0.29743858983336929 0.38628170497916159 0 -0.30603649680964828 0.39194203915736708 0 -0.29551252006441958 0.37309371542857861 0 -0.30568017353146049 0.38157918508743732 0 -0.29743858983336929 0.38628170497916159 0 -0.31589124725359768 0.39098578459502642 0 -0.30820761894760612 0.40180007281058999 0 -0.30603649680964828 0.39194203915736708 0 -0.30820761894760612 0.40180007281058999 0 -0.30603649680964828 0.39194203915736708 0 -0.29604813782321171 0.40003827384795049 0 -0.29743858983336929 0.38628170497916159 0 -0.30603649680964828 0.39194203915736708 0 -0.29604813782321171 0.40003827384795049 0 -0.30820761894760612 0.40180007281058999 0 -0.29604813782321171 0.40003827384795049 0 -0.2987408814332651 0.40933989620534528 0 -0.29604813782321171 0.40003827384795049 0 -0.28905057763704689 0.40562835892549581 0 -0.28392778011776681 0.39892722844600809 0 -0.29604813782321171 0.40003827384795049 0 -0.28905057763704689 0.40562835892549581 0 -0.2987408814332651 0.40933989620534528 0 -0.29604813782321171 0.40003827384795049 0 -0.28980128107673031 0.39400368344191522 0 -0.28392778011776681 0.39892722844600809 0 -0.29743858983336929 0.38628170497916159 0 -0.29604813782321171 0.40003827384795049 0 -0.28980128107673031 0.39400368344191522 0 -0.28980128107673031 0.39400368344191522 0 -0.28179061653257348 0.3907675264945405 0 -0.28392778011776681 0.39892722844600809 0 -0.28905057763704689 0.40562835892549581 0 -0.28392778011776681 0.39892722844600809 0 -0.27817781655911977 0.40726136879628272 0 -0.29743858983336929 0.38628170497916159 0 -0.28980128107673031 0.39400368344191522 0 -0.28179061653257348 0.3907675264945405 0 -0.29743858983336929 0.38628170497916159 0 -0.28179061653257348 0.3907675264945405 0 -0.28819376848868639 0.38228739672622841 0 -0.29743858983336929 0.38628170497916159 0 -0.28179061653257348 0.3907675264945405 0 -0.29551252006441958 0.37309371542857861 0 -0.29743858983336929 0.38628170497916159 0 -0.28819376848868639 0.38228739672622841 0 -0.29551252006441958 0.37309371542857861 0 -0.28819376848868639 0.38228739672622841 0 -0.28685204816290072 0.37621819500323123 0 -0.28179061653257348 0.3907675264945405 0 -0.28158428542699082 0.38279668863870758 0 -0.28819376848868639 0.38228739672622841 0 -0.28158428542699082 0.38279668863870758 0 -0.28819376848868639 0.38228739672622841 0 -0.28685204816290072 0.37621819500323123 0 -0.28158428542699082 0.38279668863870758 0 -0.28685204816290072 0.37621819500323123 0 -0.28084635904778937 0.37544065550995409 0 -0.27110701654299552 0.36596211494311248 0 -0.26614264323177789 0.39525334800991979 0 -0.27110701654299552 0.36596211494311248 0 -0.27663284499009211 0.37939207802828528 0 -0.27229768174870289 0.38438446135480281 0 -0.27110701654299552 0.36596211494311248 0 -0.27229768174870289 0.38438446135480281 0 -0.26614264323177789 0.39525334800991979 0 -0.27110701654299552 0.36596211494311248 0 -0.26689531734350652 0.36931705260985792 0 -0.26614264323177789 0.39525334800991979 0 -0.28158428542699082 0.38279668863870758 0 -0.28084635904778937 0.37544065550995409 0 -0.27663284499009211 0.37939207802828528 0 -0.27229768174870289 0.38438446135480281 0 -0.27641046434025379 0.38710393959788297 0 -0.26614264323177789 0.39525334800991979 0 -0.28179061653257348 0.3907675264945405 0 -0.28158428542699082 0.38279668863870758 0 -0.27641046434025379 0.38710393959788297 0 -0.27663284499009211 0.37939207802828528 0 -0.27229768174870289 0.38438446135480281 0 -0.27641046434025379 0.38710393959788297 0 -0.28158428542699082 0.38279668863870758 0 -0.27663284499009211 0.37939207802828528 0 -0.27641046434025379 0.38710393959788297 0 -0.28179061653257348 0.3907675264945405 0 -0.27641046434025379 0.38710393959788297 0 -0.26614264323177789 0.39525334800991979 0 -0.28179061653257348 0.3907675264945405 0 -0.27661435207820328 0.39472461325581981 0 -0.26614264323177789 0.39525334800991979 0 -0.28179061653257348 0.3907675264945405 0 -0.28392778011776681 0.39892722844600809 0 -0.27661435207820328 0.39472461325581981 0 -0.28179061653257348 0.3907675264945405 0 -0.26614264323177789 0.39525334800991979 0 -0.28392778011776681 0.39892722844600809 0 -0.27661435207820328 0.39472461325581981 0 -0.27572094251528112 0.40196054452149499 0 -0.28392778011776681 0.39892722844600809 0 -0.27572094251528112 0.40196054452149499 0 -0.27817781655911977 0.40726136879628272 0 -0.27572094251528112 0.40196054452149499 0 -0.26416382130603389 0.40692896758786917 0 -0.27817781655911977 0.40726136879628272 0 -0.27661435207820328 0.39472461325581981 0 -0.27572094251528112 0.40196054452149499 0 -0.26416382130603389 0.40692896758786917 0 -0.27661435207820328 0.39472461325581981 0 -0.26614264323177789 0.39525334800991979 0 -0.26416382130603389 0.40692896758786917 0 -0.27661435207820328 0.39472461325581981 0 -0.26416382130603389 0.40692896758786917 0 -0.26614264323177789 0.39525334800991979 0 -0.24781733580734391 0.38604582424895789 0 -0.24388213391773941 0.40163479241199579 0 -0.26614264323177789 0.39525334800991979 0 -0.25157066981256843 0.40894445920752592 0 -0.24388213391773941 0.40163479241199579 0 -0.26614264323177789 0.39525334800991979 0 -0.24388213391773941 0.40163479241199579 0 -0.26614264323177789 0.39525334800991979 0 -0.26416382130603389 0.40692896758786917 0 -0.26614264323177789 0.39525334800991979 0 -0.25157066981256843 0.40894445920752592 0 -0.26416382130603389 0.40692896758786917 0 -0.25453646971320443 0.37462232419521813 0 -0.26614264323177789 0.39525334800991979 0 -0.24781733580734391 0.38604582424895789 0 -0.25453646971320443 0.37462232419521813 0 -0.26689531734350652 0.36931705260985792 0 -0.26614264323177789 0.39525334800991979 0 -0.26107936510946472 0.42512814796255138 0 -0.25799490891289278 0.4433273283372331 0 -0.26107936510946472 0.42512814796255138 0 -0.27138668263498972 0.43431468825499642 0 -0.25799490891289278 0.4433273283372331 0 -0.26107936510946472 0.42512814796255138 0 -0.25799490891289278 0.4433273283372331 0 -0.24263019791012411 0.42803682032005991 0 -0.25799490891289278 0.4433273283372331 0 -0.24263019791012411 0.42803682032005991 0 -0.26107936510946472 0.42512814796255138 0 -0.26416382130603389 0.40692896758786917 0 -0.26107936510946472 0.42512814796255138 0 -0.26416382130603389 0.40692896758786917 0 -0.24263019791012411 0.42803682032005991 0 -0.26416382130603389 0.40692896758786917 0 -0.24263019791012411 0.42803682032005991 0 -0.25157066981256843 0.40894445920752592 0 -0.26416382130603389 0.40692896758786917 0 -0.24263019791012411 0.42803682032005991 0 -0.26107936510946472 0.42512814796255138 0 -0.26416382130603389 0.40692896758786917 0 -0.27370875903762831 0.41905129137381081 0 -0.26416382130603389 0.40692896758786917 0 -0.27817781655911977 0.40726136879628272 0 -0.27370875903762831 0.41905129137381081 0 -0.27817781655911977 0.40726136879628272 0 -0.27370875903762831 0.41905129137381081 0 -0.28647403122915938 0.41490769911839809 0 -0.27370875903762831 0.41905129137381081 0 -0.27138668263498972 0.43431468825499642 0 -0.28359142860916292 0.42646623900898489 0 -0.26107936510946472 0.42512814796255138 0 -0.27370875903762831 0.41905129137381081 0 -0.27138668263498972 0.43431468825499642 0 -0.27138668263498972 0.43431468825499642 0 -0.28359142860916292 0.42646623900898489 0 -0.28426041238301858 0.43930471826406531 0 -0.28359142860916292 0.42646623900898489 0 -0.29576073289665422 0.43347565529899762 0 -0.28426041238301858 0.43930471826406531 0 -0.28359142860916292 0.42646623900898489 0 -0.29576073289665422 0.43347565529899762 0 -0.29610666663401819 0.4205870682229661 0 -0.28905057763704689 0.40562835892549581 0 -0.27817781655911977 0.40726136879628272 0 -0.28647403122915938 0.41490769911839809 0 -0.27370875903762831 0.41905129137381081 0 -0.28359142860916292 0.42646623900898489 0 -0.28647403122915938 0.41490769911839809 0 -0.28359142860916292 0.42646623900898489 0 -0.28647403122915938 0.41490769911839809 0 -0.29610666663401819 0.4205870682229661 0 -0.28647403122915938 0.41490769911839809 0 -0.29610666663401819 0.4205870682229661 0 -0.2987408814332651 0.40933989620534528 0 -0.28905057763704689 0.40562835892549581 0 -0.28647403122915938 0.41490769911839809 0 -0.2987408814332651 0.40933989620534528 0 -0.31655825632854873 0.41307790430667191 0 -0.29610666663401819 0.4205870682229661 0 -0.2987408814332651 0.40933989620534528 0 -0.31655825632854873 0.41307790430667191 0 -0.29610666663401819 0.4205870682229661 0 -0.31005470391928353 0.42551636974368717 0 -0.31655825632854873 0.41307790430667191 0 -0.29610666663401819 0.4205870682229661 0 -0.31655825632854873 0.41307790430667191 0 -0.30820761894760612 0.40180007281058999 0 -0.2987408814332651 0.40933989620534528 0 -0.29576073289665422 0.43347565529899762 0 -0.31005470391928353 0.42551636974368717 0 -0.30636015846579262 0.44081646755455739 0 -0.29576073289665422 0.43347565529899762 0 -0.29610666663401819 0.4205870682229661 0 -0.31005470391928353 0.42551636974368717 0 -0.29576073289665422 0.43347565529899762 0 -0.30636015846579262 0.44081646755455739 0 -0.2944743431310044 0.45228094752776682 0 -0.30636015846579262 0.44081646755455739 0 -0.30512100021830008 0.46490456032657962 0 -0.30636015846579262 0.44081646755455739 0 -0.30512100021830008 0.46490456032657962 0 -0.2944743431310044 0.45228094752776682 0 -0.30636015846579262 0.44081646755455739 0 -0.30512100021830008 0.46490456032657962 0 -0.32381548421637429 0.45642326981327008 0 -0.30512100021830008 0.46490456032657962 0 -0.2944743431310044 0.45228094752776682 0 -0.28858619761816889 0.47377087817814589 0 -0.2944743431310044 0.45228094752776682 0 -0.27329055326553048 0.45854910325768988 0 -0.28858619761816889 0.47377087817814589 0 -0.2944743431310044 0.45228094752776682 0 -0.28426041238301858 0.43930471826406531 0 -0.27329055326553048 0.45854910325768988 0 -0.29576073289665422 0.43347565529899762 0 -0.2944743431310044 0.45228094752776682 0 -0.28426041238301858 0.43930471826406531 0 -0.27138668263498972 0.43431468825499642 0 -0.28426041238301858 0.43930471826406531 0 -0.27329055326553048 0.45854910325768988 0 -0.27138668263498972 0.43431468825499642 0 -0.27329055326553048 0.45854910325768988 0 -0.25799490891289278 0.4433273283372331 0 -0.27329055326553048 0.45854910325768988 0 -0.25799490891289278 0.4433273283372331 0 -0.27329055326553048 0.45854910325768988 0 -0.28858619761816889 0.47377087817814589 0 -0.27329055326553048 0.45854910325768988 0 -0.25438198006151169 0.46464464965965441 0 -0.25799490891289278 0.4433273283372331 0 -0.27329055326553048 0.45854910325768988 0 -0.25438198006151169 0.46464464965965441 0 -0.26859377699614329 0.4811575177290362 0 -0.25438198006151169 0.46464464965965441 0 -0.25799490891289278 0.4433273283372331 0 -0.25438198006151169 0.46464464965965441 0 -0.25799490891289278 0.4433273283372331 0 -0.24356894722331929 0.44821508210096461 0 -0.25080144613104921 0.5 0 -0.26859377699614329 0.4811575177290362 0 -0.2467553297522557 0.48147402383551691 0 -0.25080144613104921 0.5 0 -0.26859377699614329 0.4811575177290362 0 -0.27705851983630159 0.5 0 -0.25438198006151169 0.46464464965965441 0 -0.26859377699614329 0.4811575177290362 0 -0.2467553297522557 0.48147402383551691 0 -0.27329055326553048 0.45854910325768988 0 -0.26859377699614329 0.4811575177290362 0 -0.28858619761816889 0.47377087817814589 0 -0.26859377699614329 0.4811575177290362 0 -0.27705851983630159 0.5 0 -0.28830299895955541 0.48893487857068268 0 -0.27705851983630159 0.5 0 -0.28830299895955541 0.48893487857068268 0 -0.30331559354155391 0.49999999999999939 0 -0.26859377699614329 0.4811575177290362 0 -0.28830299895955541 0.48893487857068268 0 -0.28858619761816889 0.47377087817814589 0 -0.28830299895955541 0.48893487857068268 0 -0.28858619761816889 0.47377087817814589 0 -0.30388184197080759 0.48899265309860168 0 -0.28858619761816889 0.47377087817814589 0 -0.30388184197080759 0.48899265309860168 0 -0.30512100021830008 0.46490456032657962 0 -0.30388184197080759 0.48899265309860168 0 -0.30512100021830008 0.46490456032657962 0 -0.30388184197080759 0.48899265309860168 0 -0.31654611508668351 0.48621885406126381 0 -0.30512100021830008 0.46490456032657962 0 -0.28858619761816889 0.47377087817814589 0 -0.30388184197080759 0.48899265309860168 0 -0.30331559354155391 0.49999999999999939 0 -0.30388184197080759 0.48899265309860168 0 -0.28830299895955541 0.48893487857068268 0 -0.30331559354155391 0.49999999999999939 0 -0.30388184197080759 0.48899265309860168 0 -0.30388184197080759 0.48899265309860168 0 -0.31494260619507058 0.500000000000002 0 -0.31654611508668351 0.48621885406126381 0 -0.30331559354155391 0.49999999999999939 0 -0.30388184197080759 0.48899265309860168 0 -0.31494260619507058 0.500000000000002 0 -0.30388184197080759 0.48899265309860168 0 -0.31494260619507058 0.500000000000002 0 -0.31654611508668351 0.48621885406126381 0 -0.33275791060477139 0.5 0 -0.32602721644446891 0.47719705688113462 0 -0.31494260619507058 0.500000000000002 0 -0.31654611508668351 0.48621885406126381 0 -0.33275791060477139 0.5 0 -0.33275791060477139 0.5 0 -0.34200011506365208 0.48331572161184322 0 -0.32602721644446891 0.47719705688113462 0 -0.33275791060477139 0.5 0 -0.34200011506365208 0.48331572161184322 0 -0.35057321501447208 0.49999999999999872 0 -0.34200011506365208 0.48331572161184322 0 -0.32602721644446891 0.47719705688113462 0 -0.33593075250063148 0.46750731867274542 0 -0.34200011506365208 0.48331572161184322 0 -0.33593075250063148 0.46750731867274542 0 -0.35201810675435108 0.4676562019538536 0 -0.30512100021830008 0.46490456032657962 0 -0.31654611508668351 0.48621885406126381 0 -0.32602721644446891 0.47719705688113462 0 -0.30512100021830008 0.46490456032657962 0 -0.32602721644446891 0.47719705688113462 0 -0.32381548421637429 0.45642326981327008 0 -0.30636015846579262 0.44081646755455739 0 -0.32381548421637429 0.45642326981327008 0 -0.32304151796324199 0.43794530689545591 0 -0.32381548421637429 0.45642326981327008 0 -0.32304151796324199 0.43794530689545591 0 -0.34355933144160938 0.44471966407244162 0 -0.32381548421637429 0.45642326981327008 0 -0.34355933144160938 0.44471966407244162 0 -0.33593075250063148 0.46750731867274542 0 -0.32602721644446891 0.47719705688113462 0 -0.32381548421637429 0.45642326981327008 0 -0.33593075250063148 0.46750731867274542 0 -0.35201810675435108 0.4676562019538536 0 -0.36028404822733179 0.44939908513577981 0 -0.36566353784044697 0.46257036423753561 0 -0.34355933144160938 0.44471966407244162 0 -0.35201810675435108 0.4676562019538536 0 -0.36028404822733179 0.44939908513577981 0 -0.34355933144160938 0.44471966407244162 0 -0.33593075250063148 0.46750731867274542 0 -0.35201810675435108 0.4676562019538536 0 -0.36778315087773072 0.43214877602771662 0 -0.34355933144160938 0.44471966407244162 0 -0.36028404822733179 0.44939908513577981 0 -0.36778315087773072 0.43214877602771662 0 -0.36028404822733179 0.44939908513577981 0 -0.37376195539900242 0.45249759326054367 0 -0.37701653082709469 0.46900635458093531 0 -0.37376195539900242 0.45249759326054367 0 -0.36566353784044697 0.46257036423753561 0 -0.36028404822733179 0.44939908513577981 0 -0.37376195539900242 0.45249759326054367 0 -0.36566353784044697 0.46257036423753561 0 -0.36552159823955549 0.47691699748014749 0 -0.37220834978290879 0.49000150617251997 0 -0.35595833756876799 0.48470827593500232 0 -0.37701653082709469 0.46900635458093531 0 -0.36566353784044697 0.46257036423753561 0 -0.36552159823955549 0.47691699748014749 0 -0.37805640255927542 0.47903421333972468 0 -0.37701653082709469 0.46900635458093531 0 -0.36552159823955549 0.47691699748014749 0 -0.35201810675435108 0.4676562019538536 0 -0.36566353784044697 0.46257036423753561 0 -0.36552159823955549 0.47691699748014749 0 -0.37805640255927542 0.47903421333972468 0 -0.36552159823955549 0.47691699748014749 0 -0.37220834978290879 0.49000150617251997 0 -0.37220834978290879 0.49000150617251997 0 -0.35057321501447208 0.49999999999999872 0 -0.35595833756876799 0.48470827593500232 0 -0.37789332191386737 0.5 0 -0.37220834978290879 0.49000150617251997 0 -0.35057321501447208 0.49999999999999872 0 -0.37220834978290879 0.49000150617251997 0 -0.35057321501447208 0.49999999999999872 0 -0.34200011506365208 0.48331572161184322 0 -0.35057321501447208 0.49999999999999872 0 -0.35595833756876799 0.48470827593500232 0 -0.34200011506365208 0.48331572161184322 0 -0.35201810675435108 0.4676562019538536 0 -0.35595833756876799 0.48470827593500232 0 -0.35201810675435108 0.4676562019538536 0 -0.36552159823955549 0.47691699748014749 0 -0.35595833756876799 0.48470827593500232 0 -0.142080771754234 0.48212662116497451 0 -0.14744519938683801 0.47523243684594829 0 -0.1380962150490555 0.47248515407185221 0 -0.142080771754234 0.48212662116497451 0 -0.14744519938683801 0.47523243684594829 0 -0.15313912830386001 0.48632871978955722 0 -0.14744519938683801 0.47523243684594829 0 -0.1380962150490555 0.47248515407185221 0 -0.1446941887002707 0.46454185114692792 0 -0.14744519938683801 0.47523243684594829 0 -0.1446941887002707 0.46454185114692792 0 -0.15815775643206659 0.473198332503178 0 -0.14744519938683801 0.47523243684594829 0 -0.15313912830386001 0.48632871978955722 0 -0.15815775643206659 0.473198332503178 0 -0.142080771754234 0.48212662116497451 0 -0.15313912830386001 0.48632871978955722 0 -0.13803845513632401 0.5 0 -0.15313912830386001 0.48632871978955722 0 -0.13803845513632401 0.5 0 -0.1663114266205577 0.50000000000000011 0 -0.142080771754234 0.48212662116497451 0 -0.13803845513632401 0.5 0 -0.12908554574303099 0.47755934496718438 0 -0.13803845513632401 0.5 0 -0.12908554574303099 0.47755934496718438 0 -0.1160402402672886 0.48503019582547341 0 -0.142080771754234 0.48212662116497451 0 -0.12908554574303099 0.47755934496718438 0 -0.1380962150490555 0.47248515407185221 0 -0.12908554574303099 0.47755934496718438 0 -0.1380962150490555 0.47248515407185221 0 -0.13097929143795109 0.46459511115351071 0 -0.12908554574303099 0.47755934496718438 0 -0.13097929143795109 0.46459511115351071 0 -0.1176294132596279 0.46872710166108278 0 -0.13097929143795109 0.46459511115351071 0 -0.1351896940807357 0.45304119368279389 0 -0.1204057133641486 0.45504160574272429 0 -0.13097929143795109 0.46459511115351071 0 -0.1351896940807357 0.45304119368279389 0 -0.1446941887002707 0.46454185114692792 0 -0.1380962150490555 0.47248515407185221 0 -0.13097929143795109 0.46459511115351071 0 -0.1446941887002707 0.46454185114692792 0 -0.1351896940807357 0.45304119368279389 0 -0.13889501351409689 0.43598263237980822 0 -0.1242648033483075 0.43981492828754482 0 -0.1351896940807357 0.45304119368279389 0 -0.1242648033483075 0.43981492828754482 0 -0.1204057133641486 0.45504160574272429 0 -0.15017718620881049 0.45777983735391498 0 -0.13889501351409689 0.43598263237980822 0 -0.1351896940807357 0.45304119368279389 0 -0.15017718620881049 0.45777983735391498 0 -0.13889501351409689 0.43598263237980822 0 -0.15995177900170021 0.44572512983606088 0 -0.15376963845050121 0.4328235067909087 0 -0.13889501351409689 0.43598263237980822 0 -0.15017718620881049 0.45777983735391498 0 -0.15995177900170021 0.44572512983606088 0 -0.13889501351409689 0.43598263237980822 0 -0.15017718620881049 0.45777983735391498 0 -0.15995177900170021 0.44572512983606088 0 -0.1446941887002707 0.46454185114692792 0 -0.15017718620881049 0.45777983735391498 0 -0.1351896940807357 0.45304119368279389 0 -0.1446941887002707 0.46454185114692792 0 -0.15017718620881049 0.45777983735391498 0 -0.1446941887002707 0.46454185114692792 0 -0.15017718620881049 0.45777983735391498 0 -0.15815775643206659 0.473198332503178 0 -0.15017718620881049 0.45777983735391498 0 -0.15868634814382429 0.46531473325554851 0 -0.15815775643206659 0.473198332503178 0 -0.15017718620881049 0.45777983735391498 0 -0.15815775643206659 0.473198332503178 0 -0.160558198289461 0.46047642425523388 0 -0.1655661766345953 0.45099185016729298 0 -0.16585225164495951 0.46980433890986678 0 -0.1655661766345953 0.45099185016729298 0 -0.17867327812258871 0.46114583139567922 0 -0.16585225164495951 0.46980433890986678 0 -0.1655661766345953 0.45099185016729298 0 -0.16585225164495951 0.46980433890986678 0 -0.15868634814382429 0.46531473325554851 0 -0.160558198289461 0.46047642425523388 0 -0.16585225164495951 0.46980433890986678 0 -0.15017718620881049 0.45777983735391498 0 -0.15868634814382429 0.46531473325554851 0 -0.160558198289461 0.46047642425523388 0 -0.15017718620881049 0.45777983735391498 0 -0.160558198289461 0.46047642425523388 0 -0.15995177900170021 0.44572512983606088 0 -0.15995177900170021 0.44572512983606088 0 -0.1655661766345953 0.45099185016729298 0 -0.1697263717945888 0.43367042231820602 0 -0.160558198289461 0.46047642425523388 0 -0.15995177900170021 0.44572512983606088 0 -0.1655661766345953 0.45099185016729298 0 -0.15995177900170021 0.44572512983606088 0 -0.1697263717945888 0.43367042231820602 0 -0.1655661766345953 0.45099185016729298 0 -0.1926513277646352 0.45119866261047992 0 -0.1697263717945888 0.43367042231820602 0 -0.1926513277646352 0.45119866261047992 0 -0.1697263717945888 0.43367042231820602 0 -0.1926513277646352 0.45119866261047992 0 -0.18693863061853061 0.43491447939059907 0 -0.1697263717945888 0.43367042231820602 0 -0.1655661766345953 0.45099185016729298 0 -0.17867327812258871 0.46114583139567922 0 -0.1926513277646352 0.45119866261047992 0 -0.17867327812258871 0.46114583139567922 0 -0.17876854714149509 0.47093865696285842 0 -0.16585225164495951 0.46980433890986678 0 -0.17867327812258871 0.46114583139567922 0 -0.1899884502156329 0.46461586120334353 0 -0.1926513277646352 0.45119866261047992 0 -0.17867327812258871 0.46114583139567922 0 -0.17876854714149509 0.47093865696285842 0 -0.1899884502156329 0.46461586120334353 0 -0.17876854714149509 0.47093865696285842 0 -0.19138341924764241 0.47827032896460842 0 -0.1899884502156329 0.46461586120334353 0 -0.1757986315986971 0.48088398659212228 0 -0.17876854714149509 0.47093865696285842 0 -0.19138341924764241 0.47827032896460842 0 -0.1757986315986971 0.48088398659212228 0 -0.17876854714149509 0.47093865696285842 0 -0.16585225164495951 0.46980433890986678 0 -0.16585225164495951 0.46980433890986678 0 -0.16613832665532341 0.48861682765244069 0 -0.16585225164495951 0.46980433890986678 0 -0.15815775643206659 0.473198332503178 0 -0.16613832665532341 0.48861682765244069 0 -0.1757986315986971 0.48088398659212228 0 -0.16585225164495951 0.46980433890986678 0 -0.16613832665532341 0.48861682765244069 0 -0.15313912830386001 0.48632871978955722 0 -0.15815775643206659 0.473198332503178 0 -0.16613832665532341 0.48861682765244069 0 -0.15815775643206659 0.473198332503178 0 -0.16613832665532341 0.48861682765244069 0 -0.15868634814382429 0.46531473325554851 0 -0.16585225164495951 0.46980433890986678 0 -0.15815775643206659 0.473198332503178 0 -0.15313912830386001 0.48632871978955722 0 -0.16613832665532341 0.48861682765244069 0 -0.1663114266205577 0.50000000000000011 0 -0.16613832665532341 0.48861682765244069 0 -0.1720302250152923 0.50000000000000022 0 -0.16613832665532341 0.48861682765244069 0 -0.1663114266205577 0.50000000000000011 0 -0.1720302250152923 0.50000000000000022 0 -0.16613832665532341 0.48861682765244069 0 -0.1663114266205577 0.50000000000000011 0 -0.16613832665532341 0.48861682765244069 0 -0.17430115969348189 0.49501483184612438 0 -0.1720302250152923 0.50000000000000022 0 -0.17430115969348189 0.49501483184612438 0 -0.1720302250152923 0.50000000000000022 0 -0.1982872987205446 0.5 0 -0.1757986315986971 0.48088398659212228 0 -0.17430115969348189 0.49501483184612438 0 -0.19138341924764241 0.47827032896460842 0 -0.17430115969348189 0.49501483184612438 0 -0.19138341924764241 0.47827032896460842 0 -0.1757986315986971 0.48088398659212228 0 -0.16613832665532341 0.48861682765244069 0 -0.17430115969348189 0.49501483184612438 0 -0.17430115969348189 0.49501483184612438 0 -0.1982872987205446 0.5 0 -0.19138341924764241 0.47827032896460842 0 -0.1982872987205446 0.5 0 -0.19138341924764241 0.47827032896460842 0 -0.21217809917650449 0.48030286392854288 0 -0.19138341924764241 0.47827032896460842 0 -0.208465678801803 0.46152582608309223 0 -0.19138341924764241 0.47827032896460842 0 -0.21217809917650449 0.48030286392854288 0 -0.208465678801803 0.46152582608309223 0 -0.1982872987205446 0.5 0 -0.21217809917650449 0.48030286392854288 0 -0.22454437242579681 0.5 0 -0.22454437242579681 0.5 0 -0.2288960980978284 0.47674808914996208 0 -0.2467553297522557 0.48147402383551691 0 -0.21217809917650449 0.48030286392854288 0 -0.22454437242579681 0.5 0 -0.2288960980978284 0.47674808914996208 0 -0.21217809917650449 0.48030286392854288 0 -0.2288960980978284 0.47674808914996208 0 -0.22325063631842021 0.46203708915627778 0 -0.25438198006151169 0.46464464965965441 0 -0.2467553297522557 0.48147402383551691 0 -0.2372897108761052 0.46028528898629889 0 -0.2288960980978284 0.47674808914996208 0 -0.2467553297522557 0.48147402383551691 0 -0.2372897108761052 0.46028528898629889 0 -0.25080144613104921 0.5 0 -0.22454437242579681 0.5 0 -0.2467553297522557 0.48147402383551691 0 -0.24356894722331929 0.44821508210096461 0 -0.22554793835596351 0.44478132320157598 0 -0.24263019791012411 0.42803682032005991 0 -0.24356894722331929 0.44821508210096461 0 -0.2372897108761052 0.46028528898629889 0 -0.22554793835596351 0.44478132320157598 0 -0.25799490891289278 0.4433273283372331 0 -0.24356894722331929 0.44821508210096461 0 -0.24263019791012411 0.42803682032005991 0 -0.25438198006151169 0.46464464965965441 0 -0.24356894722331929 0.44821508210096461 0 -0.2372897108761052 0.46028528898629889 0 -0.2288960980978284 0.47674808914996208 0 -0.2372897108761052 0.46028528898629889 0 -0.22325063631842021 0.46203708915627778 0 -0.2372897108761052 0.46028528898629889 0 -0.22325063631842021 0.46203708915627778 0 -0.22554793835596351 0.44478132320157598 0 -0.22325063631842021 0.46203708915627778 0 -0.22554793835596351 0.44478132320157598 0 -0.208465678801803 0.46152582608309223 0 -0.22554793835596351 0.44478132320157598 0 -0.20785557032720109 0.44518798724498809 0 -0.21437917226951189 0.43588067273166847 0 -0.22554793835596351 0.44478132320157598 0 -0.20785557032720109 0.44518798724498809 0 -0.208465678801803 0.46152582608309223 0 -0.22554793835596351 0.44478132320157598 0 -0.208465678801803 0.46152582608309223 0 -0.21217809917650449 0.48030286392854288 0 -0.22325063631842021 0.46203708915627778 0 -0.208465678801803 0.46152582608309223 0 -0.19138341924764241 0.47827032896460842 0 -0.208465678801803 0.46152582608309223 0 -0.1899884502156329 0.46461586120334353 0 -0.208465678801803 0.46152582608309223 0 -0.1899884502156329 0.46461586120334353 0 -0.1926513277646352 0.45119866261047992 0 -0.20785557032720109 0.44518798724498809 0 -0.1926513277646352 0.45119866261047992 0 -0.18693863061853061 0.43491447939059907 0 -0.20785557032720109 0.44518798724498809 0 -0.208465678801803 0.46152582608309223 0 -0.1926513277646352 0.45119866261047992 0 -0.19176926968858449 0.42488004754311998 0 -0.20430089696141959 0.42856004989685992 0 -0.18693863061853061 0.43491447939059907 0 -0.20785557032720109 0.44518798724498809 0 -0.20430089696141959 0.42856004989685992 0 -0.18693863061853061 0.43491447939059907 0 -0.19176926968858449 0.42488004754311998 0 -0.19667758679306771 0.41738623802377928 0 -0.20430089696141959 0.42856004989685992 0 -0.19667758679306771 0.41738623802377928 0 -0.19460267291041519 0.40299123798476227 0 -0.182164522352502 0.41833083015148409 0 -0.19460267291041519 0.40299123798476227 0 -0.182164522352502 0.41833083015148409 0 -0.19176926968858449 0.42488004754311998 0 -0.19667758679306771 0.41738623802377928 0 -0.182164522352502 0.41833083015148409 0 -0.19667758679306771 0.41738623802377928 0 -0.2074030129404133 0.4163894186605448 0 -0.20430089696141959 0.42856004989685992 0 -0.19667758679306771 0.41738623802377928 0 -0.2074030129404133 0.4163894186605448 0 -0.19460267291041519 0.40299123798476227 0 -0.2074030129404133 0.4163894186605448 0 -0.21981228343346321 0.42499333058324978 0 -0.22162162460370111 0.40801623681407218 0 -0.2074030129404133 0.4163894186605448 0 -0.22162162460370111 0.40801623681407218 0 -0.19460267291041519 0.40299123798476227 0 -0.20785557032720109 0.44518798724498809 0 -0.20430089696141959 0.42856004989685992 0 -0.21437917226951189 0.43588067273166847 0 -0.2074030129404133 0.4163894186605448 0 -0.20430089696141959 0.42856004989685992 0 -0.21981228343346321 0.42499333058324978 0 -0.20430089696141959 0.42856004989685992 0 -0.21437917226951189 0.43588067273166847 0 -0.21981228343346321 0.42499333058324978 0 -0.22554793835596351 0.44478132320157598 0 -0.24263019791012411 0.42803682032005991 0 -0.22554793835596351 0.44478132320157598 0 -0.2313941741476824 0.42795323546389102 0 -0.24263019791012411 0.42803682032005991 0 -0.22554793835596351 0.44478132320157598 0 -0.21437917226951189 0.43588067273166847 0 -0.21981228343346321 0.42499333058324978 0 -0.22554793835596351 0.44478132320157598 0 -0.2313941741476824 0.42795323546389102 0 -0.21981228343346321 0.42499333058324978 0 -0.2313941741476824 0.42795323546389102 0 -0.21981228343346321 0.42499333058324978 0 -0.2301621318308705 0.41771135234831969 0 -0.2313941741476824 0.42795323546389102 0 -0.2301621318308705 0.41771135234831969 0 -0.23881831920799079 0.42424335086624981 0 -0.21981228343346321 0.42499333058324978 0 -0.22162162460370111 0.40801623681407218 0 -0.2301621318308705 0.41771135234831969 0 -0.22162162460370111 0.40801623681407218 0 -0.2301621318308705 0.41771135234831969 0 -0.241034552697166 0.41286836770778501 0 -0.25157066981256843 0.40894445920752592 0 -0.241034552697166 0.41286836770778501 0 -0.24263019791012411 0.42803682032005991 0 -0.241034552697166 0.41286836770778501 0 -0.24263019791012411 0.42803682032005991 0 -0.23881831920799079 0.42424335086624981 0 -0.22162162460370111 0.40801623681407218 0 -0.241034552697166 0.41286836770778501 0 -0.24388213391773941 0.40163479241199579 0 -0.2301621318308705 0.41771135234831969 0 -0.241034552697166 0.41286836770778501 0 -0.23881831920799079 0.42424335086624981 0 -0.25157066981256843 0.40894445920752592 0 -0.241034552697166 0.41286836770778501 0 -0.24388213391773941 0.40163479241199579 0 -0.2313941741476824 0.42795323546389102 0 -0.24263019791012411 0.42803682032005991 0 -0.23881831920799079 0.42424335086624981 0 -0.24263019791012411 0.42803682032005991 0 -0.23881831920799079 0.42424335086624981 0 -0.25453646971320443 0.37462232419521813 0 -0.24781733580734391 0.38604582424895789 0 -0.23735930512057779 0.37349779701461089 0 -0.2365264908337599 0.38834162546439549 0 -0.24781733580734391 0.38604582424895789 0 -0.23735930512057779 0.37349779701461089 0 -0.2365264908337599 0.38834162546439549 0 -0.24781733580734391 0.38604582424895789 0 -0.24388213391773941 0.40163479241199579 0 -0.22162162460370111 0.40801623681407218 0 -0.24388213391773941 0.40163479241199579 0 -0.22162162460370111 0.40801623681407218 0 -0.2365264908337599 0.38834162546439549 0 -0.2225569648072106 0.38059728391652659 0 -0.22162162460370111 0.40801623681407218 0 -0.2365264908337599 0.38834162546439549 0 -0.24388213391773941 0.40163479241199579 0 -0.2365264908337599 0.38834162546439549 0 -0.2225569648072106 0.38059728391652659 0 -0.23735930512057779 0.37349779701461089 0 -0.2225569648072106 0.38059728391652659 0 -0.20545957084956781 0.38789926664213359 0 -0.1994770785436861 0.36691897370504389 0 -0.22162162460370111 0.40801623681407218 0 -0.2225569648072106 0.38059728391652659 0 -0.20545957084956781 0.38789926664213359 0 -0.22162162460370111 0.40801623681407218 0 -0.20545957084956781 0.38789926664213359 0 -0.19460267291041519 0.40299123798476227 0 -0.20545957084956781 0.38789926664213359 0 -0.19460267291041519 0.40299123798476227 0 -0.18736095772118591 0.3836472042370111 0 -0.20545957084956781 0.38789926664213359 0 -0.18736095772118591 0.3836472042370111 0 -0.1994770785436861 0.36691897370504389 0 -0.18736095772118591 0.3836472042370111 0 -0.16248792359233191 0.38534127627451031 0 -0.17644948136236779 0.3976803029940168 0 -0.18736095772118591 0.3836472042370111 0 -0.16248792359233191 0.38534127627451031 0 -0.1741500565645078 0.37123080613525078 0 -0.16248792359233191 0.38534127627451031 0 -0.16330635783110381 0.4038062271485704 0 -0.14438589058212131 0.3948348353259919 0 -0.16248792359233191 0.38534127627451031 0 -0.16330635783110381 0.4038062271485704 0 -0.17644948136236779 0.3976803029940168 0 -0.19460267291041519 0.40299123798476227 0 -0.17644948136236779 0.3976803029940168 0 -0.17778078602166139 0.40821888849324761 0 -0.19460267291041519 0.40299123798476227 0 -0.18736095772118591 0.3836472042370111 0 -0.17644948136236779 0.3976803029940168 0 -0.16330635783110381 0.4038062271485704 0 -0.17644948136236779 0.3976803029940168 0 -0.17778078602166139 0.40821888849324761 0 -0.19460267291041519 0.40299123798476227 0 -0.182164522352502 0.41833083015148409 0 -0.17778078602166139 0.40821888849324761 0 -0.182164522352502 0.41833083015148409 0 -0.1723808956519178 0.41828584418740389 0 -0.17778078602166139 0.40821888849324761 0 -0.19176926968858449 0.42488004754311998 0 -0.182164522352502 0.41833083015148409 0 -0.18693863061853061 0.43491447939059907 0 -0.182164522352502 0.41833083015148409 0 -0.18693863061853061 0.43491447939059907 0 -0.1697263717945888 0.43367042231820602 0 -0.182164522352502 0.41833083015148409 0 -0.1697263717945888 0.43367042231820602 0 -0.182164522352502 0.41833083015148409 0 -0.1723808956519178 0.41828584418740389 0 -0.1697263717945888 0.43367042231820602 0 -0.15995177900170021 0.44572512983606088 0 -0.1697263717945888 0.43367042231820602 0 -0.15376963845050121 0.4328235067909087 0 -0.1697263717945888 0.43367042231820602 0 -0.14650538949161929 0.41591584262955861 0 -0.15376963845050121 0.4328235067909087 0 -0.1697263717945888 0.43367042231820602 0 -0.14650538949161929 0.41591584262955861 0 -0.1723808956519178 0.41828584418740389 0 -0.1697263717945888 0.43367042231820602 0 -0.14650538949161929 0.41591584262955861 0 -0.1723808956519178 0.41828584418740389 0 -0.14650538949161929 0.41591584262955861 0 -0.16330635783110381 0.4038062271485704 0 -0.1723808956519178 0.41828584418740389 0 -0.14650538949161929 0.41591584262955861 0 -0.16330635783110381 0.4038062271485704 0 -0.1723808956519178 0.41828584418740389 0 -0.17778078602166139 0.40821888849324761 0 -0.14650538949161929 0.41591584262955861 0 -0.15376963845050121 0.4328235067909087 0 -0.13889501351409689 0.43598263237980822 0 -0.13889501351409689 0.43598263237980822 0 -0.12761284081938409 0.41418542740570108 0 -0.14650538949161929 0.41591584262955861 0 -0.13889501351409689 0.43598263237980822 0 -0.12761284081938409 0.41418542740570108 0 -0.13889501351409689 0.43598263237980822 0 -0.12761284081938409 0.41418542740570108 0 -0.1242648033483075 0.43981492828754482 0 -0.14650538949161929 0.41591584262955861 0 -0.12761284081938409 0.41418542740570108 0 -0.12644786621320531 0.40058001872868543 0 -0.14650538949161929 0.41591584262955861 0 -0.12644786621320531 0.40058001872868543 0 -0.14650538949161929 0.41591584262955861 0 -0.12761284081938409 0.41418542740570108 0 -0.14650538949161929 0.41591584262955861 0 -0.12644786621320531 0.40058001872868543 0 -0.14438589058212131 0.3948348353259919 0 -0.12644786621320531 0.40058001872868543 0 -0.12826940643264259 0.38638828685515292 0 -0.14438589058212131 0.3948348353259919 0 -0.1399268433138337 0.37661104245066729 0 -0.12826940643264259 0.38638828685515292 0 -0.1198206075896991 0.37069234566290138 0 -0.1399268433138337 0.37661104245066729 0 -0.12826940643264259 0.38638828685515292 0 -0.14438589058212131 0.3948348353259919 0 -0.16248792359233191 0.38534127627451031 0 -0.1399268433138337 0.37661104245066729 0 -0.1571746455416145 0.36408416689185819 0 -0.16248792359233191 0.38534127627451031 0 -0.1399268433138337 0.37661104245066729 0 -0.14438589058212131 0.3948348353259919 0 -0.16330635783110381 0.4038062271485704 0 -0.14650538949161929 0.41591584262955861 0 -0.14438589058212131 0.3948348353259919 0 -0.1367685514822152 0.35851885971508118 0 -0.13367478836053351 0.33932016938713638 0 -0.15331730601663701 0.3395623532820784 0 -0.1367685514822152 0.35851885971508118 0 -0.15331730601663701 0.3395623532820784 0 -0.1571746455416145 0.36408416689185819 0 -0.1399268433138337 0.37661104245066729 0 -0.1367685514822152 0.35851885971508118 0 -0.1571746455416145 0.36408416689185819 0 -0.1399268433138337 0.37661104245066729 0 -0.1367685514822152 0.35851885971508118 0 -0.1198206075896991 0.37069234566290138 0 -0.1367685514822152 0.35851885971508118 0 -0.13367478836053351 0.33932016938713638 0 -0.1173066256070304 0.35104950557859033 0 -0.13367478836053351 0.33932016938713638 0 -0.1262409447270301 0.3211703831111522 0 -0.1175879007316586 0.33497855513245622 0 -0.13367478836053351 0.33932016938713638 0 -0.1262409447270301 0.3211703831111522 0 -0.14995133854557879 0.31573290008088639 0 -0.1262409447270301 0.3211703831111522 0 -0.14995133854557879 0.31573290008088639 0 -0.13170636281121431 0.30540396541675668 0 -0.13367478836053351 0.33932016938713638 0 -0.14995133854557879 0.31573290008088639 0 -0.15331730601663701 0.3395623532820784 0 -0.15331730601663701 0.3395623532820784 0 -0.17079439025487569 0.32494122108339912 0 -0.1763971922801616 0.3532406634935612 0 -0.14995133854557879 0.31573290008088639 0 -0.17079439025487569 0.32494122108339912 0 -0.167164841548782 0.29891422322321631 0 -0.14995133854557879 0.31573290008088639 0 -0.15331730601663701 0.3395623532820784 0 -0.17079439025487569 0.32494122108339912 0 -0.17079439025487569 0.32494122108339912 0 -0.19256976679114979 0.33165381796875049 0 -0.19699128312530151 0.30504565645142051 0 -0.17079439025487569 0.32494122108339912 0 -0.1763971922801616 0.3532406634935612 0 -0.19256976679114979 0.33165381796875049 0 -0.15331730601663701 0.3395623532820784 0 -0.1763971922801616 0.3532406634935612 0 -0.1571746455416145 0.36408416689185819 0 -0.15331730601663701 0.3395623532820784 0 -0.1763971922801616 0.3532406634935612 0 -0.1763971922801616 0.3532406634935612 0 -0.1571746455416145 0.36408416689185819 0 -0.1741500565645078 0.37123080613525078 0 -0.16248792359233191 0.38534127627451031 0 -0.1571746455416145 0.36408416689185819 0 -0.1741500565645078 0.37123080613525078 0 -0.18736095772118591 0.3836472042370111 0 -0.1741500565645078 0.37123080613525078 0 -0.1994770785436861 0.36691897370504389 0 -0.1763971922801616 0.3532406634935612 0 -0.1741500565645078 0.37123080613525078 0 -0.1994770785436861 0.36691897370504389 0 -0.1763971922801616 0.3532406634935612 0 -0.1994770785436861 0.36691897370504389 0 -0.1763971922801616 0.3532406634935612 0 -0.20127160642404629 0.34878804965207372 0 -0.19256976679114979 0.33165381796875049 0 -0.1763971922801616 0.3532406634935612 0 -0.1994770785436861 0.36691897370504389 0 -0.20127160642404629 0.34878804965207372 0 -0.1994770785436861 0.36691897370504389 0 -0.20127160642404629 0.34878804965207372 0 -0.22480168799342179 0.35512276170724633 0 -0.20127160642404629 0.34878804965207372 0 -0.22480168799342179 0.35512276170724633 0 -0.2131123065118124 0.33700403138576668 0 -0.2225569648072106 0.38059728391652659 0 -0.1994770785436861 0.36691897370504389 0 -0.2225569648072106 0.38059728391652659 0 -0.1994770785436861 0.36691897370504389 0 -0.22480168799342179 0.35512276170724633 0 -0.2225569648072106 0.38059728391652659 0 -0.22480168799342179 0.35512276170724633 0 -0.23735930512057779 0.37349779701461089 0 -0.25368472498167011 0.34420349485172652 0 -0.22480168799342179 0.35512276170724633 0 -0.24822911175635759 0.36217347122335058 0 -0.22480168799342179 0.35512276170724633 0 -0.24822911175635759 0.36217347122335058 0 -0.23735930512057779 0.37349779701461089 0 -0.25453646971320443 0.37462232419521813 0 -0.24822911175635759 0.36217347122335058 0 -0.23735930512057779 0.37349779701461089 0 -0.25757488899104952 0.31786411623381933 0 -0.23478691102954721 0.33115088205162452 0 -0.2366570207200871 0.30010935915934539 0 -0.25368472498167011 0.34420349485172652 0 -0.22480168799342179 0.35512276170724633 0 -0.23478691102954721 0.33115088205162452 0 -0.25368472498167011 0.34420349485172652 0 -0.23478691102954721 0.33115088205162452 0 -0.25757488899104952 0.31786411623381933 0 -0.25368472498167011 0.34420349485172652 0 -0.23478691102954721 0.33115088205162452 0 -0.23478691102954721 0.33115088205162452 0 -0.2158890970774244 0.31809826925152251 0 -0.2131123065118124 0.33700403138576668 0 -0.22480168799342179 0.35512276170724633 0 -0.23478691102954721 0.33115088205162452 0 -0.2131123065118124 0.33700403138576668 0 -0.23478691102954721 0.33115088205162452 0 -0.2158890970774244 0.31809826925152251 0 -0.2366570207200871 0.30010935915934539 0 -0.23478691102954721 0.33115088205162452 0 -0.2158890970774244 0.31809826925152251 0 -0.2158890970774244 0.31809826925152251 0 -0.2131123065118124 0.33700403138576668 0 -0.19256976679114979 0.33165381796875049 0 -0.20127160642404629 0.34878804965207372 0 -0.2131123065118124 0.33700403138576668 0 -0.19256976679114979 0.33165381796875049 0 -0.2158890970774244 0.31809826925152251 0 -0.19256976679114979 0.33165381796875049 0 -0.19699128312530151 0.30504565645142051 0 -0.19699128312530151 0.30504565645142051 0 -0.2044220976180971 0.2747921468301005 0 -0.18537993383704029 0.28397978744787411 0 -0.19699128312530151 0.30504565645142051 0 -0.21636901433909059 0.29447561219915308 0 -0.2044220976180971 0.2747921468301005 0 -0.2158890970774244 0.31809826925152251 0 -0.19699128312530151 0.30504565645142051 0 -0.21636901433909059 0.29447561219915308 0 -0.2158890970774244 0.31809826925152251 0 -0.19699128312530151 0.30504565645142051 0 -0.2158890970774244 0.31809826925152251 0 -0.21636901433909059 0.29447561219915308 0 -0.2366570207200871 0.30010935915934539 0 -0.21636901433909059 0.29447561219915308 0 -0.2366570207200871 0.30010935915934539 0 -0.2235041758045673 0.27405874977876837 0 -0.26277913973510902 0.29023342414179659 0 -0.2366570207200871 0.30010935915934539 0 -0.2447247674615598 0.2718938593685879 0 -0.2366570207200871 0.30010935915934539 0 -0.2447247674615598 0.2718938593685879 0 -0.2235041758045673 0.27405874977876837 0 -0.25693865295534157 0.25278860643768353 0 -0.2416444700809012 0.25186566196455601 0 -0.2447247674615598 0.2718938593685879 0 -0.2416444700809012 0.25186566196455601 0 -0.2447247674615598 0.2718938593685879 0 -0.22667039518801041 0.25355429459537898 0 -0.2447247674615598 0.2718938593685879 0 -0.22667039518801041 0.25355429459537898 0 -0.2447247674615598 0.2718938593685879 0 -0.2235041758045673 0.27405874977876837 0 -0.22667039518801041 0.25355429459537898 0 -0.2235041758045673 0.27405874977876837 0 -0.22667039518801041 0.25355429459537898 0 -0.21218175950055909 0.24952722652004439 0 -0.2044220976180971 0.2747921468301005 0 -0.1929026130837673 0.25762258695206858 0 -0.21218175950055909 0.24952722652004439 0 -0.2044220976180971 0.2747921468301005 0 -0.21218175950055909 0.24952722652004439 0 -0.2235041758045673 0.27405874977876837 0 -0.2044220976180971 0.2747921468301005 0 -0.21218175950055909 0.24952722652004439 0 -0.21636901433909059 0.29447561219915308 0 -0.2235041758045673 0.27405874977876837 0 -0.2044220976180971 0.2747921468301005 0 -0.2044220976180971 0.2747921468301005 0 -0.1929026130837673 0.25762258695206858 0 -0.18537993383704029 0.28397978744787411 0 -0.1929026130837673 0.25762258695206858 0 -0.16582228118094081 0.26466105519565358 0 -0.18651378479530609 0.23505073182760211 0 -0.1929026130837673 0.25762258695206858 0 -0.16582228118094081 0.26466105519565358 0 -0.18537993383704029 0.28397978744787411 0 -0.16582228118094081 0.26466105519565358 0 -0.167164841548782 0.29891422322321631 0 -0.14136362158270599 0.28508793949713551 0 -0.16582228118094081 0.26466105519565358 0 -0.18537993383704029 0.28397978744787411 0 -0.167164841548782 0.29891422322321631 0 -0.19699128312530151 0.30504565645142051 0 -0.18537993383704029 0.28397978744787411 0 -0.167164841548782 0.29891422322321631 0 -0.17079439025487569 0.32494122108339912 0 -0.19699128312530151 0.30504565645142051 0 -0.167164841548782 0.29891422322321631 0 -0.167164841548782 0.29891422322321631 0 -0.14136362158270599 0.28508793949713551 0 -0.14995133854557879 0.31573290008088639 0 -0.167164841548782 0.29891422322321631 0 -0.14136362158270599 0.28508793949713551 0 -0.14995133854557879 0.31573290008088639 0 -0.14136362158270599 0.28508793949713551 0 -0.13170636281121431 0.30540396541675668 0 -0.1262409447270301 0.3211703831111522 0 -0.13170636281121431 0.30540396541675668 0 -0.1173504618646501 0.30916380798395637 0 -0.14136362158270599 0.28508793949713551 0 -0.13170636281121431 0.30540396541675668 0 -0.1202787732923796 0.29457691953651272 0 -0.14136362158270599 0.28508793949713551 0 -0.1196693143642453 0.28329908912575552 0 -0.1202787732923796 0.29457691953651272 0 -0.14136362158270599 0.28508793949713551 0 -0.1155624016166297 0.27126165577105521 0 -0.1196693143642453 0.28329908912575552 0 -0.14136362158270599 0.28508793949713551 0 -0.1155624016166297 0.27126165577105521 0 -0.12872708527658799 0.25991420809329241 0 -0.1416417428525672 0.26777243923482702 0 -0.1155624016166297 0.27126165577105521 0 -0.14136362158270599 0.28508793949713551 0 -0.1416417428525672 0.26777243923482702 0 -0.1155624016166297 0.27126165577105521 0 -0.12872708527658799 0.25991420809329241 0 -0.14534546737678511 0.25129379472131641 0 -0.1416417428525672 0.26777243923482702 0 -0.12872708527658799 0.25991420809329241 0 -0.14534546737678511 0.25129379472131641 0 -0.12470300375741469 0.2457033751303839 0 -0.16582228118094081 0.26466105519565358 0 -0.14534546737678511 0.25129379472131641 0 -0.1416417428525672 0.26777243923482702 0 -0.16582228118094081 0.26466105519565358 0 -0.14136362158270599 0.28508793949713551 0 -0.1416417428525672 0.26777243923482702 0 -0.1083690905562489 0.27746201143443072 0 -0.10470287070229969 0.27376422074294909 0 -0.09206590757372593 0.27740472432850488 0 -0.099741497972773749 0.27068482051400677 0 -0.1098053558875477 0.27272524579145851 0 -0.092391857727521592 0.25884509119311472 0 -0.1155624016166297 0.27126165577105521 0 -0.1098053558875477 0.27272524579145851 0 -0.092391857727521592 0.25884509119311472 0 -0.099741497972773749 0.27068482051400677 0 -0.09206590757372593 0.27740472432850488 0 -0.092391857727521592 0.25884509119311472 0 -0.10470287070229969 0.27376422074294909 0 -0.099741497972773749 0.27068482051400677 0 -0.1098053558875477 0.27272524579145851 0 -0.1083690905562489 0.27746201143443072 0 -0.1098053558875477 0.27272524579145851 0 -0.1083690905562489 0.27746201143443072 0 -0.10470287070229969 0.27376422074294909 0 -0.1098053558875477 0.27272524579145851 0 -0.10470287070229969 0.27376422074294909 0 -0.099741497972773749 0.27068482051400677 0 -0.09206590757372593 0.27740472432850488 0 -0.1155624016166297 0.27126165577105521 0 -0.092391857727521592 0.25884509119311472 0 -0.11076524853809321 0.25238606884059173 0 -0.1155624016166297 0.27126165577105521 0 -0.092391857727521592 0.25884509119311472 0 -0.11076524853809321 0.25238606884059173 0 -0.1199394347971814 0.25731632695883078 0 -0.1155624016166297 0.27126165577105521 0 -0.12872708527658799 0.25991420809329241 0 -0.1199394347971814 0.25731632695883078 0 -0.12470300375741469 0.2457033751303839 0 -0.11076524853809321 0.25238606884059173 0 -0.1199394347971814 0.25731632695883078 0 -0.12470300375741469 0.2457033751303839 0 -0.12872708527658799 0.25991420809329241 0 -0.1199394347971814 0.25731632695883078 0 -0.1155624016166297 0.27126165577105521 0 -0.12872708527658799 0.25991420809329241 0 -0.1155624016166297 0.27126165577105521 0 -0.1083690905562489 0.27746201143443072 0 -0.1155624016166297 0.27126165577105521 0 -0.1196693143642453 0.28329908912575552 0 -0.1083690905562489 0.27746201143443072 0 -0.1155624016166297 0.27126165577105521 0 -0.1098053558875477 0.27272524579145851 0 -0.1083690905562489 0.27746201143443072 0 -0.1155624016166297 0.27126165577105521 0 -0.1083690905562489 0.27746201143443072 0 -0.1202787732923796 0.29457691953651272 0 -0.1003457715998239 0.30392270831765028 0 -0.1083690905562489 0.27746201143443072 0 -0.1196693143642453 0.28329908912575552 0 -0.1202787732923796 0.29457691953651272 0 -0.1202787732923796 0.29457691953651272 0 -0.1173504618646501 0.30916380798395637 0 -0.1003457715998239 0.30392270831765028 0 -0.13170636281121431 0.30540396541675668 0 -0.1202787732923796 0.29457691953651272 0 -0.1173504618646501 0.30916380798395637 0 -0.1173504618646501 0.30916380798395637 0 -0.1003457715998239 0.30392270831765028 0 -0.1081804568928026 0.32074506353771021 0 -0.1083690905562489 0.27746201143443072 0 -0.08834593029567378 0.29472120043351602 0 -0.09206590757372593 0.27740472432850488 0 -0.1083690905562489 0.27746201143443072 0 -0.1003457715998239 0.30392270831765028 0 -0.08834593029567378 0.29472120043351602 0 -0.1083690905562489 0.27746201143443072 0 -0.1003457715998239 0.30392270831765028 0 -0.1083690905562489 0.27746201143443072 0 -0.08834593029567378 0.29472120043351602 0 -0.08834593029567378 0.29472120043351602 0 -0.079344374197139078 0.28508182268507098 0 -0.09206590757372593 0.27740472432850488 0 -0.08834593029567378 0.29472120043351602 0 -0.072463929930227558 0.29930610977545041 0 -0.077617967212061698 0.29366907382828078 0 -0.08834593029567378 0.29472120043351602 0 -0.079344374197139078 0.28508182268507098 0 -0.077617967212061698 0.29366907382828078 0 -0.08834593029567378 0.29472120043351602 0 -0.087527931766016032 0.31235393694025021 0 -0.08121949171140587 0.31012908581564408 0 -0.08834593029567378 0.29472120043351602 0 -0.068322770035098762 0.31198038943260148 0 -0.1003457715998239 0.30392270831765028 0 -0.08834593029567378 0.29472120043351602 0 -0.087527931766016032 0.31235393694025021 0 -0.08834593029567378 0.29472120043351602 0 -0.08121949171140587 0.31012908581564408 0 -0.069852456288818351 0.31207980665071 0 -0.08834593029567378 0.29472120043351602 0 -0.068322770035098762 0.31198038943260148 0 -0.069852456288818351 0.31207980665071 0 -0.08834593029567378 0.29472120043351602 0 -0.072463929930227558 0.29930610977545041 0 -0.068322770035098762 0.31198038943260148 0 -0.072463929930227558 0.29930610977545041 0 -0.064179569528432873 0.29754197169583518 0 -0.063962500348327456 0.30379626580195229 0 -0.072463929930227558 0.29930610977545041 0 -0.063962500348327456 0.30379626580195229 0 -0.068322770035098762 0.31198038943260148 0 -0.068322770035098762 0.31198038943260148 0 -0.069852456288818351 0.31207980665071 0 -0.079344374197139078 0.28508182268507098 0 -0.070510141993048517 0.29225124769799787 0 -0.067485792004003509 0.28106498521306011 0 -0.079344374197139078 0.28508182268507098 0 -0.077617967212061698 0.29366907382828078 0 -0.070510141993048517 0.29225124769799787 0 -0.072463929930227558 0.29930610977545041 0 -0.077617967212061698 0.29366907382828078 0 -0.070510141993048517 0.29225124769799787 0 -0.064179569528432873 0.29754197169583518 0 -0.070510141993048517 0.29225124769799787 0 -0.059799020663136082 0.29068729405280619 0 -0.072463929930227558 0.29930610977545041 0 -0.064179569528432873 0.29754197169583518 0 -0.070510141993048517 0.29225124769799787 0 -0.070510141993048517 0.29225124769799787 0 -0.067485792004003509 0.28106498521306011 0 -0.059799020663136082 0.29068729405280619 0 -0.079344374197139078 0.28508182268507098 0 -0.077112635008727601 0.26938653581869981 0 -0.067485792004003509 0.28106498521306011 0 -0.077112635008727601 0.26938653581869981 0 -0.067485792004003509 0.28106498521306011 0 -0.060296114269721542 0.26705395206363342 0 -0.079344374197139078 0.28508182268507098 0 -0.077112635008727601 0.26938653581869981 0 -0.09206590757372593 0.27740472432850488 0 -0.077112635008727601 0.26938653581869981 0 -0.09206590757372593 0.27740472432850488 0 -0.092391857727521592 0.25884509119311472 0 -0.092391857727521592 0.25884509119311472 0 -0.069221313838413207 0.24642852661517459 0 -0.077112635008727601 0.26938653581869981 0 -0.092391857727521592 0.25884509119311472 0 -0.069221313838413207 0.24642852661517459 0 -0.077112635008727601 0.26938653581869981 0 -0.060296114269721542 0.26705395206363342 0 -0.069221313838413207 0.24642852661517459 0 -0.048126263350958612 0.25465777805589501 0 -0.060296114269721542 0.26705395206363342 0 -0.069221313838413207 0.24642852661517459 0 -0.048126263350958612 0.25465777805589501 0 -0.060296114269721542 0.26705395206363342 0 -0.041784573477856593 0.2719242686623195 0 -0.055384127889045079 0.27986410773994991 0 -0.060296114269721542 0.26705395206363342 0 -0.041784573477856593 0.2719242686623195 0 -0.055384127889045079 0.27986410773994991 0 -0.041784573477856593 0.2719242686623195 0 -0.044370237993260717 0.29032640624232281 0 -0.067485792004003509 0.28106498521306011 0 -0.055384127889045079 0.27986410773994991 0 -0.060296114269721542 0.26705395206363342 0 -0.041784573477856593 0.2719242686623195 0 -0.028053557715267439 0.25838243531431121 0 -0.02550209953536561 0.27186686885002359 0 -0.041784573477856593 0.2719242686623195 0 -0.02550209953536561 0.27186686885002359 0 -0.031040102747703489 0.28267752730564011 0 -0.048126263350958612 0.25465777805589501 0 -0.041784573477856593 0.2719242686623195 0 -0.028053557715267439 0.25838243531431121 0 -0.048126263350958612 0.25465777805589501 0 -0.028053557715267439 0.25838243531431121 0 -0.033382390283993792 0.24359412621706661 0 -0.028053557715267439 0.25838243531431121 0 -0.01504563196256534 0.26333196488375049 0 -0.01778818590069102 0.2421293126167848 0 -0.01504563196256534 0.26333196488375049 0 -0.01778818590069102 0.2421293126167848 0 -0.028053557715267439 0.25838243531431121 0 -0.02550209953536561 0.27186686885002359 0 -0.01504563196256534 0.26333196488375049 0 -0.028053557715267439 0.25838243531431121 0 -0.01504563196256534 0.26333196488375049 0 -0.02550209953536561 0.27186686885002359 0 -0.01214761008608776 0.28573653795517551 0 -0.031040102747703489 0.28267752730564011 0 -0.02550209953536561 0.27186686885002359 0 -0.01504563196256534 0.26333196488375049 0 -0.01214761008608776 0.28573653795517551 0 -0.001267499687089951 0.2776013217203892 0 -0.01504563196256534 0.26333196488375049 0 -0.01214761008608776 0.28573653795517551 0 -0.01504563196256534 0.26333196488375049 0 -0.01214761008608776 0.28573653795517551 0 -0.00067809962666212902 0.26216505597133072 0 -0.01504563196256534 0.26333196488375049 0 0.010965700908337589 0.27322930467739909 0 -0.001267499687089951 0.2776013217203892 0 -0.01504563196256534 0.26333196488375049 0 0.010965700908337589 0.27322930467739909 0 -0.01504563196256534 0.26333196488375049 0 0.010965700908337589 0.27322930467739909 0 -0.0087132352456033638 0.25173417187717928 0 -0.01504563196256534 0.26333196488375049 0 -0.01778818590069102 0.2421293126167848 0 -0.00067809962666212902 0.26216505597133072 0 -0.0087132352456033638 0.25173417187717928 0 0.0027594708259384838 0.25829047161104352 0 -0.00067809962666212902 0.26216505597133072 0 -0.0087132352456033638 0.25173417187717928 0 -0.01504563196256534 0.26333196488375049 0 -0.009249588209606344 0.30814111102660002 0 -0.01214761008608776 0.28573653795517551 0 0.0038021096493471361 0.29689124930627131 0 -0.009249588209606344 0.30814111102660002 0 -0.01214761008608776 0.28573653795517551 0 -0.01214761008608776 0.28573653795517551 0 0.002380999114604244 0.28599596302517022 0 0.0038021096493471361 0.29689124930627131 0 -0.001267499687089951 0.2776013217203892 0 -0.01214761008608776 0.28573653795517551 0 0.002380999114604244 0.28599596302517022 0 -0.009249588209606344 0.30814111102660002 0 -0.01214761008608776 0.28573653795517551 0 -0.02711874363180217 0.2953884665518679 0 -0.01214761008608776 0.28573653795517551 0 -0.031040102747703489 0.28267752730564011 0 -0.02711874363180217 0.2953884665518679 0 -0.009249588209606344 0.30814111102660002 0 -0.02711874363180217 0.2953884665518679 0 -0.038786179122352507 0.31006075022960111 0 -0.009249588209606344 0.30814111102660002 0 -0.038786179122352507 0.31006075022960111 0 -0.02711874363180217 0.2953884665518679 0 -0.038786179122352507 0.31006075022960111 0 -0.044370237993260717 0.29032640624232281 0 -0.038786179122352507 0.31006075022960111 0 -0.044370237993260717 0.29032640624232281 0 -0.054162254707424723 0.30166894115096898 0 -0.031040102747703489 0.28267752730564011 0 -0.02711874363180217 0.2953884665518679 0 -0.044370237993260717 0.29032640624232281 0 -0.041784573477856593 0.2719242686623195 0 -0.031040102747703489 0.28267752730564011 0 -0.044370237993260717 0.29032640624232281 0 -0.055384127889045079 0.27986410773994991 0 -0.044370237993260717 0.29032640624232281 0 -0.059799020663136082 0.29068729405280619 0 -0.044370237993260717 0.29032640624232281 0 -0.059799020663136082 0.29068729405280619 0 -0.054162254707424723 0.30166894115096898 0 -0.064179569528432873 0.29754197169583518 0 -0.059799020663136082 0.29068729405280619 0 -0.054162254707424723 0.30166894115096898 0 -0.067485792004003509 0.28106498521306011 0 -0.055384127889045079 0.27986410773994991 0 -0.059799020663136082 0.29068729405280619 0 -0.068322770035098762 0.31198038943260148 0 -0.038786179122352507 0.31006075022960111 0 -0.068322770035098762 0.31198038943260148 0 -0.038786179122352507 0.31006075022960111 0 -0.054162254707424723 0.30166894115096898 0 -0.064179569528432873 0.29754197169583518 0 -0.063962500348327456 0.30379626580195229 0 -0.054162254707424723 0.30166894115096898 0 -0.063962500348327456 0.30379626580195229 0 -0.068322770035098762 0.31198038943260148 0 -0.054162254707424723 0.30166894115096898 0 -0.068322770035098762 0.31198038943260148 0 -0.038786179122352507 0.31006075022960111 0 -0.053879496619987192 0.32442993198196868 0 -0.068322770035098762 0.31198038943260148 0 -0.053879496619987192 0.32442993198196868 0 -0.059045099567240703 0.33862263320968672 0 -0.059976501396798443 0.34640013057040159 0 -0.068046633572776155 0.34513696516333192 0 -0.053879496619987192 0.32442993198196868 0 -0.059045099567240703 0.33862263320968672 0 -0.06815446288386498 0.3263880450875648 0 -0.053879496619987192 0.32442993198196868 0 -0.059045099567240703 0.33862263320968672 0 -0.049717572699208172 0.33977374392884352 0 -0.053879496619987192 0.32442993198196868 0 -0.049717572699208172 0.33977374392884352 0 -0.039436223204876379 0.33687947453133682 0 -0.059045099567240703 0.33862263320968672 0 -0.049717572699208172 0.33977374392884352 0 -0.052933118771744558 0.34753778728834739 0 -0.049717572699208172 0.33977374392884352 0 -0.039436223204876379 0.33687947453133682 0 -0.045752302425533672 0.34929255203680049 0 -0.053879496619987192 0.32442993198196868 0 -0.039436223204876379 0.33687947453133682 0 -0.039359444206513459 0.32419621080282812 0 -0.053879496619987192 0.32442993198196868 0 -0.039436223204876379 0.33687947453133682 0 -0.039436223204876379 0.33687947453133682 0 -0.039359444206513459 0.32419621080282812 0 -0.02531264429424256 0.33765677836634578 0 -0.039436223204876379 0.33687947453133682 0 -0.02531264429424256 0.33765677836634578 0 -0.034795741464765127 0.3466441775467104 0 -0.038786179122352507 0.31006075022960111 0 -0.053879496619987192 0.32442993198196868 0 -0.039359444206513459 0.32419621080282812 0 -0.038786179122352507 0.31006075022960111 0 -0.039359444206513459 0.32419621080282812 0 -0.024068293084679539 0.32272721199300619 0 -0.009249588209606344 0.30814111102660002 0 -0.038786179122352507 0.31006075022960111 0 -0.024068293084679539 0.32272721199300619 0 -0.024068293084679539 0.32272721199300619 0 -0.02531264429424256 0.33765677836634578 0 -0.005758602284471958 0.33512988219008361 0 -0.039359444206513459 0.32419621080282812 0 -0.024068293084679539 0.32272721199300619 0 -0.02531264429424256 0.33765677836634578 0 -0.005758602284471958 0.33512988219008361 0 -0.0077202170519437719 0.34710906184019069 0 0.0082446038140756572 0.34376242611402219 0 -0.02531264429424256 0.33765677836634578 0 -0.005758602284471958 0.33512988219008361 0 -0.0077202170519437719 0.34710906184019069 0 -0.009249588209606344 0.30814111102660002 0 -0.005758602284471958 0.33512988219008361 0 0.0094307060340404689 0.32376070079746733 0 -0.009249588209606344 0.30814111102660002 0 -0.005758602284471958 0.33512988219008361 0 -0.009249588209606344 0.30814111102660002 0 -0.024068293084679539 0.32272721199300619 0 -0.005758602284471958 0.33512988219008361 0 -0.0045677851665312944 0.36532665559408428 0 -0.0087141207398781558 0.37710904293520409 0 0.0077169544749549623 0.36306791211952738 0 -0.0045677851665312944 0.36532665559408428 0 -0.019623601183504629 0.35541479533684739 0 -0.0087141207398781558 0.37710904293520409 0 -0.0087141207398781558 0.37710904293520409 0 0.0077169544749549623 0.36306791211952738 0 -0.0077202170519437719 0.34710906184019069 0 -0.019623601183504629 0.35541479533684739 0 0.0038095970876644218 0.35606187191015221 0 -0.019623601183504629 0.35541479533684739 0 0.0038095970876644218 0.35606187191015221 0 -0.0045677851665312944 0.36532665559408428 0 -0.019623601183504629 0.35541479533684739 0 0.0038095970876644218 0.35606187191015221 0 -0.02531264429424256 0.33765677836634578 0 -0.019623601183504629 0.35541479533684739 0 -0.034795741464765127 0.3466441775467104 0 -0.02531264429424256 0.33765677836634578 0 -0.0077202170519437719 0.34710906184019069 0 -0.019623601183504629 0.35541479533684739 0 -0.019623601183504629 0.35541479533684739 0 -0.034100997704691827 0.37295894625721099 0 -0.0087141207398781558 0.37710904293520409 0 -0.019623601183504629 0.35541479533684739 0 -0.034100997704691827 0.37295894625721099 0 -0.043056799454673583 0.35476771876354157 0 -0.034100997704691827 0.37295894625721099 0 -0.047131069669461997 0.36807368878450081 0 -0.054593457040109393 0.3822816536988497 0 -0.034100997704691827 0.37295894625721099 0 -0.043056799454673583 0.35476771876354157 0 -0.034100997704691827 0.37295894625721099 0 -0.043056799454673583 0.35476771876354157 0 -0.047131069669461997 0.36807368878450081 0 -0.019623601183504629 0.35541479533684739 0 -0.043056799454673583 0.35476771876354157 0 -0.019623601183504629 0.35541479533684739 0 -0.034795741464765127 0.3466441775467104 0 -0.043056799454673583 0.35476771876354157 0 -0.043056799454673583 0.35476771876354157 0 -0.045752302425533672 0.34929255203680049 0 -0.039436223204876379 0.33687947453133682 0 -0.034795741464765127 0.3466441775467104 0 -0.045752302425533672 0.34929255203680049 0 -0.034795741464765127 0.3466441775467104 0 -0.043056799454673583 0.35476771876354157 0 -0.045752302425533672 0.34929255203680049 0 -0.043056799454673583 0.35476771876354157 0 -0.052933118771744558 0.34753778728834739 0 -0.059881153675432383 0.35430313662024071 0 -0.043056799454673583 0.35476771876354157 0 -0.059881153675432383 0.35430313662024071 0 -0.051828064233363932 0.36038047858465339 0 -0.043056799454673583 0.35476771876354157 0 -0.059881153675432383 0.35430313662024071 0 -0.043056799454673583 0.35476771876354157 0 -0.045752302425533672 0.34929255203680049 0 -0.052933118771744558 0.34753778728834739 0 -0.049717572699208172 0.33977374392884352 0 -0.045752302425533672 0.34929255203680049 0 -0.052933118771744558 0.34753778728834739 0 -0.059881153675432383 0.35430313662024071 0 -0.051828064233363932 0.36038047858465339 0 -0.058626870601395778 0.36023180910453118 0 -0.059045099567240703 0.33862263320968672 0 -0.052933118771744558 0.34753778728834739 0 -0.059976501396798443 0.34640013057040159 0 -0.052933118771744558 0.34753778728834739 0 -0.059881153675432383 0.35430313662024071 0 -0.059976501396798443 0.34640013057040159 0 -0.047131069669461997 0.36807368878450081 0 -0.054116187566776573 0.36544526432200969 0 -0.058148679921659119 0.37186744297544022 0 -0.047131069669461997 0.36807368878450081 0 -0.058148679921659119 0.37186744297544022 0 -0.054593457040109393 0.3822816536988497 0 -0.043056799454673583 0.35476771876354157 0 -0.047131069669461997 0.36807368878450081 0 -0.051828064233363932 0.36038047858465339 0 -0.047131069669461997 0.36807368878450081 0 -0.051828064233363932 0.36038047858465339 0 -0.054116187566776573 0.36544526432200969 0 -0.054116187566776573 0.36544526432200969 0 -0.058626870601395778 0.36023180910453118 0 -0.058148679921659119 0.37186744297544022 0 -0.051828064233363932 0.36038047858465339 0 -0.054116187566776573 0.36544526432200969 0 -0.058626870601395778 0.36023180910453118 0 -0.058626870601395778 0.36023180910453118 0 -0.058148679921659119 0.37186744297544022 0 -0.076275814730551866 0.38330479896731001 0 -0.058626870601395778 0.36023180910453118 0 -0.071157696118109362 0.36170448025062218 0 -0.076275814730551866 0.38330479896731001 0 -0.071157696118109362 0.36170448025062218 0 -0.084299133686975572 0.35684410208409001 0 -0.076275814730551866 0.38330479896731001 0 -0.058626870601395778 0.36023180910453118 0 -0.076275814730551866 0.38330479896731001 0 -0.084299133686975572 0.35684410208409001 0 -0.089436666146690338 0.3774527594588406 0 -0.076275814730551866 0.38330479896731001 0 -0.084299133686975572 0.35684410208409001 0 -0.076275814730551866 0.38330479896731001 0 -0.093494049974744503 0.36523362229143391 0 -0.084299133686975572 0.35684410208409001 0 -0.089436666146690338 0.3774527594588406 0 -0.084299133686975572 0.35684410208409001 0 -0.076705507896191183 0.35383855447693902 0 -0.080753986599573127 0.33990497651870988 0 -0.084299133686975572 0.35684410208409001 0 -0.092322452643399749 0.33038340520087017 0 -0.095141502753968779 0.35097174187852381 0 -0.093494049974744503 0.36523362229143391 0 -0.084299133686975572 0.35684410208409001 0 -0.095141502753968779 0.35097174187852381 0 -0.059881153675432383 0.35430313662024071 0 -0.071157696118109362 0.36170448025062218 0 -0.076705507896191183 0.35383855447693902 0 -0.076705507896191183 0.35383855447693902 0 -0.068046633572776155 0.34513696516333192 0 -0.080753986599573127 0.33990497651870988 0 -0.059881153675432383 0.35430313662024071 0 -0.076705507896191183 0.35383855447693902 0 -0.068046633572776155 0.34513696516333192 0 -0.059881153675432383 0.35430313662024071 0 -0.076705507896191183 0.35383855447693902 0 -0.071157696118109362 0.36170448025062218 0 -0.084299133686975572 0.35684410208409001 0 -0.076705507896191183 0.35383855447693902 0 -0.059881153675432383 0.35430313662024071 0 -0.058626870601395778 0.36023180910453118 0 -0.071157696118109362 0.36170448025062218 0 -0.059881153675432383 0.35430313662024071 0 -0.059976501396798443 0.34640013057040159 0 -0.068046633572776155 0.34513696516333192 0 -0.06815446288386498 0.3263880450875648 0 -0.079151648495115301 0.32136139923810009 0 -0.080753986599573127 0.33990497651870988 0 -0.068046633572776155 0.34513696516333192 0 -0.06815446288386498 0.3263880450875648 0 -0.080753986599573127 0.33990497651870988 0 -0.059045099567240703 0.33862263320968672 0 -0.068046633572776155 0.34513696516333192 0 -0.06815446288386498 0.3263880450875648 0 -0.068322770035098762 0.31198038943260148 0 -0.069852456288818351 0.31207980665071 0 -0.06815446288386498 0.3263880450875648 0 -0.068322770035098762 0.31198038943260148 0 -0.053879496619987192 0.32442993198196868 0 -0.06815446288386498 0.3263880450875648 0 -0.08121949171140587 0.31012908581564408 0 -0.069852456288818351 0.31207980665071 0 -0.079151648495115301 0.32136139923810009 0 -0.069852456288818351 0.31207980665071 0 -0.06815446288386498 0.3263880450875648 0 -0.079151648495115301 0.32136139923810009 0 -0.087527931766016032 0.31235393694025021 0 -0.079151648495115301 0.32136139923810009 0 -0.092322452643399749 0.33038340520087017 0 -0.1003457715998239 0.30392270831765028 0 -0.087527931766016032 0.31235393694025021 0 -0.092322452643399749 0.33038340520087017 0 -0.087527931766016032 0.31235393694025021 0 -0.08121949171140587 0.31012908581564408 0 -0.079151648495115301 0.32136139923810009 0 -0.084299133686975572 0.35684410208409001 0 -0.092322452643399749 0.33038340520087017 0 -0.079151648495115301 0.32136139923810009 0 -0.092322452643399749 0.33038340520087017 0 -0.080753986599573127 0.33990497651870988 0 -0.084299133686975572 0.35684410208409001 0 -0.092322452643399749 0.33038340520087017 0 -0.080753986599573127 0.33990497651870988 0 -0.092322452643399749 0.33038340520087017 0 -0.10472406897533799 0.34168768652513631 0 -0.095141502753968779 0.35097174187852381 0 -0.092322452643399749 0.33038340520087017 0 -0.10472406897533799 0.34168768652513631 0 -0.1081804568928026 0.32074506353771021 0 -0.1003457715998239 0.30392270831765028 0 -0.092322452643399749 0.33038340520087017 0 -0.1003457715998239 0.30392270831765028 0 -0.092322452643399749 0.33038340520087017 0 -0.1081804568928026 0.32074506353771021 0 -0.1262409447270301 0.3211703831111522 0 -0.1173504618646501 0.30916380798395637 0 -0.1081804568928026 0.32074506353771021 0 -0.1262409447270301 0.3211703831111522 0 -0.1081804568928026 0.32074506353771021 0 -0.1175879007316586 0.33497855513245622 0 -0.13367478836053351 0.33932016938713638 0 -0.1175879007316586 0.33497855513245622 0 -0.1173066256070304 0.35104950557859033 0 -0.10472406897533799 0.34168768652513631 0 -0.1081804568928026 0.32074506353771021 0 -0.1175879007316586 0.33497855513245622 0 -0.10472406897533799 0.34168768652513631 0 -0.1175879007316586 0.33497855513245622 0 -0.1173066256070304 0.35104950557859033 0 -0.1173066256070304 0.35104950557859033 0 -0.1198206075896991 0.37069234566290138 0 -0.1030551893938276 0.35978992576853291 0 -0.1367685514822152 0.35851885971508118 0 -0.1173066256070304 0.35104950557859033 0 -0.1198206075896991 0.37069234566290138 0 -0.1198206075896991 0.37069234566290138 0 -0.1030551893938276 0.35978992576853291 0 -0.10026372758235801 0.37465761506622741 0 -0.093494049974744503 0.36523362229143391 0 -0.10026372758235801 0.37465761506622741 0 -0.089436666146690338 0.3774527594588406 0 -0.093494049974744503 0.36523362229143391 0 -0.1030551893938276 0.35978992576853291 0 -0.10026372758235801 0.37465761506622741 0 -0.10472406897533799 0.34168768652513631 0 -0.1030551893938276 0.35978992576853291 0 -0.095141502753968779 0.35097174187852381 0 -0.093494049974744503 0.36523362229143391 0 -0.1030551893938276 0.35978992576853291 0 -0.095141502753968779 0.35097174187852381 0 -0.10472406897533799 0.34168768652513631 0 -0.1173066256070304 0.35104950557859033 0 -0.1030551893938276 0.35978992576853291 0 -0.101128536279416 0.3977608810528192 0 -0.11378235269799521 0.38746486633725291 0 -0.11258596611237601 0.40408595479252452 0 -0.101128536279416 0.3977608810528192 0 -0.095244926421122186 0.38729621463576269 0 -0.11378235269799521 0.38746486633725291 0 -0.101128536279416 0.3977608810528192 0 -0.11258596611237601 0.40408595479252452 0 -0.097808874238227678 0.41145560844912898 0 -0.101128536279416 0.3977608810528192 0 -0.097808874238227678 0.41145560844912898 0 -0.087042344484389883 0.39738020370821953 0 -0.101128536279416 0.3977608810528192 0 -0.095244926421122186 0.38729621463576269 0 -0.087042344484389883 0.39738020370821953 0 -0.10026372758235801 0.37465761506622741 0 -0.095244926421122186 0.38729621463576269 0 -0.11378235269799521 0.38746486633725291 0 -0.10026372758235801 0.37465761506622741 0 -0.095244926421122186 0.38729621463576269 0 -0.089436666146690338 0.3774527594588406 0 -0.1198206075896991 0.37069234566290138 0 -0.10026372758235801 0.37465761506622741 0 -0.11378235269799521 0.38746486633725291 0 -0.12826940643264259 0.38638828685515292 0 -0.1198206075896991 0.37069234566290138 0 -0.11378235269799521 0.38746486633725291 0 -0.12644786621320531 0.40058001872868543 0 -0.12826940643264259 0.38638828685515292 0 -0.11378235269799521 0.38746486633725291 0 -0.12761284081938409 0.41418542740570108 0 -0.11378235269799521 0.38746486633725291 0 -0.12761284081938409 0.41418542740570108 0 -0.12644786621320531 0.40058001872868543 0 -0.11378235269799521 0.38746486633725291 0 -0.12761284081938409 0.41418542740570108 0 -0.11378235269799521 0.38746486633725291 0 -0.11258596611237601 0.40408595479252452 0 -0.12761284081938409 0.41418542740570108 0 -0.11258596611237601 0.40408595479252452 0 -0.097808874238227678 0.41145560844912898 0 -0.12761284081938409 0.41418542740570108 0 -0.1126245701039178 0.4308246085444013 0 -0.097808874238227678 0.41145560844912898 0 -0.12761284081938409 0.41418542740570108 0 -0.097808874238227678 0.41145560844912898 0 -0.12761284081938409 0.41418542740570108 0 -0.1126245701039178 0.4308246085444013 0 -0.1242648033483075 0.43981492828754482 0 -0.1126245701039178 0.4308246085444013 0 -0.096605527178418776 0.42311346390882398 0 -0.097170403390676049 0.43571281837191522 0 -0.1126245701039178 0.4308246085444013 0 -0.097170403390676049 0.43571281837191522 0 -0.10338783084247161 0.44098956532991213 0 -0.1126245701039178 0.4308246085444013 0 -0.097808874238227678 0.41145560844912898 0 -0.1126245701039178 0.4308246085444013 0 -0.096605527178418776 0.42311346390882398 0 -0.097808874238227678 0.41145560844912898 0 -0.096605527178418776 0.42311346390882398 0 -0.097808874238227678 0.41145560844912898 0 -0.090623427087895073 0.41079747558654428 0 -0.097808874238227678 0.41145560844912898 0 -0.090623427087895073 0.41079747558654428 0 -0.096605527178418776 0.42311346390882398 0 -0.090623427087895073 0.41079747558654428 0 -0.084800361071377284 0.4267768085921303 0 -0.090623427087895073 0.41079747558654428 0 -0.084347825254610875 0.40943513047528779 0 -0.084800361071377284 0.4267768085921303 0 -0.084800361071377284 0.4267768085921303 0 -0.074925168374781331 0.40278603401425761 0 -0.084347825254610875 0.40943513047528779 0 -0.084800361071377284 0.4267768085921303 0 -0.074925168374781331 0.40278603401425761 0 -0.097808874238227678 0.41145560844912898 0 -0.090623427087895073 0.41079747558654428 0 -0.087042344484389883 0.39738020370821953 0 -0.096605527178418776 0.42311346390882398 0 -0.097170403390676049 0.43571281837191522 0 -0.084800361071377284 0.4267768085921303 0 -0.084800361071377284 0.4267768085921303 0 -0.077689053426030094 0.43734830183904833 0 -0.073740177733494089 0.43015549729097768 0 -0.084800361071377284 0.4267768085921303 0 -0.077689053426030094 0.43734830183904833 0 -0.085627028266785254 0.44117175463919189 0 -0.077689053426030094 0.43734830183904833 0 -0.073740177733494089 0.43015549729097768 0 -0.069373851585076945 0.43677151010665521 0 -0.084800361071377284 0.4267768085921303 0 -0.073740177733494089 0.43015549729097768 0 -0.074963529381557356 0.42372471124402672 0 -0.084800361071377284 0.4267768085921303 0 -0.074963529381557356 0.42372471124402672 0 -0.074207610301873977 0.415826985147286 0 -0.073740177733494089 0.43015549729097768 0 -0.07134827269677288 0.42521816639912852 0 -0.067010261651664849 0.42692585223643509 0 -0.073740177733494089 0.43015549729097768 0 -0.074963529381557356 0.42372471124402672 0 -0.07134827269677288 0.42521816639912852 0 -0.074963529381557356 0.42372471124402672 0 -0.07134827269677288 0.42521816639912852 0 -0.069903249343569923 0.42035209495099629 0 -0.06803153127557314 0.42418340705062968 0 -0.063864341410284964 0.42423751461595932 0 -0.069903249343569923 0.42035209495099629 0 -0.07134827269677288 0.42521816639912852 0 -0.06803153127557314 0.42418340705062968 0 -0.067010261651664849 0.42692585223643509 0 -0.07134827269677288 0.42521816639912852 0 -0.06803153127557314 0.42418340705062968 0 -0.069903249343569923 0.42035209495099629 0 -0.06803153127557314 0.42418340705062968 0 -0.063864341410284964 0.42423751461595932 0 -0.067010261651664849 0.42692585223643509 0 -0.063864341410284964 0.42423751461595932 0 -0.067010261651664849 0.42692585223643509 0 -0.067010261651664849 0.42692585223643509 0 -0.06657591115514655 0.43192586875325267 0 -0.062357688865182517 0.42920641545622512 0 -0.063864341410284964 0.42423751461595932 0 -0.067010261651664849 0.42692585223643509 0 -0.062357688865182517 0.42920641545622512 0 -0.063864341410284964 0.42423751461595932 0 -0.062357688865182517 0.42920641545622512 0 -0.073740177733494089 0.43015549729097768 0 -0.067010261651664849 0.42692585223643509 0 -0.06657591115514655 0.43192586875325267 0 -0.073740177733494089 0.43015549729097768 0 -0.06657591115514655 0.43192586875325267 0 -0.069373851585076945 0.43677151010665521 0 -0.06657591115514655 0.43192586875325267 0 -0.062750456602468974 0.43554137489064498 0 -0.062357688865182517 0.42920641545622512 0 -0.06657591115514655 0.43192586875325267 0 -0.062750456602468974 0.43554137489064498 0 -0.069373851585076945 0.43677151010665521 0 -0.063864341410284964 0.42423751461595932 0 -0.069903249343569923 0.42035209495099629 0 -0.070070078070418332 0.40377115679163461 0 -0.074207610301873977 0.415826985147286 0 -0.069903249343569923 0.42035209495099629 0 -0.070070078070418332 0.40377115679163461 0 -0.063864341410284964 0.42423751461595932 0 -0.070070078070418332 0.40377115679163461 0 -0.058881304157308093 0.40804381518971672 0 -0.063864341410284964 0.42423751461595932 0 -0.070070078070418332 0.40377115679163461 0 -0.084800361071377284 0.4267768085921303 0 -0.074207610301873977 0.415826985147286 0 -0.074925168374781331 0.40278603401425761 0 -0.074207610301873977 0.415826985147286 0 -0.070070078070418332 0.40377115679163461 0 -0.074925168374781331 0.40278603401425761 0 -0.074963529381557356 0.42372471124402672 0 -0.074207610301873977 0.415826985147286 0 -0.069903249343569923 0.42035209495099629 0 -0.070070078070418332 0.40377115679163461 0 -0.064506344576777661 0.39145758865641178 0 -0.076275814730551866 0.38330479896731001 0 -0.070070078070418332 0.40377115679163461 0 -0.074925168374781331 0.40278603401425761 0 -0.076275814730551866 0.38330479896731001 0 -0.070070078070418332 0.40377115679163461 0 -0.076275814730551866 0.38330479896731001 0 -0.070070078070418332 0.40377115679163461 0 -0.064506344576777661 0.39145758865641178 0 -0.057086028466031037 0.39647274516785291 0 -0.074925168374781331 0.40278603401425761 0 -0.087042344484389883 0.39738020370821953 0 -0.076275814730551866 0.38330479896731001 0 -0.084347825254610875 0.40943513047528779 0 -0.074925168374781331 0.40278603401425761 0 -0.087042344484389883 0.39738020370821953 0 -0.097808874238227678 0.41145560844912898 0 -0.087042344484389883 0.39738020370821953 0 -0.090623427087895073 0.41079747558654428 0 -0.084347825254610875 0.40943513047528779 0 -0.087042344484389883 0.39738020370821953 0 -0.087042344484389883 0.39738020370821953 0 -0.089436666146690338 0.3774527594588406 0 -0.076275814730551866 0.38330479896731001 0 -0.095244926421122186 0.38729621463576269 0 -0.087042344484389883 0.39738020370821953 0 -0.089436666146690338 0.3774527594588406 0 -0.087042344484389883 0.39738020370821953 0 -0.076275814730551866 0.38330479896731001 0 -0.064506344576777661 0.39145758865641178 0 -0.076275814730551866 0.38330479896731001 0 -0.054593457040109393 0.3822816536988497 0 -0.058148679921659119 0.37186744297544022 0 -0.076275814730551866 0.38330479896731001 0 -0.054593457040109393 0.3822816536988497 0 -0.064506344576777661 0.39145758865641178 0 -0.054593457040109393 0.3822816536988497 0 -0.057086028466031037 0.39647274516785291 0 -0.054593457040109393 0.3822816536988497 0 -0.057086028466031037 0.39647274516785291 0 -0.042391572779214973 0.39096282696345341 0 -0.057086028466031037 0.39647274516785291 0 -0.042391572779214973 0.39096282696345341 0 -0.044504768682498037 0.40769384418342008 0 -0.070070078070418332 0.40377115679163461 0 -0.057086028466031037 0.39647274516785291 0 -0.058881304157308093 0.40804381518971672 0 -0.057086028466031037 0.39647274516785291 0 -0.044504768682498037 0.40769384418342008 0 -0.058881304157308093 0.40804381518971672 0 -0.02514519595471108 0.39115017375088101 0 -0.044504768682498037 0.40769384418342008 0 -0.042391572779214973 0.39096282696345341 0 -0.02514519595471108 0.39115017375088101 0 -0.044504768682498037 0.40769384418342008 0 -0.034100997704691827 0.37295894625721099 0 -0.054593457040109393 0.3822816536988497 0 -0.042391572779214973 0.39096282696345341 0 -0.034100997704691827 0.37295894625721099 0 -0.042391572779214973 0.39096282696345341 0 -0.02514519595471108 0.39115017375088101 0 -0.034100997704691827 0.37295894625721099 0 -0.02514519595471108 0.39115017375088101 0 -0.034100997704691827 0.37295894625721099 0 -0.02514519595471108 0.39115017375088101 0 -0.0087141207398781558 0.37710904293520409 0 -0.02514519595471108 0.39115017375088101 0 -0.0087141207398781558 0.37710904293520409 0 -0.02514519595471108 0.39115017375088101 0 -0.014810785045769751 0.41214166341376801 0 -0.02514519595471108 0.39115017375088101 0 -0.014810785045769751 0.41214166341376801 0 -0.044504768682498037 0.40769384418342008 0 -0.0068648610501423502 0.39382000907293813 0 -0.014810785045769751 0.41214166341376801 0 0.0046995574085186929 0.41194005205042061 0 -0.02514519595471108 0.39115017375088101 0 -0.0068648610501423502 0.39382000907293813 0 -0.014810785045769751 0.41214166341376801 0 -0.02514519595471108 0.39115017375088101 0 -0.0068648610501423502 0.39382000907293813 0 -0.0087141207398781558 0.37710904293520409 0 -0.0068648610501423502 0.39382000907293813 0 -0.0087141207398781558 0.37710904293520409 0 0.0053185270157129726 0.37689571945341471 0 -0.0044763741368290672 0.43313315307665529 0 -0.014810785045769751 0.41214166341376801 0 -0.0044763741368290672 0.43313315307665529 0 -0.014810785045769751 0.41214166341376801 0 -0.026116443713473419 0.4246575807879529 0 -0.0044763741368290672 0.43313315307665529 0 -0.014810785045769751 0.41214166341376801 0 0.0046995574085186929 0.41194005205042061 0 -0.014810785045769751 0.41214166341376801 0 -0.026116443713473419 0.4246575807879529 0 -0.044504768682498037 0.40769384418342008 0 -0.0044763741368290672 0.43313315307665529 0 -0.026116443713473419 0.4246575807879529 0 -0.02623027688729573 0.44118750916919391 0 -0.026116443713473419 0.4246575807879529 0 -0.040560013814974517 0.42913173409672722 0 -0.02623027688729573 0.44118750916919391 0 -0.040560013814974517 0.42913173409672722 0 -0.048293098329248912 0.43867666423002288 0 -0.039090066940739521 0.44352471403713711 0 -0.026116443713473419 0.4246575807879529 0 -0.040560013814974517 0.42913173409672722 0 -0.044504768682498037 0.40769384418342008 0 -0.040560013814974517 0.42913173409672722 0 -0.044504768682498037 0.40769384418342008 0 -0.051886787429848112 0.42350176277299723 0 -0.063864341410284964 0.42423751461595932 0 -0.044504768682498037 0.40769384418342008 0 -0.058881304157308093 0.40804381518971672 0 -0.063864341410284964 0.42423751461595932 0 -0.044504768682498037 0.40769384418342008 0 -0.051886787429848112 0.42350176277299723 0 -0.063864341410284964 0.42423751461595932 0 -0.044504768682498037 0.40769384418342008 0 -0.053936434918908913 0.43159717611494758 0 -0.057641003333182179 0.44086754716312743 0 -0.048293098329248912 0.43867666423002288 0 -0.040560013814974517 0.42913173409672722 0 -0.053936434918908913 0.43159717611494758 0 -0.048293098329248912 0.43867666423002288 0 -0.040560013814974517 0.42913173409672722 0 -0.053936434918908913 0.43159717611494758 0 -0.051886787429848112 0.42350176277299723 0 -0.053936434918908913 0.43159717611494758 0 -0.051886787429848112 0.42350176277299723 0 -0.062357688865182517 0.42920641545622512 0 -0.063864341410284964 0.42423751461595932 0 -0.051886787429848112 0.42350176277299723 0 -0.062357688865182517 0.42920641545622512 0 -0.062750456602468974 0.43554137489064498 0 -0.053936434918908913 0.43159717611494758 0 -0.062357688865182517 0.42920641545622512 0 -0.062750456602468974 0.43554137489064498 0 -0.053936434918908913 0.43159717611494758 0 -0.057641003333182179 0.44086754716312743 0 -0.062750456602468974 0.43554137489064498 0 -0.057641003333182179 0.44086754716312743 0 -0.065491549478626135 0.44200233464982802 0 -0.057641003333182179 0.44086754716312743 0 -0.062398417199954148 0.4499603094023914 0 -0.065491549478626135 0.44200233464982802 0 -0.057641003333182179 0.44086754716312743 0 -0.062398417199954148 0.4499603094023914 0 -0.050237972638439453 0.44826214973817502 0 -0.057641003333182179 0.44086754716312743 0 -0.050237972638439453 0.44826214973817502 0 -0.048293098329248912 0.43867666423002288 0 -0.062398417199954148 0.4499603094023914 0 -0.050230730183752688 0.46259696058471089 0 -0.064501224992871267 0.46542691543905351 0 -0.062398417199954148 0.4499603094023914 0 -0.050237972638439453 0.44826214973817502 0 -0.050230730183752688 0.46259696058471089 0 -0.050230730183752688 0.46259696058471089 0 -0.035748626011326709 0.45858167758110602 0 -0.046040344352481867 0.47841272498986082 0 -0.050237972638439453 0.44826214973817502 0 -0.050230730183752688 0.46259696058471089 0 -0.035748626011326709 0.45858167758110602 0 -0.035748626011326709 0.45858167758110602 0 -0.039090066940739521 0.44352471403713711 0 -0.02623027688729573 0.44118750916919391 0 -0.050237972638439453 0.44826214973817502 0 -0.048293098329248912 0.43867666423002288 0 -0.039090066940739521 0.44352471403713711 0 -0.050237972638439453 0.44826214973817502 0 -0.035748626011326709 0.45858167758110602 0 -0.039090066940739521 0.44352471403713711 0 -0.040560013814974517 0.42913173409672722 0 -0.039090066940739521 0.44352471403713711 0 -0.02623027688729573 0.44118750916919391 0 -0.035748626011326709 0.45858167758110602 0 -0.02623027688729573 0.44118750916919391 0 -0.01728298942402769 0.45556140426229003 0 -0.0044763741368290672 0.43313315307665529 0 -0.02623027688729573 0.44118750916919391 0 -0.01728298942402769 0.45556140426229003 0 -0.035748626011326709 0.45858167758110602 0 -0.01728298942402769 0.45556140426229003 0 -0.022784747477638551 0.4775754860453762 0 -0.01728298942402769 0.45556140426229003 0 -0.0062093312902834459 0.46527566221073008 0 0.006403582431216831 0.45126676372832991 0 -0.01728298942402769 0.45556140426229003 0 -0.0062093312902834459 0.46527566221073008 0 -0.022784747477638551 0.4775754860453762 0 -0.0044763741368290672 0.43313315307665529 0 -0.01728298942402769 0.45556140426229003 0 0.006403582431216831 0.45126676372832991 0 -0.0062093312902834459 0.46527566221073008 0 -0.022784747477638551 0.4775754860453762 0 0.0095498935665802413 0.47810272379952351 0 -0.022784747477638551 0.4775754860453762 0 -0.021427984417146221 0.5 0 0.0095498935665802413 0.47810272379952351 0 -0.021427984417146221 0.5 0 0.0095498935665802413 0.47810272379952351 0 0.0086042794582089632 0.5 0 -0.022784747477638551 0.4775754860453762 0 -0.021427984417146221 0.5 0 -0.046040344352481867 0.47841272498986082 0 -0.021427984417146221 0.5 0 -0.046040344352481867 0.47841272498986082 0 -0.051460248292501398 0.5 0 -0.035748626011326709 0.45858167758110602 0 -0.022784747477638551 0.4775754860453762 0 -0.046040344352481867 0.47841272498986082 0 -0.046040344352481867 0.47841272498986082 0 -0.067939054777113927 0.48291587414950521 0 -0.064501224992871267 0.46542691543905351 0 -0.050230730183752688 0.46259696058471089 0 -0.046040344352481867 0.47841272498986082 0 -0.064501224992871267 0.46542691543905351 0 -0.046040344352481867 0.47841272498986082 0 -0.051460248292501398 0.5 0 -0.067939054777113927 0.48291587414950521 0 -0.051460248292501398 0.5 0 -0.081492512167856565 0.50000000000000011 0 -0.067939054777113927 0.48291587414950521 0 -0.081492512167856565 0.50000000000000011 0 -0.085878896958769185 0.47675925450649242 0 -0.067939054777113927 0.48291587414950521 0 -0.081492512167856565 0.50000000000000011 0 -0.085878896958769185 0.47675925450649242 0 -0.099362977551805121 0.48745008538217821 0 -0.081492512167856565 0.50000000000000011 0 -0.085878896958769185 0.47675925450649242 0 -0.085878896958769185 0.47675925450649242 0 -0.075452149305044958 0.46933040044586682 0 -0.067939054777113927 0.48291587414950521 0 -0.075452149305044958 0.46933040044586682 0 -0.067939054777113927 0.48291587414950521 0 -0.064501224992871267 0.46542691543905351 0 -0.064501224992871267 0.46542691543905351 0 -0.075214053997903707 0.45912990264989012 0 -0.070315415620740368 0.45334812155980347 0 -0.062398417199954148 0.4499603094023914 0 -0.064501224992871267 0.46542691543905351 0 -0.070315415620740368 0.45334812155980347 0 -0.075214053997903707 0.45912990264989012 0 -0.070315415620740368 0.45334812155980347 0 -0.081419329692844739 0.44979703694502599 0 -0.075452149305044958 0.46933040044586682 0 -0.064501224992871267 0.46542691543905351 0 -0.075214053997903707 0.45912990264989012 0 -0.075452149305044958 0.46933040044586682 0 -0.075214053997903707 0.45912990264989012 0 -0.082509194984251868 0.46007906520350089 0 -0.069373851585076945 0.43677151010665521 0 -0.065491549478626135 0.44200233464982802 0 -0.073041418115067244 0.44511613748665291 0 -0.062750456602468974 0.43554137489064498 0 -0.069373851585076945 0.43677151010665521 0 -0.065491549478626135 0.44200233464982802 0 -0.062398417199954148 0.4499603094023914 0 -0.065491549478626135 0.44200233464982802 0 -0.073041418115067244 0.44511613748665291 0 -0.062398417199954148 0.4499603094023914 0 -0.070315415620740368 0.45334812155980347 0 -0.073041418115067244 0.44511613748665291 0 -0.070315415620740368 0.45334812155980347 0 -0.073041418115067244 0.44511613748665291 0 -0.081419329692844739 0.44979703694502599 0 -0.073041418115067244 0.44511613748665291 0 -0.07941018481149445 0.44345804230003222 0 -0.081419329692844739 0.44979703694502599 0 -0.077689053426030094 0.43734830183904833 0 -0.069373851585076945 0.43677151010665521 0 -0.073041418115067244 0.44511613748665291 0 -0.077689053426030094 0.43734830183904833 0 -0.073041418115067244 0.44511613748665291 0 -0.07941018481149445 0.44345804230003222 0 -0.097170403390676049 0.43571281837191522 0 -0.084800361071377284 0.4267768085921303 0 -0.094675553767973264 0.45076758317000298 0 -0.084800361071377284 0.4267768085921303 0 -0.094675553767973264 0.45076758317000298 0 -0.084800361071377284 0.4267768085921303 0 -0.085627028266785254 0.44117175463919189 0 -0.094675553767973264 0.45076758317000298 0 -0.085627028266785254 0.44117175463919189 0 -0.07941018481149445 0.44345804230003222 0 -0.081419329692844739 0.44979703694502599 0 -0.077689053426030094 0.43734830183904833 0 -0.085627028266785254 0.44117175463919189 0 -0.07941018481149445 0.44345804230003222 0 -0.085627028266785254 0.44117175463919189 0 -0.081419329692844739 0.44979703694502599 0 -0.088082484801868088 0.44854024150695748 0 -0.081419329692844739 0.44979703694502599 0 -0.086047819819581178 0.45134535453790131 0 -0.088082484801868088 0.44854024150695748 0 -0.085627028266785254 0.44117175463919189 0 -0.088082484801868088 0.44854024150695748 0 -0.094675553767973264 0.45076758317000298 0 -0.086047819819581178 0.45134535453790131 0 -0.088082484801868088 0.44854024150695748 0 -0.090265281749681819 0.45351850901298468 0 -0.088082484801868088 0.44854024150695748 0 -0.090265281749681819 0.45351850901298468 0 -0.094675553767973264 0.45076758317000298 0 -0.085878896958769185 0.47675925450649242 0 -0.075452149305044958 0.46933040044586682 0 -0.082509194984251868 0.46007906520350089 0 -0.085878896958769185 0.47675925450649242 0 -0.090265281749681819 0.45351850901298468 0 -0.085878896958769185 0.47675925450649242 0 -0.090265281749681819 0.45351850901298468 0 -0.093944937474792503 0.46462082789344678 0 -0.085878896958769185 0.47675925450649242 0 -0.082509194984251868 0.46007906520350089 0 -0.090265281749681819 0.45351850901298468 0 -0.081419329692844739 0.44979703694502599 0 -0.086047819819581178 0.45134535453790131 0 -0.082509194984251868 0.46007906520350089 0 -0.075214053997903707 0.45912990264989012 0 -0.081419329692844739 0.44979703694502599 0 -0.082509194984251868 0.46007906520350089 0 -0.090265281749681819 0.45351850901298468 0 -0.093944937474792503 0.46462082789344678 0 -0.094675553767973264 0.45076758317000298 0 -0.086047819819581178 0.45134535453790131 0 -0.082509194984251868 0.46007906520350089 0 -0.090265281749681819 0.45351850901298468 0 -0.093944937474792503 0.46462082789344678 0 -0.094675553767973264 0.45076758317000298 0 -0.1045507464645692 0.47475835774787573 0 -0.094675553767973264 0.45076758317000298 0 -0.1045507464645692 0.47475835774787573 0 -0.1087715055698807 0.4588247561088431 0 -0.094675553767973264 0.45076758317000298 0 -0.1045507464645692 0.47475835774787573 0 -0.1126245701039178 0.4308246085444013 0 -0.1090807961073193 0.44665325123332839 0 -0.10338783084247161 0.44098956532991213 0 -0.097170403390676049 0.43571281837191522 0 -0.094675553767973264 0.45076758317000298 0 -0.10338783084247161 0.44098956532991213 0 -0.1087715055698807 0.4588247561088431 0 -0.094675553767973264 0.45076758317000298 0 -0.1090807961073193 0.44665325123332839 0 -0.094675553767973264 0.45076758317000298 0 -0.1090807961073193 0.44665325123332839 0 -0.10338783084247161 0.44098956532991213 0 -0.1126245701039178 0.4308246085444013 0 -0.1090807961073193 0.44665325123332839 0 -0.1242648033483075 0.43981492828754482 0 -0.1090807961073193 0.44665325123332839 0 -0.1242648033483075 0.43981492828754482 0 -0.1204057133641486 0.45504160574272429 0 -0.1087715055698807 0.4588247561088431 0 -0.1176294132596279 0.46872710166108278 0 -0.1045507464645692 0.47475835774787573 0 -0.1087715055698807 0.4588247561088431 0 -0.1204057133641486 0.45504160574272429 0 -0.1176294132596279 0.46872710166108278 0 -0.1087715055698807 0.4588247561088431 0 -0.1090807961073193 0.44665325123332839 0 -0.1204057133641486 0.45504160574272429 0 -0.13097929143795109 0.46459511115351071 0 -0.1204057133641486 0.45504160574272429 0 -0.1176294132596279 0.46872710166108278 0 -0.12908554574303099 0.47755934496718438 0 -0.1176294132596279 0.46872710166108278 0 -0.1160402402672886 0.48503019582547341 0 -0.1176294132596279 0.46872710166108278 0 -0.1160402402672886 0.48503019582547341 0 -0.1045507464645692 0.47475835774787573 0 -0.13803845513632401 0.5 0 -0.1097654836520903 0.5 0 -0.1160402402672886 0.48503019582547341 0 -0.1097654836520903 0.5 0 -0.1160402402672886 0.48503019582547341 0 -0.099362977551805121 0.48745008538217821 0 -0.081492512167856565 0.50000000000000011 0 -0.1097654836520903 0.5 0 -0.099362977551805121 0.48745008538217821 0 -0.085878896958769185 0.47675925450649242 0 -0.093944937474792503 0.46462082789344678 0 -0.1045507464645692 0.47475835774787573 0 -0.085878896958769185 0.47675925450649242 0 -0.099362977551805121 0.48745008538217821 0 -0.1045507464645692 0.47475835774787573 0 -0.1160402402672886 0.48503019582547341 0 -0.099362977551805121 0.48745008538217821 0 -0.1045507464645692 0.47475835774787573 0 -0.15850742705232401 0.077073165420907211 0 -0.17832815471062741 0.080370175701138483 0 -0.15596223049933161 0.089669487892629185 0 -0.17128916945913089 0.092189477241546317 0 -0.17832815471062741 0.080370175701138483 0 -0.15596223049933161 0.089669487892629185 0 -0.17832815471062741 0.080370175701138483 0 -0.15596223049933161 0.089669487892629185 0 -0.15850742705232401 0.077073165420907211 0 -0.16907692184479731 0.071953328836937142 0 -0.17832815471062741 0.080370175701138483 0 -0.15850742705232401 0.077073165420907211 0 -0.15722519427174569 0.065058312825911402 0 -0.16907692184479731 0.071953328836937142 0 -0.16907692184479731 0.071953328836937142 0 -0.1809864334298861 0.069780609401686525 0 -0.17832815471062741 0.080370175701138483 0 -0.16907692184479731 0.071953328836937142 0 -0.1809864334298861 0.069780609401686525 0 -0.18167022033174851 0.056262687610226528 0 -0.1809864334298861 0.069780609401686525 0 -0.17832815471062741 0.080370175701138483 0 -0.20069407892192309 0.071070863509647808 0 -0.1809864334298861 0.069780609401686525 0 -0.18167022033174851 0.056262687610226528 0 -0.1876556690991136 0.063313821709693935 0 -0.17128916945913089 0.092189477241546317 0 -0.18444466814129201 0.081023499242751457 0 -0.17631468167186989 0.1066384650542631 0 -0.17128916945913089 0.092189477241546317 0 -0.18444466814129201 0.081023499242751457 0 -0.17832815471062741 0.080370175701138483 0 -0.18444466814129201 0.081023499242751457 0 -0.17631468167186989 0.1066384650542631 0 -0.19937405773042491 0.1071019237599893 0 -0.17631468167186989 0.1066384650542631 0 -0.16393492635195239 0.1245978723337525 0 -0.1795193575176991 0.1294692331289829 0 -0.17631468167186989 0.1066384650542631 0 -0.19937405773042491 0.1071019237599893 0 -0.1795193575176991 0.1294692331289829 0 -0.16393492635195239 0.1245978723337525 0 -0.16139611227253359 0.1032457583169494 0 -0.15311233888185891 0.1152965378839053 0 -0.17631468167186989 0.1066384650542631 0 -0.16393492635195239 0.1245978723337525 0 -0.16139611227253359 0.1032457583169494 0 -0.17128916945913089 0.092189477241546317 0 -0.17631468167186989 0.1066384650542631 0 -0.16139611227253359 0.1032457583169494 0 -0.17128916945913089 0.092189477241546317 0 -0.16139611227253359 0.1032457583169494 0 -0.15596223049933161 0.089669487892629185 0 -0.16139611227253359 0.1032457583169494 0 -0.13359630628803579 0.098968800084119873 0 -0.15596223049933161 0.089669487892629185 0 -0.16139611227253359 0.1032457583169494 0 -0.15311233888185891 0.1152965378839053 0 -0.13359630628803579 0.098968800084119873 0 -0.13359630628803579 0.098968800084119873 0 -0.15596223049933161 0.089669487892629185 0 -0.15311233888185891 0.1152965378839053 0 -0.13930859898956699 0.1145050369687237 0 -0.153752621985453 0.14073392350839439 0 -0.15311233888185891 0.1152965378839053 0 -0.13930859898956699 0.1145050369687237 0 -0.13359630628803579 0.098968800084119873 0 -0.13930859898956699 0.1145050369687237 0 -0.12607259725238279 0.11330641960449821 0 -0.12916618827146031 0.12390190950899049 0 -0.13930859898956699 0.1145050369687237 0 -0.12607259725238279 0.11330641960449821 0 -0.13359630628803579 0.098968800084119873 0 -0.13359630628803579 0.098968800084119873 0 -0.12697672020224329 0.087309090757334687 0 -0.14089006822782121 0.082531143958766096 0 -0.12697672020224329 0.087309090757334687 0 -0.14089006822782121 0.082531143958766096 0 -0.12697985749263241 0.07630636069427757 0 -0.15850742705232401 0.077073165420907211 0 -0.14089006822782121 0.082531143958766096 0 -0.15596223049933161 0.089669487892629185 0 -0.13359630628803579 0.098968800084119873 0 -0.14089006822782121 0.082531143958766096 0 -0.15596223049933161 0.089669487892629185 0 -0.15850742705232401 0.077073165420907211 0 -0.14089006822782121 0.082531143958766096 0 -0.14764327064684279 0.071644858797684771 0 -0.15722519427174569 0.065058312825911402 0 -0.14764327064684279 0.071644858797684771 0 -0.1471722955607111 0.059591957907519158 0 -0.15850742705232401 0.077073165420907211 0 -0.15722519427174569 0.065058312825911402 0 -0.14764327064684279 0.071644858797684771 0 -0.14089006822782121 0.082531143958766096 0 -0.14764327064684279 0.071644858797684771 0 -0.13666502121529681 0.069478967649866344 0 -0.14764327064684279 0.071644858797684771 0 -0.13666502121529681 0.069478967649866344 0 -0.1471722955607111 0.059591957907519158 0 -0.14089006822782121 0.082531143958766096 0 -0.13666502121529681 0.069478967649866344 0 -0.12697985749263241 0.07630636069427757 0 -0.13666502121529681 0.069478967649866344 0 -0.12697985749263241 0.07630636069427757 0 -0.12509646681095879 0.065597408261105467 0 -0.13666502121529681 0.069478967649866344 0 -0.12509646681095879 0.065597408261105467 0 -0.13233523162579211 0.057527865090889828 0 -0.13233523162579211 0.057527865090889828 0 -0.1197320338084647 0.057760070231756527 0 -0.1244920148619628 0.050381604022983993 0 -0.12509646681095879 0.065597408261105467 0 -0.13233523162579211 0.057527865090889828 0 -0.1197320338084647 0.057760070231756527 0 -0.13666502121529681 0.069478967649866344 0 -0.13233523162579211 0.057527865090889828 0 -0.1471722955607111 0.059591957907519158 0 -0.13233523162579211 0.057527865090889828 0 -0.131277092146349 0.043237905602295942 0 -0.1435202772377579 0.047601805401877667 0 -0.13233523162579211 0.057527865090889828 0 -0.131277092146349 0.043237905602295942 0 -0.1244920148619628 0.050381604022983993 0 -0.131277092146349 0.043237905602295942 0 -0.14194951185496399 0.035172378083737049 0 -0.12424451236807239 0.027069144312366941 0 -0.131277092146349 0.043237905602295942 0 -0.12424451236807239 0.027069144312366941 0 -0.12075472355362291 0.04122338309529356 0 -0.131277092146349 0.043237905602295942 0 -0.12075472355362291 0.04122338309529356 0 -0.1244920148619628 0.050381604022983993 0 -0.131277092146349 0.043237905602295942 0 -0.14194951185496399 0.035172378083737049 0 -0.1435202772377579 0.047601805401877667 0 -0.14194951185496399 0.035172378083737049 0 -0.15126073753592009 0.02487777788828089 0 -0.1637260562540532 0.045028253166508762 0 -0.14194951185496399 0.035172378083737049 0 -0.1435202772377579 0.047601805401877667 0 -0.1637260562540532 0.045028253166508762 0 -0.15722519427174569 0.065058312825911402 0 -0.1471722955607111 0.059591957907519158 0 -0.1637260562540532 0.045028253166508762 0 -0.1471722955607111 0.059591957907519158 0 -0.1435202772377579 0.047601805401877667 0 -0.1637260562540532 0.045028253166508762 0 -0.13233523162579211 0.057527865090889828 0 -0.1471722955607111 0.059591957907519158 0 -0.1435202772377579 0.047601805401877667 0 -0.1244522405185825 -0.00038769298458709092 0 -0.1310798501921922 0.016754836893075501 0 -0.12424451236807239 0.027069144312366941 0 -0.1244522405185825 -0.00038769298458709092 0 -0.13302987177733741 0.0072862060594841918 0 -0.1310798501921922 0.016754836893075501 0 -0.13796817939809339 -7.5853332940862265e-05 0 -0.13302987177733741 0.0072862060594841918 0 -0.13861921700048169 0.01285353366238922 0 -0.1244522405185825 -0.00038769298458709092 0 -0.13796817939809339 -7.5853332940862265e-05 0 -0.13302987177733741 0.0072862060594841918 0 -0.13302987177733741 0.0072862060594841918 0 -0.13861921700048169 0.01285353366238922 0 -0.1310798501921922 0.016754836893075501 0 -0.14194951185496399 0.035172378083737049 0 -0.1395360945068517 0.023372288850015029 0 -0.12424451236807239 0.027069144312366941 0 -0.13861921700048169 0.01285353366238922 0 -0.1395360945068517 0.023372288850015029 0 -0.1310798501921922 0.016754836893075501 0 -0.1395360945068517 0.023372288850015029 0 -0.1310798501921922 0.016754836893075501 0 -0.12424451236807239 0.027069144312366941 0 -0.14194951185496399 0.035172378083737049 0 -0.1395360945068517 0.023372288850015029 0 -0.15126073753592009 0.02487777788828089 0 -0.15126073753592009 0.02487777788828089 0 -0.15188271994169991 0.01786916074884114 0 -0.14657132146084931 0.01677767438903701 0 -0.15126073753592009 0.02487777788828089 0 -0.15837519066330749 0.018103177496080571 0 -0.1567842680697151 0.017821512483746641 0 -0.15126073753592009 0.02487777788828089 0 -0.15188271994169991 0.01786916074884114 0 -0.1567842680697151 0.017821512483746641 0 -0.1543123506052223 0.01567032783345056 0 -0.15188271994169991 0.01786916074884114 0 -0.1567842680697151 0.017821512483746641 0 -0.13861921700048169 0.01285353366238922 0 -0.1395360945068517 0.023372288850015029 0 -0.14657132146084931 0.01677767438903701 0 -0.1395360945068517 0.023372288850015029 0 -0.15126073753592009 0.02487777788828089 0 -0.14657132146084931 0.01677767438903701 0 -0.15381676672243971 -0.0048344028756085976 0 -0.13796817939809339 -7.5853332940862265e-05 0 -0.14598604308907309 0.0075397954886723484 0 -0.15381676672243971 -0.0048344028756085976 0 -0.15837519066330749 0.018103177496080571 0 -0.15381676672243971 -0.0048344028756085976 0 -0.15182406541376531 0.011854288846745499 0 -0.15837519066330749 0.018103177496080571 0 -0.15381676672243971 -0.0048344028756085976 0 -0.15182406541376531 0.011854288846745499 0 -0.14598604308907309 0.0075397954886723484 0 -0.13861921700048169 0.01285353366238922 0 -0.14657132146084931 0.01677767438903701 0 -0.14598604308907309 0.0075397954886723484 0 -0.14657132146084931 0.01677767438903701 0 -0.15182406541376531 0.011854288846745499 0 -0.14598604308907309 0.0075397954886723484 0 -0.15188271994169991 0.01786916074884114 0 -0.14657132146084931 0.01677767438903701 0 -0.15182406541376531 0.011854288846745499 0 -0.1543123506052223 0.01567032783345056 0 -0.15182406541376531 0.011854288846745499 0 -0.15837519066330749 0.018103177496080571 0 -0.1543123506052223 0.01567032783345056 0 -0.15188271994169991 0.01786916074884114 0 -0.15182406541376531 0.011854288846745499 0 -0.13796817939809339 -7.5853332940862265e-05 0 -0.13861921700048169 0.01285353366238922 0 -0.14598604308907309 0.0075397954886723484 0 -0.15381676672243971 -0.0048344028756085976 0 -0.16872927738725291 0.0066655648670224509 0 -0.15837519066330749 0.018103177496080571 0 -0.16872927738725291 0.0066655648670224509 0 -0.15837519066330749 0.018103177496080571 0 -0.17312315274812851 0.016956976572924821 0 -0.15837519066330749 0.018103177496080571 0 -0.17088268452158301 0.030303691123205939 0 -0.18416549926151529 0.022669224655560441 0 -0.15837519066330749 0.018103177496080571 0 -0.17088268452158301 0.030303691123205939 0 -0.1637260562540532 0.045028253166508762 0 -0.15126073753592009 0.02487777788828089 0 -0.15837519066330749 0.018103177496080571 0 -0.1637260562540532 0.045028253166508762 0 -0.15837519066330749 0.018103177496080571 0 -0.18416549926151529 0.022669224655560441 0 -0.1543123506052223 0.01567032783345056 0 -0.15837519066330749 0.018103177496080571 0 -0.1567842680697151 0.017821512483746641 0 -0.15837519066330749 0.018103177496080571 0 -0.1567842680697151 0.017821512483746641 0 -0.15837519066330749 0.018103177496080571 0 -0.18416549926151529 0.022669224655560441 0 -0.17312315274812851 0.016956976572924821 0 -0.17088268452158301 0.030303691123205939 0 -0.18416549926151529 0.022669224655560441 0 -0.1815242396402782 0.037713578252632912 0 -0.18416549926151529 0.022669224655560441 0 -0.17919408738426101 0.017592611389363012 0 -0.18518118592807509 0.0154377595936586 0 -0.18416549926151529 0.022669224655560441 0 -0.17312315274812851 0.016956976572924821 0 -0.17919408738426101 0.017592611389363012 0 -0.1785064095432054 -0.0066611219507198768 0 -0.16872927738725291 0.0066655648670224509 0 -0.193034969706537 0.00064734206737222756 0 -0.16872927738725291 0.0066655648670224509 0 -0.193034969706537 0.00064734206737222756 0 -0.16872927738725291 0.0066655648670224509 0 -0.18518118592807509 0.0154377595936586 0 -0.193034969706537 0.00064734206737222756 0 -0.16872927738725291 0.0066655648670224509 0 -0.17919408738426101 0.017592611389363012 0 -0.18518118592807509 0.0154377595936586 0 -0.16872927738725291 0.0066655648670224509 0 -0.17312315274812851 0.016956976572924821 0 -0.17919408738426101 0.017592611389363012 0 -0.16907692184479731 0.071953328836937142 0 -0.1637260562540532 0.045028253166508762 0 -0.18167022033174851 0.056262687610226528 0 -0.15722519427174569 0.065058312825911402 0 -0.16907692184479731 0.071953328836937142 0 -0.1637260562540532 0.045028253166508762 0 -0.16907692184479731 0.071953328836937142 0 -0.1637260562540532 0.045028253166508762 0 -0.15837519066330749 0.018103177496080571 0 -0.1637260562540532 0.045028253166508762 0 -0.17088268452158301 0.030303691123205939 0 -0.1637260562540532 0.045028253166508762 0 -0.1815242396402782 0.037713578252632912 0 -0.1815242396402782 0.037713578252632912 0 -0.18167022033174851 0.056262687610226528 0 -0.1948999673891425 0.045815662425189529 0 -0.1637260562540532 0.045028253166508762 0 -0.1815242396402782 0.037713578252632912 0 -0.18167022033174851 0.056262687610226528 0 -0.18416549926151529 0.022669224655560441 0 -0.1815242396402782 0.037713578252632912 0 -0.19539241544158811 0.034915353149486399 0 -0.19598386328254799 0.058823167906541372 0 -0.20873259774339259 0.055173182954087172 0 -0.20069407892192309 0.071070863509647808 0 -0.18167022033174851 0.056262687610226528 0 -0.19598386328254799 0.058823167906541372 0 -0.1876556690991136 0.063313821709693935 0 -0.19598386328254799 0.058823167906541372 0 -0.1948999673891425 0.045815662425189529 0 -0.20873259774339259 0.055173182954087172 0 -0.18167022033174851 0.056262687610226528 0 -0.19598386328254799 0.058823167906541372 0 -0.1948999673891425 0.045815662425189529 0 -0.1815242396402782 0.037713578252632912 0 -0.1948999673891425 0.045815662425189529 0 -0.19539241544158811 0.034915353149486399 0 -0.1948999673891425 0.045815662425189529 0 -0.19539241544158811 0.034915353149486399 0 -0.20641656305728129 0.041143028599009299 0 -0.20641656305728129 0.041143028599009299 0 -0.20995580785972329 0.027235271815039791 0 -0.22080882119384479 0.043900986742667819 0 -0.19539241544158811 0.034915353149486399 0 -0.20641656305728129 0.041143028599009299 0 -0.20995580785972329 0.027235271815039791 0 -0.20641656305728129 0.041143028599009299 0 -0.20873259774339259 0.055173182954087172 0 -0.22080882119384479 0.043900986742667819 0 -0.20873259774339259 0.055173182954087172 0 -0.2267202713125637 0.058975611642501508 0 -0.2176358721649875 0.072186860311035453 0 -0.1948999673891425 0.045815662425189529 0 -0.20641656305728129 0.041143028599009299 0 -0.20873259774339259 0.055173182954087172 0 -0.20993853639106591 -0.0035380738047605968 0 -0.2009137908539024 0.01431144198083124 0 -0.193034969706537 0.00064734206737222756 0 -0.18518118592807509 0.0154377595936586 0 -0.2009137908539024 0.01431144198083124 0 -0.193034969706537 0.00064734206737222756 0 -0.18518118592807509 0.0154377595936586 0 -0.193034969706537 0.00064734206737222756 0 -0.18416549926151529 0.022669224655560441 0 -0.20995580785972329 0.027235271815039791 0 -0.18416549926151529 0.022669224655560441 0 -0.18518118592807509 0.0154377595936586 0 -0.2009137908539024 0.01431144198083124 0 -0.18416549926151529 0.022669224655560441 0 -0.2009137908539024 0.01431144198083124 0 -0.20995580785972329 0.027235271815039791 0 -0.18416549926151529 0.022669224655560441 0 -0.19539241544158811 0.034915353149486399 0 -0.20995580785972329 0.027235271815039791 0 -0.2009137908539024 0.01431144198083124 0 -0.20995580785972329 0.027235271815039791 0 -0.21568563774484731 0.0082874278720449449 0 -0.20993853639106591 -0.0035380738047605968 0 -0.2009137908539024 0.01431144198083124 0 -0.21568563774484731 0.0082874278720449449 0 -0.22684210307559549 -0.0077234896768903086 0 -0.21568563774484731 0.0082874278720449449 0 -0.23077795054394901 0.01115198904600462 0 -0.22684210307559549 -0.0077234896768903086 0 -0.23077795054394901 0.01115198904600462 0 -0.20995580785972329 0.027235271815039791 0 -0.21568563774484731 0.0082874278720449449 0 -0.23077795054394901 0.01115198904600462 0 -0.20995580785972329 0.027235271815039791 0 -0.2357461164579312 0.03180131897451912 0 -0.20995580785972329 0.027235271815039791 0 -0.23077795054394901 0.01115198904600462 0 -0.2357461164579312 0.03180131897451912 0 -0.23077795054394901 0.01115198904600462 0 -0.24854849079604721 0.020569936005881421 0 -0.2357461164579312 0.03180131897451912 0 -0.26153642505613889 0.036367366133998442 0 -0.24854849079604721 0.020569936005881421 0 -0.2357461164579312 0.03180131897451912 0 -0.23077795054394901 0.01115198904600462 0 -0.24854849079604721 0.020569936005881421 0 -0.24598119983726671 0.0037338506766126851 0 -0.22684210307559549 -0.0077234896768903086 0 -0.23077795054394901 0.01115198904600462 0 -0.24598119983726671 0.0037338506766126851 0 -0.20873259774339259 0.055173182954087172 0 -0.2267202713125637 0.058975611642501508 0 -0.22080882119384479 0.043900986742667819 0 -0.2267202713125637 0.058975611642501508 0 -0.22080882119384479 0.043900986742667819 0 -0.239388393447095 0.04766651035075449 0 -0.22080882119384479 0.043900986742667819 0 -0.2357461164579312 0.03180131897451912 0 -0.239388393447095 0.04766651035075449 0 -0.20995580785972329 0.027235271815039791 0 -0.22080882119384479 0.043900986742667819 0 -0.2357461164579312 0.03180131897451912 0 -0.26153642505613889 0.036367366133998442 0 -0.2357461164579312 0.03180131897451912 0 -0.26153642505613889 0.036367366133998442 0 -0.2357461164579312 0.03180131897451912 0 -0.239388393447095 0.04766651035075449 0 -0.25116276906762952 0.054241108780248931 0 -0.239388393447095 0.04766651035075449 0 -0.24035595759446179 0.060712669830591162 0 -0.2267202713125637 0.058975611642501508 0 -0.239388393447095 0.04766651035075449 0 -0.24035595759446179 0.060712669830591162 0 -0.25116276906762952 0.054241108780248931 0 -0.24035595759446179 0.060712669830591162 0 -0.24829977196364941 0.065213336215906109 0 -0.2267202713125637 0.058975611642501508 0 -0.24035595759446179 0.060712669830591162 0 -0.23791909572611269 0.075142721002645518 0 -0.24035595759446179 0.060712669830591162 0 -0.24829977196364941 0.065213336215906109 0 -0.23791909572611269 0.075142721002645518 0 -0.25064083865024739 0.073628726666345984 0 -0.23791909572611269 0.075142721002645518 0 -0.24857020570659841 0.081659589420377987 0 -0.25064083865024739 0.073628726666345984 0 -0.24829977196364941 0.065213336215906109 0 -0.23791909572611269 0.075142721002645518 0 -0.23791909572611269 0.075142721002645518 0 -0.2427234934652894 0.090762762990284518 0 -0.22646138453880821 0.085461994072224837 0 -0.25413031243694739 0.089521027236778197 0 -0.2427234934652894 0.090762762990284518 0 -0.24857020570659841 0.081659589420377987 0 -0.23791909572611269 0.075142721002645518 0 -0.2427234934652894 0.090762762990284518 0 -0.24857020570659841 0.081659589420377987 0 -0.2267202713125637 0.058975611642501508 0 -0.23791909572611269 0.075142721002645518 0 -0.2176358721649875 0.072186860311035453 0 -0.23791909572611269 0.075142721002645518 0 -0.22646138453880821 0.085461994072224837 0 -0.2176358721649875 0.072186860311035453 0 -0.20873259774339259 0.055173182954087172 0 -0.2176358721649875 0.072186860311035453 0 -0.20069407892192309 0.071070863509647808 0 -0.2176358721649875 0.072186860311035453 0 -0.20525373999263671 0.08640341449760941 0 -0.20069407892192309 0.071070863509647808 0 -0.22646138453880821 0.085461994072224837 0 -0.2176358721649875 0.072186860311035453 0 -0.20525373999263671 0.08640341449760941 0 -0.22646138453880821 0.085461994072224837 0 -0.20525373999263671 0.08640341449760941 0 -0.2161514522581473 0.1006972439961434 0 -0.18444466814129201 0.081023499242751457 0 -0.20525373999263671 0.08640341449760941 0 -0.20069407892192309 0.071070863509647808 0 -0.18444466814129201 0.081023499242751457 0 -0.20525373999263671 0.08640341449760941 0 -0.19937405773042491 0.1071019237599893 0 -0.17832815471062741 0.080370175701138483 0 -0.20069407892192309 0.071070863509647808 0 -0.18444466814129201 0.081023499242751457 0 -0.17832815471062741 0.080370175701138483 0 -0.20069407892192309 0.071070863509647808 0 -0.1809864334298861 0.069780609401686525 0 -0.1876556690991136 0.063313821709693935 0 -0.20069407892192309 0.071070863509647808 0 -0.19598386328254799 0.058823167906541372 0 -0.1876556690991136 0.063313821709693935 0 -0.20069407892192309 0.071070863509647808 0 -0.19937405773042491 0.1071019237599893 0 -0.2161514522581473 0.1006972439961434 0 -0.21430344731955769 0.133180348277227 0 -0.19937405773042491 0.1071019237599893 0 -0.19727411993202021 0.1275714443648302 0 -0.1795193575176991 0.1294692331289829 0 -0.18444466814129201 0.081023499242751457 0 -0.19937405773042491 0.1071019237599893 0 -0.20525373999263671 0.08640341449760941 0 -0.19937405773042491 0.1071019237599893 0 -0.2161514522581473 0.1006972439961434 0 -0.19937405773042491 0.1071019237599893 0 -0.21430344731955769 0.133180348277227 0 -0.19937405773042491 0.1071019237599893 0 -0.19727411993202021 0.1275714443648302 0 -0.21430344731955769 0.133180348277227 0 -0.2161514522581473 0.1006972439961434 0 -0.23231730930006211 0.10853516007106349 0 -0.21430344731955769 0.133180348277227 0 -0.2427234934652894 0.090762762990284518 0 -0.22646138453880821 0.085461994072224837 0 -0.23231730930006211 0.10853516007106349 0 -0.22646138453880821 0.085461994072224837 0 -0.2161514522581473 0.1006972439961434 0 -0.23231730930006211 0.10853516007106349 0 -0.25610310449345419 0.1041046972302731 0 -0.2427234934652894 0.090762762990284518 0 -0.23231730930006211 0.10853516007106349 0 -0.25610310449345419 0.1041046972302731 0 -0.23231730930006211 0.10853516007106349 0 -0.2495823492922267 0.12121763785839371 0 -0.23231730930006211 0.10853516007106349 0 -0.2495823492922267 0.12121763785839371 0 -0.23849568892714909 0.13696143350773771 0 -0.23231730930006211 0.10853516007106349 0 -0.23849568892714909 0.13696143350773771 0 -0.25477231595188199 0.13792181725732239 0 -0.2495823492922267 0.12121763785839371 0 -0.23849568892714909 0.13696143350773771 0 -0.23231730930006211 0.10853516007106349 0 -0.23849568892714909 0.13696143350773771 0 -0.21430344731955769 0.133180348277227 0 -0.23849568892714909 0.13696143350773771 0 -0.22923283690869051 0.15925877279446471 0 -0.21430344731955769 0.133180348277227 0 -0.22923283690869051 0.15925877279446471 0 -0.21430344731955769 0.133180348277227 0 -0.2543915534089356 0.15018751405662761 0 -0.23849568892714909 0.13696143350773771 0 -0.24467406855423091 0.1653877069444131 0 -0.23849568892714909 0.13696143350773771 0 -0.24467406855423091 0.1653877069444131 0 -0.22923283690869051 0.15925877279446471 0 -0.2543915534089356 0.15018751405662761 0 -0.25477231595188199 0.13792181725732239 0 -0.23849568892714909 0.13696143350773771 0 -0.23849568892714909 0.13696143350773771 0 -0.24467406855423091 0.1653877069444131 0 -0.24467406855423091 0.1653877069444131 0 -0.2350219134637796 0.18103954803765679 0 -0.22379977898383499 0.16989282922580509 0 -0.24467406855423091 0.1653877069444131 0 -0.24947341468037071 0.1874691479585941 0 -0.2350219134637796 0.18103954803765679 0 -0.24467406855423091 0.1653877069444131 0 -0.24947341468037071 0.1874691479585941 0 -0.2350219134637796 0.18103954803765679 0 -0.22004124654446131 0.18611549732905991 0 -0.22379977898383499 0.16989282922580509 0 -0.24467406855423091 0.1653877069444131 0 -0.22379977898383499 0.16989282922580509 0 -0.22923283690869051 0.15925877279446471 0 -0.22379977898383499 0.16989282922580509 0 -0.22923283690869051 0.15925877279446471 0 -0.20989634202023699 0.1560844752241346 0 -0.24467406855423091 0.1653877069444131 0 -0.22379977898383499 0.16989282922580509 0 -0.22379977898383499 0.16989282922580509 0 -0.20292548941343971 0.17439795150720031 0 -0.20989634202023699 0.1560844752241346 0 -0.20292548941343971 0.17439795150720031 0 -0.20989634202023699 0.1560844752241346 0 -0.17833905569944569 0.15756593750779829 0 -0.22379977898383499 0.16989282922580509 0 -0.20292548941343971 0.17439795150720031 0 -0.22004124654446131 0.18611549732905991 0 -0.22379977898383499 0.16989282922580509 0 -0.20292548941343971 0.17439795150720031 0 -0.22004124654446131 0.18611549732905991 0 -0.20292548941343971 0.17439795150720031 0 -0.22004124654446131 0.18611549732905991 0 -0.20292548941343971 0.17439795150720031 0 -0.20568385543668641 0.19260324117033031 0 -0.20292548941343971 0.17439795150720031 0 -0.1757122088887666 0.1802711648698879 0 -0.20292548941343971 0.17439795150720031 0 -0.1897130520823497 0.19444680225630501 0 -0.1757122088887666 0.1802711648698879 0 -0.20292548941343971 0.17439795150720031 0 -0.20568385543668641 0.19260324117033031 0 -0.1897130520823497 0.19444680225630501 0 -0.20292548941343971 0.17439795150720031 0 -0.17833905569944569 0.15756593750779829 0 -0.19589961716039911 0.1405342722931214 0 -0.20989634202023699 0.1560844752241346 0 -0.17833905569944569 0.15756593750779829 0 -0.19727411993202021 0.1275714443648302 0 -0.19589961716039911 0.1405342722931214 0 -0.1795193575176991 0.1294692331289829 0 -0.19727411993202021 0.1275714443648302 0 -0.19589961716039911 0.1405342722931214 0 -0.21430344731955769 0.133180348277227 0 -0.22923283690869051 0.15925877279446471 0 -0.21430344731955769 0.133180348277227 0 -0.20989634202023699 0.1560844752241346 0 -0.19589961716039911 0.1405342722931214 0 -0.21430344731955769 0.133180348277227 0 -0.20989634202023699 0.1560844752241346 0 -0.23288038931281729 0.23888496135878451 0 -0.21994142138302111 0.22426230620998819 0 -0.21218175950055909 0.24952722652004439 0 -0.22667039518801041 0.25355429459537898 0 -0.23288038931281729 0.23888496135878451 0 -0.21218175950055909 0.24952722652004439 0 -0.2416444700809012 0.25186566196455601 0 -0.22667039518801041 0.25355429459537898 0 -0.23288038931281729 0.23888496135878451 0 -0.2416444700809012 0.25186566196455601 0 -0.23288038931281729 0.23888496135878451 0 -0.2470081454867771 0.2422065880623451 0 -0.25693865295534157 0.25278860643768353 0 -0.2416444700809012 0.25186566196455601 0 -0.2470081454867771 0.2422065880623451 0 -0.25109603964961891 0.234366577265785 0 -0.2470081454867771 0.2422065880623451 0 -0.24424918889796191 0.23342051569475999 0 -0.23288038931281729 0.23888496135878451 0 -0.2470081454867771 0.2422065880623451 0 -0.24424918889796191 0.23342051569475999 0 -0.23288038931281729 0.23888496135878451 0 -0.24424918889796191 0.23342051569475999 0 -0.2396805993576108 0.22455316273993289 0 -0.24424918889796191 0.23342051569475999 0 -0.249817319625419 0.2274340479663062 0 -0.2396805993576108 0.22455316273993289 0 -0.25109603964961891 0.234366577265785 0 -0.24424918889796191 0.23342051569475999 0 -0.249817319625419 0.2274340479663062 0 -0.249817319625419 0.2274340479663062 0 -0.24904636230289101 0.22050689045355901 0 -0.2396805993576108 0.22455316273993289 0 -0.24904636230289101 0.22050689045355901 0 -0.2396805993576108 0.22455316273993289 0 -0.24333230173327219 0.21221501244476959 0 -0.2396805993576108 0.22455316273993289 0 -0.21994142138302111 0.22426230620998819 0 -0.23304733008138001 0.21339205942673259 0 -0.23288038931281729 0.23888496135878451 0 -0.2396805993576108 0.22455316273993289 0 -0.21994142138302111 0.22426230620998819 0 -0.21994142138302111 0.22426230620998819 0 -0.22770108326548311 0.19899738589993199 0 -0.210353022999335 0.20567537760669019 0 -0.21994142138302111 0.22426230620998819 0 -0.23304733008138001 0.21339205942673259 0 -0.22770108326548311 0.19899738589993199 0 -0.21994142138302111 0.22426230620998819 0 -0.22770108326548311 0.19899738589993199 0 -0.23304733008138001 0.21339205942673259 0 -0.2346933251094325 0.20523388649383931 0 -0.22770108326548311 0.19899738589993199 0 -0.25427276080650663 0.20955058897277601 0 -0.23715700367548431 0.1978330431509176 0 -0.2396805993576108 0.22455316273993289 0 -0.23304733008138001 0.21339205942673259 0 -0.24333230173327219 0.21221501244476959 0 -0.25427276080650663 0.20955058897277601 0 -0.24333230173327219 0.21221501244476959 0 -0.23715700367548431 0.1978330431509176 0 -0.25561524088587501 0.21572724177218369 0 -0.24904636230289101 0.22050689045355901 0 -0.24333230173327219 0.21221501244476959 0 -0.24333230173327219 0.21221501244476959 0 -0.2346933251094325 0.20523388649383931 0 -0.23715700367548431 0.1978330431509176 0 -0.23304733008138001 0.21339205942673259 0 -0.24333230173327219 0.21221501244476959 0 -0.2346933251094325 0.20523388649383931 0 -0.25427276080650663 0.20955058897277601 0 -0.24947341468037071 0.1874691479585941 0 -0.23715700367548431 0.1978330431509176 0 -0.24947341468037071 0.1874691479585941 0 -0.2350219134637796 0.18103954803765679 0 -0.23715700367548431 0.1978330431509176 0 -0.22004124654446131 0.18611549732905991 0 -0.23715700367548431 0.1978330431509176 0 -0.22004124654446131 0.18611549732905991 0 -0.23715700367548431 0.1978330431509176 0 -0.22770108326548311 0.19899738589993199 0 -0.2350219134637796 0.18103954803765679 0 -0.22004124654446131 0.18611549732905991 0 -0.23715700367548431 0.1978330431509176 0 -0.2346933251094325 0.20523388649383931 0 -0.23715700367548431 0.1978330431509176 0 -0.22770108326548311 0.19899738589993199 0 -0.22004124654446131 0.18611549732905991 0 -0.22770108326548311 0.19899738589993199 0 -0.21594480206149139 0.19584787550150309 0 -0.22770108326548311 0.19899738589993199 0 -0.21594480206149139 0.19584787550150309 0 -0.210353022999335 0.20567537760669019 0 -0.22004124654446131 0.18611549732905991 0 -0.21594480206149139 0.19584787550150309 0 -0.20568385543668641 0.19260324117033031 0 -0.21594480206149139 0.19584787550150309 0 -0.20568385543668641 0.19260324117033031 0 -0.210353022999335 0.20567537760669019 0 -0.20568385543668641 0.19260324117033031 0 -0.19800517532583911 0.2033181044808495 0 -0.210353022999335 0.20567537760669019 0 -0.20568385543668641 0.19260324117033031 0 -0.1897130520823497 0.19444680225630501 0 -0.19800517532583911 0.2033181044808495 0 -0.1897130520823497 0.19444680225630501 0 -0.19800517532583911 0.2033181044808495 0 -0.1863200837324982 0.20555600776477401 0 -0.19800517532583911 0.2033181044808495 0 -0.19795586237832599 0.21830909360614789 0 -0.210353022999335 0.20567537760669019 0 -0.19800517532583911 0.2033181044808495 0 -0.19795586237832599 0.21830909360614789 0 -0.1863200837324982 0.20555600776477401 0 -0.19795586237832599 0.21830909360614789 0 -0.18240126852579899 0.21930684119835961 0 -0.1863200837324982 0.20555600776477401 0 -0.21994142138302111 0.22426230620998819 0 -0.19795586237832599 0.21830909360614789 0 -0.210353022999335 0.20567537760669019 0 -0.21994142138302111 0.22426230620998819 0 -0.19795586237832599 0.21830909360614789 0 -0.20314208847108339 0.23556135501649109 0 -0.19795586237832599 0.21830909360614789 0 -0.18651378479530609 0.23505073182760211 0 -0.18240126852579899 0.21930684119835961 0 -0.19795586237832599 0.21830909360614789 0 -0.20314208847108339 0.23556135501649109 0 -0.18651378479530609 0.23505073182760211 0 -0.1929026130837673 0.25762258695206858 0 -0.20314208847108339 0.23556135501649109 0 -0.18651378479530609 0.23505073182760211 0 -0.1929026130837673 0.25762258695206858 0 -0.20314208847108339 0.23556135501649109 0 -0.21218175950055909 0.24952722652004439 0 -0.21994142138302111 0.22426230620998819 0 -0.21218175950055909 0.24952722652004439 0 -0.21994142138302111 0.22426230620998819 0 -0.20314208847108339 0.23556135501649109 0 -0.21218175950055909 0.24952722652004439 0 -0.16582228118094081 0.26466105519565358 0 -0.18651378479530609 0.23505073182760211 0 -0.1608218935138386 0.23306973899941771 0 -0.16582228118094081 0.26466105519565358 0 -0.14534546737678511 0.25129379472131641 0 -0.1608218935138386 0.23306973899941771 0 -0.18651378479530609 0.23505073182760211 0 -0.1608218935138386 0.23306973899941771 0 -0.18651378479530609 0.23505073182760211 0 -0.18240126852579899 0.21930684119835961 0 -0.1608218935138386 0.23306973899941771 0 -0.1608218935138386 0.23306973899941771 0 -0.16716432822862029 0.21469463307327219 0 -0.14537567171977789 0.21373021027012479 0 -0.18240126852579899 0.21930684119835961 0 -0.1608218935138386 0.23306973899941771 0 -0.16716432822862029 0.21469463307327219 0 -0.16716432822862029 0.21469463307327219 0 -0.15728284033457929 0.19872471446884221 0 -0.14537567171977789 0.21373021027012479 0 -0.16716432822862029 0.21469463307327219 0 -0.1863200837324982 0.20555600776477401 0 -0.15728284033457929 0.19872471446884221 0 -0.18240126852579899 0.21930684119835961 0 -0.16716432822862029 0.21469463307327219 0 -0.1863200837324982 0.20555600776477401 0 -0.1863200837324982 0.20555600776477401 0 -0.1747365466553682 0.1940095109997643 0 -0.15728284033457929 0.19872471446884221 0 -0.1897130520823497 0.19444680225630501 0 -0.1863200837324982 0.20555600776477401 0 -0.1747365466553682 0.1940095109997643 0 -0.1897130520823497 0.19444680225630501 0 -0.1747365466553682 0.1940095109997643 0 -0.1757122088887666 0.1802711648698879 0 -0.1747365466553682 0.1940095109997643 0 -0.16534449221108169 0.19019064904669619 0 -0.1757122088887666 0.1802711648698879 0 -0.1863200837324982 0.20555600776477401 0 -0.15728284033457929 0.19872471446884221 0 -0.1747365466553682 0.1940095109997643 0 -0.16534449221108169 0.19019064904669619 0 -0.15728284033457929 0.19872471446884221 0 -0.16534449221108169 0.19019064904669619 0 -0.15728284033457929 0.19872471446884221 0 -0.15629575781976141 0.184461654133797 0 -0.15728284033457929 0.19872471446884221 0 -0.12824559693666041 0.19189342117291039 0 -0.15629575781976141 0.184461654133797 0 -0.15728284033457929 0.19872471446884221 0 -0.12824559693666041 0.19189342117291039 0 -0.14537567171977789 0.21373021027012479 0 -0.15728284033457929 0.19872471446884221 0 -0.12824559693666041 0.19189342117291039 0 -0.12824559693666041 0.19189342117291039 0 -0.14537567171977789 0.21373021027012479 0 -0.1242544958201173 0.21504107598638081 0 -0.1608218935138386 0.23306973899941771 0 -0.14537567171977789 0.21373021027012479 0 -0.13513000223237101 0.23108874617123329 0 -0.1608218935138386 0.23306973899941771 0 -0.13513000223237101 0.23108874617123329 0 -0.14537567171977789 0.21373021027012479 0 -0.13513000223237101 0.23108874617123329 0 -0.1242544958201173 0.21504107598638081 0 -0.14534546737678511 0.25129379472131641 0 -0.13513000223237101 0.23108874617123329 0 -0.12470300375741469 0.2457033751303839 0 -0.14534546737678511 0.25129379472131641 0 -0.1608218935138386 0.23306973899941771 0 -0.13513000223237101 0.23108874617123329 0 -0.17833905569944569 0.15756593750779829 0 -0.1561619761378806 0.16047685630827471 0 -0.153752621985453 0.14073392350839439 0 -0.1795193575176991 0.1294692331289829 0 -0.17833905569944569 0.15756593750779829 0 -0.153752621985453 0.14073392350839439 0 -0.17833905569944569 0.15756593750779829 0 -0.153752621985453 0.14073392350839439 0 -0.16393492635195239 0.1245978723337525 0 -0.15311233888185891 0.1152965378839053 0 -0.153752621985453 0.14073392350839439 0 -0.16393492635195239 0.1245978723337525 0 -0.1795193575176991 0.1294692331289829 0 -0.153752621985453 0.14073392350839439 0 -0.19589961716039911 0.1405342722931214 0 -0.1795193575176991 0.1294692331289829 0 -0.17833905569944569 0.15756593750779829 0 -0.20292548941343971 0.17439795150720031 0 -0.17833905569944569 0.15756593750779829 0 -0.1757122088887666 0.1802711648698879 0 -0.1897130520823497 0.19444680225630501 0 -0.1757122088887666 0.1802711648698879 0 -0.16534449221108169 0.19019064904669619 0 -0.1757122088887666 0.1802711648698879 0 -0.15629575781976141 0.184461654133797 0 -0.1757122088887666 0.1802711648698879 0 -0.15629575781976141 0.184461654133797 0 -0.1757122088887666 0.1802711648698879 0 -0.15629575781976141 0.184461654133797 0 -0.1561619761378806 0.16047685630827471 0 -0.17833905569944569 0.15756593750779829 0 -0.1757122088887666 0.1802711648698879 0 -0.1561619761378806 0.16047685630827471 0 -0.1757122088887666 0.1802711648698879 0 -0.1561619761378806 0.16047685630827471 0 -0.1561619761378806 0.16047685630827471 0 -0.14126926821389521 0.17232478353634881 0 -0.1371080151487378 0.15864895140394189 0 -0.15629575781976141 0.184461654133797 0 -0.1561619761378806 0.16047685630827471 0 -0.14126926821389521 0.17232478353634881 0 -0.12824559693666041 0.19189342117291039 0 -0.15629575781976141 0.184461654133797 0 -0.14126926821389521 0.17232478353634881 0 -0.12824559693666041 0.19189342117291039 0 -0.14126926821389521 0.17232478353634881 0 -0.1248941403316576 0.1686438139500778 0 -0.14126926821389521 0.17232478353634881 0 -0.1371080151487378 0.15864895140394189 0 -0.1248941403316576 0.1686438139500778 0 -0.1371080151487378 0.15864895140394189 0 -0.1239269324459726 0.1539154783358255 0 -0.1248941403316576 0.1686438139500778 0 -0.1371080151487378 0.15864895140394189 0 -0.13661174338699569 0.1406825477466605 0 -0.1239269324459726 0.1539154783358255 0 -0.1561619761378806 0.16047685630827471 0 -0.13661174338699569 0.1406825477466605 0 -0.1561619761378806 0.16047685630827471 0 -0.13661174338699569 0.1406825477466605 0 -0.153752621985453 0.14073392350839439 0 -0.1561619761378806 0.16047685630827471 0 -0.1371080151487378 0.15864895140394189 0 -0.13661174338699569 0.1406825477466605 0 -0.12916618827146031 0.12390190950899049 0 -0.153752621985453 0.14073392350839439 0 -0.13930859898956699 0.1145050369687237 0 -0.12916618827146031 0.12390190950899049 0 -0.153752621985453 0.14073392350839439 0 -0.13661174338699569 0.1406825477466605 0 -0.11706151063611089 0.1208882391850464 0 -0.12916618827146031 0.12390190950899049 0 -0.13661174338699569 0.1406825477466605 0 -0.11706151063611089 0.1208882391850464 0 -0.12916618827146031 0.12390190950899049 0 -0.13661174338699569 0.1406825477466605 0 -0.153752621985453 0.14073392350839439 0 -0.13661174338699569 0.1406825477466605 0 -0.11473911200363 0.13153944404780621 0 -0.1132109842275667 0.1430328284895945 0 -0.13661174338699569 0.1406825477466605 0 -0.11473911200363 0.13153944404780621 0 -0.11706151063611089 0.1208882391850464 0 -0.11473911200363 0.13153944404780621 0 -0.1039338124667491 0.13009472872812991 0 -0.1132109842275667 0.1430328284895945 0 -0.11473911200363 0.13153944404780621 0 -0.1039338124667491 0.13009472872812991 0 -0.10601879130899509 0.12208205668825579 0 -0.1039338124667491 0.13009472872812991 0 -0.093398168270057425 0.14218175111966569 0 -0.093946486761182085 0.1175508364221631 0 -0.1039338124667491 0.13009472872812991 0 -0.1132109842275667 0.1430328284895945 0 -0.093398168270057425 0.14218175111966569 0 -0.1078097791349048 0.15856925008885259 0 -0.089544080768145809 0.16137822361845131 0 -0.093398168270057425 0.14218175111966569 0 -0.1132109842275667 0.1430328284895945 0 -0.1078097791349048 0.15856925008885259 0 -0.093398168270057425 0.14218175111966569 0 -0.13661174338699569 0.1406825477466605 0 -0.1132109842275667 0.1430328284895945 0 -0.1239269324459726 0.1539154783358255 0 -0.1132109842275667 0.1430328284895945 0 -0.1239269324459726 0.1539154783358255 0 -0.1078097791349048 0.15856925008885259 0 -0.1248941403316576 0.1686438139500778 0 -0.099208353538741523 0.18506212787697859 0 -0.1078097791349048 0.15856925008885259 0 -0.1239269324459726 0.1539154783358255 0 -0.1248941403316576 0.1686438139500778 0 -0.1078097791349048 0.15856925008885259 0 -0.12824559693666041 0.19189342117291039 0 -0.1248941403316576 0.1686438139500778 0 -0.099208353538741523 0.18506212787697859 0 -0.099208353538741523 0.18506212787697859 0 -0.1078097791349048 0.15856925008885259 0 -0.089544080768145809 0.16137822361845131 0 -0.089544080768145809 0.16137822361845131 0 -0.070171110140822543 0.1782308345810468 0 -0.074669823138777097 0.15727584041375819 0 -0.099208353538741523 0.18506212787697859 0 -0.089544080768145809 0.16137822361845131 0 -0.070171110140822543 0.1782308345810468 0 -0.099208353538741523 0.18506212787697859 0 -0.070171110140822543 0.1782308345810468 0 -0.070171110140822543 0.1782308345810468 0 -0.074669823138777097 0.15727584041375819 0 -0.057722578482997257 0.16273086802879619 0 -0.074669823138777097 0.15727584041375819 0 -0.066369438716585821 0.14892706699039879 0 -0.057722578482997257 0.16273086802879619 0 -0.074669823138777097 0.15727584041375819 0 -0.066369438716585821 0.14892706699039879 0 -0.074733199104357148 0.14603812585323231 0 -0.074669823138777097 0.15727584041375819 0 -0.074733199104357148 0.14603812585323231 0 -0.082756465015383474 0.1492386270883771 0 -0.074733199104357148 0.14603812585323231 0 -0.067315024607703278 0.13662092079142449 0 -0.081437053795579945 0.1393191944367777 0 -0.066369438716585821 0.14892706699039879 0 -0.074733199104357148 0.14603812585323231 0 -0.067315024607703278 0.13662092079142449 0 -0.066369438716585821 0.14892706699039879 0 -0.067315024607703278 0.13662092079142449 0 -0.054361576129613079 0.15178129246158931 0 -0.067315024607703278 0.13662092079142449 0 -0.088852304720190942 0.12644129241805541 0 -0.067315024607703278 0.13662092079142449 0 -0.088852304720190942 0.12644129241805541 0 -0.075786521408142987 0.12443322189858901 0 -0.067315024607703278 0.13662092079142449 0 -0.062016764747578973 0.12884034001808189 0 -0.075786521408142987 0.12443322189858901 0 -0.088852304720190942 0.12644129241805541 0 -0.093398168270057425 0.14218175111966569 0 -0.093946486761182085 0.1175508364221631 0 -0.067315024607703278 0.13662092079142449 0 -0.081437053795579945 0.1393191944367777 0 -0.088852304720190942 0.12644129241805541 0 -0.093398168270057425 0.14218175111966569 0 -0.093946486761182085 0.1175508364221631 0 -0.081437053795579945 0.1393191944367777 0 -0.088852304720190942 0.12644129241805541 0 -0.093398168270057425 0.14218175111966569 0 -0.089544080768145809 0.16137822361845131 0 -0.093398168270057425 0.14218175111966569 0 -0.082756465015383474 0.1492386270883771 0 -0.089544080768145809 0.16137822361845131 0 -0.074669823138777097 0.15727584041375819 0 -0.082756465015383474 0.1492386270883771 0 -0.074733199104357148 0.14603812585323231 0 -0.081437053795579945 0.1393191944367777 0 -0.082756465015383474 0.1492386270883771 0 -0.081437053795579945 0.1393191944367777 0 -0.093398168270057425 0.14218175111966569 0 -0.082756465015383474 0.1492386270883771 0 -0.11076524853809321 0.25238606884059173 0 -0.1094381109509034 0.22910775334304889 0 -0.091345724210048884 0.23566487628332011 0 -0.11076524853809321 0.25238606884059173 0 -0.092391857727521592 0.25884509119311472 0 -0.091345724210048884 0.23566487628332011 0 -0.13513000223237101 0.23108874617123329 0 -0.12470300375741469 0.2457033751303839 0 -0.1094381109509034 0.22910775334304889 0 -0.11076524853809321 0.25238606884059173 0 -0.12470300375741469 0.2457033751303839 0 -0.1094381109509034 0.22910775334304889 0 -0.13513000223237101 0.23108874617123329 0 -0.1094381109509034 0.22910775334304889 0 -0.13513000223237101 0.23108874617123329 0 -0.1094381109509034 0.22910775334304889 0 -0.1242544958201173 0.21504107598638081 0 -0.1094381109509034 0.22910775334304889 0 -0.10308309726087379 0.20938524897458621 0 -0.091345724210048884 0.23566487628332011 0 -0.1094381109509034 0.22910775334304889 0 -0.10308309726087379 0.20938524897458621 0 -0.1242544958201173 0.21504107598638081 0 -0.12824559693666041 0.19189342117291039 0 -0.10308309726087379 0.20938524897458621 0 -0.1242544958201173 0.21504107598638081 0 -0.12824559693666041 0.19189342117291039 0 -0.099208353538741523 0.18506212787697859 0 -0.12824559693666041 0.19189342117291039 0 -0.099208353538741523 0.18506212787697859 0 -0.10308309726087379 0.20938524897458621 0 -0.099208353538741523 0.18506212787697859 0 -0.070171110140822543 0.1782308345810468 0 -0.078220861930521898 0.21057701145176541 0 -0.070171110140822543 0.1782308345810468 0 -0.078220861930521898 0.21057701145176541 0 -0.056949983849450658 0.19269083667038239 0 -0.099208353538741523 0.18506212787697859 0 -0.10308309726087379 0.20938524897458621 0 -0.078220861930521898 0.21057701145176541 0 -0.078220861930521898 0.21057701145176541 0 -0.056178602179823331 0.21732906463454121 0 -0.056949983849450658 0.19269083667038239 0 -0.10308309726087379 0.20938524897458621 0 -0.078220861930521898 0.21057701145176541 0 -0.091345724210048884 0.23566487628332011 0 -0.078220861930521898 0.21057701145176541 0 -0.069221313838413207 0.24642852661517459 0 -0.091345724210048884 0.23566487628332011 0 -0.078220861930521898 0.21057701145176541 0 -0.069221313838413207 0.24642852661517459 0 -0.056178602179823331 0.21732906463454121 0 -0.092391857727521592 0.25884509119311472 0 -0.069221313838413207 0.24642852661517459 0 -0.091345724210048884 0.23566487628332011 0 -0.033382390283993792 0.24359412621706661 0 -0.046050769949304807 0.23401196203723451 0 -0.025866468353912139 0.2289639569827632 0 -0.048126263350958612 0.25465777805589501 0 -0.033382390283993792 0.24359412621706661 0 -0.046050769949304807 0.23401196203723451 0 -0.048126263350958612 0.25465777805589501 0 -0.069221313838413207 0.24642852661517459 0 -0.046050769949304807 0.23401196203723451 0 -0.069221313838413207 0.24642852661517459 0 -0.046050769949304807 0.23401196203723451 0 -0.069221313838413207 0.24642852661517459 0 -0.046050769949304807 0.23401196203723451 0 -0.056178602179823331 0.21732906463454121 0 -0.046050769949304807 0.23401196203723451 0 -0.03692704292774221 0.2147422921961073 0 -0.025866468353912139 0.2289639569827632 0 -0.046050769949304807 0.23401196203723451 0 -0.03692704292774221 0.2147422921961073 0 -0.056178602179823331 0.21732906463454121 0 -0.03692704292774221 0.2147422921961073 0 -0.056178602179823331 0.21732906463454121 0 -0.044221089124866657 0.20193605474889509 0 -0.03692704292774221 0.2147422921961073 0 -0.044221089124866657 0.20193605474889509 0 -0.032331133115066808 0.19858524020914661 0 -0.056178602179823331 0.21732906463454121 0 -0.056949983849450658 0.19269083667038239 0 -0.044221089124866657 0.20193605474889509 0 -0.056949983849450658 0.19269083667038239 0 -0.040360849617421202 0.18777351164107661 0 -0.044221089124866657 0.20193605474889509 0 -0.040360849617421202 0.18777351164107661 0 -0.032331133115066808 0.19858524020914661 0 -0.026751027678188599 0.18229597604057349 0 -0.040360849617421202 0.18777351164107661 0 -0.044221089124866657 0.20193605474889509 0 -0.032331133115066808 0.19858524020914661 0 -0.016914194843479571 0.2076274745640635 0 -0.026751027678188599 0.18229597604057349 0 -0.032331133115066808 0.19858524020914661 0 -0.016914194843479571 0.2076274745640635 0 -0.026751027678188599 0.18229597604057349 0 -0.01405220631290922 0.19352016069679451 0 -0.016914194843479571 0.2076274745640635 0 -0.026751027678188599 0.18229597604057349 0 -0.01405220631290922 0.19352016069679451 0 -0.0012364494800765971 0.1960628175593882 0 -0.01891215499648707 0.1765136475382359 0 -0.01405220631290922 0.19352016069679451 0 -0.0012364494800765971 0.1960628175593882 0 -0.0064787008301582438 0.20475797647738719 0 -0.0012364494800765971 0.1960628175593882 0 -0.0064787008301582438 0.20475797647738719 0 0.003893562275735573 0.2064819102401671 0 -0.01405220631290922 0.19352016069679451 0 -0.0064787008301582438 0.20475797647738719 0 -0.016914194843479571 0.2076274745640635 0 -0.0045317147067566524 0.21522543551468479 0 -0.016914194843479571 0.2076274745640635 0 -0.0070773620087705444 0.23295897308755351 0 -0.0064787008301582438 0.20475797647738719 0 -0.0045317147067566524 0.21522543551468479 0 -0.016914194843479571 0.2076274745640635 0 -0.0064787008301582438 0.20475797647738719 0 -0.0045317147067566524 0.21522543551468479 0 0.003893562275735573 0.2064819102401671 0 -0.03692704292774221 0.2147422921961073 0 -0.016914194843479571 0.2076274745640635 0 -0.025866468353912139 0.2289639569827632 0 -0.03692704292774221 0.2147422921961073 0 -0.032331133115066808 0.19858524020914661 0 -0.016914194843479571 0.2076274745640635 0 -0.016914194843479571 0.2076274745640635 0 -0.025866468353912139 0.2289639569827632 0 -0.0070773620087705444 0.23295897308755351 0 -0.016914194843479571 0.2076274745640635 0 -0.0070773620087705444 0.23295897308755351 0 -0.0045317147067566524 0.21522543551468479 0 -0.0070773620087705444 0.23295897308755351 0 0.0038866256090455522 0.2239579318999283 0 -0.0070773620087705444 0.23295897308755351 0 0.001894876929373096 0.24743045501984201 0 0.0027594708259384838 0.25829047161104352 0 -0.0070773620087705444 0.23295897308755351 0 0.0027594708259384838 0.25829047161104352 0 -0.0087132352456033638 0.25173417187717928 0 -0.0070773620087705444 0.23295897308755351 0 -0.01778818590069102 0.2421293126167848 0 -0.0087132352456033638 0.25173417187717928 0 -0.0070773620087705444 0.23295897308755351 0 0.0027594708259384838 0.25829047161104352 0 -0.025866468353912139 0.2289639569827632 0 -0.0070773620087705444 0.23295897308755351 0 -0.01778818590069102 0.2421293126167848 0 -0.028053557715267439 0.25838243531431121 0 -0.033382390283993792 0.24359412621706661 0 -0.01778818590069102 0.2421293126167848 0 -0.033382390283993792 0.24359412621706661 0 -0.025866468353912139 0.2289639569827632 0 -0.01778818590069102 0.2421293126167848 0 -0.044416936009294992 0.14744373737619401 0 -0.030319635528424791 0.14770209815471691 0 -0.021396469969749188 0.1374028974533886 0 -0.044416936009294992 0.14744373737619401 0 -0.030319635528424791 0.14770209815471691 0 -0.027639103276038759 0.15537380566908321 0 -0.044416936009294992 0.14744373737619401 0 -0.038116788675066252 0.15302723042411279 0 -0.027639103276038759 0.15537380566908321 0 -0.044416936009294992 0.14744373737619401 0 -0.041458398192443832 0.13942314763129199 0 -0.021396469969749188 0.1374028974533886 0 -0.044416936009294992 0.14744373737619401 0 -0.027639103276038759 0.15537380566908321 0 -0.044416936009294992 0.14744373737619401 0 -0.021396469969749188 0.1374028974533886 0 -0.044416936009294992 0.14744373737619401 0 -0.036587860512897558 0.15696447751708351 0 -0.044416936009294992 0.14744373737619401 0 -0.047012455662473793 0.15786975055381819 0 -0.036587860512897558 0.15696447751708351 0 -0.044416936009294992 0.14744373737619401 0 -0.038116788675066252 0.15302723042411279 0 -0.036587860512897558 0.15696447751708351 0 -0.038116788675066252 0.15302723042411279 0 -0.036587860512897558 0.15696447751708351 0 -0.027639103276038759 0.15537380566908321 0 -0.038116788675066252 0.15302723042411279 0 -0.036587860512897558 0.15696447751708351 0 -0.037500573576258918 0.13069979942664511 0 -0.041458398192443832 0.13942314763129199 0 -0.021396469969749188 0.1374028974533886 0 -0.037500573576258918 0.13069979942664511 0 -0.028643554108799551 0.12806760582925611 0 -0.034668926388748328 0.1237436995229996 0 -0.037500573576258918 0.13069979942664511 0 -0.047589673205635397 0.1324549890601831 0 -0.046884900963607742 0.11986348336078891 0 -0.037500573576258918 0.13069979942664511 0 -0.041458398192443832 0.13942314763129199 0 -0.047589673205635397 0.1324549890601831 0 -0.044416936009294992 0.14744373737619401 0 -0.041458398192443832 0.13942314763129199 0 -0.047589673205635397 0.1324549890601831 0 -0.067315024607703278 0.13662092079142449 0 -0.044416936009294992 0.14744373737619401 0 -0.062016764747578973 0.12884034001808189 0 -0.044416936009294992 0.14744373737619401 0 -0.062016764747578973 0.12884034001808189 0 -0.044416936009294992 0.14744373737619401 0 -0.047589673205635397 0.1324549890601831 0 -0.062016764747578973 0.12884034001808189 0 -0.047589673205635397 0.1324549890601831 0 -0.062016764747578973 0.12884034001808189 0 -0.046884900963607742 0.11986348336078891 0 -0.067315024607703278 0.13662092079142449 0 -0.044416936009294992 0.14744373737619401 0 -0.054361576129613079 0.15178129246158931 0 -0.067315024607703278 0.13662092079142449 0 -0.044416936009294992 0.14744373737619401 0 -0.044416936009294992 0.14744373737619401 0 -0.054361576129613079 0.15178129246158931 0 -0.044416936009294992 0.14744373737619401 0 -0.054361576129613079 0.15178129246158931 0 -0.047012455662473793 0.15786975055381819 0 -0.066369438716585821 0.14892706699039879 0 -0.054361576129613079 0.15178129246158931 0 -0.057722578482997257 0.16273086802879619 0 -0.057722578482997257 0.16273086802879619 0 -0.050411583818504503 0.1777900037548745 0 -0.045636115300606919 0.16650756778262649 0 -0.054361576129613079 0.15178129246158931 0 -0.057722578482997257 0.16273086802879619 0 -0.047012455662473793 0.15786975055381819 0 -0.057722578482997257 0.16273086802879619 0 -0.047012455662473793 0.15786975055381819 0 -0.045636115300606919 0.16650756778262649 0 -0.070171110140822543 0.1782308345810468 0 -0.056949983849450658 0.19269083667038239 0 -0.050411583818504503 0.1777900037548745 0 -0.070171110140822543 0.1782308345810468 0 -0.057722578482997257 0.16273086802879619 0 -0.050411583818504503 0.1777900037548745 0 -0.056949983849450658 0.19269083667038239 0 -0.040360849617421202 0.18777351164107661 0 -0.050411583818504503 0.1777900037548745 0 -0.040360849617421202 0.18777351164107661 0 -0.050411583818504503 0.1777900037548745 0 -0.039949487385523758 0.17426630734724691 0 -0.050411583818504503 0.1777900037548745 0 -0.039949487385523758 0.17426630734724691 0 -0.045636115300606919 0.16650756778262649 0 -0.040360849617421202 0.18777351164107661 0 -0.039949487385523758 0.17426630734724691 0 -0.026751027678188599 0.18229597604057349 0 -0.039949487385523758 0.17426630734724691 0 -0.036587860512897558 0.15696447751708351 0 -0.026751027678188599 0.18229597604057349 0 -0.036587860512897558 0.15696447751708351 0 -0.026751027678188599 0.18229597604057349 0 -0.039949487385523758 0.17426630734724691 0 -0.045636115300606919 0.16650756778262649 0 -0.036587860512897558 0.15696447751708351 0 -0.047012455662473793 0.15786975055381819 0 -0.045636115300606919 0.16650756778262649 0 -0.036587860512897558 0.15696447751708351 0 -0.01891215499648707 0.1765136475382359 0 -0.010861270542782259 0.1633038739619718 0 -0.027639103276038759 0.15537380566908321 0 -0.010861270542782259 0.1633038739619718 0 -0.027639103276038759 0.15537380566908321 0 -0.036587860512897558 0.15696447751708351 0 -0.01891215499648707 0.1765136475382359 0 -0.036587860512897558 0.15696447751708351 0 -0.01891215499648707 0.1765136475382359 0 -0.027639103276038759 0.15537380566908321 0 -0.01405220631290922 0.19352016069679451 0 -0.01891215499648707 0.1765136475382359 0 -0.026751027678188599 0.18229597604057349 0 -0.036587860512897558 0.15696447751708351 0 -0.01891215499648707 0.1765136475382359 0 -0.026751027678188599 0.18229597604057349 0 -0.01891215499648707 0.1765136475382359 0 -0.010861270542782259 0.1633038739619718 0 0.00061104658230836653 0.17769045695541219 0 -0.0012364494800765971 0.1960628175593882 0 -0.01891215499648707 0.1765136475382359 0 0.00061104658230836653 0.17769045695541219 0 -0.0012364494800765971 0.1960628175593882 0 -0.01891215499648707 0.1765136475382359 0 -0.010861270542782259 0.1633038739619718 0 0.001788155555331062 0.1557637096651584 0 0.00061104658230836653 0.17769045695541219 0 -0.01542264584752753 0.14956457798035719 0 -0.015783289274076458 0.13495459563681389 0 0.001788155555331062 0.1557637096651584 0 -0.015783289274076458 0.13495459563681389 0 0.001788155555331062 0.1557637096651584 0 0.01185912902997375 0.14130758542593569 0 -0.010861270542782259 0.1633038739619718 0 -0.01542264584752753 0.14956457798035719 0 0.001788155555331062 0.1557637096651584 0 -0.015783289274076458 0.13495459563681389 0 0.001788155555331062 0.1557637096651584 0 -0.01542264584752753 0.14956457798035719 0 -0.023159931299824549 0.14839209377580129 0 -0.027639103276038759 0.15537380566908321 0 -0.010861270542782259 0.1633038739619718 0 -0.01542264584752753 0.14956457798035719 0 -0.027639103276038759 0.15537380566908321 0 -0.01542264584752753 0.14956457798035719 0 -0.023159931299824549 0.14839209377580129 0 -0.021396469969749188 0.1374028974533886 0 -0.01542264584752753 0.14956457798035719 0 -0.021396469969749188 0.1374028974533886 0 -0.015783289274076458 0.13495459563681389 0 -0.030319635528424791 0.14770209815471691 0 -0.021396469969749188 0.1374028974533886 0 -0.023159931299824549 0.14839209377580129 0 -0.030319635528424791 0.14770209815471691 0 -0.021396469969749188 0.1374028974533886 0 -0.023159931299824549 0.14839209377580129 0 -0.030319635528424791 0.14770209815471691 0 -0.027639103276038759 0.15537380566908321 0 -0.028643554108799551 0.12806760582925611 0 -0.017506847497941139 0.13291345901070739 0 -0.032144953111298558 0.1155781737325411 0 -0.037500573576258918 0.13069979942664511 0 -0.028643554108799551 0.12806760582925611 0 -0.021396469969749188 0.1374028974533886 0 -0.021396469969749188 0.1374028974533886 0 -0.015783289274076458 0.13495459563681389 0 -0.017506847497941139 0.13291345901070739 0 -0.021396469969749188 0.1374028974533886 0 -0.015783289274076458 0.13495459563681389 0 -0.021396469969749188 0.1374028974533886 0 -0.017506847497941139 0.13291345901070739 0 -0.015783289274076458 0.13495459563681389 0 -0.017506847497941139 0.13291345901070739 0 -0.028643554108799551 0.12806760582925611 0 -0.021396469969749188 0.1374028974533886 0 -0.017506847497941139 0.13291345901070739 0 -0.015783289274076458 0.13495459563681389 0 -0.017506847497941139 0.13291345901070739 0 -0.0052228475358298988 0.1187351519746004 0 -0.015783289274076458 0.13495459563681389 0 -0.0052228475358298988 0.1187351519746004 0 0.0081407562022233586 0.1245196413435004 0 -0.017506847497941139 0.13291345901070739 0 -0.0052228475358298988 0.1187351519746004 0 -0.015783289274076458 0.13495459563681389 0 0.0081407562022233586 0.1245196413435004 0 -0.0052228475358298988 0.1187351519746004 0 -0.0040597014752050652 0.1051126182356364 0 -0.02761291541641378 0.1090435214711212 0 -0.017506847497941139 0.13291345901070739 0 -0.0052228475358298988 0.1187351519746004 0 -0.019344259015361451 0.119617058157429 0 -0.0040597014752050652 0.1051126182356364 0 -0.01533391803445322 0.09737838425916874 0 0.0051087594610210148 0.080527692295617709 0 -0.0052228475358298988 0.1187351519746004 0 -0.0040597014752050652 0.1051126182356364 0 0.0092582498306486675 0.1020209346744549 0 -0.0040597014752050652 0.1051126182356364 0 -0.01533391803445322 0.09737838425916874 0 -0.02761291541641378 0.1090435214711212 0 -0.01533391803445322 0.09737838425916874 0 -0.027797722535604891 0.095528124355643507 0 -0.02761291541641378 0.1090435214711212 0 -0.0052228475358298988 0.1187351519746004 0 -0.02761291541641378 0.1090435214711212 0 -0.019344259015361451 0.119617058157429 0 -0.017506847497941139 0.13291345901070739 0 -0.019344259015361451 0.119617058157429 0 -0.032144953111298558 0.1155781737325411 0 -0.02761291541641378 0.1090435214711212 0 -0.019344259015361451 0.119617058157429 0 -0.032144953111298558 0.1155781737325411 0 -0.0052228475358298988 0.1187351519746004 0 -0.02761291541641378 0.1090435214711212 0 -0.017506847497941139 0.13291345901070739 0 -0.032144953111298558 0.1155781737325411 0 -0.0012292332505543029 0.06378464068123596 0 -0.011084303888442551 0.081696622097620714 0 -0.018620569400409771 0.06708533464306303 0 -0.0012292332505543029 0.06378464068123596 0 -0.011084303888442551 0.081696622097620714 0 0.0051087594610210148 0.080527692295617709 0 -0.01533391803445322 0.09737838425916874 0 -0.011084303888442551 0.081696622097620714 0 0.0051087594610210148 0.080527692295617709 0 -0.01533391803445322 0.09737838425916874 0 0.0051087594610210148 0.080527692295617709 0 -0.011084303888442551 0.081696622097620714 0 0.0051087594610210148 0.080527692295617709 0 -0.027797722535604891 0.095528124355643507 0 -0.011084303888442551 0.081696622097620714 0 -0.032921925083363349 0.0833654898886593 0 -0.01533391803445322 0.09737838425916874 0 -0.027797722535604891 0.095528124355643507 0 -0.011084303888442551 0.081696622097620714 0 -0.018620569400409771 0.06708533464306303 0 -0.031868141831282552 0.069818555696904067 0 -0.028283535649973771 0.053358049395037133 0 -0.018620569400409771 0.06708533464306303 0 -0.031868141831282552 0.069818555696904067 0 -0.032921925083363349 0.0833654898886593 0 -0.011084303888442551 0.081696622097620714 0 -0.018620569400409771 0.06708533464306303 0 -0.032921925083363349 0.0833654898886593 0 -0.046276495737503101 0.06795068115397529 0 -0.032921925083363349 0.0833654898886593 0 -0.055882409073029139 0.082732437330199013 0 -0.046276495737503101 0.06795068115397529 0 -0.031868141831282552 0.069818555696904067 0 -0.028283535649973771 0.053358049395037133 0 -0.046276495737503101 0.06795068115397529 0 -0.031868141831282552 0.069818555696904067 0 -0.032921925083363349 0.0833654898886593 0 -0.027797722535604891 0.095528124355643507 0 -0.032921925083363349 0.0833654898886593 0 -0.050002983296997462 0.099351890967641507 0 -0.032921925083363349 0.0833654898886593 0 -0.055882409073029139 0.082732437330199013 0 -0.050002983296997462 0.099351890967641507 0 -0.055882409073029139 0.082732437330199013 0 -0.050002983296997462 0.099351890967641507 0 -0.072393051177581158 0.089660260464161839 0 -0.046276495737503101 0.06795068115397529 0 -0.055882409073029139 0.082732437330199013 0 -0.062589921296568873 0.06642957971461419 0 -0.032144953111298558 0.1155781737325411 0 -0.050002983296997462 0.099351890967641507 0 -0.046884900963607742 0.11986348336078891 0 -0.037500573576258918 0.13069979942664511 0 -0.034668926388748328 0.1237436995229996 0 -0.046884900963607742 0.11986348336078891 0 -0.028643554108799551 0.12806760582925611 0 -0.034668926388748328 0.1237436995229996 0 -0.032144953111298558 0.1155781737325411 0 -0.034668926388748328 0.1237436995229996 0 -0.032144953111298558 0.1155781737325411 0 -0.046884900963607742 0.11986348336078891 0 -0.027797722535604891 0.095528124355643507 0 -0.02761291541641378 0.1090435214711212 0 -0.050002983296997462 0.099351890967641507 0 -0.02761291541641378 0.1090435214711212 0 -0.050002983296997462 0.099351890967641507 0 -0.02761291541641378 0.1090435214711212 0 -0.032144953111298558 0.1155781737325411 0 -0.050002983296997462 0.099351890967641507 0 -0.050002983296997462 0.099351890967641507 0 -0.072393051177581158 0.089660260464161839 0 -0.050002983296997462 0.099351890967641507 0 -0.062115440392200259 0.1100516779477724 0 -0.072393051177581158 0.089660260464161839 0 -0.062016764747578973 0.12884034001808189 0 -0.062115440392200259 0.1100516779477724 0 -0.046884900963607742 0.11986348336078891 0 -0.050002983296997462 0.099351890967641507 0 -0.062115440392200259 0.1100516779477724 0 -0.046884900963607742 0.11986348336078891 0 -0.062016764747578973 0.12884034001808189 0 -0.062115440392200259 0.1100516779477724 0 -0.07825578499994286 0.1108801308713713 0 -0.062016764747578973 0.12884034001808189 0 -0.07825578499994286 0.1108801308713713 0 -0.062016764747578973 0.12884034001808189 0 -0.075786521408142987 0.12443322189858901 0 -0.07825578499994286 0.1108801308713713 0 -0.088852304720190942 0.12644129241805541 0 -0.075786521408142987 0.12443322189858901 0 -0.083719546898917335 0.119699814685821 0 -0.083719546898917335 0.119699814685821 0 -0.07825578499994286 0.1108801308713713 0 -0.093946486761182085 0.1175508364221631 0 -0.075786521408142987 0.12443322189858901 0 -0.083719546898917335 0.119699814685821 0 -0.07825578499994286 0.1108801308713713 0 -0.088852304720190942 0.12644129241805541 0 -0.083719546898917335 0.119699814685821 0 -0.093946486761182085 0.1175508364221631 0 -0.07825578499994286 0.1108801308713713 0 -0.072393051177581158 0.089660260464161839 0 -0.094494805252306774 0.092919921724660626 0 -0.07825578499994286 0.1108801308713713 0 -0.094494805252306774 0.092919921724660626 0 -0.093946486761182085 0.1175508364221631 0 -0.07825578499994286 0.1108801308713713 0 -0.094494805252306774 0.092919921724660626 0 -0.062115440392200259 0.1100516779477724 0 -0.07825578499994286 0.1108801308713713 0 -0.072393051177581158 0.089660260464161839 0 -0.055882409073029139 0.082732437330199013 0 -0.072393051177581158 0.089660260464161839 0 -0.062589921296568873 0.06642957971461419 0 -0.072393051177581158 0.089660260464161839 0 -0.062589921296568873 0.06642957971461419 0 -0.079461892795990779 0.070449194571112136 0 -0.062589921296568873 0.06642957971461419 0 -0.079461892795990779 0.070449194571112136 0 -0.072380178782229632 0.053292134703331731 0 -0.079461892795990779 0.070449194571112136 0 -0.094783119058163612 0.079968629960679383 0 -0.095163193665411511 0.062895368012773595 0 -0.072393051177581158 0.089660260464161839 0 -0.079461892795990779 0.070449194571112136 0 -0.094783119058163612 0.079968629960679383 0 -0.072393051177581158 0.089660260464161839 0 -0.094494805252306774 0.092919921724660626 0 -0.094783119058163612 0.079968629960679383 0 -0.072393051177581158 0.089660260464161839 0 -0.094783119058163612 0.079968629960679383 0 -0.094494805252306774 0.092919921724660626 0 -0.1072570836689255 0.074569224449017327 0 -0.1143352617609841 0.070976556735617355 0 -0.094494805252306774 0.092919921724660626 0 -0.094783119058163612 0.079968629960679383 0 -0.1072570836689255 0.074569224449017327 0 -0.094494805252306774 0.092919921724660626 0 -0.094783119058163612 0.079968629960679383 0 -0.094494805252306774 0.092919921724660626 0 -0.1143352617609841 0.070976556735617355 0 -0.11134444788944529 0.091345452974062963 0 -0.094494805252306774 0.092919921724660626 0 -0.1143352617609841 0.070976556735617355 0 -0.094783119058163612 0.079968629960679383 0 -0.095163193665411511 0.062895368012773595 0 -0.094783119058163612 0.079968629960679383 0 -0.095163193665411511 0.062895368012773595 0 -0.1072570836689255 0.074569224449017327 0 -0.095163193665411511 0.062895368012773595 0 -0.1143352617609841 0.070976556735617355 0 -0.1079186055395126 0.059947093390224047 0 -0.095163193665411511 0.062895368012773595 0 -0.1072570836689255 0.074569224449017327 0 -0.1143352617609841 0.070976556735617355 0 -0.095163193665411511 0.062895368012773595 0 -0.1143352617609841 0.070976556735617355 0 -0.094783119058163612 0.079968629960679383 0 -0.1072570836689255 0.074569224449017327 0 -0.1131683311422218 0.062814464837820119 0 -0.1163519950294771 0.068746068028026575 0 -0.1143352617609841 0.070976556735617355 0 -0.1131683311422218 0.062814464837820119 0 -0.1143352617609841 0.070976556735617355 0 -0.1079186055395126 0.059947093390224047 0 -0.1131683311422218 0.062814464837820119 0 -0.1163519950294771 0.068746068028026575 0 -0.1185872066977806 0.063729502839677182 0 -0.1163519950294771 0.068746068028026575 0 -0.1143352617609841 0.070976556735617355 0 -0.12697985749263241 0.07630636069427757 0 -0.1143352617609841 0.070976556735617355 0 -0.12697985749263241 0.07630636069427757 0 -0.1143352617609841 0.070976556735617355 0 -0.1200161930876608 0.081776906418299489 0 -0.12697985749263241 0.07630636069427757 0 -0.1163519950294771 0.068746068028026575 0 -0.1143352617609841 0.070976556735617355 0 -0.12697985749263241 0.07630636069427757 0 -0.12509646681095879 0.065597408261105467 0 -0.1163519950294771 0.068746068028026575 0 -0.12509646681095879 0.065597408261105467 0 -0.1163519950294771 0.068746068028026575 0 -0.1185872066977806 0.063729502839677182 0 -0.13359630628803579 0.098968800084119873 0 -0.12697672020224329 0.087309090757334687 0 -0.11134444788944529 0.091345452974062963 0 -0.1143352617609841 0.070976556735617355 0 -0.11134444788944529 0.091345452974062963 0 -0.1200161930876608 0.081776906418299489 0 -0.12697672020224329 0.087309090757334687 0 -0.11134444788944529 0.091345452974062963 0 -0.1200161930876608 0.081776906418299489 0 -0.12697672020224329 0.087309090757334687 0 -0.12697985749263241 0.07630636069427757 0 -0.1200161930876608 0.081776906418299489 0 -0.12607259725238279 0.11330641960449821 0 -0.13359630628803579 0.098968800084119873 0 -0.11123038207674001 0.1082681122756106 0 -0.13359630628803579 0.098968800084119873 0 -0.11134444788944529 0.091345452974062963 0 -0.11123038207674001 0.1082681122756106 0 -0.13359630628803579 0.098968800084119873 0 -0.11123038207674001 0.1082681122756106 0 -0.11134444788944529 0.091345452974062963 0 -0.11123038207674001 0.1082681122756106 0 -0.1057361510920251 0.099277959283072717 0 -0.12607259725238279 0.11330641960449821 0 -0.11123038207674001 0.1082681122756106 0 -0.11706151063611089 0.1208882391850464 0 -0.12607259725238279 0.11330641960449821 0 -0.12916618827146031 0.12390190950899049 0 -0.11706151063611089 0.1208882391850464 0 -0.11473911200363 0.13153944404780621 0 -0.11706151063611089 0.1208882391850464 0 -0.10601879130899509 0.12208205668825579 0 -0.1036345166478785 0.1154037657297244 0 -0.093946486761182085 0.1175508364221631 0 -0.097511277885226108 0.1010939306234323 0 -0.11123038207674001 0.1082681122756106 0 -0.11706151063611089 0.1208882391850464 0 -0.097511277885226108 0.1010939306234323 0 -0.11706151063611089 0.1208882391850464 0 -0.1036345166478785 0.1154037657297244 0 -0.097511277885226108 0.1010939306234323 0 -0.11706151063611089 0.1208882391850464 0 -0.097511277885226108 0.1010939306234323 0 -0.11706151063611089 0.1208882391850464 0 -0.1036345166478785 0.1154037657297244 0 -0.10601879130899509 0.12208205668825579 0 -0.1039338124667491 0.13009472872812991 0 -0.10601879130899509 0.12208205668825579 0 -0.093946486761182085 0.1175508364221631 0 -0.1036345166478785 0.1154037657297244 0 -0.10601879130899509 0.12208205668825579 0 -0.093946486761182085 0.1175508364221631 0 -0.094494805252306774 0.092919921724660626 0 -0.11134444788944529 0.091345452974062963 0 -0.1057361510920251 0.099277959283072717 0 -0.094494805252306774 0.092919921724660626 0 -0.093946486761182085 0.1175508364221631 0 -0.094494805252306774 0.092919921724660626 0 -0.093946486761182085 0.1175508364221631 0 -0.097511277885226108 0.1010939306234323 0 -0.094494805252306774 0.092919921724660626 0 -0.097511277885226108 0.1010939306234323 0 -0.1057361510920251 0.099277959283072717 0 -0.11123038207674001 0.1082681122756106 0 -0.097511277885226108 0.1010939306234323 0 -0.1057361510920251 0.099277959283072717 0 -0.1001339578063882 0.022436777626384768 0 -0.09536928659882779 0.01424719335382847 0 -0.1128440433065038 0.01636018592503535 0 -0.1001339578063882 0.022436777626384768 0 -0.1128440433065038 0.01636018592503535 0 -0.1012358460944251 0.033108064834657697 0 -0.1128440433065038 0.01636018592503535 0 -0.11393466639619521 0.035004472642448957 0 -0.1012358460944251 0.033108064834657697 0 -0.1128440433065038 0.01636018592503535 0 -0.1012358460944251 0.033108064834657697 0 -0.1001339578063882 0.022436777626384768 0 -0.1012358460944251 0.033108064834657697 0 -0.091086655225796079 0.026031666392017531 0 -0.1001339578063882 0.022436777626384768 0 -0.09536928659882779 0.01424719335382847 0 -0.091086655225796079 0.026031666392017531 0 -0.10394313851700079 0.0020556251079679459 0 -0.09536928659882779 0.01424719335382847 0 -0.085958893623968774 0.001514634656162053 0 -0.10394313851700079 0.0020556251079679459 0 -0.09536928659882779 0.01424719335382847 0 -0.1128440433065038 0.01636018592503535 0 -0.1244522405185825 -0.00038769298458709092 0 -0.12424451236807239 0.027069144312366941 0 -0.1244522405185825 -0.00038769298458709092 0 -0.1128440433065038 0.01636018592503535 0 -0.12424451236807239 0.027069144312366941 0 -0.1244522405185825 -0.00038769298458709092 0 -0.1128440433065038 0.01636018592503535 0 -0.1244522405185825 -0.00038769298458709092 0 -0.10394313851700079 0.0020556251079679459 0 -0.1128440433065038 0.01636018592503535 0 -0.1128440433065038 0.01636018592503535 0 -0.12424451236807239 0.027069144312366941 0 -0.11393466639619521 0.035004472642448957 0 -0.12424451236807239 0.027069144312366941 0 -0.12075472355362291 0.04122338309529356 0 -0.11393466639619521 0.035004472642448957 0 -0.12075472355362291 0.04122338309529356 0 -0.1244920148619628 0.050381604022983993 0 -0.1151670195775447 0.0482238646449 0 -0.11393466639619521 0.035004472642448957 0 -0.1151670195775447 0.0482238646449 0 -0.10635909785250069 0.04125385698526951 0 -0.12075472355362291 0.04122338309529356 0 -0.11393466639619521 0.035004472642448957 0 -0.1151670195775447 0.0482238646449 0 -0.12509646681095879 0.065597408261105467 0 -0.1185872066977806 0.063729502839677182 0 -0.1197320338084647 0.057760070231756527 0 -0.1197320338084647 0.057760070231756527 0 -0.1244920148619628 0.050381604022983993 0 -0.1151670195775447 0.0482238646449 0 -0.1151670195775447 0.0482238646449 0 -0.1125210466915524 0.054978807834542787 0 -0.1051700993263314 0.050476507920077678 0 -0.1197320338084647 0.057760070231756527 0 -0.1151670195775447 0.0482238646449 0 -0.1125210466915524 0.054978807834542787 0 -0.1131683311422218 0.062814464837820119 0 -0.1197320338084647 0.057760070231756527 0 -0.1125210466915524 0.054978807834542787 0 -0.1131683311422218 0.062814464837820119 0 -0.1125210466915524 0.054978807834542787 0 -0.1079186055395126 0.059947093390224047 0 -0.1131683311422218 0.062814464837820119 0 -0.1185872066977806 0.063729502839677182 0 -0.1197320338084647 0.057760070231756527 0 -0.095163193665411511 0.062895368012773595 0 -0.1051700993263314 0.050476507920077678 0 -0.095336714328198874 0.041619114628837717 0 -0.095163193665411511 0.062895368012773595 0 -0.095336714328198874 0.041619114628837717 0 -0.1125210466915524 0.054978807834542787 0 -0.1079186055395126 0.059947093390224047 0 -0.1051700993263314 0.050476507920077678 0 -0.095163193665411511 0.062895368012773595 0 -0.1079186055395126 0.059947093390224047 0 -0.1051700993263314 0.050476507920077678 0 -0.11393466639619521 0.035004472642448957 0 -0.10635909785250069 0.04125385698526951 0 -0.1012358460944251 0.033108064834657697 0 -0.1051700993263314 0.050476507920077678 0 -0.10635909785250069 0.04125385698526951 0 -0.095336714328198874 0.041619114628837717 0 -0.1151670195775447 0.0482238646449 0 -0.1051700993263314 0.050476507920077678 0 -0.10635909785250069 0.04125385698526951 0 -0.095336714328198874 0.041619114628837717 0 -0.1012358460944251 0.033108064834657697 0 -0.08853862327275358 0.036894035852943478 0 -0.10635909785250069 0.04125385698526951 0 -0.095336714328198874 0.041619114628837717 0 -0.1012358460944251 0.033108064834657697 0 -0.095336714328198874 0.041619114628837717 0 -0.1012358460944251 0.033108064834657697 0 -0.1012358460944251 0.033108064834657697 0 -0.08853862327275358 0.036894035852943478 0 -0.091086655225796079 0.026031666392017531 0 -0.08853862327275358 0.036894035852943478 0 -0.081088353484909961 0.032020518526829703 0 -0.091086655225796079 0.026031666392017531 0 -0.08853862327275358 0.036894035852943478 0 -0.079654612676290371 0.043453985766932421 0 -0.089627648882346422 0.049855943744280047 0 -0.095336714328198874 0.041619114628837717 0 -0.08853862327275358 0.036894035852943478 0 -0.089627648882346422 0.049855943744280047 0 -0.095336714328198874 0.041619114628837717 0 -0.089627648882346422 0.049855943744280047 0 -0.08853862327275358 0.036894035852943478 0 -0.079654612676290371 0.043453985766932421 0 -0.081088353484909961 0.032020518526829703 0 -0.095163193665411511 0.062895368012773595 0 -0.089627648882346422 0.049855943744280047 0 -0.072380178782229632 0.053292134703331731 0 -0.095163193665411511 0.062895368012773595 0 -0.095336714328198874 0.041619114628837717 0 -0.089627648882346422 0.049855943744280047 0 -0.095163193665411511 0.062895368012773595 0 -0.072380178782229632 0.053292134703331731 0 -0.079461892795990779 0.070449194571112136 0 -0.095163193665411511 0.062895368012773595 0 -0.072380178782229632 0.053292134703331731 0 -0.079654612676290371 0.043453985766932421 0 -0.089627648882346422 0.049855943744280047 0 -0.072380178782229632 0.053292134703331731 0 -0.079654612676290371 0.043453985766932421 0 -0.072380178782229632 0.053292134703331731 0 -0.065785112224924183 0.037111289768743512 0 -0.072380178782229632 0.053292134703331731 0 -0.065785112224924183 0.037111289768743512 0 -0.049597163899048183 0.043688901393888827 0 -0.079654612676290371 0.043453985766932421 0 -0.081088353484909961 0.032020518526829703 0 -0.065785112224924183 0.037111289768743512 0 -0.081088353484909961 0.032020518526829703 0 -0.065785112224924183 0.037111289768743512 0 -0.069646162847898541 0.026335067629459381 0 -0.069646162847898541 0.026335067629459381 0 -0.076118231742993758 0.01527396050979404 0 -0.05559295393876626 0.02093450171247024 0 -0.065785112224924183 0.037111289768743512 0 -0.069646162847898541 0.026335067629459381 0 -0.05559295393876626 0.02093450171247024 0 -0.081088353484909961 0.032020518526829703 0 -0.069646162847898541 0.026335067629459381 0 -0.076118231742993758 0.01527396050979404 0 -0.081088353484909961 0.032020518526829703 0 -0.091086655225796079 0.026031666392017531 0 -0.076118231742993758 0.01527396050979404 0 -0.09536928659882779 0.01424719335382847 0 -0.091086655225796079 0.026031666392017531 0 -0.076118231742993758 0.01527396050979404 0 -0.09536928659882779 0.01424719335382847 0 -0.085958893623968774 0.001514634656162053 0 -0.076118231742993758 0.01527396050979404 0 -0.076118231742993758 0.01527396050979404 0 -0.065648076432031049 0.00090955339710942099 0 -0.05559295393876626 0.02093450171247024 0 -0.085958893623968774 0.001514634656162053 0 -0.076118231742993758 0.01527396050979404 0 -0.065648076432031049 0.00090955339710942099 0 -0.045118160941850949 -0.00049033847668307538 0 -0.065648076432031049 0.00090955339710942099 0 -0.05559295393876626 0.02093450171247024 0 -0.05559295393876626 0.02093450171247024 0 -0.041197297059898302 0.028587588038626519 0 -0.049597163899048183 0.043688901393888827 0 -0.05559295393876626 0.02093450171247024 0 -0.032784921385912158 0.01564128096370114 0 -0.041197297059898302 0.028587588038626519 0 -0.032784921385912158 0.01564128096370114 0 -0.041197297059898302 0.028587588038626519 0 -0.02681414901586664 0.034085668084445887 0 -0.045118160941850949 -0.00049033847668307538 0 -0.05559295393876626 0.02093450171247024 0 -0.032784921385912158 0.01564128096370114 0 -0.045118160941850949 -0.00049033847668307538 0 -0.027025641752002061 -0.0079319500279313396 0 -0.032784921385912158 0.01564128096370114 0 -0.062589921296568873 0.06642957971461419 0 -0.072380178782229632 0.053292134703331731 0 -0.049597163899048183 0.043688901393888827 0 -0.046276495737503101 0.06795068115397529 0 -0.062589921296568873 0.06642957971461419 0 -0.049597163899048183 0.043688901393888827 0 -0.072380178782229632 0.053292134703331731 0 -0.049597163899048183 0.043688901393888827 0 -0.065785112224924183 0.037111289768743512 0 -0.05559295393876626 0.02093450171247024 0 -0.049597163899048183 0.043688901393888827 0 -0.049597163899048183 0.043688901393888827 0 -0.02681414901586664 0.034085668084445887 0 -0.041197297059898302 0.028587588038626519 0 -0.049597163899048183 0.043688901393888827 0 -0.02681414901586664 0.034085668084445887 0 -0.049597163899048183 0.043688901393888827 0 -0.028283535649973771 0.053358049395037133 0 -0.02681414901586664 0.034085668084445887 0 -0.046276495737503101 0.06795068115397529 0 -0.028283535649973771 0.053358049395037133 0 -0.046276495737503101 0.06795068115397529 0 -0.049597163899048183 0.043688901393888827 0 -0.028283535649973771 0.053358049395037133 0 -0.028283535649973771 0.053358049395037133 0 -0.010290575562444429 0.038765417636098962 0 -0.0097640400442320502 0.053032197103308337 0 -0.018620569400409771 0.06708533464306303 0 -0.028283535649973771 0.053358049395037133 0 -0.0097640400442320502 0.053032197103308337 0 -0.028283535649973771 0.053358049395037133 0 -0.010290575562444429 0.038765417636098962 0 -0.02681414901586664 0.034085668084445887 0 -0.010290575562444429 0.038765417636098962 0 -0.020835528804160591 0.022374223573919171 0 -0.028283535649973771 0.053358049395037133 0 -0.02681414901586664 0.034085668084445887 0 -0.010290575562444429 0.038765417636098962 0 -0.010290575562444429 0.038765417636098962 0 0.0077023845250848884 0.024172785877160811 0 -0.010290575562444429 0.038765417636098962 0 -0.0034349793211087142 0.044893397967285961 0 0.0047272217829380687 0.036246676438490527 0 -0.010290575562444429 0.038765417636098962 0 -0.0034349793211087142 0.044893397967285961 0 -0.0097640400442320502 0.053032197103308337 0 -0.0012292332505543029 0.06378464068123596 0 -0.018620569400409771 0.06708533464306303 0 -0.0097640400442320502 0.053032197103308337 0 -0.0034349793211087142 0.044893397967285961 0 -0.0097640400442320502 0.053032197103308337 0 0.0015874765393035599 0.051529300691246019 0 -0.0012292332505543029 0.06378464068123596 0 -0.0097640400442320502 0.053032197103308337 0 0.0015874765393035599 0.051529300691246019 0 -0.027025641752002061 -0.0079319500279313396 0 -0.032784921385912158 0.01564128096370114 0 -0.01566814095190756 0.010235570601176981 0 -0.032784921385912158 0.01564128096370114 0 -0.02681414901586664 0.034085668084445887 0 -0.020835528804160591 0.022374223573919171 0 -0.032784921385912158 0.01564128096370114 0 -0.01566814095190756 0.010235570601176981 0 -0.020835528804160591 0.022374223573919171 0 -0.010290575562444429 0.038765417636098962 0 -0.020835528804160591 0.022374223573919171 0 -0.0077262750329500059 0.02266504195052366 0 -0.01566814095190756 0.010235570601176981 0 -0.020835528804160591 0.022374223573919171 0 -0.0077262750329500059 0.02266504195052366 0 -0.010290575562444429 0.038765417636098962 0 -0.0077262750329500059 0.02266504195052366 0 0.0077023845250848884 0.024172785877160811 0 -0.0091716063734174208 -0.003332990253060792 0 -0.01566814095190756 0.010235570601176981 0 0.001118487675879971 0.0096665619175221752 0 -0.0091716063734174208 -0.003332990253060792 0 0.001118487675879971 0.0096665619175221752 0 0.006935528729737548 -0.0054826371559186567 0 -0.01566814095190756 0.010235570601176981 0 -0.0077262750329500059 0.02266504195052366 0 0.001118487675879971 0.0096665619175221752 0 0.001118487675879971 0.0096665619175221752 0 0.0077023845250848884 0.024172785877160811 0 0.025695344612614111 0.0095801541182225364 0 0.001118487675879971 0.0096665619175221752 0 0.025695344612614111 0.0095801541182225364 0 0.006935528729737548 -0.0054826371559186567 0 -0.0077262750329500059 0.02266504195052366 0 0.001118487675879971 0.0096665619175221752 0 0.0077023845250848884 0.024172785877160811 0 0.0077023845250848884 0.024172785877160811 0 0.024648998497944961 0.02642224341189468 0 0.015911730558903318 0.034762274935307848 0 0.024648998497944961 0.02642224341189468 0 0.025695344612614111 0.0095801541182225364 0 0.038363400138324961 0.019751697241263279 0 0.0077023845250848884 0.024172785877160811 0 0.024648998497944961 0.02642224341189468 0 0.025695344612614111 0.0095801541182225364 0 0.0077023845250848884 0.024172785877160811 0 0.025695344612614111 0.0095801541182225364 0 0.025695344612614111 0.0095801541182225364 0 0.006935528729737548 -0.0054826371559186567 0 0.01459521235494949 0.061710637509134872 0 0.0047272217829380687 0.036246676438490527 0 -0.0012292332505543029 0.06378464068123596 0 0.01459521235494949 0.061710637509134872 0 0.0015874765393035599 0.051529300691246019 0 0.01459521235494949 0.061710637509134872 0 0.0015874765393035599 0.051529300691246019 0 0.0047272217829380687 0.036246676438490527 0 0.01459521235494949 0.061710637509134872 0 0.0047272217829380687 0.036246676438490527 0 0.016570281580619739 0.045526930476817662 0 -0.010290575562444429 0.038765417636098962 0 0.0077023845250848884 0.024172785877160811 0 0.0047272217829380687 0.036246676438490527 0 -0.0034349793211087142 0.044893397967285961 0 0.0015874765393035599 0.051529300691246019 0 0.0047272217829380687 0.036246676438490527 0 0.0047272217829380687 0.036246676438490527 0 0.015911730558903318 0.034762274935307848 0 0.016570281580619739 0.045526930476817662 0 0.0077023845250848884 0.024172785877160811 0 0.0047272217829380687 0.036246676438490527 0 0.015911730558903318 0.034762274935307848 0 0.024648998497944961 0.02642224341189468 0 0.015911730558903318 0.034762274935307848 0 0.025892041879535671 0.039420421904702428 0 0.024648998497944961 0.02642224341189468 0 0.025892041879535671 0.039420421904702428 0 0.038236142792751733 0.035111405712831077 0 0.015911730558903318 0.034762274935307848 0 0.025892041879535671 0.039420421904702428 0 0.016570281580619739 0.045526930476817662 0 0.025892041879535671 0.039420421904702428 0 0.016570281580619739 0.045526930476817662 0 0.021716339062575678 0.05448348331271597 0 0.01459521235494949 0.061710637509134872 0 0.016570281580619739 0.045526930476817662 0 0.021716339062575678 0.05448348331271597 0 0.01459521235494949 0.061710637509134872 0 0.021716339062575678 0.05448348331271597 0 0.030459386295035529 0.05963142741263059 0 0.01459521235494949 0.061710637509134872 0 0.030459386295035529 0.05963142741263059 0 0.021716339062575678 0.05448348331271597 0 0.030459386295035529 0.05963142741263059 0 0.032703710623893968 0.046893395464013943 0 0.025892041879535671 0.039420421904702428 0 0.021716339062575678 0.05448348331271597 0 0.032703710623893968 0.046893395464013943 0 0.030459386295035529 0.05963142741263059 0 0.032703710623893968 0.046893395464013943 0 0.047214643089571059 0.045820238977188371 0 0.030459386295035529 0.05963142741263059 0 0.04797297407010033 0.057336039788577382 0 0.030459386295035529 0.05963142741263059 0 0.04797297407010033 0.057336039788577382 0 0.027635028654909001 0.06907575978797427 0 0.030459386295035529 0.05963142741263059 0 0.047214643089571059 0.045820238977188371 0 0.04797297407010033 0.057336039788577382 0 0.030459386295035529 0.05963142741263059 0 0.047214643089571059 0.045820238977188371 0 0.038236142792751733 0.035111405712831077 0 0.047214643089571059 0.045820238977188371 0 0.051031455664035288 0.029923240364304559 0 0.032703710623893968 0.046893395464013943 0 0.038236142792751733 0.035111405712831077 0 0.047214643089571059 0.045820238977188371 0 0.025892041879535671 0.039420421904702428 0 0.032703710623893968 0.046893395464013943 0 0.038236142792751733 0.035111405712831077 0 0.062359133547200143 0.040731400683572692 0 0.047214643089571059 0.045820238977188371 0 0.063969899884107562 0.032009050541747332 0 0.047214643089571059 0.045820238977188371 0 0.063969899884107562 0.032009050541747332 0 0.047214643089571059 0.045820238977188371 0 0.051031455664035288 0.029923240364304559 0 0.063969899884107562 0.032009050541747332 0 0.062359133547200143 0.040731400683572692 0 0.04797297407010033 0.057336039788577382 0 0.072379857481358154 0.054137194478101919 0 0.04797297407010033 0.057336039788577382 0 0.072379857481358154 0.054137194478101919 0 0.062359133547200143 0.040731400683572692 0 0.04797297407010033 0.057336039788577382 0 0.062359133547200143 0.040731400683572692 0 0.047214643089571059 0.045820238977188371 0 0.04797297407010033 0.057336039788577382 0 0.04797297407010033 0.057336039788577382 0 0.072379857481358154 0.054137194478101919 0 0.06072113176624426 0.066105246874810966 0 0.040835927619124697 0.0088703260301804514 0 0.038363400138324961 0.019751697241263279 0 0.051939500327619889 0.017318508583630769 0 0.040835927619124697 0.0088703260301804514 0 0.046640351189982193 0.001482106492276504 0 0.040314465242246092 -0.002276229875846851 0 0.025695344612614111 0.0095801541182225364 0 0.040314465242246092 -0.002276229875846851 0 0.025695344612614111 0.0095801541182225364 0 0.040835927619124697 0.0088703260301804514 0 0.040314465242246092 -0.002276229875846851 0 0.025695344612614111 0.0095801541182225364 0 0.040835927619124697 0.0088703260301804514 0 0.038363400138324961 0.019751697241263279 0 0.025695344612614111 0.0095801541182225364 0 0.038363400138324961 0.019751697241263279 0 0.024648998497944961 0.02642224341189468 0 0.038236142792751733 0.035111405712831077 0 0.038363400138324961 0.019751697241263279 0 0.038363400138324961 0.019751697241263279 0 0.051031455664035288 0.029923240364304559 0 0.038236142792751733 0.035111405712831077 0 0.038363400138324961 0.019751697241263279 0 0.051031455664035288 0.029923240364304559 0 0.038363400138324961 0.019751697241263279 0 0.051939500327619889 0.017318508583630769 0 0.051031455664035288 0.029923240364304559 0 0.051031455664035288 0.029923240364304559 0 0.062107590562420073 0.0228568457980407 0 0.063969899884107562 0.032009050541747332 0 0.051939500327619889 0.017318508583630769 0 0.062107590562420073 0.0228568457980407 0 0.064696567818308529 0.01472149906873369 0 0.051939500327619889 0.017318508583630769 0 0.051031455664035288 0.029923240364304559 0 0.062107590562420073 0.0228568457980407 0 0.055514373943813228 0.0067304088365214816 0 0.075461568133428525 0.0044331687040122013 0 0.049896637954744763 -0.0073960790217490677 0 0.051939500327619889 0.017318508583630769 0 0.055514373943813228 0.0067304088365214816 0 0.064696567818308529 0.01472149906873369 0 0.040835927619124697 0.0088703260301804514 0 0.051939500327619889 0.017318508583630769 0 0.055514373943813228 0.0067304088365214816 0 0.046640351189982193 0.001482106492276504 0 0.055514373943813228 0.0067304088365214816 0 0.049896637954744763 -0.0073960790217490677 0 0.040835927619124697 0.0088703260301804514 0 0.046640351189982193 0.001482106492276504 0 0.055514373943813228 0.0067304088365214816 0 0.075461568133428525 0.0044331687040122013 0 0.064696567818308529 0.01472149906873369 0 0.08072515667864405 0.018197862106306289 0 0.055514373943813228 0.0067304088365214816 0 0.075461568133428525 0.0044331687040122013 0 0.064696567818308529 0.01472149906873369 0 0.075461568133428525 0.0044331687040122013 0 0.1010264983121123 0.016262416429773479 0 0.075461568133428525 0.0044331687040122013 0 0.1010264983121123 0.016262416429773479 0 0.098011391193308373 -0.0056982583262641584 0 0.075461568133428525 0.0044331687040122013 0 0.08072515667864405 0.018197862106306289 0 0.1010264983121123 0.016262416429773479 0 0.088041666307225416 0.02743399724937181 0 0.08072515667864405 0.018197862106306289 0 0.1010264983121123 0.016262416429773479 0 0.088041666307225416 0.02743399724937181 0 0.08072515667864405 0.018197862106306289 0 0.076745293024301803 0.02412676157856956 0 0.088041666307225416 0.02743399724937181 0 0.076745293024301803 0.02412676157856956 0 0.082258845210710349 0.03253561428057717 0 0.08072515667864405 0.018197862106306289 0 0.076745293024301803 0.02412676157856956 0 0.063969899884107562 0.032009050541747332 0 0.062107590562420073 0.0228568457980407 0 0.064696567818308529 0.01472149906873369 0 0.08072515667864405 0.018197862106306289 0 0.08072515667864405 0.018197862106306289 0 0.063969899884107562 0.032009050541747332 0 0.062107590562420073 0.0228568457980407 0 0.08072515667864405 0.018197862106306289 0 0.063969899884107562 0.032009050541747332 0 0.062359133547200143 0.040731400683572692 0 0.076745293024301803 0.02412676157856956 0 0.062359133547200143 0.040731400683572692 0 0.076745293024301803 0.02412676157856956 0 0.076375628159171968 0.038405412939545532 0 0.062359133547200143 0.040731400683572692 0 0.076745293024301803 0.02412676157856956 0 0.063969899884107562 0.032009050541747332 0 0.062359133547200143 0.040731400683572692 0 0.076375628159171968 0.038405412939545532 0 0.072379857481358154 0.054137194478101919 0 0.072379857481358154 0.054137194478101919 0 0.087872793352142223 0.040176285354821803 0 0.096786740892615686 0.050938349167624693 0 0.072379857481358154 0.054137194478101919 0 0.096786740892615686 0.050938349167624693 0 0.072379857481358154 0.054137194478101919 0 0.096786740892615686 0.050938349167624693 0 0.089592915186254174 0.067390154600646832 0 0.076375628159171968 0.038405412939545532 0 0.072379857481358154 0.054137194478101919 0 0.087872793352142223 0.040176285354821803 0 0.076375628159171968 0.038405412939545532 0 0.082258845210710349 0.03253561428057717 0 0.087872793352142223 0.040176285354821803 0 0.076745293024301803 0.02412676157856956 0 0.076375628159171968 0.038405412939545532 0 0.082258845210710349 0.03253561428057717 0 0.088041666307225416 0.02743399724937181 0 0.087872793352142223 0.040176285354821803 0 0.098246025398924644 0.032379674771496843 0 0.088041666307225416 0.02743399724937181 0 0.082258845210710349 0.03253561428057717 0 0.087872793352142223 0.040176285354821803 0 0.098246025398924644 0.032379674771496843 0 0.09859813872304253 0.041737690340159041 0 0.1063796333462841 0.038668109643535398 0 0.087872793352142223 0.040176285354821803 0 0.098246025398924644 0.032379674771496843 0 0.09859813872304253 0.041737690340159041 0 0.087872793352142223 0.040176285354821803 0 0.09859813872304253 0.041737690340159041 0 0.096786740892615686 0.050938349167624693 0 0.09859813872304253 0.041737690340159041 0 0.1037055006252459 0.04652603276331644 0 0.096786740892615686 0.050938349167624693 0 0.1037055006252459 0.04652603276331644 0 0.1091701701315707 0.045405346223324289 0 0.1063796333462841 0.038668109643535398 0 0.09859813872304253 0.041737690340159041 0 0.1037055006252459 0.04652603276331644 0 0.1063796333462841 0.038668109643535398 0 0.098246025398924644 0.032379674771496843 0 0.1063796333462841 0.038668109643535398 0 0.1080469394596527 0.029312409717345649 0 0.1063796333462841 0.038668109643535398 0 0.11369005285381351 0.036564640387925021 0 0.1080469394596527 0.029312409717345649 0 0.10140855114010359 0.056741753968867333 0 0.1082136550722141 0.059696613986540442 0 0.089592915186254174 0.067390154600646832 0 0.10140855114010359 0.056741753968867333 0 0.096786740892615686 0.050938349167624693 0 0.089592915186254174 0.067390154600646832 0 0.10140855114010359 0.056741753968867333 0 0.096786740892615686 0.050938349167624693 0 0.1040187002827474 0.052009313231975308 0 0.1037055006252459 0.04652603276331644 0 0.096786740892615686 0.050938349167624693 0 0.1040187002827474 0.052009313231975308 0 0.1037055006252459 0.04652603276331644 0 0.10828434687670541 0.049049973369521209 0 0.1040187002827474 0.052009313231975308 0 0.1037055006252459 0.04652603276331644 0 0.1091701701315707 0.045405346223324289 0 0.10828434687670541 0.049049973369521209 0 0.10828434687670541 0.049049973369521209 0 0.1040187002827474 0.052009313231975308 0 0.1085923347430168 0.054888678040205661 0 0.10140855114010359 0.056741753968867333 0 0.1040187002827474 0.052009313231975308 0 0.1085923347430168 0.054888678040205661 0 0.10140855114010359 0.056741753968867333 0 0.1085923347430168 0.054888678040205661 0 0.1082136550722141 0.059696613986540442 0 0.1082136550722141 0.059696613986540442 0 0.12683439495817461 0.052003073372435288 0 0.1085923347430168 0.054888678040205661 0 0.1082136550722141 0.059696613986540442 0 0.12683439495817461 0.052003073372435288 0 0.1082136550722141 0.059696613986540442 0 0.1213053233293625 0.063977455960140386 0 0.12683439495817461 0.052003073372435288 0 0.1085923347430168 0.054888678040205661 0 0.11545296983014219 0.044674578582556468 0 0.12683439495817461 0.052003073372435288 0 0.1085923347430168 0.054888678040205661 0 0.11545296983014219 0.044674578582556468 0 0.10828434687670541 0.049049973369521209 0 0.1085923347430168 0.054888678040205661 0 0.11545296983014219 0.044674578582556468 0 0.11545296983014219 0.044674578582556468 0 0.12683439495817461 0.052003073372435288 0 0.11545296983014219 0.044674578582556468 0 0.12659142849079691 0.028091664155532971 0 0.13015300311198849 0.040381385354086502 0 0.11369005285381351 0.036564640387925021 0 0.11545296983014219 0.044674578582556468 0 0.12659142849079691 0.028091664155532971 0 0.11369005285381351 0.036564640387925021 0 0.1080469394596527 0.029312409717345649 0 0.12659142849079691 0.028091664155532971 0 0.11545296983014219 0.044674578582556468 0 0.12659142849079691 0.028091664155532971 0 0.1091701701315707 0.045405346223324289 0 0.1063796333462841 0.038668109643535398 0 0.11316657253878901 0.043202368340974628 0 0.11369005285381351 0.036564640387925021 0 0.11316657253878901 0.043202368340974628 0 0.11545296983014219 0.044674578582556468 0 0.1063796333462841 0.038668109643535398 0 0.11369005285381351 0.036564640387925021 0 0.11316657253878901 0.043202368340974628 0 0.1091701701315707 0.045405346223324289 0 0.10828434687670541 0.049049973369521209 0 0.11545296983014219 0.044674578582556468 0 0.1091701701315707 0.045405346223324289 0 0.11316657253878901 0.043202368340974628 0 0.11545296983014219 0.044674578582556468 0 0.11316657253878901 0.043202368340974628 0 0.11545296983014219 0.044674578582556468 0 0.11545296983014219 0.044674578582556468 0 0.13015300311198849 0.040381385354086502 0 0.12683439495817461 0.052003073372435288 0 0.11882011836095251 0.0065886106746579649 0 0.1010264983121123 0.016262416429773479 0 0.12659142849079691 0.028091664155532971 0 0.1010264983121123 0.016262416429773479 0 0.12659142849079691 0.028091664155532971 0 0.1010264983121123 0.016262416429773479 0 0.1080469394596527 0.029312409717345649 0 0.12659142849079691 0.028091664155532971 0 0.11882011836095251 0.0065886106746579649 0 0.1010264983121123 0.016262416429773479 0 0.098011391193308373 -0.0056982583262641584 0 0.088041666307225416 0.02743399724937181 0 0.098246025398924644 0.032379674771496843 0 0.1010264983121123 0.016262416429773479 0 0.098246025398924644 0.032379674771496843 0 0.1010264983121123 0.016262416429773479 0 0.1080469394596527 0.029312409717345649 0 0.102028599401492 0.1079210482782756 0 0.1185648575779607 0.095458187827811403 0 0.097454497296707604 0.093489332089851121 0 0.102028599401492 0.1079210482782756 0 0.094862282777670462 0.1196438628042634 0 0.1117522404438802 0.12667258555115829 0 0.123281054128593 0.11724462113534739 0 0.1117522404438802 0.12667258555115829 0 0.13947052033133081 0.1245003570974072 0 0.102028599401492 0.1079210482782756 0 0.123281054128593 0.11724462113534739 0 0.1117522404438802 0.12667258555115829 0 0.102028599401492 0.1079210482782756 0 0.123281054128593 0.11724462113534739 0 0.102028599401492 0.1079210482782756 0 0.123281054128593 0.11724462113534739 0 0.1185648575779607 0.095458187827811403 0 0.1185648575779607 0.095458187827811403 0 0.10766661625946521 0.081617344394697103 0 0.12679961534922851 0.075073796793526271 0 0.1127439035567581 0.069567645006608142 0 0.10766661625946521 0.081617344394697103 0 0.12679961534922851 0.075073796793526271 0 0.1213053233293625 0.063977455960140386 0 0.1127439035567581 0.069567645006608142 0 0.12679961534922851 0.075073796793526271 0 0.1082136550722141 0.059696613986540442 0 0.1213053233293625 0.063977455960140386 0 0.1127439035567581 0.069567645006608142 0 0.1082136550722141 0.059696613986540442 0 0.089592915186254174 0.067390154600646832 0 0.1014387622560044 0.070574023901201433 0 0.10766661625946521 0.081617344394697103 0 0.08998097741878798 0.081820185866337797 0 0.1082136550722141 0.059696613986540442 0 0.1014387622560044 0.070574023901201433 0 0.089592915186254174 0.067390154600646832 0 0.1082136550722141 0.059696613986540442 0 0.1127439035567581 0.069567645006608142 0 0.1014387622560044 0.070574023901201433 0 0.1127439035567581 0.069567645006608142 0 0.1014387622560044 0.070574023901201433 0 0.10766661625946521 0.081617344394697103 0 0.1185648575779607 0.095458187827811403 0 0.097454497296707604 0.093489332089851121 0 0.10766661625946521 0.081617344394697103 0 0.097454497296707604 0.093489332089851121 0 0.10766661625946521 0.081617344394697103 0 0.08998097741878798 0.081820185866337797 0 0.097454497296707604 0.093489332089851121 0 0.08998097741878798 0.081820185866337797 0 0.080776144674391009 0.098597475421203867 0 0.08998097741878798 0.081820185866337797 0 0.071888117261322881 0.075707086101057836 0 0.080776144674391009 0.098597475421203867 0 0.08998097741878798 0.081820185866337797 0 0.089592915186254174 0.067390154600646832 0 0.071888117261322881 0.075707086101057836 0 0.1014387622560044 0.070574023901201433 0 0.08998097741878798 0.081820185866337797 0 0.089592915186254174 0.067390154600646832 0 0.072379857481358154 0.054137194478101919 0 0.089592915186254174 0.067390154600646832 0 0.071888117261322881 0.075707086101057836 0 0.072379857481358154 0.054137194478101919 0 0.071888117261322881 0.075707086101057836 0 0.06072113176624426 0.066105246874810966 0 0.071888117261322881 0.075707086101057836 0 0.080776144674391009 0.098597475421203867 0 0.059523689947290133 0.089273902564132146 0 0.069834633883481517 0.1065625652268001 0 0.059315065316452309 0.1025539410383776 0 0.059523689947290133 0.089273902564132146 0 0.080776144674391009 0.098597475421203867 0 0.059523689947290133 0.089273902564132146 0 0.069834633883481517 0.1065625652268001 0 0.080776144674391009 0.098597475421203867 0 0.081634330708880196 0.1151370033827101 0 0.069834633883481517 0.1065625652268001 0 0.080776144674391009 0.098597475421203867 0 0.059523689947290133 0.089273902564132146 0 0.069834633883481517 0.1065625652268001 0 0.064307476710745728 0.1098785041095611 0 0.059315065316452309 0.1025539410383776 0 0.102028599401492 0.1079210482782756 0 0.080776144674391009 0.098597475421203867 0 0.081634330708880196 0.1151370033827101 0 0.102028599401492 0.1079210482782756 0 0.080776144674391009 0.098597475421203867 0 0.102028599401492 0.1079210482782756 0 0.097454497296707604 0.093489332089851121 0 0.080776144674391009 0.098597475421203867 0 0.102028599401492 0.1079210482782756 0 0.094862282777670462 0.1196438628042634 0 0.081634330708880196 0.1151370033827101 0 0.094862282777670462 0.1196438628042634 0 0.081634330708880196 0.1151370033827101 0 0.084033960556429532 0.12884481400490949 0 0.081634330708880196 0.1151370033827101 0 0.071861500007931359 0.1232467005620789 0 0.084033960556429532 0.12884481400490949 0 0.081634330708880196 0.1151370033827101 0 0.071861500007931359 0.1232467005620789 0 0.068543873750645412 0.1149277749384955 0 0.069834633883481517 0.1065625652268001 0 0.081634330708880196 0.1151370033827101 0 0.068543873750645412 0.1149277749384955 0 0.068543873750645412 0.1149277749384955 0 0.064307476710745728 0.1098785041095611 0 0.059536333892403683 0.1154697352345713 0 0.069834633883481517 0.1065625652268001 0 0.068543873750645412 0.1149277749384955 0 0.064307476710745728 0.1098785041095611 0 0.071861500007931359 0.1232467005620789 0 0.068543873750645412 0.1149277749384955 0 0.059536333892403683 0.1154697352345713 0 0.056458373241313059 0.1220229844831647 0 0.046980594318971967 0.103944553472415 0 0.044984286063853948 0.1144984098979744 0 0.056458373241313059 0.1220229844831647 0 0.059536333892403683 0.1154697352345713 0 0.047111977694586651 0.095143209078012936 0 0.056458373241313059 0.1220229844831647 0 0.047823074661834691 0.1229743903388081 0 0.044984286063853948 0.1144984098979744 0 0.056458373241313059 0.1220229844831647 0 0.047111977694586651 0.095143209078012936 0 0.056458373241313059 0.1220229844831647 0 0.047111977694586651 0.095143209078012936 0 0.046980594318971967 0.103944553472415 0 0.059536333892403683 0.1154697352345713 0 0.059315065316452309 0.1025539410383776 0 0.048250118395506067 0.092934788779969885 0 0.064307476710745728 0.1098785041095611 0 0.059536333892403683 0.1154697352345713 0 0.059315065316452309 0.1025539410383776 0 0.059536333892403683 0.1154697352345713 0 0.047111977694586651 0.095143209078012936 0 0.048250118395506067 0.092934788779969885 0 0.059536333892403683 0.1154697352345713 0 0.048250118395506067 0.092934788779969885 0 0.059315065316452309 0.1025539410383776 0 0.059523689947290133 0.089273902564132146 0 0.048250118395506067 0.092934788779969885 0 0.046980594318971967 0.103944553472415 0 0.031997015267580219 0.10661530464401089 0 0.044984286063853948 0.1144984098979744 0 0.046980594318971967 0.103944553472415 0 0.039592722901722707 0.099159129702000026 0 0.031997015267580219 0.10661530464401089 0 0.047111977694586651 0.095143209078012936 0 0.046980594318971967 0.103944553472415 0 0.044236279529428407 0.098362398272746204 0 0.043259823202432338 0.095202700838556822 0 0.039592722901722707 0.099159129702000026 0 0.040006298791842428 0.091064350555588536 0 0.047111977694586651 0.095143209078012936 0 0.043259823202432338 0.095202700838556822 0 0.043326765309194368 0.091114650811160686 0 0.047111977694586651 0.095143209078012936 0 0.043259823202432338 0.095202700838556822 0 0.044236279529428407 0.098362398272746204 0 0.046980594318971967 0.103944553472415 0 0.044236279529428407 0.098362398272746204 0 0.039592722901722707 0.099159129702000026 0 0.043259823202432338 0.095202700838556822 0 0.044236279529428407 0.098362398272746204 0 0.039592722901722707 0.099159129702000026 0 0.039592722901722707 0.099159129702000026 0 0.040006298791842428 0.091064350555588536 0 0.033999193661208522 0.092549709374426317 0 0.039592722901722707 0.099159129702000026 0 0.031997015267580219 0.10661530464401089 0 0.033999193661208522 0.092549709374426317 0 0.031997015267580219 0.10661530464401089 0 0.044984286063853948 0.1144984098979744 0 0.040254683338031831 0.12792389191371131 0 0.031997015267580219 0.10661530464401089 0 0.027418588341799281 0.11951208787462859 0 0.040254683338031831 0.12792389191371131 0 0.031997015267580219 0.10661530464401089 0 0.040254683338031831 0.12792389191371131 0 0.047823074661834691 0.1229743903388081 0 0.044984286063853948 0.1144984098979744 0 0.040254683338031831 0.12792389191371131 0 0.071888117261322881 0.075707086101057836 0 0.050643578252195447 0.077240667131504986 0 0.06072113176624426 0.066105246874810966 0 0.071888117261322881 0.075707086101057836 0 0.050643578252195447 0.077240667131504986 0 0.04797297407010033 0.057336039788577382 0 0.050643578252195447 0.077240667131504986 0 0.06072113176624426 0.066105246874810966 0 0.059523689947290133 0.089273902564132146 0 0.048250118395506067 0.092934788779969885 0 0.038271235220189187 0.079950329707060411 0 0.050643578252195447 0.077240667131504986 0 0.059523689947290133 0.089273902564132146 0 0.038271235220189187 0.079950329707060411 0 0.059523689947290133 0.089273902564132146 0 0.038271235220189187 0.079950329707060411 0 0.071888117261322881 0.075707086101057836 0 0.050643578252195447 0.077240667131504986 0 0.059523689947290133 0.089273902564132146 0 0.050643578252195447 0.077240667131504986 0 0.038271235220189187 0.079950329707060411 0 0.029399039243067929 0.078774248161950916 0 0.043326765309194368 0.091114650811160686 0 0.040006298791842428 0.091064350555588536 0 0.038271235220189187 0.079950329707060411 0 0.048250118395506067 0.092934788779969885 0 0.043326765309194368 0.091114650811160686 0 0.038271235220189187 0.079950329707060411 0 0.047111977694586651 0.095143209078012936 0 0.048250118395506067 0.092934788779969885 0 0.043326765309194368 0.091114650811160686 0 0.043259823202432338 0.095202700838556822 0 0.043326765309194368 0.091114650811160686 0 0.040006298791842428 0.091064350555588536 0 0.040006298791842428 0.091064350555588536 0 0.033999193661208522 0.092549709374426317 0 0.035112272261912547 0.085996705185296951 0 0.033999193661208522 0.092549709374426317 0 0.035112272261912547 0.085996705185296951 0 0.030562463090829231 0.085656845023995995 0 0.040006298791842428 0.091064350555588536 0 0.035112272261912547 0.085996705185296951 0 0.038271235220189187 0.079950329707060411 0 0.035112272261912547 0.085996705185296951 0 0.038271235220189187 0.079950329707060411 0 0.029399039243067929 0.078774248161950916 0 0.035112272261912547 0.085996705185296951 0 0.029399039243067929 0.078774248161950916 0 0.030562463090829231 0.085656845023995995 0 0.04797297407010033 0.057336039788577382 0 0.027635028654909001 0.06907575978797427 0 0.029399039243067929 0.078774248161950916 0 0.04797297407010033 0.057336039788577382 0 0.050643578252195447 0.077240667131504986 0 0.029399039243067929 0.078774248161950916 0 0.050643578252195447 0.077240667131504986 0 0.029399039243067929 0.078774248161950916 0 0.04797297407010033 0.057336039788577382 0 0.029399039243067929 0.078774248161950916 0 0.01459521235494949 0.061710637509134872 0 0.030459386295035529 0.05963142741263059 0 0.017825248683011649 0.070045619055208203 0 0.01459521235494949 0.061710637509134872 0 0.017825248683011649 0.070045619055208203 0 0.030459386295035529 0.05963142741263059 0 0.017825248683011649 0.070045619055208203 0 0.030459386295035529 0.05963142741263059 0 0.017825248683011649 0.070045619055208203 0 0.027635028654909001 0.06907575978797427 0 0.027635028654909001 0.06907575978797427 0 0.021430743364398389 0.07934945609652827 0 0.029399039243067929 0.078774248161950916 0 0.017825248683011649 0.070045619055208203 0 0.027635028654909001 0.06907575978797427 0 0.021430743364398389 0.07934945609652827 0 0.017825248683011649 0.070045619055208203 0 0.021430743364398389 0.07934945609652827 0 0.023739347197128589 0.085306717374310406 0 0.0092582498306486675 0.1020209346744549 0 0.021430743364398389 0.07934945609652827 0 0.023739347197128589 0.085306717374310406 0 0.01369104835205702 0.085774757015682671 0 0.021430743364398389 0.07934945609652827 0 0.023739347197128589 0.085306717374310406 0 0.021430743364398389 0.07934945609652827 0 0.029399039243067929 0.078774248161950916 0 0.023739347197128589 0.085306717374310406 0 0.021430743364398389 0.07934945609652827 0 0.029399039243067929 0.078774248161950916 0 0.029399039243067929 0.078774248161950916 0 0.030562463090829231 0.085656845023995995 0 0.023739347197128589 0.085306717374310406 0 0.029399039243067929 0.078774248161950916 0 0.023739347197128589 0.085306717374310406 0 0.033999193661208522 0.092549709374426317 0 0.030562463090829231 0.085656845023995995 0 0.023739347197128589 0.085306717374310406 0 0.023739347197128589 0.085306717374310406 0 0.01369104835205702 0.085774757015682671 0 0.0092582498306486675 0.1020209346744549 0 0.0051087594610210148 0.080527692295617709 0 0.01369104835205702 0.085774757015682671 0 0.0092582498306486675 0.1020209346744549 0 0.021430743364398389 0.07934945609652827 0 0.0051087594610210148 0.080527692295617709 0 0.021430743364398389 0.07934945609652827 0 0.0051087594610210148 0.080527692295617709 0 0.01369104835205702 0.085774757015682671 0 -0.0012292332505543029 0.06378464068123596 0 0.01459521235494949 0.061710637509134872 0 -0.0012292332505543029 0.06378464068123596 0 0.01459521235494949 0.061710637509134872 0 0.0080955592782806732 0.069159055867407046 0 0.017825248683011649 0.070045619055208203 0 0.021430743364398389 0.07934945609652827 0 0.0051087594610210148 0.080527692295617709 0 -0.0012292332505543029 0.06378464068123596 0 0.0051087594610210148 0.080527692295617709 0 0.0080955592782806732 0.069159055867407046 0 0.017825248683011649 0.070045619055208203 0 0.0051087594610210148 0.080527692295617709 0 0.0080955592782806732 0.069159055867407046 0 0.017825248683011649 0.070045619055208203 0 0.0051087594610210148 0.080527692295617709 0 0.01459521235494949 0.061710637509134872 0 0.017825248683011649 0.070045619055208203 0 0.0080955592782806732 0.069159055867407046 0 0.019482067178466251 0.1107491432724047 0 0.017356945103072018 0.1204998149293544 0 0.027418588341799281 0.11951208787462859 0 0.017356945103072018 0.1204998149293544 0 0.027418588341799281 0.11951208787462859 0 0.028136896369567631 0.1331750506540591 0 0.031997015267580219 0.10661530464401089 0 0.019482067178466251 0.1107491432724047 0 0.027418588341799281 0.11951208787462859 0 0.031997015267580219 0.10661530464401089 0 0.033999193661208522 0.092549709374426317 0 0.023739347197128589 0.085306717374310406 0 0.023739347197128589 0.085306717374310406 0 0.02108550348152554 0.10082233348119581 0 0.0092582498306486675 0.1020209346744549 0 0.031997015267580219 0.10661530464401089 0 0.023739347197128589 0.085306717374310406 0 0.031997015267580219 0.10661530464401089 0 0.023739347197128589 0.085306717374310406 0 0.02108550348152554 0.10082233348119581 0 0.031997015267580219 0.10661530464401089 0 0.019482067178466251 0.1107491432724047 0 0.02108550348152554 0.10082233348119581 0 0.019482067178466251 0.1107491432724047 0 0.02108550348152554 0.10082233348119581 0 0.0092582498306486675 0.1020209346744549 0 -0.0040597014752050652 0.1051126182356364 0 0.0051087594610210148 0.080527692295617709 0 0.0092582498306486675 0.1020209346744549 0 0.019482067178466251 0.1107491432724047 0 0.0092582498306486675 0.1020209346744549 0 0.0097761010461718117 0.1150243840307837 0 -0.0052228475358298988 0.1187351519746004 0 0.0092582498306486675 0.1020209346744549 0 -0.0052228475358298988 0.1187351519746004 0 0.0092582498306486675 0.1020209346744549 0 0.0097761010461718117 0.1150243840307837 0 0.019482067178466251 0.1107491432724047 0 0.017356945103072018 0.1204998149293544 0 0.0097761010461718117 0.1150243840307837 0 0.017356945103072018 0.1204998149293544 0 0.0081407562022233586 0.1245196413435004 0 0.017356945103072018 0.1204998149293544 0 0.0097761010461718117 0.1150243840307837 0 0.0081407562022233586 0.1245196413435004 0 -0.0052228475358298988 0.1187351519746004 0 0.0097761010461718117 0.1150243840307837 0 0.0081407562022233586 0.1245196413435004 0 -0.0052228475358298988 0.1187351519746004 0 0.0081407562022233586 0.1245196413435004 0 -0.015783289274076458 0.13495459563681389 0 0.0081407562022233586 0.1245196413435004 0 0.01185912902997375 0.14130758542593569 0 0.017356945103072018 0.1204998149293544 0 0.0081407562022233586 0.1245196413435004 0 0.028136896369567631 0.1331750506540591 0 0.0081407562022233586 0.1245196413435004 0 0.028136896369567631 0.1331750506540591 0 0.0081407562022233586 0.1245196413435004 0 0.028136896369567631 0.1331750506540591 0 0.01185912902997375 0.14130758542593569 0 0.028136896369567631 0.1331750506540591 0 0.0267736462585265 0.15269096182544131 0 0.035919394343652343 0.14075559589415579 0 0.028136896369567631 0.1331750506540591 0 0.0267736462585265 0.15269096182544131 0 0.01185912902997375 0.14130758542593569 0 0.0267736462585265 0.15269096182544131 0 0.001788155555331062 0.1557637096651584 0 0.01185912902997375 0.14130758542593569 0 0.001788155555331062 0.1557637096651584 0 0.00061104658230836653 0.17769045695541219 0 0.019359600384737739 0.17657282369350361 0 0.001788155555331062 0.1557637096651584 0 0.019359600384737739 0.17657282369350361 0 0.00061104658230836653 0.17769045695541219 0 0.019359600384737739 0.17657282369350361 0 0.017852612557627559 0.19656860209324539 0 0.019359600384737739 0.17657282369350361 0 0.036931045214144441 0.19738193772184889 0 0.0267736462585265 0.15269096182544131 0 0.001788155555331062 0.1557637096651584 0 0.019359600384737739 0.17657282369350361 0 0.0267736462585265 0.15269096182544131 0 0.019359600384737739 0.17657282369350361 0 0.038399134829123632 0.17159850230738899 0 0.0267736462585265 0.15269096182544131 0 0.038399134829123632 0.17159850230738899 0 0.048512351408483409 0.1492324791834117 0 0.019359600384737739 0.17657282369350361 0 0.038399134829123632 0.17159850230738899 0 0.036931045214144441 0.19738193772184889 0 0.038399134829123632 0.17159850230738899 0 0.053915020648589329 0.181809847856817 0 0.036931045214144441 0.19738193772184889 0 0.053915020648589329 0.181809847856817 0 0.056298621576963533 0.16595151756685289 0 0.075151164334765874 0.17578253529346821 0 0.038399134829123632 0.17159850230738899 0 0.053915020648589329 0.181809847856817 0 0.056298621576963533 0.16595151756685289 0 0.038399134829123632 0.17159850230738899 0 0.056298621576963533 0.16595151756685289 0 0.048512351408483409 0.1492324791834117 0 0.048512351408483409 0.1492324791834117 0 0.055211699142625699 0.13746009370018761 0 0.065804768788039439 0.14890275988831639 0 0.056298621576963533 0.16595151756685289 0 0.048512351408483409 0.1492324791834117 0 0.065804768788039439 0.14890275988831639 0 0.048512351408483409 0.1492324791834117 0 0.055211699142625699 0.13746009370018761 0 0.049904412172306151 0.13036597214331841 0 0.056458373241313059 0.1220229844831647 0 0.059536333892403683 0.1154697352345713 0 0.070822549389301243 0.1380046816891726 0 0.056458373241313059 0.1220229844831647 0 0.055211699142625699 0.13746009370018761 0 0.065804768788039439 0.14890275988831639 0 0.056458373241313059 0.1220229844831647 0 0.065804768788039439 0.14890275988831639 0 0.056458373241313059 0.1220229844831647 0 0.047823074661834691 0.1229743903388081 0 0.049904412172306151 0.13036597214331841 0 0.056458373241313059 0.1220229844831647 0 0.055211699142625699 0.13746009370018761 0 0.049904412172306151 0.13036597214331841 0 0.048512351408483409 0.1492324791834117 0 0.040254683338031831 0.12792389191371131 0 0.048512351408483409 0.1492324791834117 0 0.040254683338031831 0.12792389191371131 0 0.035919394343652343 0.14075559589415579 0 0.048512351408483409 0.1492324791834117 0 0.049904412172306151 0.13036597214331841 0 0.040254683338031831 0.12792389191371131 0 0.047823074661834691 0.1229743903388081 0 0.049904412172306151 0.13036597214331841 0 0.040254683338031831 0.12792389191371131 0 0.027418588341799281 0.11951208787462859 0 0.028136896369567631 0.1331750506540591 0 0.040254683338031831 0.12792389191371131 0 0.028136896369567631 0.1331750506540591 0 0.040254683338031831 0.12792389191371131 0 0.035919394343652343 0.14075559589415579 0 0.0267736462585265 0.15269096182544131 0 0.048512351408483409 0.1492324791834117 0 0.035919394343652343 0.14075559589415579 0 0.020197736684044801 0.2291273398277828 0 0.034114961552744377 0.23516115760169301 0 0.036501911092354018 0.25177276941539839 0 0.018629400856135309 0.24429501886194191 0 0.020197736684044801 0.2291273398277828 0 0.02692674034290404 0.25134916217479408 0 0.020197736684044801 0.2291273398277828 0 0.02692674034290404 0.25134916217479408 0 0.036501911092354018 0.25177276941539839 0 0.020197736684044801 0.2291273398277828 0 0.036501911092354018 0.25177276941539839 0 0.018629400856135309 0.24429501886194191 0 0.0082785766384091443 0.23618007315607359 0 0.020197736684044801 0.2291273398277828 0 0.018629400856135309 0.24429501886194191 0 0.012944211518790589 0.24639919126045251 0 0.0082785766384091443 0.23618007315607359 0 0.012944211518790589 0.24639919126045251 0 0.001894876929373096 0.24743045501984201 0 0.0082785766384091443 0.23618007315607359 0 -0.0070773620087705444 0.23295897308755351 0 0.001894876929373096 0.24743045501984201 0 0.0082785766384091443 0.23618007315607359 0 0.0082785766384091443 0.23618007315607359 0 0.0038866256090455522 0.2239579318999283 0 0.020197736684044801 0.2291273398277828 0 0.0038866256090455522 0.2239579318999283 0 0.020197736684044801 0.2291273398277828 0 0.003893562275735573 0.2064819102401671 0 -0.0070773620087705444 0.23295897308755351 0 0.0082785766384091443 0.23618007315607359 0 0.0038866256090455522 0.2239579318999283 0 0.01643925603633389 0.21561198758054059 0 0.035370792182188207 0.216260201755786 0 0.034114961552744377 0.23516115760169301 0 0.020197736684044801 0.2291273398277828 0 0.01643925603633389 0.21561198758054059 0 0.034114961552744377 0.23516115760169301 0 0.01643925603633389 0.21561198758054059 0 0.034114961552744377 0.23516115760169301 0 0.017852612557627559 0.19656860209324539 0 0.036931045214144441 0.19738193772184889 0 0.035370792182188207 0.216260201755786 0 0.01643925603633389 0.21561198758054059 0 0.017852612557627559 0.19656860209324539 0 0.035370792182188207 0.216260201755786 0 0.020197736684044801 0.2291273398277828 0 0.003893562275735573 0.2064819102401671 0 -0.0045317147067566524 0.21522543551468479 0 0.0038866256090455522 0.2239579318999283 0 0.003893562275735573 0.2064819102401671 0 -0.0012364494800765971 0.1960628175593882 0 0.01643925603633389 0.21561198758054059 0 -0.0012364494800765971 0.1960628175593882 0 0.01643925603633389 0.21561198758054059 0 0.003893562275735573 0.2064819102401671 0 0.020197736684044801 0.2291273398277828 0 0.01643925603633389 0.21561198758054059 0 0.003893562275735573 0.2064819102401671 0 -0.0012364494800765971 0.1960628175593882 0 0.01643925603633389 0.21561198758054059 0 0.017852612557627559 0.19656860209324539 0 -0.0012364494800765971 0.1960628175593882 0 0.00061104658230836653 0.17769045695541219 0 0.017852612557627559 0.19656860209324539 0 0.019359600384737739 0.17657282369350361 0 0.017852612557627559 0.19656860209324539 0 0.036931045214144441 0.19738193772184889 0 0.053915020648589329 0.181809847856817 0 0.036931045214144441 0.19738193772184889 0 0.062795137287949193 0.19833474639452611 0 0.036931045214144441 0.19738193772184889 0 0.054502490043551163 0.2181910517501941 0 0.062795137287949193 0.19833474639452611 0 0.036931045214144441 0.19738193772184889 0 0.054502490043551163 0.2181910517501941 0 0.036931045214144441 0.19738193772184889 0 0.054502490043551163 0.2181910517501941 0 0.035370792182188207 0.216260201755786 0 0.054502490043551163 0.2181910517501941 0 0.035370792182188207 0.216260201755786 0 0.034114961552744377 0.23516115760169301 0 0.054502490043551163 0.2181910517501941 0 0.055174909047777811 0.2396291133956362 0 0.034114961552744377 0.23516115760169301 0 0.054502490043551163 0.2181910517501941 0 0.055174909047777811 0.2396291133956362 0 0.072073934872957782 0.23900016577853919 0 0.055174909047777811 0.2396291133956362 0 0.034114961552744377 0.23516115760169301 0 0.051790667069154861 0.2547103276228454 0 0.055174909047777811 0.2396291133956362 0 0.051790667069154861 0.2547103276228454 0 0.063392491700480919 0.2510828642249095 0 0.034114961552744377 0.23516115760169301 0 0.036501911092354018 0.25177276941539839 0 0.051790667069154861 0.2547103276228454 0 0.034114961552744377 0.23516115760169301 0 0.051790667069154861 0.2547103276228454 0 0.072073934872957782 0.23900016577853919 0 0.093843955428218759 0.229542086103772 0 0.089645379702363526 0.25980927980688501 0 0.072073934872957782 0.23900016577853919 0 0.089645379702363526 0.25980927980688501 0 0.055174909047777811 0.2396291133956362 0 0.072073934872957782 0.23900016577853919 0 0.063392491700480919 0.2510828642249095 0 0.072073934872957782 0.23900016577853919 0 0.063392491700480919 0.2510828642249095 0 0.074261774750864804 0.25289133929391111 0 0.054502490043551163 0.2181910517501941 0 0.072073934872957782 0.23900016577853919 0 0.054502490043551163 0.2181910517501941 0 0.072073934872957782 0.23900016577853919 0 0.07691655231929137 0.22036312128655 0 0.072073934872957782 0.23900016577853919 0 0.07691655231929137 0.22036312128655 0 0.093843955428218759 0.229542086103772 0 0.084497559881492323 0.20266231069862009 0 0.1011551627426199 0.2154511434485995 0 0.093843955428218759 0.229542086103772 0 0.084497559881492323 0.20266231069862009 0 0.093843955428218759 0.229542086103772 0 0.07691655231929137 0.22036312128655 0 0.084497559881492323 0.20266231069862009 0 0.093843955428218759 0.229542086103772 0 0.07691655231929137 0.22036312128655 0 0.062795137287949193 0.19833474639452611 0 0.084497559881492323 0.20266231069862009 0 0.054502490043551163 0.2181910517501941 0 0.07691655231929137 0.22036312128655 0 0.062795137287949193 0.19833474639452611 0 0.062795137287949193 0.19833474639452611 0 0.084497559881492323 0.20266231069862009 0 0.075151164334765874 0.17578253529346821 0 0.084497559881492323 0.20266231069862009 0 0.075151164334765874 0.17578253529346821 0 0.084497559881492323 0.20266231069862009 0 0.10184565838461331 0.1924014028594688 0 0.093394980383096363 0.18307457459837531 0 0.084497559881492323 0.20266231069862009 0 0.10184565838461331 0.1924014028594688 0 0.10260278643249959 0.20376756124449391 0 0.10184565838461331 0.1924014028594688 0 0.1105875138732399 0.1994169567440035 0 0.10260278643249959 0.20376756124449391 0 0.10184565838461331 0.1924014028594688 0 0.1131184160342838 0.18994185980391479 0 0.1105875138732399 0.1994169567440035 0 0.10184565838461331 0.1924014028594688 0 0.1131184160342838 0.18994185980391479 0 0.1054525685194168 0.18020148819897211 0 0.1131184160342838 0.18994185980391479 0 0.1210814068145178 0.19423580856195369 0 0.1131184160342838 0.18994185980391479 0 0.1210814068145178 0.19423580856195369 0 0.1196286990311512 0.18236386641526309 0 0.1210814068145178 0.19423580856195369 0 0.11958782189190099 0.20227867846385961 0 0.13241563583181001 0.2003476577346209 0 0.1131184160342838 0.18994185980391479 0 0.1210814068145178 0.19423580856195369 0 0.11958782189190099 0.20227867846385961 0 0.1131184160342838 0.18994185980391479 0 0.11958782189190099 0.20227867846385961 0 0.1105875138732399 0.1994169567440035 0 0.11958782189190099 0.20227867846385961 0 0.1105875138732399 0.1994169567440035 0 0.11467542950451071 0.21015036581969679 0 0.11958782189190099 0.20227867846385961 0 0.11467542950451071 0.21015036581969679 0 0.12714211421566091 0.2115365522170618 0 0.11467542950451071 0.21015036581969679 0 0.1287590091161889 0.22454109023782651 0 0.12714211421566091 0.2115365522170618 0 0.11467542950451071 0.21015036581969679 0 0.1011551627426199 0.2154511434485995 0 0.1117838155087727 0.22779371718329239 0 0.084497559881492323 0.20266231069862009 0 0.10260278643249959 0.20376756124449391 0 0.1011551627426199 0.2154511434485995 0 0.1105875138732399 0.1994169567440035 0 0.11467542950451071 0.21015036581969679 0 0.10260278643249959 0.20376756124449391 0 0.11467542950451071 0.21015036581969679 0 0.10260278643249959 0.20376756124449391 0 0.1011551627426199 0.2154511434485995 0 0.1011551627426199 0.2154511434485995 0 0.093843955428218759 0.229542086103772 0 0.1117838155087727 0.22779371718329239 0 0.11467542950451071 0.21015036581969679 0 0.1117838155087727 0.22779371718329239 0 0.1287590091161889 0.22454109023782651 0 0.1117838155087727 0.22779371718329239 0 0.1287590091161889 0.22454109023782651 0 0.116065923487036 0.25155424759680489 0 0.093843955428218759 0.229542086103772 0 0.089645379702363526 0.25980927980688501 0 0.116065923487036 0.25155424759680489 0 0.093843955428218759 0.229542086103772 0 0.1117838155087727 0.22779371718329239 0 0.116065923487036 0.25155424759680489 0 0.085867858697711436 0.14453522140638461 0 0.070822549389301243 0.1380046816891726 0 0.082108764886198796 0.1605396281437739 0 0.085867858697711436 0.14453522140638461 0 0.082108764886198796 0.1605396281437739 0 0.098061838006449922 0.1524476624703702 0 0.085867858697711436 0.14453522140638461 0 0.084033960556429532 0.12884481400490949 0 0.098019367542785563 0.1407790739484335 0 0.085867858697711436 0.14453522140638461 0 0.084033960556429532 0.12884481400490949 0 0.070822549389301243 0.1380046816891726 0 0.071861500007931359 0.1232467005620789 0 0.059536333892403683 0.1154697352345713 0 0.070822549389301243 0.1380046816891726 0 0.059536333892403683 0.1154697352345713 0 0.070822549389301243 0.1380046816891726 0 0.056458373241313059 0.1220229844831647 0 0.070822549389301243 0.1380046816891726 0 0.065804768788039439 0.14890275988831639 0 0.071861500007931359 0.1232467005620789 0 0.084033960556429532 0.12884481400490949 0 0.070822549389301243 0.1380046816891726 0 0.070822549389301243 0.1380046816891726 0 0.082108764886198796 0.1605396281437739 0 0.070822549389301243 0.1380046816891726 0 0.065804768788039439 0.14890275988831639 0 0.082108764886198796 0.1605396281437739 0 0.056298621576963533 0.16595151756685289 0 0.065804768788039439 0.14890275988831639 0 0.075151164334765874 0.17578253529346821 0 0.065804768788039439 0.14890275988831639 0 0.075151164334765874 0.17578253529346821 0 0.082108764886198796 0.1605396281437739 0 0.065804768788039439 0.14890275988831639 0 0.075151164334765874 0.17578253529346821 0 0.053915020648589329 0.181809847856817 0 0.062795137287949193 0.19833474639452611 0 0.075151164334765874 0.17578253529346821 0 0.075151164334765874 0.17578253529346821 0 0.093394980383096363 0.18307457459837531 0 0.082108764886198796 0.1605396281437739 0 0.084497559881492323 0.20266231069862009 0 0.075151164334765874 0.17578253529346821 0 0.093394980383096363 0.18307457459837531 0 0.093394980383096363 0.18307457459837531 0 0.082108764886198796 0.1605396281437739 0 0.1017810834163356 0.16778327145988009 0 0.093394980383096363 0.18307457459837531 0 0.082108764886198796 0.1605396281437739 0 0.082108764886198796 0.1605396281437739 0 0.1017810834163356 0.16778327145988009 0 0.098061838006449922 0.1524476624703702 0 0.1017810834163356 0.16778327145988009 0 0.1094413004412432 0.1568441156191657 0 0.098061838006449922 0.1524476624703702 0 0.10184565838461331 0.1924014028594688 0 0.093394980383096363 0.18307457459837531 0 0.1054525685194168 0.18020148819897211 0 0.093394980383096363 0.18307457459837531 0 0.1017810834163356 0.16778327145988009 0 0.1054525685194168 0.18020148819897211 0 0.1017810834163356 0.16778327145988009 0 0.1054525685194168 0.18020148819897211 0 0.1143103312636523 0.17467474260035151 0 0.1131184160342838 0.18994185980391479 0 0.1132877880089454 0.18182979361660931 0 0.1196286990311512 0.18236386641526309 0 0.1131184160342838 0.18994185980391479 0 0.1054525685194168 0.18020148819897211 0 0.1132877880089454 0.18182979361660931 0 0.1054525685194168 0.18020148819897211 0 0.1132877880089454 0.18182979361660931 0 0.1143103312636523 0.17467474260035151 0 0.1132877880089454 0.18182979361660931 0 0.1143103312636523 0.17467474260035151 0 0.1196286990311512 0.18236386641526309 0 0.1143103312636523 0.17467474260035151 0 0.1229466648353691 0.17360959233997481 0 0.1196286990311512 0.18236386641526309 0 0.1229466648353691 0.17360959233997481 0 0.1196286990311512 0.18236386641526309 0 0.1315359285025598 0.17914174819028489 0 0.1210814068145178 0.19423580856195369 0 0.1196286990311512 0.18236386641526309 0 0.1315359285025598 0.17914174819028489 0 0.1017810834163356 0.16778327145988009 0 0.1143103312636523 0.17467474260035151 0 0.11826309888899959 0.1638296446882945 0 0.1017810834163356 0.16778327145988009 0 0.1094413004412432 0.1568441156191657 0 0.11826309888899959 0.1638296446882945 0 0.1094413004412432 0.1568441156191657 0 0.11826309888899959 0.1638296446882945 0 0.12116198843957229 0.15461983439099389 0 0.1143103312636523 0.17467474260035151 0 0.1229466648353691 0.17360959233997481 0 0.11826309888899959 0.1638296446882945 0 0.1229466648353691 0.17360959233997481 0 0.11826309888899959 0.1638296446882945 0 0.1286748755814317 0.16568949079043779 0 0.11826309888899959 0.1638296446882945 0 0.12116198843957229 0.15461983439099389 0 0.1286748755814317 0.16568949079043779 0 0.12116198843957229 0.15461983439099389 0 0.1235319134973574 0.14279740261083959 0 0.11069945258584669 0.14552439304262721 0 0.1094413004412432 0.1568441156191657 0 0.12116198843957229 0.15461983439099389 0 0.11069945258584669 0.14552439304262721 0 0.1094413004412432 0.1568441156191657 0 0.11069945258584669 0.14552439304262721 0 0.098061838006449922 0.1524476624703702 0 0.11069945258584669 0.14552439304262721 0 0.098019367542785563 0.1407790739484335 0 0.098061838006449922 0.1524476624703702 0 0.085867858697711436 0.14453522140638461 0 0.098019367542785563 0.1407790739484335 0 0.098061838006449922 0.1524476624703702 0 0.084033960556429532 0.12884481400490949 0 0.1117522404438802 0.12667258555115829 0 0.094862282777670462 0.1196438628042634 0 0.084033960556429532 0.12884481400490949 0 0.1117522404438802 0.12667258555115829 0 0.084033960556429532 0.12884481400490949 0 0.098019367542785563 0.1407790739484335 0 0.1117522404438802 0.12667258555115829 0 0.11069945258584669 0.14552439304262721 0 0.098019367542785563 0.1407790739484335 0 0.1117522404438802 0.12667258555115829 0 0.1235319134973574 0.14279740261083959 0 0.11069945258584669 0.14552439304262721 0 0.1117522404438802 0.12667258555115829 0 0.1235319134973574 0.14279740261083959 0 0.1117522404438802 0.12667258555115829 0 0.1338250830151082 0.13680555700437169 0 0.1117522404438802 0.12667258555115829 0 0.1338250830151082 0.13680555700437169 0 0.13947052033133081 0.1245003570974072 0 0.1117522404438802 0.12667258555115829 0 0.13947052033133081 0.1245003570974072 0 0.1338250830151082 0.13680555700437169 0 0.14773514824261011 0.13994704674368119 0 0.13947052033133081 0.1245003570974072 0 0.14773514824261011 0.13994704674368119 0 0.13947052033133081 0.1245003570974072 0 0.16718880021878149 0.12232812864365609 0 0.14773514824261011 0.13994704674368119 0 0.1492794596183103 0.15557552201751701 0 0.16307655427518189 0.1461583771030025 0 0.14773514824261011 0.13994704674368119 0 0.1492794596183103 0.15557552201751701 0 0.13636128964255501 0.15303395959459851 0 0.1235319134973574 0.14279740261083959 0 0.1338250830151082 0.13680555700437169 0 0.13636128964255501 0.15303395959459851 0 0.1338250830151082 0.13680555700437169 0 0.14773514824261011 0.13994704674368119 0 0.13636128964255501 0.15303395959459851 0 0.12116198843957229 0.15461983439099389 0 0.1235319134973574 0.14279740261083959 0 0.13636128964255501 0.15303395959459851 0 0.12116198843957229 0.15461983439099389 0 0.13636128964255501 0.15303395959459851 0 0.1286748755814317 0.16568949079043779 0 0.13636128964255501 0.15303395959459851 0 0.1286748755814317 0.16568949079043779 0 0.1402599975996246 0.1687496010839549 0 0.1286748755814317 0.16568949079043779 0 0.1402599975996246 0.1687496010839549 0 0.1315359285025598 0.17914174819028489 0 0.1210814068145178 0.19423580856195369 0 0.1315359285025598 0.17914174819028489 0 0.14172685770208041 0.18088834424850889 0 0.1229466648353691 0.17360959233997481 0 0.1286748755814317 0.16568949079043779 0 0.1315359285025598 0.17914174819028489 0 0.1402599975996246 0.1687496010839549 0 0.1315359285025598 0.17914174819028489 0 0.14172685770208041 0.18088834424850889 0 0.1315359285025598 0.17914174819028489 0 0.14172685770208041 0.18088834424850889 0 0.14172685770208041 0.18088834424850889 0 0.1589643083315804 0.1699886255623487 0 0.15664227980061579 0.1834446584897341 0 0.14172685770208041 0.18088834424850889 0 0.1589643083315804 0.1699886255623487 0 0.1402599975996246 0.1687496010839549 0 0.14172685770208041 0.18088834424850889 0 0.1589643083315804 0.1699886255623487 0 0.14172685770208041 0.18088834424850889 0 0.15664227980061579 0.1834446584897341 0 0.14735069213281321 0.19092796682168489 0 0.14172685770208041 0.18088834424850889 0 0.15664227980061579 0.1834446584897341 0 0.1492794596183103 0.15557552201751701 0 0.1402599975996246 0.1687496010839549 0 0.1589643083315804 0.1699886255623487 0 0.1492794596183103 0.15557552201751701 0 0.13636128964255501 0.15303395959459851 0 0.1402599975996246 0.1687496010839549 0 0.1492794596183103 0.15557552201751701 0 0.1589643083315804 0.1699886255623487 0 0.16307655427518189 0.1461583771030025 0 0.1589643083315804 0.1699886255623487 0 0.1832181015668064 0.15465227861531949 0 0.16307655427518189 0.1461583771030025 0 0.1589643083315804 0.1699886255623487 0 0.16307655427518189 0.1461583771030025 0 0.1589643083315804 0.1699886255623487 0 0.1832181015668064 0.15465227861531949 0 0.1589643083315804 0.1699886255623487 0 0.15664227980061579 0.1834446584897341 0 0.17367876449497299 0.17356388092826039 0 0.15664227980061579 0.1834446584897341 0 0.17803712215301101 0.18711146321258301 0 0.15664227980061579 0.1834446584897341 0 0.17367876449497299 0.17356388092826039 0 0.17803712215301101 0.18711146321258301 0 0.1589643083315804 0.1699886255623487 0 0.15664227980061579 0.1834446584897341 0 0.17367876449497299 0.17356388092826039 0 0.17803712215301101 0.18711146321258301 0 0.1915320106228488 0.17262237876131631 0 0.1589643083315804 0.1699886255623487 0 0.17367876449497299 0.17356388092826039 0 0.1832181015668064 0.15465227861531949 0 0.17367876449497299 0.17356388092826039 0 0.1832181015668064 0.15465227861531949 0 0.1915320106228488 0.17262237876131631 0 0.1832181015668064 0.15465227861531949 0 0.18154761934540289 0.13534417850528041 0 0.16307655427518189 0.1461583771030025 0 0.18154761934540289 0.13534417850528041 0 0.19370351113240411 0.1202502215829211 0 0.16718880021878149 0.12232812864365609 0 0.16307655427518189 0.1461583771030025 0 0.16718880021878149 0.12232812864365609 0 0.14773514824261011 0.13994704674368119 0 0.16307655427518189 0.1461583771030025 0 0.16718880021878149 0.12232812864365609 0 0.18154761934540289 0.13534417850528041 0 0.16307655427518189 0.1461583771030025 0 0.16718880021878149 0.12232812864365609 0 0.14248646727170791 0.24329921538672239 0 0.16890701105638031 0.23504418317664161 0 0.14248646727170791 0.24329921538672239 0 0.116065923487036 0.25155424759680489 0 0.14248646727170791 0.24329921538672239 0 0.1287590091161889 0.22454109023782651 0 0.116065923487036 0.25155424759680489 0 0.14248646727170791 0.24329921538672239 0 0.1287590091161889 0.22454109023782651 0 0.14216045677169509 0.2226427774354276 0 0.1287590091161889 0.22454109023782651 0 0.14216045677169509 0.2226427774354276 0 0.13903299807830019 0.21154409335764149 0 0.14248646727170791 0.24329921538672239 0 0.14216045677169509 0.2226427774354276 0 0.16890701105638031 0.23504418317664161 0 0.14216045677169509 0.2226427774354276 0 0.1513137794066001 0.21432303737238931 0 0.16890701105638031 0.23504418317664161 0 0.15183105921464751 0.210852851725322 0 0.13241563583181001 0.2003476577346209 0 0.15183105921464751 0.210852851725322 0 0.13903299807830019 0.21154409335764149 0 0.13241563583181001 0.2003476577346209 0 0.1513137794066001 0.21432303737238931 0 0.15183105921464751 0.210852851725322 0 0.14522842943996589 0.21534193400985699 0 0.1513137794066001 0.21432303737238931 0 0.15183105921464751 0.210852851725322 0 0.15183105921464751 0.210852851725322 0 0.14522842943996589 0.21534193400985699 0 0.13903299807830019 0.21154409335764149 0 0.14216045677169509 0.2226427774354276 0 0.1513137794066001 0.21432303737238931 0 0.14522842943996589 0.21534193400985699 0 0.14216045677169509 0.2226427774354276 0 0.14522842943996589 0.21534193400985699 0 0.13903299807830019 0.21154409335764149 0 0.1287590091161889 0.22454109023782651 0 0.13903299807830019 0.21154409335764149 0 0.12714211421566091 0.2115365522170618 0 0.11958782189190099 0.20227867846385961 0 0.12714211421566091 0.2115365522170618 0 0.13241563583181001 0.2003476577346209 0 0.13903299807830019 0.21154409335764149 0 0.12714211421566091 0.2115365522170618 0 0.13241563583181001 0.2003476577346209 0 0.1210814068145178 0.19423580856195369 0 0.13241563583181001 0.2003476577346209 0 0.13808072668616231 0.19149491569441959 0 0.1210814068145178 0.19423580856195369 0 0.14172685770208041 0.18088834424850889 0 0.13808072668616231 0.19149491569441959 0 0.1210814068145178 0.19423580856195369 0 0.14172685770208041 0.18088834424850889 0 0.1210814068145178 0.19423580856195369 0 0.13241563583181001 0.2003476577346209 0 0.15664227980061579 0.1834446584897341 0 0.15183105921464751 0.210852851725322 0 0.14735069213281321 0.19092796682168489 0 0.14172685770208041 0.18088834424850889 0 0.13808072668616231 0.19149491569441959 0 0.14735069213281321 0.19092796682168489 0 0.15183105921464751 0.210852851725322 0 0.13808072668616231 0.19149491569441959 0 0.14735069213281321 0.19092796682168489 0 0.15664227980061579 0.1834446584897341 0 0.15183105921464751 0.210852851725322 0 0.15183105921464751 0.210852851725322 0 0.13241563583181001 0.2003476577346209 0 0.13808072668616231 0.19149491569441959 0 0.15183105921464751 0.210852851725322 0 0.13808072668616231 0.19149491569441959 0 0.15664227980061579 0.1834446584897341 0 0.17803712215301101 0.18711146321258301 0 0.17078007948547791 0.20461318166966591 0 0.15664227980061579 0.1834446584897341 0 0.15183105921464751 0.210852851725322 0 0.17078007948547791 0.20461318166966591 0 0.17803712215301101 0.18711146321258301 0 0.18699821765939811 0.20575379358823331 0 0.17078007948547791 0.20461318166966591 0 0.18699821765939811 0.20575379358823331 0 0.18150256540618689 0.21619068467845909 0 0.17078007948547791 0.20461318166966591 0 0.18150256540618689 0.21619068467845909 0 0.17078007948547791 0.20461318166966591 0 0.1696832039875637 0.2204437538389574 0 0.15183105921464751 0.210852851725322 0 0.1696832039875637 0.2204437538389574 0 0.15183105921464751 0.210852851725322 0 0.17078007948547791 0.20461318166966591 0 0.1696832039875637 0.2204437538389574 0 0.15183105921464751 0.210852851725322 0 0.16890701105638031 0.23504418317664161 0 0.15183105921464751 0.210852851725322 0 0.1696832039875637 0.2204437538389574 0 0.16890701105638031 0.23504418317664161 0 0.1513137794066001 0.21432303737238931 0 0.15183105921464751 0.210852851725322 0 0.16890701105638031 0.23504418317664161 0 0.1696832039875637 0.2204437538389574 0 0.1730962958839812 0.23373525170759399 0 0.16890701105638031 0.23504418317664161 0 0.18150256540618689 0.21619068467845909 0 0.1696832039875637 0.2204437538389574 0 0.1874551123034256 0.23002704556275291 0 0.1696832039875637 0.2204437538389574 0 0.1874551123034256 0.23002704556275291 0 0.1730962958839812 0.23373525170759399 0 0.1696832039875637 0.2204437538389574 0 0.1874551123034256 0.23002704556275291 0 0.16890701105638031 0.23504418317664161 0 0.18564289691528729 0.25868749876629671 0 0.1821848497420967 0.24129823675235251 0 0.16890701105638031 0.23504418317664161 0 0.18564289691528729 0.25868749876629671 0 0.1730962958839812 0.23373525170759399 0 0.1821848497420967 0.24129823675235251 0 0.16890701105638031 0.23504418317664161 0 0.1874551123034256 0.23002704556275291 0 0.1730962958839812 0.23373525170759399 0 0.1821848497420967 0.24129823675235251 0 0.14248646727170791 0.24329921538672239 0 0.16890701105638031 0.23504418317664161 0 0.1631161995596529 0.25657386530356069 0 0.1730962958839812 0.23373525170759399 0 0.16890701105638031 0.23504418317664161 0 0.2052270206192876 0.23961033728654851 0 0.2245441737887168 0.23093760545441711 0 0.21458810326103989 0.25029177234766842 0 0.2052270206192876 0.23961033728654851 0 0.2050239072751949 0.2492833193895482 0 0.21458810326103989 0.25029177234766842 0 0.2052270206192876 0.23961033728654851 0 0.2050239072751949 0.2492833193895482 0 0.1956251304139873 0.24830732682566101 0 0.1874551123034256 0.23002704556275291 0 0.1821848497420967 0.24129823675235251 0 0.1956251304139873 0.24830732682566101 0 0.1874551123034256 0.23002704556275291 0 0.2052270206192876 0.23961033728654851 0 0.1821848497420967 0.24129823675235251 0 0.1956251304139873 0.24830732682566101 0 0.18564289691528729 0.25868749876629671 0 0.1874551123034256 0.23002704556275291 0 0.2052270206192876 0.23961033728654851 0 0.1956251304139873 0.24830732682566101 0 0.1874551123034256 0.23002704556275291 0 0.2052270206192876 0.23961033728654851 0 0.20110338325899621 0.22697869990708769 0 0.18150256540618689 0.21619068467845909 0 0.1874551123034256 0.23002704556275291 0 0.19422843088031849 0.2167901493339745 0 0.1874551123034256 0.23002704556275291 0 0.20110338325899621 0.22697869990708769 0 0.19422843088031849 0.2167901493339745 0 0.20110338325899621 0.22697869990708769 0 0.2086865974780466 0.21738525977654841 0 0.19422843088031849 0.2167901493339745 0 0.2052270206192876 0.23961033728654851 0 0.21155197229915221 0.22775520817690251 0 0.2245441737887168 0.23093760545441711 0 0.20110338325899621 0.22697869990708769 0 0.21155197229915221 0.22775520817690251 0 0.2086865974780466 0.21738525977654841 0 0.2052270206192876 0.23961033728654851 0 0.20110338325899621 0.22697869990708769 0 0.21155197229915221 0.22775520817690251 0 0.21155197229915221 0.22775520817690251 0 0.2086865974780466 0.21738525977654841 0 0.22156171208109349 0.2232889965660497 0 0.211417792929007 0.20448623071467029 0 0.2086865974780466 0.21738525977654841 0 0.22411523440486891 0.2128525325182862 0 0.2086865974780466 0.21738525977654841 0 0.22411523440486891 0.2128525325182862 0 0.22156171208109349 0.2232889965660497 0 0.211417792929007 0.20448623071467029 0 0.2086865974780466 0.21738525977654841 0 0.19996516513116139 0.20542151256053021 0 0.2086865974780466 0.21738525977654841 0 0.19422843088031849 0.2167901493339745 0 0.19996516513116139 0.20542151256053021 0 0.18699821765939811 0.20575379358823331 0 0.18150256540618689 0.21619068467845909 0 0.19422843088031849 0.2167901493339745 0 0.18699821765939811 0.20575379358823331 0 0.19422843088031849 0.2167901493339745 0 0.19996516513116139 0.20542151256053021 0 0.18699821765939811 0.20575379358823331 0 0.19996516513116139 0.20542151256053021 0 0.19943196450540629 0.19077826793543179 0 0.17803712215301101 0.18711146321258301 0 0.19943196450540629 0.19077826793543179 0 0.17803712215301101 0.18711146321258301 0 0.18699821765939811 0.20575379358823331 0 0.19943196450540629 0.19077826793543179 0 0.211417792929007 0.20448623071467029 0 0.19943196450540629 0.19077826793543179 0 0.22082680685780151 0.19444507265828059 0 0.19943196450540629 0.19077826793543179 0 0.22082680685780151 0.19444507265828059 0 0.211417792929007 0.20448623071467029 0 0.19996516513116139 0.20542151256053021 0 0.19943196450540629 0.19077826793543179 0 0.22082680685780151 0.19444507265828059 0 0.2418323282778008 0.1922485172988235 0 0.23200417938957321 0.20455559625434991 0 0.22082680685780151 0.19444507265828059 0 0.2418323282778008 0.1922485172988235 0 0.2298041727050075 0.1787595393801808 0 0.2418323282778008 0.1922485172988235 0 0.24124234801782149 0.21867626254200909 0 0.2418323282778008 0.1922485172988235 0 0.24124234801782149 0.21867626254200909 0 0.25471258750952741 0.20148162901819469 0 0.2418323282778008 0.1922485172988235 0 0.24124234801782149 0.21867626254200909 0 0.23200417938957321 0.20455559625434991 0 0.24124234801782149 0.21867626254200909 0 0.25357276657721323 0.21641202867955539 0 0.25471258750952741 0.20148162901819469 0 0.24124234801782149 0.21867626254200909 0 0.22411523440486891 0.2128525325182862 0 0.2303270751280653 0.22194856436908961 0 0.211417792929007 0.20448623071467029 0 0.22082680685780151 0.19444507265828059 0 0.22411523440486891 0.2128525325182862 0 0.22082680685780151 0.19444507265828059 0 0.23200417938957321 0.20455559625434991 0 0.22411523440486891 0.2128525325182862 0 0.24124234801782149 0.21867626254200909 0 0.23200417938957321 0.20455559625434991 0 0.22411523440486891 0.2128525325182862 0 0.22411523440486891 0.2128525325182862 0 0.22156171208109349 0.2232889965660497 0 0.2303270751280653 0.22194856436908961 0 0.22156171208109349 0.2232889965660497 0 0.2245441737887168 0.23093760545441711 0 0.2301452193877111 0.22885480910105491 0 0.21155197229915221 0.22775520817690251 0 0.22156171208109349 0.2232889965660497 0 0.2245441737887168 0.23093760545441711 0 0.2301452193877111 0.22885480910105491 0 0.23408043491912681 0.23335190051361199 0 0.23787356880598759 0.22384871304106421 0 0.2301452193877111 0.22885480910105491 0 0.23408043491912681 0.23335190051361199 0 0.2258394828391487 0.23585902185418811 0 0.2245441737887168 0.23093760545441711 0 0.2301452193877111 0.22885480910105491 0 0.2258394828391487 0.23585902185418811 0 0.2301452193877111 0.22885480910105491 0 0.2303270751280653 0.22194856436908961 0 0.23787356880598759 0.22384871304106421 0 0.22156171208109349 0.2232889965660497 0 0.2301452193877111 0.22885480910105491 0 0.2303270751280653 0.22194856436908961 0 0.24124234801782149 0.21867626254200909 0 0.2303270751280653 0.22194856436908961 0 0.23787356880598759 0.22384871304106421 0 0.24124234801782149 0.21867626254200909 0 0.23787356880598759 0.22384871304106421 0 0.25357276657721323 0.21641202867955539 0 0.23408043491912681 0.23335190051361199 0 0.24868260911088891 0.2303107595792985 0 0.25357276657721323 0.21641202867955539 0 0.23408043491912681 0.23335190051361199 0 0.23787356880598759 0.22384871304106421 0 0.25357276657721323 0.21641202867955539 0 0.23408043491912681 0.23335190051361199 0 0.25357276657721323 0.21641202867955539 0 0.24868260911088891 0.2303107595792985 0 0.2392512687495113 0.23539683186585869 0 0.2471090749199483 0.2357199094212839 0 0.23408043491912681 0.23335190051361199 0 0.24868260911088891 0.2303107595792985 0 0.2392512687495113 0.23539683186585869 0 0.23408043491912681 0.23335190051361199 0 0.2356673672060029 0.23553231024254659 0 0.23369101455560959 0.23545012385447089 0 0.2356673672060029 0.23553231024254659 0 0.23652425047500741 0.24096462129343871 0 0.23369101455560959 0.23545012385447089 0 0.23652425047500741 0.24096462129343871 0 0.2392512687495113 0.23539683186585869 0 0.24523436150048811 0.24199469982198529 0 0.2356673672060029 0.23553231024254659 0 0.23652425047500741 0.24096462129343871 0 0.2392512687495113 0.23539683186585869 0 0.23408043491912681 0.23335190051361199 0 0.2356673672060029 0.23553231024254659 0 0.2392512687495113 0.23539683186585869 0 0.24523436150048811 0.24199469982198529 0 0.2471090749199483 0.2357199094212839 0 0.25452501640087027 0.2374112721999547 0 0.2392512687495113 0.23539683186585869 0 0.24523436150048811 0.24199469982198529 0 0.2471090749199483 0.2357199094212839 0 0.24523436150048811 0.24199469982198529 0 0.23995652529561701 0.25039133628829258 0 0.25404003316197471 0.25208422786308371 0 0.23652425047500741 0.24096462129343871 0 0.24523436150048811 0.24199469982198529 0 0.23995652529561701 0.25039133628829258 0 0.23652425047500741 0.24096462129343871 0 0.23169913173193779 0.25404958449575432 0 0.23995652529561701 0.25039133628829258 0 0.23369101455560959 0.23545012385447089 0 0.2170338530129477 0.25958452376210089 0 0.21458810326103989 0.25029177234766842 0 0.23408043491912681 0.23335190051361199 0 0.23369101455560959 0.23545012385447089 0 0.21458810326103989 0.25029177234766842 0 0.23408043491912681 0.23335190051361199 0 0.21458810326103989 0.25029177234766842 0 0.2245441737887168 0.23093760545441711 0 0.21458810326103989 0.25029177234766842 0 0.23408043491912681 0.23335190051361199 0 0.2258394828391487 0.23585902185418811 0 0.21458810326103989 0.25029177234766842 0 0.23369101455560959 0.23545012385447089 0 0.2170338530129477 0.25958452376210089 0 0.23169913173193779 0.25404958449575432 0 0.23652425047500741 0.24096462129343871 0 0.23369101455560959 0.23545012385447089 0 0.23169913173193779 0.25404958449575432 0 0.23369101455560959 0.23545012385447089 0 0.2170338530129477 0.25958452376210089 0 0.2245441737887168 0.23093760545441711 0 0.2258394828391487 0.23585902185418811 0 0.21458810326103989 0.25029177234766842 0 0.2074718948020329 0.13931593166829101 0 0.2035930282546865 0.1573108976369578 0 0.22801201431925219 0.15227861461809999 0 0.2074718948020329 0.13931593166829101 0 0.22815060196587239 0.13250420183309389 0 0.2202182220460269 0.1181723145221887 0 0.2074718948020329 0.13931593166829101 0 0.2202182220460269 0.1181723145221887 0 0.19370351113240411 0.1202502215829211 0 0.18154761934540289 0.13534417850528041 0 0.2074718948020329 0.13931593166829101 0 0.19370351113240411 0.1202502215829211 0 0.1832181015668064 0.15465227861531949 0 0.2074718948020329 0.13931593166829101 0 0.1832181015668064 0.15465227861531949 0 0.18154761934540289 0.13534417850528041 0 0.2074718948020329 0.13931593166829101 0 0.1832181015668064 0.15465227861531949 0 0.2074718948020329 0.13931593166829101 0 0.2035930282546865 0.1573108976369578 0 0.1832181015668064 0.15465227861531949 0 0.1915320106228488 0.17262237876131631 0 0.2035930282546865 0.1573108976369578 0 0.1915320106228488 0.17262237876131631 0 0.21309098299550949 0.1707274381193544 0 0.2035930282546865 0.1573108976369578 0 0.19943196450540629 0.19077826793543179 0 0.1915320106228488 0.17262237876131631 0 0.21309098299550949 0.1707274381193544 0 0.17803712215301101 0.18711146321258301 0 0.19943196450540629 0.19077826793543179 0 0.1915320106228488 0.17262237876131631 0 0.19943196450540629 0.19077826793543179 0 0.22082680685780151 0.19444507265828059 0 0.21309098299550949 0.1707274381193544 0 0.21309098299550949 0.1707274381193544 0 0.2035930282546865 0.1573108976369578 0 0.22801201431925219 0.15227861461809999 0 0.2298041727050075 0.1787595393801808 0 0.2424223085377801 0.16582077205563811 0 0.22801201431925219 0.15227861461809999 0 0.21309098299550949 0.1707274381193544 0 0.2298041727050075 0.1787595393801808 0 0.22801201431925219 0.15227861461809999 0 0.22082680685780151 0.19444507265828059 0 0.21309098299550949 0.1707274381193544 0 0.2298041727050075 0.1787595393801808 0 0.2418323282778008 0.1922485172988235 0 0.2424223085377801 0.16582077205563811 0 0.2418323282778008 0.1922485172988235 0 0.2424223085377801 0.16582077205563811 0 0.26032431562704572 0.18342712708893841 0 0.2418323282778008 0.1922485172988235 0 0.2298041727050075 0.1787595393801808 0 0.2424223085377801 0.16582077205563811 0 0.2424223085377801 0.16582077205563811 0 0.24301228879775941 0.13939302681245261 0 0.2424223085377801 0.16582077205563811 0 0.24301228879775941 0.13939302681245261 0 0.25486404381895789 0.1523024957907583 0 0.22801201431925219 0.15227861461809999 0 0.23648687609860089 0.13476882232929049 0 0.24301228879775941 0.13939302681245261 0 0.2424223085377801 0.16582077205563811 0 0.22801201431925219 0.15227861461809999 0 0.24301228879775941 0.13939302681245261 0 0.2074718948020329 0.13931593166829101 0 0.22801201431925219 0.15227861461809999 0 0.22815060196587239 0.13250420183309389 0 0.22815060196587239 0.13250420183309389 0 0.24420216851797599 0.1292372680552665 0 0.2202182220460269 0.1181723145221887 0 0.22801201431925219 0.15227861461809999 0 0.22815060196587239 0.13250420183309389 0 0.23648687609860089 0.13476882232929049 0 0.22815060196587239 0.13250420183309389 0 0.23648687609860089 0.13476882232929049 0 0.24420216851797599 0.1292372680552665 0 0.23648687609860089 0.13476882232929049 0 0.24301228879775941 0.13939302681245261 0 0.24420216851797599 0.1292372680552665 0 0.24646482385440791 0.1109165710353929 0 0.23770217468454991 0.11680213067385049 0 0.255186127323073 0.11543194682551421 0 0.24420216851797599 0.1292372680552665 0 0.23770217468454991 0.11680213067385049 0 0.255186127323073 0.11543194682551421 0 0.23770217468454991 0.11680213067385049 0 0.255186127323073 0.11543194682551421 0 0.23770217468454991 0.11680213067385049 0 0.24055722746134861 0.1095612663226197 0 0.23538797832625211 0.10692464088038291 0 0.24646482385440791 0.1109165710353929 0 0.23770217468454991 0.11680213067385049 0 0.24055722746134861 0.1095612663226197 0 0.24174744587836799 0.1033548466348798 0 0.22816008327650389 0.097918375238235045 0 0.24736227196270541 0.090270970101712061 0 0.22816008327650389 0.097918375238235045 0 0.24736227196270541 0.090270970101712061 0 0.24174744587836799 0.1033548466348798 0 0.24736227196270541 0.090270970101712061 0 0.25459763100830068 0.096141582858552177 0 0.24174744587836799 0.1033548466348798 0 0.25459763100830068 0.096141582858552177 0 0.24646482385440791 0.1109165710353929 0 0.24174744587836799 0.1033548466348798 0 0.25655208948606423 0.10927836717886751 0 0.24174744587836799 0.1033548466348798 0 0.25655208948606423 0.10927836717886751 0 0.24646482385440791 0.1109165710353929 0 0.24055722746134861 0.1095612663226197 0 0.24174744587836799 0.1033548466348798 0 0.23538797832625211 0.10692464088038291 0 0.24174744587836799 0.1033548466348798 0 0.22816008327650389 0.097918375238235045 0 0.24055722746134861 0.1095612663226197 0 0.23538797832625211 0.10692464088038291 0 0.24174744587836799 0.1033548466348798 0 0.23538797832625211 0.10692464088038291 0 0.24174744587836799 0.1033548466348798 0 0.24174744587836799 0.1033548466348798 0 0.22816008327650389 0.097918375238235045 0 0.23538797832625211 0.10692464088038291 0 0.22816008327650389 0.097918375238235045 0 0.22436085098549791 0.1097634104313145 0 0.23770217468454991 0.11680213067385049 0 0.2202182220460269 0.1181723145221887 0 0.23770217468454991 0.11680213067385049 0 0.2202182220460269 0.1181723145221887 0 0.22436085098549791 0.1097634104313145 0 0.24420216851797599 0.1292372680552665 0 0.23770217468454991 0.11680213067385049 0 0.2202182220460269 0.1181723145221887 0 0.24420216851797599 0.1292372680552665 0 0.2202182220460269 0.1181723145221887 0 0.23770217468454991 0.11680213067385049 0 0.23538797832625211 0.10692464088038291 0 0.22436085098549791 0.1097634104313145 0 0.2202182220460269 0.1181723145221887 0 0.20033579659415629 0.10899959084191641 0 0.19370351113240411 0.1202502215829211 0 0.2202182220460269 0.1181723145221887 0 0.20033579659415629 0.10899959084191641 0 0.2202182220460269 0.1181723145221887 0 0.19370351113240411 0.1202502215829211 0 0.2202182220460269 0.1181723145221887 0 0.22436085098549791 0.1097634104313145 0 0.20033579659415629 0.10899959084191641 0 0.22816008327650389 0.097918375238235045 0 0.22436085098549791 0.1097634104313145 0 0.20033579659415629 0.10899959084191641 0 0.22816008327650389 0.097918375238235045 0 0.20033579659415629 0.10899959084191641 0 0.2016134769563831 0.087296750559026068 0 0.22816008327650389 0.097918375238235045 0 0.20033579659415629 0.10899959084191641 0 0.20033579659415629 0.10899959084191641 0 0.18422746814952201 0.1154148446289336 0 0.1860496622757298 0.1024087067025775 0 0.20033579659415629 0.10899959084191641 0 0.2016134769563831 0.087296750559026068 0 0.1860496622757298 0.1024087067025775 0 0.20033579659415629 0.10899959084191641 0 0.1860496622757298 0.1024087067025775 0 0.20033579659415629 0.10899959084191641 0 0.19370351113240411 0.1202502215829211 0 0.18422746814952201 0.1154148446289336 0 0.20033579659415629 0.10899959084191641 0 0.18422746814952201 0.1154148446289336 0 0.19220101611619109 0.069455466931817506 0 0.2016134769563831 0.087296750559026068 0 0.22553753830923129 0.072562856517635971 0 0.19220101611619109 0.069455466931817506 0 0.22553753830923129 0.072562856517635971 0 0.20371280465575431 0.054854742933563613 0 0.19220101611619109 0.069455466931817506 0 0.2016134769563831 0.087296750559026068 0 0.17506687063626211 0.076675125879817507 0 0.2016134769563831 0.087296750559026068 0 0.17506687063626211 0.076675125879817507 0 0.2016134769563831 0.087296750559026068 0 0.1860496622757298 0.1024087067025775 0 0.17954517331912459 0.085943521096986275 0 0.22816008327650389 0.097918375238235045 0 0.2016134769563831 0.087296750559026068 0 0.22553753830923129 0.072562856517635971 0 0.22816008327650389 0.097918375238235045 0 0.2016134769563831 0.087296750559026068 0 0.22553753830923129 0.072562856517635971 0 0.20371280465575431 0.054854742933563613 0 0.22816008327650389 0.097918375238235045 0 0.22553753830923129 0.072562856517635971 0 0.24736227196270541 0.090270970101712061 0 0.22553753830923129 0.072562856517635971 0 0.24736227196270541 0.090270970101712061 0 0.22553753830923129 0.072562856517635971 0 0.24736227196270541 0.090270970101712061 0 0.24874122334595 0.07170785510379532 0 0.22553753830923129 0.072562856517635971 0 0.24874122334595 0.07170785510379532 0 0.24629062771517271 0.052820950830226497 0 0.24629062771517271 0.052820950830226497 0 0.22540450977275331 0.044226989078737088 0 0.24629062771517271 0.052820950830226497 0 0.2492733855269578 0.041579555173777823 0 0.22540450977275331 0.044226989078737088 0 0.2492733855269578 0.041579555173777823 0 0.23050941707716249 0.025621187905106171 0 0.2492733855269578 0.041579555173777823 0 0.22540450977275331 0.044226989078737088 0 0.23050941707716249 0.025621187905106171 0 0.22540450977275331 0.044226989078737088 0 0.23050941707716249 0.025621187905106171 0 0.21805144048265651 0.031797176764528597 0 0.22553753830923129 0.072562856517635971 0 0.24629062771517271 0.052820950830226497 0 0.22540450977275331 0.044226989078737088 0 0.23790413247208811 0.0091049515404343275 0 0.25322369798355371 0.0032948183560677501 0 0.2464198669495459 -0.012097030270161889 0 0.23790413247208811 0.0091049515404343275 0 0.25442723867738032 0.016379625870619269 0 0.25322369798355371 0.0032948183560677501 0 0.2492733855269578 0.041579555173777823 0 0.24818833723327199 0.02644705719899533 0 0.23050941707716249 0.025621187905106171 0 0.23790413247208811 0.0091049515404343275 0 0.24818833723327199 0.02644705719899533 0 0.25442723867738032 0.016379625870619269 0 0.23790413247208811 0.0091049515404343275 0 0.24818833723327199 0.02644705719899533 0 0.23050941707716249 0.025621187905106171 0 0.23050941707716249 0.025621187905106171 0 0.2117734432503762 0.02170750274702346 0 0.21805144048265651 0.031797176764528597 0 0.23050941707716249 0.025621187905106171 0 0.21174544862736719 0.0096628206364345465 0 0.23050941707716249 0.025621187905106171 0 0.22518260227175371 0.0072623370788317187 0 0.21174544862736719 0.0096628206364345465 0 0.23790413247208811 0.0091049515404343275 0 0.22518260227175371 0.0072623370788317187 0 0.2300866381754704 -0.0072438550720441714 0 0.23790413247208811 0.0091049515404343275 0 0.23050941707716249 0.025621187905106171 0 0.22518260227175371 0.0072623370788317187 0 0.21174544862736719 0.0096628206364345465 0 0.2117734432503762 0.02170750274702346 0 0.20589386385567829 -0.0063134785331596111 0 0.2117734432503762 0.02170750274702346 0 0.19985428483697371 0.01027601627170664 0 0.20589386385567829 -0.0063134785331596111 0 0.2117734432503762 0.02170750274702346 0 0.20589386385567829 -0.0063134785331596111 0 0.22518260227175371 0.0072623370788317187 0 0.21174544862736719 0.0096628206364345465 0 0.2185782736923042 -0.0038367730406402641 0 0.23050941707716249 0.025621187905106171 0 0.21174544862736719 0.0096628206364345465 0 0.2117734432503762 0.02170750274702346 0 0.2117734432503762 0.02170750274702346 0 0.19994459845139961 0.023663902980434019 0 0.19985428483697371 0.01027601627170664 0 0.2117734432503762 0.02170750274702346 0 0.21805144048265651 0.031797176764528597 0 0.20451839183033399 0.035633027327247678 0 0.2117734432503762 0.02170750274702346 0 0.19994459845139961 0.023663902980434019 0 0.20451839183033399 0.035633027327247678 0 0.19994459845139961 0.023663902980434019 0 0.20451839183033399 0.035633027327247678 0 0.1836322738879155 0.027039065575756291 0 0.19994459845139961 0.023663902980434019 0 0.19985428483697371 0.01027601627170664 0 0.1836322738879155 0.027039065575756291 0 0.19985428483697371 0.01027601627170664 0 0.20589386385567829 -0.0063134785331596111 0 0.18863989258252481 -0.001979820774580698 0 0.19985428483697371 0.01027601627170664 0 0.1836322738879155 0.027039065575756291 0 0.18863989258252481 -0.001979820774580698 0 0.22553753830923129 0.072562856517635971 0 0.22540450977275331 0.044226989078737088 0 0.20371280465575431 0.054854742933563613 0 0.22540450977275331 0.044226989078737088 0 0.20451839183033399 0.035633027327247678 0 0.22540450977275331 0.044226989078737088 0 0.21805144048265651 0.031797176764528597 0 0.20451839183033399 0.035633027327247678 0 0.22540450977275331 0.044226989078737088 0 0.20371280465575431 0.054854742933563613 0 0.20451839183033399 0.035633027327247678 0 0.20451839183033399 0.035633027327247678 0 0.1818880710022803 0.03714662934948755 0 0.1836322738879155 0.027039065575756291 0 0.20371280465575431 0.054854742933563613 0 0.20451839183033399 0.035633027327247678 0 0.1818880710022803 0.03714662934948755 0 0.20371280465575431 0.054854742933563613 0 0.1818880710022803 0.03714662934948755 0 0.20451839183033399 0.035633027327247678 0 0.1836322738879155 0.027039065575756291 0 0.20371280465575431 0.054854742933563613 0 0.17847747081927551 0.05691087761465332 0 0.1818880710022803 0.03714662934948755 0 0.19220101611619109 0.069455466931817506 0 0.20371280465575431 0.054854742933563613 0 0.17847747081927551 0.05691087761465332 0 0.17847747081927551 0.05691087761465332 0 0.1818880710022803 0.03714662934948755 0 0.17847747081927551 0.05691087761465332 0 0.1818880710022803 0.03714662934948755 0 0.1636569447874848 0.036789081642687432 0 0.1818880710022803 0.03714662934948755 0 0.1836322738879155 0.027039065575756291 0 0.1818880710022803 0.03714662934948755 0 0.1636569447874848 0.036789081642687432 0 0.1620242678869008 0.02102957209859084 0 0.17847747081927551 0.05691087761465332 0 0.1636569447874848 0.036789081642687432 0 0.15962551614652079 0.053115759904931073 0 0.17847747081927551 0.05691087761465332 0 0.15962551614652079 0.053115759904931073 0 0.16641746421004469 0.065589342706300277 0 0.15962551614652079 0.053115759904931073 0 0.15045482833334159 0.067212260357143019 0 0.16641746421004469 0.065589342706300277 0 0.1716695151525548 0.011722155214289249 0 0.17506184651935949 -0.0021247232161890161 0 0.18863989258252481 -0.001979820774580698 0 0.1836322738879155 0.027039065575756291 0 0.18863989258252481 -0.001979820774580698 0 0.1836322738879155 0.027039065575756291 0 0.1716695151525548 0.011722155214289249 0 0.18863989258252481 -0.001979820774580698 0 0.1818880710022803 0.03714662934948755 0 0.1730573255808272 0.02268781650565178 0 0.1620242678869008 0.02102957209859084 0 0.1818880710022803 0.03714662934948755 0 0.1620242678869008 0.02102957209859084 0 0.1730573255808272 0.02268781650565178 0 0.1836322738879155 0.027039065575756291 0 0.1716695151525548 0.011722155214289249 0 0.1730573255808272 0.02268781650565178 0 0.1836322738879155 0.027039065575756291 0 0.1818880710022803 0.03714662934948755 0 0.1730573255808272 0.02268781650565178 0 0.1836322738879155 0.027039065575756291 0 0.1636569447874848 0.036789081642687432 0 0.1620242678869008 0.02102957209859084 0 0.15032019737810451 0.03113296745297477 0 0.1730573255808272 0.02268781650565178 0 0.1620242678869008 0.02102957209859084 0 0.1716695151525548 0.011722155214289249 0 0.1620242678869008 0.02102957209859084 0 0.1716695151525548 0.011722155214289249 0 0.15871689523486121 0.010399441389301141 0 0.1716695151525548 0.011722155214289249 0 0.15871689523486121 0.010399441389301141 0 0.1628037813635097 0.0015330777282007481 0 0.15871689523486121 0.010399441389301141 0 0.1628037813635097 0.0015330777282007481 0 0.15453230216132671 0.0032055715019124438 0 0.1716695151525548 0.011722155214289249 0 0.1628037813635097 0.0015330777282007481 0 0.17506184651935949 -0.0021247232161890161 0 0.1620242678869008 0.02102957209859084 0 0.14216046477152491 0.0049125148476896544 0 0.15871689523486121 0.010399441389301141 0 0.14216046477152491 0.0049125148476896544 0 0.15453230216132671 0.0032055715019124438 0 0.14216046477152491 0.0049125148476896544 0 0.15453230216132671 0.0032055715019124438 0 0.15849764294065671 -0.0060544572746906826 0 0.1620242678869008 0.02102957209859084 0 0.15871689523486121 0.010399441389301141 0 0.14216046477152491 0.0049125148476896544 0 0.1620242678869008 0.02102957209859084 0 0.14216046477152491 0.0049125148476896544 0 0.1432298655490542 0.02239521632663263 0 0.1620242678869008 0.02102957209859084 0 0.1432298655490542 0.02239521632663263 0 0.15032019737810451 0.03113296745297477 0 0.1432298655490542 0.02239521632663263 0 0.15032019737810451 0.03113296745297477 0 0.1366405524080008 0.032741533152345258 0 0.1432298655490542 0.02239521632663263 0 0.12659142849079691 0.028091664155532971 0 0.1366405524080008 0.032741533152345258 0 0.14216046477152491 0.0049125148476896544 0 0.1432298655490542 0.02239521632663263 0 0.12659142849079691 0.028091664155532971 0 0.14216046477152491 0.0049125148476896544 0 0.12659142849079691 0.028091664155532971 0 0.1323442420055404 0.014884056975098 0 0.14216046477152491 0.0049125148476896544 0 0.12659142849079691 0.028091664155532971 0 0.11882011836095251 0.0065886106746579649 0 0.12659142849079691 0.028091664155532971 0 0.1323442420055404 0.014884056975098 0 0.12659142849079691 0.028091664155532971 0 0.1366405524080008 0.032741533152345258 0 0.11882011836095251 0.0065886106746579649 0 0.1323442420055404 0.014884056975098 0 0.13735218555535891 0.001011181807127467 0 0.1323442420055404 0.014884056975098 0 0.13735218555535891 0.001011181807127467 0 0.14216046477152491 0.0049125148476896544 0 0.1323442420055404 0.014884056975098 0 0.13735218555535891 0.001011181807127467 0 0.14216046477152491 0.0049125148476896544 0 0.13735218555535891 0.001011181807127467 0 0.15962551614652079 0.053115759904931073 0 0.1452456698728295 0.044396077507560729 0 0.15045482833334159 0.067212260357143019 0 0.1452456698728295 0.044396077507560729 0 0.12683439495817461 0.052003073372435288 0 0.15045482833334159 0.067212260357143019 0 0.1636569447874848 0.036789081642687432 0 0.15032019737810451 0.03113296745297477 0 0.1452456698728295 0.044396077507560729 0 0.1636569447874848 0.036789081642687432 0 0.15962551614652079 0.053115759904931073 0 0.1452456698728295 0.044396077507560729 0 0.1636569447874848 0.036789081642687432 0 0.1452456698728295 0.044396077507560729 0 0.15032019737810451 0.03113296745297477 0 0.1452456698728295 0.044396077507560729 0 0.1366405524080008 0.032741533152345258 0 0.1452456698728295 0.044396077507560729 0 0.13015300311198849 0.040381385354086502 0 0.12683439495817461 0.052003073372435288 0 0.1452456698728295 0.044396077507560729 0 0.1366405524080008 0.032741533152345258 0 0.13015300311198849 0.040381385354086502 0 0.12659142849079691 0.028091664155532971 0 0.1366405524080008 0.032741533152345258 0 0.13015300311198849 0.040381385354086502 0 0.12683439495817461 0.052003073372435288 0 0.13134854049252651 0.064566646620811727 0 0.15045482833334159 0.067212260357143019 0 0.1452456698728295 0.044396077507560729 0 0.12683439495817461 0.052003073372435288 0 0.12683439495817461 0.052003073372435288 0 0.15045482833334159 0.067212260357143019 0 0.1213053233293625 0.063977455960140386 0 0.12683439495817461 0.052003073372435288 0 0.13134854049252651 0.064566646620811727 0 0.13134854049252651 0.064566646620811727 0 0.12679961534922851 0.075073796793526271 0 0.15045482833334159 0.067212260357143019 0 0.1213053233293625 0.063977455960140386 0 0.13134854049252651 0.064566646620811727 0 0.12679961534922851 0.075073796793526271 0 0.12679961534922851 0.075073796793526271 0 0.15045482833334159 0.067212260357143019 0 0.1492815716532653 0.085445809678383625 0 0.1185648575779607 0.095458187827811403 0 0.12679961534922851 0.075073796793526271 0 0.13332649773741079 0.089989738391902788 0 0.1492815716532653 0.085445809678383625 0 0.13332649773741079 0.089989738391902788 0 0.13865994636918871 0.10398115926788989 0 0.12679961534922851 0.075073796793526271 0 0.1492815716532653 0.085445809678383625 0 0.12679961534922851 0.075073796793526271 0 0.1492815716532653 0.085445809678383625 0 0.13332649773741079 0.089989738391902788 0 0.123281054128593 0.11724462113534739 0 0.1185648575779607 0.095458187827811403 0 0.13865994636918871 0.10398115926788989 0 0.1185648575779607 0.095458187827811403 0 0.13332649773741079 0.089989738391902788 0 0.13865994636918871 0.10398115926788989 0 0.123281054128593 0.11724462113534739 0 0.13865994636918871 0.10398115926788989 0 0.13947052033133081 0.1245003570974072 0 0.13947052033133081 0.1245003570974072 0 0.15026369300765779 0.1129544164764977 0 0.16718880021878149 0.12232812864365609 0 0.13947052033133081 0.1245003570974072 0 0.16718880021878149 0.12232812864365609 0 0.13865994636918871 0.10398115926788989 0 0.13947052033133081 0.1245003570974072 0 0.15026369300765779 0.1129544164764977 0 0.1492815716532653 0.085445809678383625 0 0.13865994636918871 0.10398115926788989 0 0.15573550511132991 0.1010080208970377 0 0.13865994636918871 0.10398115926788989 0 0.15026369300765779 0.1129544164764977 0 0.15573550511132991 0.1010080208970377 0 0.15573550511132991 0.1010080208970377 0 0.17176352795730221 0.095817822563241214 0 0.16718880021878149 0.12232812864365609 0 0.17176352795730221 0.095817822563241214 0 0.16718880021878149 0.12232812864365609 0 0.1492815716532653 0.085445809678383625 0 0.15573550511132991 0.1010080208970377 0 0.17176352795730221 0.095817822563241214 0 0.15026369300765779 0.1129544164764977 0 0.15573550511132991 0.1010080208970377 0 0.16718880021878149 0.12232812864365609 0 0.16718880021878149 0.12232812864365609 0 0.18422746814952201 0.1154148446289336 0 0.17176352795730221 0.095817822563241214 0 0.16718880021878149 0.12232812864365609 0 0.18422746814952201 0.1154148446289336 0 0.19370351113240411 0.1202502215829211 0 0.16718880021878149 0.12232812864365609 0 0.19370351113240411 0.1202502215829211 0 0.16718880021878149 0.12232812864365609 0 0.18422746814952201 0.1154148446289336 0 0.17176352795730221 0.095817822563241214 0 0.18422746814952201 0.1154148446289336 0 0.1860496622757298 0.1024087067025775 0 0.17176352795730221 0.095817822563241214 0 0.1860496622757298 0.1024087067025775 0 0.17954517331912459 0.085943521096986275 0 0.17176352795730221 0.095817822563241214 0 0.1860496622757298 0.1024087067025775 0 0.2016134769563831 0.087296750559026068 0 0.17954517331912459 0.085943521096986275 0 0.17506687063626211 0.076675125879817507 0 0.17176352795730221 0.095817822563241214 0 0.17407526170850959 0.082421447341849294 0 0.17176352795730221 0.095817822563241214 0 0.17954517331912459 0.085943521096986275 0 0.17407526170850959 0.082421447341849294 0 0.17954517331912459 0.085943521096986275 0 0.17407526170850959 0.082421447341849294 0 0.17506687063626211 0.076675125879817507 0 0.17407526170850959 0.082421447341849294 0 0.17506687063626211 0.076675125879817507 0 0.17954517331912459 0.085943521096986275 0 0.17407526170850959 0.082421447341849294 0 0.17847747081927551 0.05691087761465332 0 0.17506687063626211 0.076675125879817507 0 0.19220101611619109 0.069455466931817506 0 0.17847747081927551 0.05691087761465332 0 0.17506687063626211 0.076675125879817507 0 0.17847747081927551 0.05691087761465332 0 0.17506687063626211 0.076675125879817507 0 0.16641746421004469 0.065589342706300277 0 0.17407526170850959 0.082421447341849294 0 0.17506687063626211 0.076675125879817507 0 0.16846263511482451 0.074032689774956653 0 0.15045482833334159 0.067212260357143019 0 0.16846263511482451 0.074032689774956653 0 0.16641746421004469 0.065589342706300277 0 0.17506687063626211 0.076675125879817507 0 0.16846263511482451 0.074032689774956653 0 0.16641746421004469 0.065589342706300277 0 0.15045482833334159 0.067212260357143019 0 0.17407526170850959 0.082421447341849294 0 0.16846263511482451 0.074032689774956653 0 0.17506687063626211 0.076675125879817507 0 0.16846263511482451 0.074032689774956653 0 0.15045482833334159 0.067212260357143019 0 0.17407526170850959 0.082421447341849294 0 0.1492815716532653 0.085445809678383625 0 0.17176352795730221 0.095817822563241214 0 0.1492815716532653 0.085445809678383625 0 0.17176352795730221 0.095817822563241214 0 0.17407526170850959 0.082421447341849294 0 0.15045482833334159 0.067212260357143019 0 0.1492815716532653 0.085445809678383625 0 0.17407526170850959 0.082421447341849294 0 0.094789198081262169 0.47221984895451657 0 0.09870107108427445 0.5 0 0.1248616532684987 0.47476888169724352 0 0.09870107108427445 0.5 0 0.1248616532684987 0.47476888169724352 0 0.1287333349596296 0.50000000000000233 0 0.1248616532684987 0.47476888169724352 0 0.1154926134483955 0.45328817880533262 0 0.094789198081262169 0.47221984895451657 0 0.1248616532684987 0.47476888169724352 0 0.1154926134483955 0.45328817880533262 0 0.1248616532684987 0.47476888169724352 0 0.1205619018159948 0.44674810255646558 0 0.1248616532684987 0.47476888169724352 0 0.1154926134483955 0.45328817880533262 0 0.1205619018159948 0.44674810255646558 0 0.1154926134483955 0.45328817880533262 0 0.106123573628292 0.43180747591342172 0 0.1154926134483955 0.45328817880533262 0 0.1205619018159948 0.44674810255646558 0 0.106123573628292 0.43180747591342172 0 0.1154926134483955 0.45328817880533262 0 0.096722182691352548 0.44869154901932268 0 0.106123573628292 0.43180747591342172 0 0.094789198081262169 0.47221984895451657 0 0.1154926134483955 0.45328817880533262 0 0.096722182691352548 0.44869154901932268 0 0.094789198081262169 0.47221984895451657 0 0.077453222292990773 0.45016302493177879 0 0.067202034968243438 0.47028323083424428 0 0.094789198081262169 0.47221984895451657 0 0.096722182691352548 0.44869154901932268 0 0.077453222292990773 0.45016302493177879 0 0.096722182691352548 0.44869154901932268 0 0.077453222292990773 0.45016302493177879 0 0.085233479690329184 0.42595657570789891 0 0.077453222292990773 0.45016302493177879 0 0.085233479690329184 0.42595657570789891 0 0.077453222292990773 0.45016302493177879 0 0.055846149836862702 0.43889490050586683 0 0.065639666334966471 0.42409002317344818 0 0.077453222292990773 0.45016302493177879 0 0.067202034968243438 0.47028323083424428 0 0.051776939420019832 0.45519588853091181 0 0.094789198081262169 0.47221984895451657 0 0.067202034968243438 0.47028323083424428 0 0.068668807208919325 0.5 0 0.094789198081262169 0.47221984895451657 0 0.09870107108427445 0.5 0 0.068668807208919325 0.5 0 0.068668807208919325 0.5 0 0.043814234576468783 0.4752156274217324 0 0.038636543333564137 0.5 0 0.067202034968243438 0.47028323083424428 0 0.068668807208919325 0.5 0 0.043814234576468783 0.4752156274217324 0 0.038636543333564137 0.5 0 0.0095498935665802413 0.47810272379952351 0 0.0086042794582089632 0.5 0 0.043814234576468783 0.4752156274217324 0 0.038636543333564137 0.5 0 0.0095498935665802413 0.47810272379952351 0 0.043814234576468783 0.4752156274217324 0 0.0095498935665802413 0.47810272379952351 0 0.02936257191825143 0.45548825099001988 0 -0.0044763741368290672 0.43313315307665529 0 0.006403582431216831 0.45126676372832991 0 0.01131617767293759 0.43066417693356068 0 0.006403582431216831 0.45126676372832991 0 0.024585063983693121 0.43937755350337049 0 0.01131617767293759 0.43066417693356068 0 -0.0062093312902834459 0.46527566221073008 0 0.0095498935665802413 0.47810272379952351 0 0.006403582431216831 0.45126676372832991 0 0.0095498935665802413 0.47810272379952351 0 0.006403582431216831 0.45126676372832991 0 0.02936257191825143 0.45548825099001988 0 0.02936257191825143 0.45548825099001988 0 0.024585063983693121 0.43937755350337049 0 0.039439570502417587 0.44016889882154447 0 0.006403582431216831 0.45126676372832991 0 0.02936257191825143 0.45548825099001988 0 0.024585063983693121 0.43937755350337049 0 0.02936257191825143 0.45548825099001988 0 0.039439570502417587 0.44016889882154447 0 0.051776939420019832 0.45519588853091181 0 0.043814234576468783 0.4752156274217324 0 0.02936257191825143 0.45548825099001988 0 0.051776939420019832 0.45519588853091181 0 0.067202034968243438 0.47028323083424428 0 0.043814234576468783 0.4752156274217324 0 0.051776939420019832 0.45519588853091181 0 0.039439570502417587 0.44016889882154447 0 0.051776939420019832 0.45519588853091181 0 0.055846149836862702 0.43889490050586683 0 0.077453222292990773 0.45016302493177879 0 0.051776939420019832 0.45519588853091181 0 0.055846149836862702 0.43889490050586683 0 0.055846149836862702 0.43889490050586683 0 0.044352211855280779 0.42435697566478181 0 0.065639666334966471 0.42409002317344818 0 0.054179592762823331 0.4124556941646933 0 0.065774511826563423 0.40583773171119408 0 0.065639666334966471 0.42409002317344818 0 0.054179592762823331 0.4124556941646933 0 0.044352211855280779 0.42435697566478181 0 0.042551786202842029 0.40583695196884878 0 0.054179592762823331 0.4124556941646933 0 0.044352211855280779 0.42435697566478181 0 0.065639666334966471 0.42409002317344818 0 0.054179592762823331 0.4124556941646933 0 0.052579787594463898 0.40215678830519391 0 0.065774511826563423 0.40583773171119408 0 0.054179592762823331 0.4124556941646933 0 0.042551786202842029 0.40583695196884878 0 0.052579787594463898 0.40215678830519391 0 0.031615607723292562 0.41237007764590089 0 0.044352211855280779 0.42435697566478181 0 0.042551786202842029 0.40583695196884878 0 0.031615607723292562 0.41237007764590089 0 0.044352211855280779 0.42435697566478181 0 0.029348552931666359 0.42650056435783129 0 0.039439570502417587 0.44016889882154447 0 0.055846149836862702 0.43889490050586683 0 0.044352211855280779 0.42435697566478181 0 0.039439570502417587 0.44016889882154447 0 0.044352211855280779 0.42435697566478181 0 0.029348552931666359 0.42650056435783129 0 0.024585063983693121 0.43937755350337049 0 0.039439570502417587 0.44016889882154447 0 0.029348552931666359 0.42650056435783129 0 0.024585063983693121 0.43937755350337049 0 0.029348552931666359 0.42650056435783129 0 0.01131617767293759 0.43066417693356068 0 0.029348552931666359 0.42650056435783129 0 0.019479081626689841 0.41692126840220728 0 0.01131617767293759 0.43066417693356068 0 0.031615607723292562 0.41237007764590089 0 0.029348552931666359 0.42650056435783129 0 0.019479081626689841 0.41692126840220728 0 0.031615607723292562 0.41237007764590089 0 0.019479081626689841 0.41692126840220728 0 0.02210553341445062 0.40298972327242938 0 0.019479081626689841 0.41692126840220728 0 0.0046995574085186929 0.41194005205042061 0 0.02210553341445062 0.40298972327242938 0 0.019479081626689841 0.41692126840220728 0 0.0046995574085186929 0.41194005205042061 0 0.01131617767293759 0.43066417693356068 0 -0.0044763741368290672 0.43313315307665529 0 0.0046995574085186929 0.41194005205042061 0 0.01131617767293759 0.43066417693356068 0 -0.0068648610501423502 0.39382000907293813 0 0.0053185270157129726 0.37689571945341471 0 0.0079727676898529512 0.39395805239723503 0 0.0053185270157129726 0.37689571945341471 0 0.0079727676898529512 0.39395805239723503 0 0.017055050774382831 0.3783760363496293 0 0.0053185270157129726 0.37689571945341471 0 0.017055050774382831 0.3783760363496293 0 0.014905446519761849 0.37011919055753012 0 -0.0068648610501423502 0.39382000907293813 0 0.0046995574085186929 0.41194005205042061 0 0.0079727676898529512 0.39395805239723503 0 0.0046995574085186929 0.41194005205042061 0 0.0079727676898529512 0.39395805239723503 0 0.02210553341445062 0.40298972327242938 0 0.0079727676898529512 0.39395805239723503 0 0.02210553341445062 0.40298972327242938 0 0.02735486101880703 0.39232044610694311 0 0.031615607723292562 0.41237007764590089 0 0.02210553341445062 0.40298972327242938 0 0.03492587150599015 0.39714318271575322 0 0.02210553341445062 0.40298972327242938 0 0.02735486101880703 0.39232044610694311 0 0.03492587150599015 0.39714318271575322 0 0.0079727676898529512 0.39395805239723503 0 0.02735486101880703 0.39232044610694311 0 0.033420514628485373 0.38302977191180709 0 0.017055050774382831 0.3783760363496293 0 0.033420514628485373 0.38302977191180709 0 0.023779055828078009 0.37097747554075361 0 0.0079727676898529512 0.39395805239723503 0 0.017055050774382831 0.3783760363496293 0 0.033420514628485373 0.38302977191180709 0 0.0079727676898529512 0.39395805239723503 0 0.033420514628485373 0.38302977191180709 0 0.02735486101880703 0.39232044610694311 0 0.032859848824407727 0.38560668074253002 0 0.033420514628485373 0.38302977191180709 0 0.02735486101880703 0.39232044610694311 0 0.032859848824407727 0.38560668074253002 0 0.032844630049655758 0.3911952656019041 0 0.033420514628485373 0.38302977191180709 0 0.040531910439000007 0.38820627445006711 0 0.055078026168592691 0.37372917012189599 0 0.033420514628485373 0.38302977191180709 0 0.055078026168592691 0.37372917012189599 0 0.032859848824407727 0.38560668074253002 0 0.033420514628485373 0.38302977191180709 0 0.032859848824407727 0.38560668074253002 0 0.040531910439000007 0.38820627445006711 0 0.032844630049655758 0.3911952656019041 0 0.032859848824407727 0.38560668074253002 0 0.033420514628485373 0.38302977191180709 0 0.040531910439000007 0.38820627445006711 0 0.031615607723292562 0.41237007764590089 0 0.03492587150599015 0.39714318271575322 0 0.042551786202842029 0.40583695196884878 0 0.040531910439000007 0.38820627445006711 0 0.03492587150599015 0.39714318271575322 0 0.032844630049655758 0.3911952656019041 0 0.02735486101880703 0.39232044610694311 0 0.03492587150599015 0.39714318271575322 0 0.032844630049655758 0.3911952656019041 0 0.040531910439000007 0.38820627445006711 0 0.03492587150599015 0.39714318271575322 0 0.044409534997012647 0.39663533348309749 0 0.040531910439000007 0.38820627445006711 0 0.044409534997012647 0.39663533348309749 0 0.05145831924276717 0.38983346997562462 0 0.044409534997012647 0.39663533348309749 0 0.042551786202842029 0.40583695196884878 0 0.052579787594463898 0.40215678830519391 0 0.03492587150599015 0.39714318271575322 0 0.044409534997012647 0.39663533348309749 0 0.042551786202842029 0.40583695196884878 0 0.052579787594463898 0.40215678830519391 0 0.065929237187869999 0.38841376689227869 0 0.065774511826563423 0.40583773171119408 0 0.044409534997012647 0.39663533348309749 0 0.052579787594463898 0.40215678830519391 0 0.05145831924276717 0.38983346997562462 0 0.052579787594463898 0.40215678830519391 0 0.05145831924276717 0.38983346997562462 0 0.065929237187869999 0.38841376689227869 0 0.05145831924276717 0.38983346997562462 0 0.065929237187869999 0.38841376689227869 0 0.055078026168592691 0.37372917012189599 0 0.040531910439000007 0.38820627445006711 0 0.05145831924276717 0.38983346997562462 0 0.055078026168592691 0.37372917012189599 0 0.065929237187869999 0.38841376689227869 0 0.07065435961583541 0.37741521318853999 0 0.055078026168592691 0.37372917012189599 0 0.065929237187869999 0.38841376689227869 0 0.07065435961583541 0.37741521318853999 0 0.084874637398179506 0.3830893474080016 0 0.065929237187869999 0.38841376689227869 0 0.084874637398179506 0.3830893474080016 0 0.078183007061163587 0.39730645121706609 0 0.084874637398179506 0.3830893474080016 0 0.09301373708766289 0.40175012648401748 0 0.1017514530376761 0.37456476915266362 0 0.084874637398179506 0.3830893474080016 0 0.1017514530376761 0.37456476915266362 0 0.089894590955766338 0.37016501712229671 0 0.084874637398179506 0.3830893474080016 0 0.09301373708766289 0.40175012648401748 0 0.084874637398179506 0.3830893474080016 0 0.09301373708766289 0.40175012648401748 0 0.078183007061163587 0.39730645121706609 0 0.09301373708766289 0.40175012648401748 0 0.078183007061163587 0.39730645121706609 0 0.0779125114683729 0.4107996813321716 0 0.065929237187869999 0.38841376689227869 0 0.078183007061163587 0.39730645121706609 0 0.065774511826563423 0.40583773171119408 0 0.078183007061163587 0.39730645121706609 0 0.065774511826563423 0.40583773171119408 0 0.0779125114683729 0.4107996813321716 0 0.065774511826563423 0.40583773171119408 0 0.0779125114683729 0.4107996813321716 0 0.065639666334966471 0.42409002317344818 0 0.0779125114683729 0.4107996813321716 0 0.065639666334966471 0.42409002317344818 0 0.085233479690329184 0.42595657570789891 0 0.077453222292990773 0.45016302493177879 0 0.065639666334966471 0.42409002317344818 0 0.085233479690329184 0.42595657570789891 0 0.09301373708766289 0.40175012648401748 0 0.085233479690329184 0.42595657570789891 0 0.09301373708766289 0.40175012648401748 0 0.0779125114683729 0.4107996813321716 0 0.085233479690329184 0.42595657570789891 0 0.09301373708766289 0.40175012648401748 0 0.085233479690329184 0.42595657570789891 0 0.096641093798834857 0.4103746730739769 0 0.096641093798834857 0.4103746730739769 0 0.106123573628292 0.43180747591342172 0 0.096641093798834857 0.4103746730739769 0 0.1162621503634904 0.41872732341568758 0 0.11303311796937431 0.39768424579749467 0 0.096641093798834857 0.4103746730739769 0 0.106123573628292 0.43180747591342172 0 0.1162621503634904 0.41872732341568758 0 0.096641093798834857 0.4103746730739769 0 0.1162621503634904 0.41872732341568758 0 0.085233479690329184 0.42595657570789891 0 0.096641093798834857 0.4103746730739769 0 0.106123573628292 0.43180747591342172 0 0.096722182691352548 0.44869154901932268 0 0.085233479690329184 0.42595657570789891 0 0.106123573628292 0.43180747591342172 0 0.1205619018159948 0.44674810255646558 0 0.1162621503634904 0.41872732341568758 0 0.1205619018159948 0.44674810255646558 0 0.106123573628292 0.43180747591342172 0 0.1162621503634904 0.41872732341568758 0 0.1162621503634904 0.41872732341568758 0 0.11303311796937431 0.39768424579749467 0 0.11303311796937431 0.39768424579749467 0 0.1231373165426977 0.3806134049577457 0 0.1271742827044339 0.39597619803598749 0 0.1162621503634904 0.41872732341568758 0 0.11303311796937431 0.39768424579749467 0 0.1271742827044339 0.39597619803598749 0 0.11303311796937431 0.39768424579749467 0 0.1098040855752573 0.37664116817930182 0 0.11303311796937431 0.39768424579749467 0 0.1098040855752573 0.37664116817930182 0 0.1231373165426977 0.3806134049577457 0 0.09301373708766289 0.40175012648401748 0 0.10162794664532369 0.38287681265592 0 0.1017514530376761 0.37456476915266362 0 0.11303311796937431 0.39768424579749467 0 0.1098040855752573 0.37664116817930182 0 0.10162794664532369 0.38287681265592 0 0.09301373708766289 0.40175012648401748 0 0.1017514530376761 0.37456476915266362 0 0.09301373708766289 0.40175012648401748 0 0.096641093798834857 0.4103746730739769 0 0.10162794664532369 0.38287681265592 0 0.096641093798834857 0.4103746730739769 0 0.10162794664532369 0.38287681265592 0 0.096641093798834857 0.4103746730739769 0 0.11303311796937431 0.39768424579749467 0 0.10162794664532369 0.38287681265592 0 0.09301373708766289 0.40175012648401748 0 0.096641093798834857 0.4103746730739769 0 0.10657505318114149 0.3555980905611088 0 0.1040837309638282 0.33936254988137232 0 0.10657505318114149 0.3555980905611088 0 0.096269577202366938 0.34885221845001108 0 0.090674694454237537 0.35844253683721511 0 0.10657505318114149 0.3555980905611088 0 0.1081370103155585 0.34698533999968961 0 0.1040837309638282 0.33936254988137232 0 0.10657505318114149 0.3555980905611088 0 0.096269577202366938 0.34885221845001108 0 0.1040837309638282 0.33936254988137232 0 0.10657505318114149 0.3555980905611088 0 0.1081370103155585 0.34698533999968961 0 0.1081370103155585 0.34698533999968961 0 0.1105857944332822 0.35159063999376577 0 0.10657505318114149 0.3555980905611088 0 0.1081370103155585 0.34698533999968961 0 0.1105857944332822 0.35159063999376577 0 0.10657505318114149 0.3555980905611088 0 0.097223947907205094 0.36469260341832099 0 0.090674694454237537 0.35844253683721511 0 0.1098040855752573 0.37664116817930182 0 0.10657505318114149 0.3555980905611088 0 0.1098040855752573 0.37664116817930182 0 0.10162794664532369 0.38287681265592 0 0.10657505318114149 0.3555980905611088 0 0.10657505318114149 0.3555980905611088 0 0.097223947907205094 0.36469260341832099 0 0.1017514530376761 0.37456476915266362 0 0.10162794664532369 0.38287681265592 0 0.10657505318114149 0.3555980905611088 0 0.10162794664532369 0.38287681265592 0 0.10657505318114149 0.3555980905611088 0 0.1017514530376761 0.37456476915266362 0 0.097223947907205094 0.36469260341832099 0 0.1017514530376761 0.37456476915266362 0 0.089894590955766338 0.37016501712229671 0 0.1231373165426977 0.3806134049577457 0 0.1176766025370503 0.36283148293627721 0 0.13271547193899449 0.36524458735671972 0 0.1098040855752573 0.37664116817930182 0 0.10657505318114149 0.3555980905611088 0 0.1176766025370503 0.36283148293627721 0 0.1098040855752573 0.37664116817930182 0 0.1231373165426977 0.3806134049577457 0 0.1176766025370503 0.36283148293627721 0 0.1176766025370503 0.36283148293627721 0 0.1232256624926347 0.35239419723674059 0 0.13271547193899449 0.36524458735671972 0 0.10657505318114149 0.3555980905611088 0 0.1176766025370503 0.36283148293627721 0 0.1105857944332822 0.35159063999376577 0 0.1176766025370503 0.36283148293627721 0 0.1232256624926347 0.35239419723674059 0 0.1105857944332822 0.35159063999376577 0 0.1081370103155585 0.34698533999968961 0 0.1105857944332822 0.35159063999376577 0 0.1168368962248217 0.34531303274388031 0 0.1232256624926347 0.35239419723674059 0 0.1105857944332822 0.35159063999376577 0 0.1168368962248217 0.34531303274388031 0 0.1232256624926347 0.35239419723674059 0 0.1168368962248217 0.34531303274388031 0 0.1260676383484185 0.3399282146226113 0 0.1081370103155585 0.34698533999968961 0 0.1173014636805894 0.33730338313169689 0 0.1117137236550247 0.32726307032677399 0 0.1081370103155585 0.34698533999968961 0 0.1117137236550247 0.32726307032677399 0 0.1168368962248217 0.34531303274388031 0 0.1173014636805894 0.33730338313169689 0 0.1260676383484185 0.3399282146226113 0 0.1173014636805894 0.33730338313169689 0 0.12375204985912221 0.32702725796552912 0 0.1260676383484185 0.3399282146226113 0 0.1173014636805894 0.33730338313169689 0 0.12375204985912221 0.32702725796552912 0 0.1117137236550247 0.32726307032677399 0 0.1081370103155585 0.34698533999968961 0 0.1168368962248217 0.34531303274388031 0 0.1173014636805894 0.33730338313169689 0 0.1117137236550247 0.32726307032677399 0 0.11529043699448981 0.30754080065385803 0 0.1117137236550247 0.32726307032677399 0 0.1095765413243488 0.31862098055757049 0 0.11529043699448981 0.30754080065385803 0 0.1214195525311879 0.31440901896845502 0 0.1117137236550247 0.32726307032677399 0 0.11529043699448981 0.30754080065385803 0 0.1214195525311879 0.31440901896845502 0 0.12375204985912221 0.32702725796552912 0 0.12817088130983889 0.317450689473041 0 0.1214195525311879 0.31440901896845502 0 0.12375204985912221 0.32702725796552912 0 0.1117137236550247 0.32726307032677399 0 0.1040837309638282 0.33936254988137232 0 0.090103400857782137 0.31307047550514489 0 0.1040837309638282 0.33936254988137232 0 0.1025673515982234 0.32948055280164651 0 0.090103400857782137 0.31307047550514489 0 0.10278173829001019 0.3206216626476312 0 0.1025673515982234 0.32948055280164651 0 0.090103400857782137 0.31307047550514489 0 0.1095765413243488 0.31862098055757049 0 0.10278173829001019 0.3206216626476312 0 0.099947674014671917 0.31467323404701991 0 0.1095765413243488 0.31862098055757049 0 0.099947674014671917 0.31467323404701991 0 0.09732687347400408 0.30507295899279041 0 0.1117137236550247 0.32726307032677399 0 0.1095765413243488 0.31862098055757049 0 0.10278173829001019 0.3206216626476312 0 0.1117137236550247 0.32726307032677399 0 0.10278173829001019 0.3206216626476312 0 0.1025673515982234 0.32948055280164651 0 0.10278173829001019 0.3206216626476312 0 0.099947674014671917 0.31467323404701991 0 0.090103400857782137 0.31307047550514489 0 0.096269577202366938 0.34885221845001108 0 0.1040837309638282 0.33936254988137232 0 0.085896102217652828 0.34083244099607402 0 0.1081370103155585 0.34698533999968961 0 0.1117137236550247 0.32726307032677399 0 0.1040837309638282 0.33936254988137232 0 0.1081370103155585 0.34698533999968961 0 0.1040837309638282 0.33936254988137232 0 0.1117137236550247 0.32726307032677399 0 0.1040837309638282 0.33936254988137232 0 0.1025673515982234 0.32948055280164651 0 0.1040837309638282 0.33936254988137232 0 0.1025673515982234 0.32948055280164651 0 0.1040837309638282 0.33936254988137232 0 0.085896102217652828 0.34083244099607402 0 0.090103400857782137 0.31307047550514489 0 0.085896102217652828 0.34083244099607402 0 0.090103400857782137 0.31307047550514489 0 0.073944851781294785 0.32640562720437011 0 0.073944851781294785 0.32640562720437011 0 0.05926959110604698 0.32438382341666039 0 0.066452600317618793 0.30933520022964911 0 0.090103400857782137 0.31307047550514489 0 0.073944851781294785 0.32640562720437011 0 0.066452600317618793 0.30933520022964911 0 0.068002564407373206 0.3444061958743222 0 0.05926959110604698 0.32438382341666039 0 0.085896102217652828 0.34083244099607402 0 0.073944851781294785 0.32640562720437011 0 0.068002564407373206 0.3444061958743222 0 0.073944851781294785 0.32640562720437011 0 0.068002564407373206 0.3444061958743222 0 0.05926959110604698 0.32438382341666039 0 0.068002564407373206 0.3444061958743222 0 0.081709153938225559 0.35166937446406898 0 0.076735537708699481 0.364428568331984 0 0.068002564407373206 0.3444061958743222 0 0.076735537708699481 0.364428568331984 0 0.068002564407373206 0.3444061958743222 0 0.076735537708699481 0.364428568331984 0 0.058880509289504487 0.35752542115937253 0 0.085896102217652828 0.34083244099607402 0 0.068002564407373206 0.3444061958743222 0 0.081709153938225559 0.35166937446406898 0 0.081709153938225559 0.35166937446406898 0 0.090674694454237537 0.35844253683721511 0 0.076735537708699481 0.364428568331984 0 0.096269577202366938 0.34885221845001108 0 0.081709153938225559 0.35166937446406898 0 0.090674694454237537 0.35844253683721511 0 0.096269577202366938 0.34885221845001108 0 0.085896102217652828 0.34083244099607402 0 0.081709153938225559 0.35166937446406898 0 0.084874637398179506 0.3830893474080016 0 0.089894590955766338 0.37016501712229671 0 0.076735537708699481 0.364428568331984 0 0.084874637398179506 0.3830893474080016 0 0.076735537708699481 0.364428568331984 0 0.097223947907205094 0.36469260341832099 0 0.090674694454237537 0.35844253683721511 0 0.089894590955766338 0.37016501712229671 0 0.090674694454237537 0.35844253683721511 0 0.089894590955766338 0.37016501712229671 0 0.076735537708699481 0.364428568331984 0 0.090674694454237537 0.35844253683721511 0 0.076735537708699481 0.364428568331984 0 0.076735537708699481 0.364428568331984 0 0.055078026168592691 0.37372917012189599 0 0.058880509289504487 0.35752542115937253 0 0.07065435961583541 0.37741521318853999 0 0.084874637398179506 0.3830893474080016 0 0.076735537708699481 0.364428568331984 0 0.07065435961583541 0.37741521318853999 0 0.076735537708699481 0.364428568331984 0 0.055078026168592691 0.37372917012189599 0 0.076735537708699481 0.364428568331984 0 0.055078026168592691 0.37372917012189599 0 0.055078026168592691 0.37372917012189599 0 0.058880509289504487 0.35752542115937253 0 0.039125882353897343 0.35680699826087081 0 0.068002564407373206 0.3444061958743222 0 0.058880509289504487 0.35752542115937253 0 0.05148455776782021 0.34576385860545072 0 0.058880509289504487 0.35752542115937253 0 0.05148455776782021 0.34576385860545072 0 0.039125882353897343 0.35680699826087081 0 0.039125882353897343 0.35680699826087081 0 0.031548662582759998 0.36398682567210089 0 0.025752053585936779 0.33511492304397028 0 0.05148455776782021 0.34576385860545072 0 0.039125882353897343 0.35680699826087081 0 0.044831250079309708 0.3305842246099347 0 0.033420514628485373 0.38302977191180709 0 0.039125882353897343 0.35680699826087081 0 0.031548662582759998 0.36398682567210089 0 0.033420514628485373 0.38302977191180709 0 0.055078026168592691 0.37372917012189599 0 0.039125882353897343 0.35680699826087081 0 0.033420514628485373 0.38302977191180709 0 0.039125882353897343 0.35680699826087081 0 0.033420514628485373 0.38302977191180709 0 0.031548662582759998 0.36398682567210089 0 0.023779055828078009 0.37097747554075361 0 0.017055050774382831 0.3783760363496293 0 0.023779055828078009 0.37097747554075361 0 0.014905446519761849 0.37011919055753012 0 0.023779055828078009 0.37097747554075361 0 0.019349684376360511 0.36318206543595072 0 0.014905446519761849 0.37011919055753012 0 0.031548662582759998 0.36398682567210089 0 0.019349684376360511 0.36318206543595072 0 0.019690074755218789 0.35178644121934483 0 0.031548662582759998 0.36398682567210089 0 0.023779055828078009 0.37097747554075361 0 0.019349684376360511 0.36318206543595072 0 0.031548662582759998 0.36398682567210089 0 0.025752053585936779 0.33511492304397028 0 0.031548662582759998 0.36398682567210089 0 0.019690074755218789 0.35178644121934483 0 0.025752053585936779 0.33511492304397028 0 0.019349684376360511 0.36318206543595072 0 0.019690074755218789 0.35178644121934483 0 0.0119730942360182 0.35563939605115702 0 0.0119730942360182 0.35563939605115702 0 0.0038095970876644218 0.35606187191015221 0 0.0077169544749549623 0.36306791211952738 0 -0.0077202170519437719 0.34710906184019069 0 0.0082446038140756572 0.34376242611402219 0 0.0038095970876644218 0.35606187191015221 0 0.0119730942360182 0.35563939605115702 0 0.0082446038140756572 0.34376242611402219 0 0.0038095970876644218 0.35606187191015221 0 0.019690074755218789 0.35178644121934483 0 0.0119730942360182 0.35563939605115702 0 0.0082446038140756572 0.34376242611402219 0 -0.0045677851665312944 0.36532665559408428 0 0.0038095970876644218 0.35606187191015221 0 0.0077169544749549623 0.36306791211952738 0 -0.0087141207398781558 0.37710904293520409 0 0.0053185270157129726 0.37689571945341471 0 0.0077169544749549623 0.36306791211952738 0 0.0053185270157129726 0.37689571945341471 0 0.0077169544749549623 0.36306791211952738 0 0.014905446519761849 0.37011919055753012 0 0.019349684376360511 0.36318206543595072 0 0.0077169544749549623 0.36306791211952738 0 0.014905446519761849 0.37011919055753012 0 0.019349684376360511 0.36318206543595072 0 0.0119730942360182 0.35563939605115702 0 0.0077169544749549623 0.36306791211952738 0 -0.009249588209606344 0.30814111102660002 0 0.0094307060340404689 0.32376070079746733 0 0.01995544458911469 0.30624302041583928 0 -0.005758602284471958 0.33512988219008361 0 0.0082446038140756572 0.34376242611402219 0 0.0094307060340404689 0.32376070079746733 0 0.0082446038140756572 0.34376242611402219 0 0.0094307060340404689 0.32376070079746733 0 0.025752053585936779 0.33511492304397028 0 0.019690074755218789 0.35178644121934483 0 0.0082446038140756572 0.34376242611402219 0 0.025752053585936779 0.33511492304397028 0 0.025752053585936779 0.33511492304397028 0 0.01995544458911469 0.30624302041583928 0 0.025752053585936779 0.33511492304397028 0 0.034898059553693392 0.31581284699138767 0 0.01995544458911469 0.30624302041583928 0 0.0094307060340404689 0.32376070079746733 0 0.025752053585936779 0.33511492304397028 0 0.01995544458911469 0.30624302041583928 0 0.034898059553693392 0.31581284699138767 0 0.044831250079309708 0.3305842246099347 0 0.05053661780472133 0.30436145095899841 0 0.025752053585936779 0.33511492304397028 0 0.034898059553693392 0.31581284699138767 0 0.044831250079309708 0.3305842246099347 0 0.039125882353897343 0.35680699826087081 0 0.025752053585936779 0.33511492304397028 0 0.044831250079309708 0.3305842246099347 0 0.039125882353897343 0.35680699826087081 0 0.044831250079309708 0.3305842246099347 0 0.068002564407373206 0.3444061958743222 0 0.05148455776782021 0.34576385860545072 0 0.05926959110604698 0.32438382341666039 0 0.05148455776782021 0.34576385860545072 0 0.044831250079309708 0.3305842246099347 0 0.05926959110604698 0.32438382341666039 0 0.044831250079309708 0.3305842246099347 0 0.05053661780472133 0.30436145095899841 0 0.044831250079309708 0.3305842246099347 0 0.05926959110604698 0.32438382341666039 0 0.05053661780472133 0.30436145095899841 0 0.05926959110604698 0.32438382341666039 0 0.05053661780472133 0.30436145095899841 0 0.05926959110604698 0.32438382341666039 0 0.05053661780472133 0.30436145095899841 0 0.066452600317618793 0.30933520022964911 0 0.059204269303370749 0.30137448027593422 0 0.05053661780472133 0.30436145095899841 0 0.066452600317618793 0.30933520022964911 0 0.04765756321016474 0.29776054867416191 0 0.05053661780472133 0.30436145095899841 0 0.052561166870736087 0.29505630281458828 0 0.059204269303370749 0.30137448027593422 0 0.05053661780472133 0.30436145095899841 0 0.052561166870736087 0.29505630281458828 0 0.05053661780472133 0.30436145095899841 0 0.052561166870736087 0.29505630281458828 0 0.04765756321016474 0.29776054867416191 0 0.05053661780472133 0.30436145095899841 0 0.052561166870736087 0.29505630281458828 0 0.036977033779240318 0.28312664447104818 0 0.062988366650143207 0.29302398426469728 0 0.036977033779240318 0.28312664447104818 0 0.048149862160842181 0.27985089866820428 0 0.062988366650143207 0.29302398426469728 0 0.036977033779240318 0.28312664447104818 0 0.062988366650143207 0.29302398426469728 0 0.048149862160842181 0.27985089866820428 0 0.054778979573680928 0.27715841955607551 0 0.062988366650143207 0.29302398426469728 0 0.059204269303370749 0.30137448027593422 0 0.052561166870736087 0.29505630281458828 0 0.062988366650143207 0.29302398426469728 0 0.04765756321016474 0.29776054867416191 0 0.036186098738389023 0.29603891009636157 0 0.036977033779240318 0.28312664447104818 0 0.04765756321016474 0.29776054867416191 0 0.052561166870736087 0.29505630281458828 0 0.036977033779240318 0.28312664447104818 0 0.036186098738389023 0.29603891009636157 0 0.036977033779240318 0.28312664447104818 0 0.027757552790527541 0.29644954410470781 0 0.034898059553693392 0.31581284699138767 0 0.05053661780472133 0.30436145095899841 0 0.039754971674175903 0.30430037111620312 0 0.04765756321016474 0.29776054867416191 0 0.05053661780472133 0.30436145095899841 0 0.039754971674175903 0.30430037111620312 0 0.04765756321016474 0.29776054867416191 0 0.036186098738389023 0.29603891009636157 0 0.039754971674175903 0.30430037111620312 0 0.036186098738389023 0.29603891009636157 0 0.039754971674175903 0.30430037111620312 0 0.028740536311392211 0.30567206060121932 0 0.034898059553693392 0.31581284699138767 0 0.039754971674175903 0.30430037111620312 0 0.028740536311392211 0.30567206060121932 0 0.034898059553693392 0.31581284699138767 0 0.028740536311392211 0.30567206060121932 0 0.01995544458911469 0.30624302041583928 0 0.028740536311392211 0.30567206060121932 0 0.01995544458911469 0.30624302041583928 0 0.01995544458911469 0.30624302041583928 0 0.027757552790527541 0.29644954410470781 0 0.016928650534501429 0.29116708493907051 0 0.01995544458911469 0.30624302041583928 0 0.016928650534501429 0.29116708493907051 0 0.036186098738389023 0.29603891009636157 0 0.028740536311392211 0.30567206060121932 0 0.027757552790527541 0.29644954410470781 0 0.028740536311392211 0.30567206060121932 0 0.01995544458911469 0.30624302041583928 0 0.027757552790527541 0.29644954410470781 0 0.036977033779240318 0.28312664447104818 0 0.016928650534501429 0.29116708493907051 0 0.013901856479889301 0.2760911494623014 0 0.036977033779240318 0.28312664447104818 0 0.027757552790527541 0.29644954410470781 0 0.016928650534501429 0.29116708493907051 0 0.016928650534501429 0.29116708493907051 0 0.0075090435902615098 0.27971283806045072 0 0.013901856479889301 0.2760911494623014 0 0.016928650534501429 0.29116708493907051 0 0.013901856479889301 0.2760911494623014 0 0.016928650534501429 0.29116708493907051 0 0.002380999114604244 0.28599596302517022 0 0.0075090435902615098 0.27971283806045072 0 0.016928650534501429 0.29116708493907051 0 0.002380999114604244 0.28599596302517022 0 0.0038021096493471361 0.29689124930627131 0 0.01995544458911469 0.30624302041583928 0 0.016928650534501429 0.29116708493907051 0 0.0038021096493471361 0.29689124930627131 0 -0.009249588209606344 0.30814111102660002 0 0.01995544458911469 0.30624302041583928 0 -0.009249588209606344 0.30814111102660002 0 0.01995544458911469 0.30624302041583928 0 0.0038021096493471361 0.29689124930627131 0 0.012944211518790589 0.24639919126045251 0 0.001894876929373096 0.24743045501984201 0 0.027350481215018482 0.26092432701142793 0 0.001894876929373096 0.24743045501984201 0 0.01235577794179212 0.26160751525750708 0 0.027350481215018482 0.26092432701142793 0 0.001894876929373096 0.24743045501984201 0 0.027350481215018482 0.26092432701142793 0 0.01235577794179212 0.26160751525750708 0 0.0066431973405819862 0.26423936680728111 0 0.01332705073189009 0.26743114199411 0 0.001894876929373096 0.24743045501984201 0 0.01235577794179212 0.26160751525750708 0 0.0027594708259384838 0.25829047161104352 0 0.01235577794179212 0.26160751525750708 0 0.0027594708259384838 0.25829047161104352 0 0.0066431973405819862 0.26423936680728111 0 -0.00067809962666212902 0.26216505597133072 0 0.0027594708259384838 0.25829047161104352 0 0.0066431973405819862 0.26423936680728111 0 -0.00067809962666212902 0.26216505597133072 0 0.0066431973405819862 0.26423936680728111 0 0.010965700908337589 0.27322930467739909 0 -0.001267499687089951 0.2776013217203892 0 0.0075090435902615098 0.27971283806045072 0 0.010965700908337589 0.27322930467739909 0 -0.001267499687089951 0.2776013217203892 0 0.002380999114604244 0.28599596302517022 0 0.0075090435902615098 0.27971283806045072 0 0.0075090435902615098 0.27971283806045072 0 0.013901856479889301 0.2760911494623014 0 0.010965700908337589 0.27322930467739909 0 0.010965700908337589 0.27322930467739909 0 0.01332705073189009 0.26743114199411 0 0.022419763759722669 0.26962443384228668 0 0.0066431973405819862 0.26423936680728111 0 0.010965700908337589 0.27322930467739909 0 0.01332705073189009 0.26743114199411 0 0.036977033779240318 0.28312664447104818 0 0.010965700908337589 0.27322930467739909 0 0.022419763759722669 0.26962443384228668 0 0.01235577794179212 0.26160751525750708 0 0.01332705073189009 0.26743114199411 0 0.022419763759722669 0.26962443384228668 0 0.036977033779240318 0.28312664447104818 0 0.013901856479889301 0.2760911494623014 0 0.010965700908337589 0.27322930467739909 0 0.036977033779240318 0.28312664447104818 0 0.010965700908337589 0.27322930467739909 0 0.036977033779240318 0.28312664447104818 0 0.022419763759722669 0.26962443384228668 0 0.032397819765571212 0.27218151163944088 0 0.022419763759722669 0.26962443384228668 0 0.027350481215018482 0.26092432701142793 0 0.032397819765571212 0.27218151163944088 0 0.018629400856135309 0.24429501886194191 0 0.012944211518790589 0.24639919126045251 0 0.027350481215018482 0.26092432701142793 0 0.018629400856135309 0.24429501886194191 0 0.027350481215018482 0.26092432701142793 0 0.02692674034290404 0.25134916217479408 0 0.01235577794179212 0.26160751525750708 0 0.022419763759722669 0.26962443384228668 0 0.027350481215018482 0.26092432701142793 0 0.027350481215018482 0.26092432701142793 0 0.02692674034290404 0.25134916217479408 0 0.036501911092354018 0.25177276941539839 0 0.027350481215018482 0.26092432701142793 0 0.036501911092354018 0.25177276941539839 0 0.052806085500663583 0.27441819900301412 0 0.036501911092354018 0.25177276941539839 0 0.052806085500663583 0.27441819900301412 0 0.027350481215018482 0.26092432701142793 0 0.039536256484267153 0.27410031615862712 0 0.052806085500663583 0.27441819900301412 0 0.027350481215018482 0.26092432701142793 0 0.052806085500663583 0.27441819900301412 0 0.036977033779240318 0.28312664447104818 0 0.032397819765571212 0.27218151163944088 0 0.039536256484267153 0.27410031615862712 0 0.027350481215018482 0.26092432701142793 0 0.032397819765571212 0.27218151163944088 0 0.039536256484267153 0.27410031615862712 0 0.039536256484267153 0.27410031615862712 0 0.048149862160842181 0.27985089866820428 0 0.052806085500663583 0.27441819900301412 0 0.036977033779240318 0.28312664447104818 0 0.039536256484267153 0.27410031615862712 0 0.048149862160842181 0.27985089866820428 0 0.052806085500663583 0.27441819900301412 0 0.051790667069154861 0.2547103276228454 0 0.069466372585565969 0.27425949764399721 0 0.052806085500663583 0.27441819900301412 0 0.054778979573680928 0.27715841955607551 0 0.076123070751733898 0.28677840112891878 0 0.048149862160842181 0.27985089866820428 0 0.052806085500663583 0.27441819900301412 0 0.054778979573680928 0.27715841955607551 0 0.052806085500663583 0.27441819900301412 0 0.054778979573680928 0.27715841955607551 0 0.051790667069154861 0.2547103276228454 0 0.069466372585565969 0.27425949764399721 0 0.036501911092354018 0.25177276941539839 0 0.052806085500663583 0.27441819900301412 0 0.051790667069154861 0.2547103276228454 0 0.051790667069154861 0.2547103276228454 0 0.062472563593505302 0.26110660749064829 0 0.069466372585565969 0.27425949764399721 0 0.051790667069154861 0.2547103276228454 0 0.062472563593505302 0.26110660749064829 0 0.063392491700480919 0.2510828642249095 0 0.07090317009537217 0.25886987532900169 0 0.089645379702363526 0.25980927980688501 0 0.066829182329119829 0.26693814307945207 0 0.063392491700480919 0.2510828642249095 0 0.07090317009537217 0.25886987532900169 0 0.074261774750864804 0.25289133929391111 0 0.062472563593505302 0.26110660749064829 0 0.063392491700480919 0.2510828642249095 0 0.07090317009537217 0.25886987532900169 0 0.062472563593505302 0.26110660749064829 0 0.07090317009537217 0.25886987532900169 0 0.066829182329119829 0.26693814307945207 0 0.07090317009537217 0.25886987532900169 0 0.074261774750864804 0.25289133929391111 0 0.089645379702363526 0.25980927980688501 0 0.072073934872957782 0.23900016577853919 0 0.074261774750864804 0.25289133929391111 0 0.089645379702363526 0.25980927980688501 0 0.089645379702363526 0.25980927980688501 0 0.066829182329119829 0.26693814307945207 0 0.089645379702363526 0.25980927980688501 0 0.084738505220855201 0.27427167124983992 0 0.066829182329119829 0.26693814307945207 0 0.084738505220855201 0.27427167124983992 0 0.069466372585565969 0.27425949764399721 0 0.085077205623658711 0.29152493742801078 0 0.084738505220855201 0.27427167124983992 0 0.095910340366493346 0.28464594086445177 0 0.099818528257267281 0.27185690653089678 0 0.089645379702363526 0.25980927980688501 0 0.084738505220855201 0.27427167124983992 0 0.099818528257267281 0.27185690653089678 0 0.084738505220855201 0.27427167124983992 0 0.066829182329119829 0.26693814307945207 0 0.069466372585565969 0.27425949764399721 0 0.052806085500663583 0.27441819900301412 0 0.069466372585565969 0.27425949764399721 0 0.076123070751733898 0.28677840112891878 0 0.052806085500663583 0.27441819900301412 0 0.076123070751733898 0.28677840112891878 0 0.069466372585565969 0.27425949764399721 0 0.076123070751733898 0.28677840112891878 0 0.062472563593505302 0.26110660749064829 0 0.069466372585565969 0.27425949764399721 0 0.062472563593505302 0.26110660749064829 0 0.066829182329119829 0.26693814307945207 0 0.069466372585565969 0.27425949764399721 0 0.069466372585565969 0.27425949764399721 0 0.085077205623658711 0.29152493742801078 0 0.069466372585565969 0.27425949764399721 0 0.076123070751733898 0.28677840112891878 0 0.085077205623658711 0.29152493742801078 0 0.062988366650143207 0.29302398426469728 0 0.076123070751733898 0.28677840112891878 0 0.066452600317618793 0.30933520022964911 0 0.054778979573680928 0.27715841955607551 0 0.062988366650143207 0.29302398426469728 0 0.076123070751733898 0.28677840112891878 0 0.090103400857782137 0.31307047550514489 0 0.076123070751733898 0.28677840112891878 0 0.066452600317618793 0.30933520022964911 0 0.059204269303370749 0.30137448027593422 0 0.062988366650143207 0.29302398426469728 0 0.066452600317618793 0.30933520022964911 0 0.090103400857782137 0.31307047550514489 0 0.076123070751733898 0.28677840112891878 0 0.085077205623658711 0.29152493742801078 0 0.090103400857782137 0.31307047550514489 0 0.076123070751733898 0.28677840112891878 0 0.090103400857782137 0.31307047550514489 0 0.085077205623658711 0.29152493742801078 0 0.09732687347400408 0.30507295899279041 0 0.085077205623658711 0.29152493742801078 0 0.09732687347400408 0.30507295899279041 0 0.084738505220855201 0.27427167124983992 0 0.085077205623658711 0.29152493742801078 0 0.095910340366493346 0.28464594086445177 0 0.076123070751733898 0.28677840112891878 0 0.085077205623658711 0.29152493742801078 0 0.085077205623658711 0.29152493742801078 0 0.095910340366493346 0.28464594086445177 0 0.10018382130907411 0.29953286904093468 0 0.085077205623658711 0.29152493742801078 0 0.10018382130907411 0.29953286904093468 0 0.095910340366493346 0.28464594086445177 0 0.10809736708577181 0.28553666446189058 0 0.10018382130907411 0.29953286904093468 0 0.10809736708577181 0.28553666446189058 0 0.10018382130907411 0.29953286904093468 0 0.10959494141679089 0.29761357018739809 0 0.099947674014671917 0.31467323404701991 0 0.090103400857782137 0.31307047550514489 0 0.09732687347400408 0.30507295899279041 0 0.085077205623658711 0.29152493742801078 0 0.09732687347400408 0.30507295899279041 0 0.10018382130907411 0.29953286904093468 0 0.09732687347400408 0.30507295899279041 0 0.10018382130907411 0.29953286904093468 0 0.1055944182754792 0.3076919023112884 0 0.10018382130907411 0.29953286904093468 0 0.11529043699448981 0.30754080065385803 0 0.10959494141679089 0.29761357018739809 0 0.10018382130907411 0.29953286904093468 0 0.11529043699448981 0.30754080065385803 0 0.1095765413243488 0.31862098055757049 0 0.09732687347400408 0.30507295899279041 0 0.1055944182754792 0.3076919023112884 0 0.10018382130907411 0.29953286904093468 0 0.1055944182754792 0.3076919023112884 0 0.11529043699448981 0.30754080065385803 0 0.1095765413243488 0.31862098055757049 0 0.09732687347400408 0.30507295899279041 0 0.1095765413243488 0.31862098055757049 0 0.1055944182754792 0.3076919023112884 0 0.11529043699448981 0.30754080065385803 0 0.11529043699448981 0.30754080065385803 0 0.11637637905870279 0.30155283343175482 0 0.11810871752106521 0.30621928700195911 0 0.11529043699448981 0.30754080065385803 0 0.10959494141679089 0.29761357018739809 0 0.11637637905870279 0.30155283343175482 0 0.10959494141679089 0.29761357018739809 0 0.11637637905870279 0.30155283343175482 0 0.1164892219926046 0.29243334627748818 0 0.11529043699448981 0.30754080065385803 0 0.11637637905870279 0.30155283343175482 0 0.11637637905870279 0.30155283343175482 0 0.1222906650571363 0.2985709440566281 0 0.1164892219926046 0.29243334627748818 0 0.1222906650571363 0.2985709440566281 0 0.1206025954822835 0.30378795350269022 0 0.1243783730770044 0.30485679470236721 0 0.11637637905870279 0.30155283343175482 0 0.1222906650571363 0.2985709440566281 0 0.1206025954822835 0.30378795350269022 0 0.11637637905870279 0.30155283343175482 0 0.1206025954822835 0.30378795350269022 0 0.11810871752106521 0.30621928700195911 0 0.1206025954822835 0.30378795350269022 0 0.11810871752106521 0.30621928700195911 0 0.1213521300308707 0.30775440284793348 0 0.11529043699448981 0.30754080065385803 0 0.11810871752106521 0.30621928700195911 0 0.11930841490252821 0.30912172642276631 0 0.11810871752106521 0.30621928700195911 0 0.1213521300308707 0.30775440284793348 0 0.11930841490252821 0.30912172642276631 0 0.1243783730770044 0.30485679470236721 0 0.1213521300308707 0.30775440284793348 0 0.1244342991148414 0.30898461385241399 0 0.1206025954822835 0.30378795350269022 0 0.1243783730770044 0.30485679470236721 0 0.1213521300308707 0.30775440284793348 0 0.1214195525311879 0.31440901896845502 0 0.1244342991148414 0.30898461385241399 0 0.12900107104525951 0.30968741412501871 0 0.1214195525311879 0.31440901896845502 0 0.1213521300308707 0.30775440284793348 0 0.1244342991148414 0.30898461385241399 0 0.1214195525311879 0.31440901896845502 0 0.11529043699448981 0.30754080065385803 0 0.11930841490252821 0.30912172642276631 0 0.1214195525311879 0.31440901896845502 0 0.1213521300308707 0.30775440284793348 0 0.11930841490252821 0.30912172642276631 0 0.10809736708577181 0.28553666446189058 0 0.1164892219926046 0.29243334627748818 0 0.1210835213650209 0.28058702695229848 0 0.10809736708577181 0.28553666446189058 0 0.10959494141679089 0.29761357018739809 0 0.1164892219926046 0.29243334627748818 0 0.1222906650571363 0.2985709440566281 0 0.1164892219926046 0.29243334627748818 0 0.12596292383497329 0.28976449579057961 0 0.1164892219926046 0.29243334627748818 0 0.1210835213650209 0.28058702695229848 0 0.12596292383497329 0.28976449579057961 0 0.10809736708577181 0.28553666446189058 0 0.1210835213650209 0.28058702695229848 0 0.1147979612748997 0.2707881575742877 0 0.1210835213650209 0.28058702695229848 0 0.1147979612748997 0.2707881575742877 0 0.12791172371537049 0.26609555254785411 0 0.1147979612748997 0.2707881575742877 0 0.116065923487036 0.25155424759680489 0 0.099818528257267281 0.27185690653089678 0 0.1147979612748997 0.2707881575742877 0 0.116065923487036 0.25155424759680489 0 0.12791172371537049 0.26609555254785411 0 0.089645379702363526 0.25980927980688501 0 0.116065923487036 0.25155424759680489 0 0.089645379702363526 0.25980927980688501 0 0.116065923487036 0.25155424759680489 0 0.099818528257267281 0.27185690653089678 0 0.089645379702363526 0.25980927980688501 0 0.099818528257267281 0.27185690653089678 0 0.095910340366493346 0.28464594086445177 0 0.10809736708577181 0.28553666446189058 0 0.099818528257267281 0.27185690653089678 0 0.10809736708577181 0.28553666446189058 0 0.1147979612748997 0.2707881575742877 0 0.099818528257267281 0.27185690653089678 0 0.14627836463393121 0.26809473379089088 0 0.14256315404166739 0.2804585798755338 0 0.1332419302865058 0.27890394506169119 0 0.14627836463393121 0.26809473379089088 0 0.14256315404166739 0.2804585798755338 0 0.15383705453569649 0.27951082009548711 0 0.14627836463393121 0.26809473379089088 0 0.15383705453569649 0.27951082009548711 0 0.1609818760820641 0.2708255403471686 0 0.14248646727170791 0.24329921538672239 0 0.14627836463393121 0.26809473379089088 0 0.1631161995596529 0.25657386530356069 0 0.14248646727170791 0.24329921538672239 0 0.116065923487036 0.25155424759680489 0 0.12791172371537049 0.26609555254785411 0 0.14248646727170791 0.24329921538672239 0 0.14627836463393121 0.26809473379089088 0 0.12791172371537049 0.26609555254785411 0 0.14627836463393121 0.26809473379089088 0 0.12791172371537049 0.26609555254785411 0 0.1332419302865058 0.27890394506169119 0 0.1210835213650209 0.28058702695229848 0 0.12791172371537049 0.26609555254785411 0 0.1332419302865058 0.27890394506169119 0 0.1332419302865058 0.27890394506169119 0 0.12596292383497329 0.28976449579057961 0 0.13463915166403909 0.29011289163129678 0 0.1210835213650209 0.28058702695229848 0 0.1332419302865058 0.27890394506169119 0 0.12596292383497329 0.28976449579057961 0 0.1222906650571363 0.2985709440566281 0 0.12596292383497329 0.28976449579057961 0 0.12923992476061211 0.29615108028493942 0 0.12596292383497329 0.28976449579057961 0 0.12923992476061211 0.29615108028493942 0 0.13463915166403909 0.29011289163129678 0 0.13463915166403909 0.29011289163129678 0 0.13544399911061031 0.29845687749894129 0 0.1416447250157222 0.29544082675589128 0 0.12923992476061211 0.29615108028493942 0 0.13463915166403909 0.29011289163129678 0 0.13544399911061031 0.29845687749894129 0 0.14256315404166739 0.2804585798755338 0 0.1332419302865058 0.27890394506169119 0 0.13463915166403909 0.29011289163129678 0 0.1243783730770044 0.30485679470236721 0 0.1244342991148414 0.30898461385241399 0 0.12900107104525951 0.30968741412501871 0 0.1243783730770044 0.30485679470236721 0 0.12900107104525951 0.30968741412501871 0 0.1290658347258283 0.30205966601357243 0 0.12900107104525951 0.30968741412501871 0 0.1290658347258283 0.30205966601357243 0 0.1340409753043473 0.30463488541353972 0 0.1222906650571363 0.2985709440566281 0 0.1243783730770044 0.30485679470236721 0 0.1290658347258283 0.30205966601357243 0 0.1222906650571363 0.2985709440566281 0 0.12923992476061211 0.29615108028493942 0 0.1290658347258283 0.30205966601357243 0 0.12923992476061211 0.29615108028493942 0 0.1290658347258283 0.30205966601357243 0 0.13544399911061031 0.29845687749894129 0 0.13544399911061031 0.29845687749894129 0 0.14170706289926879 0.30357921339911909 0 0.1416447250157222 0.29544082675589128 0 0.13544399911061031 0.29845687749894129 0 0.1340409753043473 0.30463488541353972 0 0.14170706289926879 0.30357921339911909 0 0.1290658347258283 0.30205966601357243 0 0.13544399911061031 0.29845687749894129 0 0.1340409753043473 0.30463488541353972 0 0.13598458437900529 0.30983158877234418 0 0.14130712994747449 0.31140798331507108 0 0.14170706289926879 0.30357921339911909 0 0.12900107104525951 0.30968741412501871 0 0.1340409753043473 0.30463488541353972 0 0.13598458437900529 0.30983158877234418 0 0.1340409753043473 0.30463488541353972 0 0.13598458437900529 0.30983158877234418 0 0.14170706289926879 0.30357921339911909 0 0.13598458437900529 0.30983158877234418 0 0.14130712994747449 0.31140798331507108 0 0.13528824775885559 0.3155805734405937 0 0.12900107104525951 0.30968741412501871 0 0.13598458437900529 0.30983158877234418 0 0.13528824775885559 0.3155805734405937 0 0.1483486037307668 0.31106151759990119 0 0.14130712994747449 0.31140798331507108 0 0.14170706289926879 0.30357921339911909 0 0.1483486037307668 0.31106151759990119 0 0.14170706289926879 0.30357921339911909 0 0.1513591925520972 0.30423422291399321 0 0.14170706289926879 0.30357921339911909 0 0.14924189349128261 0.29698436464102829 0 0.1513591925520972 0.30423422291399321 0 0.14170706289926879 0.30357921339911909 0 0.14924189349128261 0.29698436464102829 0 0.1416447250157222 0.29544082675589128 0 0.1513591925520972 0.30423422291399321 0 0.15847128754916129 0.30901971199088751 0 0.1567398971697517 0.30020769771567818 0 0.14924189349128261 0.29698436464102829 0 0.1513591925520972 0.30423422291399321 0 0.1567398971697517 0.30020769771567818 0 0.1483486037307668 0.31106151759990119 0 0.1513591925520972 0.30423422291399321 0 0.15847128754916129 0.30901971199088751 0 0.1483486037307668 0.31106151759990119 0 0.15847128754916129 0.30901971199088751 0 0.1531779528472626 0.31690967251270458 0 0.14256315404166739 0.2804585798755338 0 0.15383705453569649 0.27951082009548711 0 0.14728728951424691 0.28871625735014939 0 0.14256315404166739 0.2804585798755338 0 0.13463915166403909 0.29011289163129678 0 0.14728728951424691 0.28871625735014939 0 0.14924189349128261 0.29698436464102829 0 0.14728728951424691 0.28871625735014939 0 0.1416447250157222 0.29544082675589128 0 0.13463915166403909 0.29011289163129678 0 0.14728728951424691 0.28871625735014939 0 0.1416447250157222 0.29544082675589128 0 0.14924189349128261 0.29698436464102829 0 0.1576814993112734 0.29111844862325259 0 0.1567398971697517 0.30020769771567818 0 0.14924189349128261 0.29698436464102829 0 0.14728728951424691 0.28871625735014939 0 0.1576814993112734 0.29111844862325259 0 0.15383705453569649 0.27951082009548711 0 0.14728728951424691 0.28871625735014939 0 0.1576814993112734 0.29111844862325259 0 0.15383705453569649 0.27951082009548711 0 0.1576814993112734 0.29111844862325259 0 0.16532030222413041 0.28061774918364429 0 0.1576814993112734 0.29111844862325259 0 0.1689979645595176 0.28949488405725932 0 0.16532030222413041 0.28061774918364429 0 0.1576814993112734 0.29111844862325259 0 0.1689979645595176 0.28949488405725932 0 0.16694561294494401 0.29968174040922901 0 0.1689979645595176 0.28949488405725932 0 0.16694561294494401 0.29968174040922901 0 0.17866142019044989 0.29199773726540068 0 0.1689979645595176 0.28949488405725932 0 0.17498255083596301 0.28300150235233201 0 0.16532030222413041 0.28061774918364429 0 0.1576814993112734 0.29111844862325259 0 0.1567398971697517 0.30020769771567818 0 0.16694561294494401 0.29968174040922901 0 0.15847128754916129 0.30901971199088751 0 0.1567398971697517 0.30020769771567818 0 0.16694561294494401 0.29968174040922901 0 0.16694561294494401 0.29968174040922901 0 0.17666858027807311 0.3015349886251833 0 0.1707678241303611 0.31259989648156872 0 0.15847128754916129 0.30901971199088751 0 0.16694561294494401 0.29968174040922901 0 0.1707678241303611 0.31259989648156872 0 0.17666858027807311 0.3015349886251833 0 0.18371952992762389 0.30785332357736089 0 0.1707678241303611 0.31259989648156872 0 0.16694561294494401 0.29968174040922901 0 0.17666858027807311 0.3015349886251833 0 0.17866142019044989 0.29199773726540068 0 0.17666858027807311 0.3015349886251833 0 0.18371952992762389 0.30785332357736089 0 0.1898902111984884 0.29891268329407239 0 0.18371952992762389 0.30785332357736089 0 0.1898902111984884 0.29891268329407239 0 0.17666858027807311 0.3015349886251833 0 0.17866142019044989 0.29199773726540068 0 0.1898902111984884 0.29891268329407239 0 0.17498255083596301 0.28300150235233201 0 0.17866142019044989 0.29199773726540068 0 0.1849298445554361 0.28099903695767547 0 0.1689979645595176 0.28949488405725932 0 0.17498255083596301 0.28300150235233201 0 0.17866142019044989 0.29199773726540068 0 0.17866142019044989 0.29199773726540068 0 0.18677859260729601 0.28760164196875848 0 0.1898902111984884 0.29891268329407239 0 0.17866142019044989 0.29199773726540068 0 0.18677859260729601 0.28760164196875848 0 0.1849298445554361 0.28099903695767547 0 0.1849298445554361 0.28099903695767547 0 0.17528279401001801 0.2714166079934146 0 0.19094745617081291 0.27038549871767581 0 0.17528279401001801 0.2714166079934146 0 0.18564289691528729 0.25868749876629671 0 0.19094745617081291 0.27038549871767581 0 0.17498255083596301 0.28300150235233201 0 0.1849298445554361 0.28099903695767547 0 0.17528279401001801 0.2714166079934146 0 0.17528279401001801 0.2714166079934146 0 0.16532030222413041 0.28061774918364429 0 0.1609818760820641 0.2708255403471686 0 0.17498255083596301 0.28300150235233201 0 0.17528279401001801 0.2714166079934146 0 0.16532030222413041 0.28061774918364429 0 0.17528279401001801 0.2714166079934146 0 0.1609818760820641 0.2708255403471686 0 0.1631161995596529 0.25657386530356069 0 0.15383705453569649 0.27951082009548711 0 0.16532030222413041 0.28061774918364429 0 0.1609818760820641 0.2708255403471686 0 0.14627836463393121 0.26809473379089088 0 0.1609818760820641 0.2708255403471686 0 0.1631161995596529 0.25657386530356069 0 0.16890701105638031 0.23504418317664161 0 0.1631161995596529 0.25657386530356069 0 0.18564289691528729 0.25868749876629671 0 0.17528279401001801 0.2714166079934146 0 0.1631161995596529 0.25657386530356069 0 0.18564289691528729 0.25868749876629671 0 0.1956251304139873 0.24830732682566101 0 0.18564289691528729 0.25868749876629671 0 0.20465537480646501 0.25892384109831479 0 0.18564289691528729 0.25868749876629671 0 0.19094745617081291 0.27038549871767581 0 0.20465537480646501 0.25892384109831479 0 0.2050239072751949 0.2492833193895482 0 0.1956251304139873 0.24830732682566101 0 0.20465537480646501 0.25892384109831479 0 0.19094745617081291 0.27038549871767581 0 0.20212350544635149 0.27452240688285762 0 0.1917381003592612 0.28136787577326228 0 0.1849298445554361 0.28099903695767547 0 0.19094745617081291 0.27038549871767581 0 0.1917381003592612 0.28136787577326228 0 0.19094745617081291 0.27038549871767581 0 0.20212350544635149 0.27452240688285762 0 0.20465537480646501 0.25892384109831479 0 0.21559138507808229 0.27635001083075639 0 0.2170338530129477 0.25958452376210089 0 0.2223889939606305 0.26849190584137572 0 0.20212350544635149 0.27452240688285762 0 0.2170338530129477 0.25958452376210089 0 0.20037669147028589 0.28371892366973078 0 0.2170338530129477 0.25958452376210089 0 0.20037669147028589 0.28371892366973078 0 0.21559138507808229 0.27635001083075639 0 0.2170338530129477 0.25958452376210089 0 0.20037669147028589 0.28371892366973078 0 0.20212350544635149 0.27452240688285762 0 0.20465537480646501 0.25892384109831479 0 0.21458810326103989 0.25029177234766842 0 0.20212350544635149 0.27452240688285762 0 0.2170338530129477 0.25958452376210089 0 0.21458810326103989 0.25029177234766842 0 0.20212350544635149 0.27452240688285762 0 0.21458810326103989 0.25029177234766842 0 0.2050239072751949 0.2492833193895482 0 0.20465537480646501 0.25892384109831479 0 0.21458810326103989 0.25029177234766842 0 0.20465537480646501 0.25892384109831479 0 0.21458810326103989 0.25029177234766842 0 0.23169913173193779 0.25404958449575432 0 0.22942687348362151 0.26728355318502178 0 0.24090080429007341 0.26281353644332878 0 0.23169913173193779 0.25404958449575432 0 0.2249153238939712 0.26221153605608138 0 0.22942687348362151 0.26728355318502178 0 0.2170338530129477 0.25958452376210089 0 0.2249153238939712 0.26221153605608138 0 0.2223889939606305 0.26849190584137572 0 0.2170338530129477 0.25958452376210089 0 0.23169913173193779 0.25404958449575432 0 0.2249153238939712 0.26221153605608138 0 0.2223889939606305 0.26849190584137572 0 0.2255322572178127 0.27738204478537232 0 0.22942687348362151 0.26728355318502178 0 0.2249153238939712 0.26221153605608138 0 0.2223889939606305 0.26849190584137572 0 0.22942687348362151 0.26728355318502178 0 0.21559138507808229 0.27635001083075639 0 0.2255322572178127 0.27738204478537232 0 0.21985426169801439 0.28935406669317137 0 0.21559138507808229 0.27635001083075639 0 0.2223889939606305 0.26849190584137572 0 0.2255322572178127 0.27738204478537232 0 0.2255322572178127 0.27738204478537232 0 0.23621117140834261 0.27732665952701641 0 0.23095623596381579 0.2876536505458 0 0.2255322572178127 0.27738204478537232 0 0.22942687348362151 0.26728355318502178 0 0.23621117140834261 0.27732665952701641 0 0.23621117140834261 0.27732665952701641 0 0.24818821145747599 0.27522177653690871 0 0.24090080429007341 0.26281353644332878 0 0.22942687348362151 0.26728355318502178 0 0.23621117140834261 0.27732665952701641 0 0.24090080429007341 0.26281353644332878 0 0.24818821145747599 0.27522177653690871 0 0.24090080429007341 0.26281353644332878 0 0.25530776412370298 0.26639583896058622 0 0.23995652529561701 0.25039133628829258 0 0.24090080429007341 0.26281353644332878 0 0.25404003316197471 0.25208422786308371 0 0.23169913173193779 0.25404958449575432 0 0.23995652529561701 0.25039133628829258 0 0.24090080429007341 0.26281353644332878 0 0.23765651747073049 0.31117848176507701 0 0.2454028482605469 0.29267792886045368 0 0.25114017462525878 0.31153615041935723 0 0.23765651747073049 0.31117848176507701 0 0.2454028482605469 0.29267792886045368 0 0.2283396740985745 0.30195705682751389 0 0.2454028482605469 0.29267792886045368 0 0.23095623596381579 0.2876536505458 0 0.2283396740985745 0.30195705682751389 0 0.23621117140834261 0.27732665952701641 0 0.24818821145747599 0.27522177653690871 0 0.2454028482605469 0.29267792886045368 0 0.23621117140834261 0.27732665952701641 0 0.2454028482605469 0.29267792886045368 0 0.23095623596381579 0.2876536505458 0 0.2255322572178127 0.27738204478537232 0 0.23095623596381579 0.2876536505458 0 0.21985426169801439 0.28935406669317137 0 0.23095623596381579 0.2876536505458 0 0.21985426169801439 0.28935406669317137 0 0.2283396740985745 0.30195705682751389 0 0.2283396740985745 0.30195705682751389 0 0.2184758680590754 0.31184724711422762 0 0.22801070301179061 0.32060690690137728 0 0.21985426169801439 0.28935406669317137 0 0.2283396740985745 0.30195705682751389 0 0.21670572119465931 0.30172893354768798 0 0.23765651747073049 0.31117848176507701 0 0.2283396740985745 0.30195705682751389 0 0.22801070301179061 0.32060690690137728 0 0.2283396740985745 0.30195705682751389 0 0.2184758680590754 0.31184724711422762 0 0.21670572119465931 0.30172893354768798 0 0.2184758680590754 0.31184724711422762 0 0.21670572119465931 0.30172893354768798 0 0.20632342479934371 0.30585855598863948 0 0.21670572119465931 0.30172893354768798 0 0.20632342479934371 0.30585855598863948 0 0.21141614329998781 0.29390938293380992 0 0.20632342479934371 0.30585855598863948 0 0.21141614329998781 0.29390938293380992 0 0.2042452804315445 0.29308429151921322 0 0.21559138507808229 0.27635001083075639 0 0.21985426169801439 0.28935406669317137 0 0.2104384150331686 0.28649738738125968 0 0.21985426169801439 0.28935406669317137 0 0.21141614329998781 0.29390938293380992 0 0.2104384150331686 0.28649738738125968 0 0.21985426169801439 0.28935406669317137 0 0.21670572119465931 0.30172893354768798 0 0.21141614329998781 0.29390938293380992 0 0.21141614329998781 0.29390938293380992 0 0.2042452804315445 0.29308429151921322 0 0.2104384150331686 0.28649738738125968 0 0.2042452804315445 0.29308429151921322 0 0.2104384150331686 0.28649738738125968 0 0.20037669147028589 0.28371892366973078 0 0.21559138507808229 0.27635001083075639 0 0.2104384150331686 0.28649738738125968 0 0.20037669147028589 0.28371892366973078 0 0.20212350544635149 0.27452240688285762 0 0.20037669147028589 0.28371892366973078 0 0.1898902111984884 0.29891268329407239 0 0.18677859260729601 0.28760164196875848 0 0.1917381003592612 0.28136787577326228 0 0.1898902111984884 0.29891268329407239 0 0.20037669147028589 0.28371892366973078 0 0.1976595376627992 0.29976589533378561 0 0.1898902111984884 0.29891268329407239 0 0.2042452804315445 0.29308429151921322 0 0.20037669147028589 0.28371892366973078 0 0.1976595376627992 0.29976589533378561 0 0.20212350544635149 0.27452240688285762 0 0.1898902111984884 0.29891268329407239 0 0.20212350544635149 0.27452240688285762 0 0.1917381003592612 0.28136787577326228 0 0.1898902111984884 0.29891268329407239 0 0.20037669147028589 0.28371892366973078 0 0.1898902111984884 0.29891268329407239 0 0.18677859260729601 0.28760164196875848 0 0.1849298445554361 0.28099903695767547 0 0.1917381003592612 0.28136787577326228 0 0.20632342479934371 0.30585855598863948 0 0.19412409721151189 0.30848045781950378 0 0.19635424873152091 0.31866253726922511 0 0.20632342479934371 0.30585855598863948 0 0.1976595376627992 0.29976589533378561 0 0.19412409721151189 0.30848045781950378 0 0.20632342479934371 0.30585855598863948 0 0.2042452804315445 0.29308429151921322 0 0.1976595376627992 0.29976589533378561 0 0.18371952992762389 0.30785332357736089 0 0.1976595376627992 0.29976589533378561 0 0.1898902111984884 0.29891268329407239 0 0.18371952992762389 0.30785332357736089 0 0.19412409721151189 0.30848045781950378 0 0.19635424873152091 0.31866253726922511 0 0.18371952992762389 0.30785332357736089 0 0.1976595376627992 0.29976589533378561 0 0.19412409721151189 0.30848045781950378 0 0.19635424873152091 0.31866253726922511 0 0.19329834396814641 0.33328399686629978 0 0.21150607161232149 0.3245036863190196 0 0.19635424873152091 0.31866253726922511 0 0.19329834396814641 0.33328399686629978 0 0.1818581672390053 0.32281790922797782 0 0.19329834396814641 0.33328399686629978 0 0.20841238186686439 0.34472105417207632 0 0.1876990638134575 0.35190483133425488 0 0.19329834396814641 0.33328399686629978 0 0.21150607161232149 0.3245036863190196 0 0.20841238186686439 0.34472105417207632 0 0.21150607161232149 0.3245036863190196 0 0.22736457019319431 0.33776348264759248 0 0.20841238186686439 0.34472105417207632 0 0.20632342479934371 0.30585855598863948 0 0.19635424873152091 0.31866253726922511 0 0.21150607161232149 0.3245036863190196 0 0.2184758680590754 0.31184724711422762 0 0.20632342479934371 0.30585855598863948 0 0.21150607161232149 0.3245036863190196 0 0.21150607161232149 0.3245036863190196 0 0.22801070301179061 0.32060690690137728 0 0.22736457019319431 0.33776348264759248 0 0.2184758680590754 0.31184724711422762 0 0.21150607161232149 0.3245036863190196 0 0.22801070301179061 0.32060690690137728 0 0.22801070301179061 0.32060690690137728 0 0.22736457019319431 0.33776348264759248 0 0.24490867605631639 0.32967072069511189 0 0.22736457019319431 0.33776348264759248 0 0.24490867605631639 0.32967072069511189 0 0.24521693247762111 0.35027114815259558 0 0.23765651747073049 0.31117848176507701 0 0.22801070301179061 0.32060690690137728 0 0.24490867605631639 0.32967072069511189 0 0.23765651747073049 0.31117848176507701 0 0.24490867605631639 0.32967072069511189 0 0.25114017462525878 0.31153615041935723 0 0.24305895760768401 0.36641304215893011 0 0.24521693247762111 0.35027114815259558 0 0.22613265613425179 0.35680737964537468 0 0.22736457019319431 0.33776348264759248 0 0.24521693247762111 0.35027114815259558 0 0.22613265613425179 0.35680737964537468 0 0.22736457019319431 0.33776348264759248 0 0.22613265613425179 0.35680737964537468 0 0.20841238186686439 0.34472105417207632 0 0.22613265613425179 0.35680737964537468 0 0.20200890290724041 0.36500873302905812 0 0.22860253219506471 0.37841014948266538 0 0.24305895760768401 0.36641304215893011 0 0.22613265613425179 0.35680737964537468 0 0.22860253219506471 0.37841014948266538 0 0.20200890290724041 0.36500873302905812 0 0.22860253219506471 0.37841014948266538 0 0.22613265613425179 0.35680737964537468 0 0.20841238186686439 0.34472105417207632 0 0.20200890290724041 0.36500873302905812 0 0.20841238186686439 0.34472105417207632 0 0.1876990638134575 0.35190483133425488 0 0.20200890290724041 0.36500873302905812 0 0.1876990638134575 0.35190483133425488 0 0.20200890290724041 0.36500873302905812 0 0.17637045729064621 0.37495278481954358 0 0.1876990638134575 0.35190483133425488 0 0.17637045729064621 0.37495278481954358 0 0.16909864488713719 0.35514267549568418 0 0.15975417249048229 0.36968310563447321 0 0.16909864488713719 0.35514267549568418 0 0.14990537096685039 0.36070173528474042 0 0.17637045729064621 0.37495278481954358 0 0.15975417249048229 0.36968310563447321 0 0.16909864488713719 0.35514267549568418 0 0.16909864488713719 0.35514267549568418 0 0.1770056519607103 0.33831974362286749 0 0.1619384281755652 0.34052596047808847 0 0.16909864488713719 0.35514267549568418 0 0.14990537096685039 0.36070173528474042 0 0.15416632756111201 0.34898696826244741 0 0.16909864488713719 0.35514267549568418 0 0.1619384281755652 0.34052596047808847 0 0.15416632756111201 0.34898696826244741 0 0.1876990638134575 0.35190483133425488 0 0.16909864488713719 0.35514267549568418 0 0.1770056519607103 0.33831974362286749 0 0.19329834396814641 0.33328399686629978 0 0.1770056519607103 0.33831974362286749 0 0.1818581672390053 0.32281790922797782 0 0.19329834396814641 0.33328399686629978 0 0.1876990638134575 0.35190483133425488 0 0.1770056519607103 0.33831974362286749 0 0.1770056519607103 0.33831974362286749 0 0.1818581672390053 0.32281790922797782 0 0.1657389141743941 0.32607447656151611 0 0.1818581672390053 0.32281790922797782 0 0.1707678241303611 0.31259989648156872 0 0.1657389141743941 0.32607447656151611 0 0.18371952992762389 0.30785332357736089 0 0.19635424873152091 0.31866253726922511 0 0.1818581672390053 0.32281790922797782 0 0.18371952992762389 0.30785332357736089 0 0.1818581672390053 0.32281790922797782 0 0.1707678241303611 0.31259989648156872 0 0.1707678241303611 0.31259989648156872 0 0.1657389141743941 0.32607447656151611 0 0.16084478468494731 0.31759224325908281 0 0.1657389141743941 0.32607447656151611 0 0.15632698434060879 0.32309477146443721 0 0.16084478468494731 0.31759224325908281 0 0.1657389141743941 0.32607447656151611 0 0.15632698434060879 0.32309477146443721 0 0.1534459738215358 0.33116830427909388 0 0.15847128754916129 0.30901971199088751 0 0.1707678241303611 0.31259989648156872 0 0.16084478468494731 0.31759224325908281 0 0.15847128754916129 0.30901971199088751 0 0.16084478468494731 0.31759224325908281 0 0.1531779528472626 0.31690967251270458 0 0.15632698434060879 0.32309477146443721 0 0.16084478468494731 0.31759224325908281 0 0.1531779528472626 0.31690967251270458 0 0.1770056519607103 0.33831974362286749 0 0.1657389141743941 0.32607447656151611 0 0.1619384281755652 0.34052596047808847 0 0.1657389141743941 0.32607447656151611 0 0.1619384281755652 0.34052596047808847 0 0.1534459738215358 0.33116830427909388 0 0.1619384281755652 0.34052596047808847 0 0.14537830609435001 0.34101383565047871 0 0.15416632756111201 0.34898696826244741 0 0.1619384281755652 0.34052596047808847 0 0.1534459738215358 0.33116830427909388 0 0.14537830609435001 0.34101383565047871 0 0.1534459738215358 0.33116830427909388 0 0.1427633336259623 0.33140140495610498 0 0.14842729617490411 0.32372916070978858 0 0.1534459738215358 0.33116830427909388 0 0.1427633336259623 0.33140140495610498 0 0.14537830609435001 0.34101383565047871 0 0.1427633336259623 0.33140140495610498 0 0.14537830609435001 0.34101383565047871 0 0.13654253772275141 0.33890423694427602 0 0.1483486037307668 0.31106151759990119 0 0.1531779528472626 0.31690967251270458 0 0.14487070829517959 0.31682928085866202 0 0.1531779528472626 0.31690967251270458 0 0.14842729617490411 0.32372916070978858 0 0.14487070829517959 0.31682928085866202 0 0.15632698434060879 0.32309477146443721 0 0.1534459738215358 0.33116830427909388 0 0.14842729617490411 0.32372916070978858 0 0.15632698434060879 0.32309477146443721 0 0.1531779528472626 0.31690967251270458 0 0.14842729617490411 0.32372916070978858 0 0.1427633336259623 0.33140140495610498 0 0.14842729617490411 0.32372916070978858 0 0.1402378637359267 0.32270884290342983 0 0.14842729617490411 0.32372916070978858 0 0.14487070829517959 0.31682928085866202 0 0.1402378637359267 0.32270884290342983 0 0.1483486037307668 0.31106151759990119 0 0.14130712994747449 0.31140798331507108 0 0.14487070829517959 0.31682928085866202 0 0.14130712994747449 0.31140798331507108 0 0.14487070829517959 0.31682928085866202 0 0.13528824775885559 0.3155805734405937 0 0.14487070829517959 0.31682928085866202 0 0.13528824775885559 0.3155805734405937 0 0.1402378637359267 0.32270884290342983 0 0.13528824775885559 0.3155805734405937 0 0.1330765722643745 0.32249408610517011 0 0.1402378637359267 0.32270884290342983 0 0.1330765722643745 0.32249408610517011 0 0.1402378637359267 0.32270884290342983 0 0.13309473665224339 0.33072661256584468 0 0.12375204985912221 0.32702725796552912 0 0.1330765722643745 0.32249408610517011 0 0.13309473665224339 0.33072661256584468 0 0.12375204985912221 0.32702725796552912 0 0.1330765722643745 0.32249408610517011 0 0.12817088130983889 0.317450689473041 0 0.13528824775885559 0.3155805734405937 0 0.1330765722643745 0.32249408610517011 0 0.12817088130983889 0.317450689473041 0 0.1214195525311879 0.31440901896845502 0 0.12900107104525951 0.30968741412501871 0 0.12817088130983889 0.317450689473041 0 0.12900107104525951 0.30968741412501871 0 0.13528824775885559 0.3155805734405937 0 0.12817088130983889 0.317450689473041 0 0.14537830609435001 0.34101383565047871 0 0.13654253772275141 0.33890423694427602 0 0.13685475473781181 0.34959577292381833 0 0.13654253772275141 0.33890423694427602 0 0.1260676383484185 0.3399282146226113 0 0.13685475473781181 0.34959577292381833 0 0.1427633336259623 0.33140140495610498 0 0.13654253772275141 0.33890423694427602 0 0.13309473665224339 0.33072661256584468 0 0.1427633336259623 0.33140140495610498 0 0.1402378637359267 0.32270884290342983 0 0.13309473665224339 0.33072661256584468 0 0.12375204985912221 0.32702725796552912 0 0.13309473665224339 0.33072661256584468 0 0.1260676383484185 0.3399282146226113 0 0.13654253772275141 0.33890423694427602 0 0.13309473665224339 0.33072661256584468 0 0.1260676383484185 0.3399282146226113 0 0.1232256624926347 0.35239419723674059 0 0.13685475473781181 0.34959577292381833 0 0.13271547193899449 0.36524458735671972 0 0.1232256624926347 0.35239419723674059 0 0.1260676383484185 0.3399282146226113 0 0.13685475473781181 0.34959577292381833 0 0.13685475473781181 0.34959577292381833 0 0.13271547193899449 0.36524458735671972 0 0.14990537096685039 0.36070173528474042 0 0.13271547193899449 0.36524458735671972 0 0.14727668153694909 0.37350977329143831 0 0.1384203385310763 0.3853027474406937 0 0.13271547193899449 0.36524458735671972 0 0.14727668153694909 0.37350977329143831 0 0.14990537096685039 0.36070173528474042 0 0.15975417249048229 0.36968310563447321 0 0.14727668153694909 0.37350977329143831 0 0.14990537096685039 0.36070173528474042 0 0.14537830609435001 0.34101383565047871 0 0.13685475473781181 0.34959577292381833 0 0.15416632756111201 0.34898696826244741 0 0.13685475473781181 0.34959577292381833 0 0.14990537096685039 0.36070173528474042 0 0.15416632756111201 0.34898696826244741 0 0.15196678808574959 0.39634912392256672 0 0.1402717845598023 0.40641241395674649 0 0.16129649351817349 0.40676751558544272 0 0.15196678808574959 0.39634912392256672 0 0.1384203385310763 0.3853027474406937 0 0.1402717845598023 0.40641241395674649 0 0.15196678808574959 0.39634912392256672 0 0.15611970777082879 0.38410855928095938 0 0.1384203385310763 0.3853027474406937 0 0.14727668153694909 0.37350977329143831 0 0.15611970777082879 0.38410855928095938 0 0.1384203385310763 0.3853027474406937 0 0.15975417249048229 0.36968310563447321 0 0.14727668153694909 0.37350977329143831 0 0.15611970777082879 0.38410855928095938 0 0.1231373165426977 0.3806134049577457 0 0.13271547193899449 0.36524458735671972 0 0.1384203385310763 0.3853027474406937 0 0.1231373165426977 0.3806134049577457 0 0.1384203385310763 0.3853027474406937 0 0.1271742827044339 0.39597619803598749 0 0.1384203385310763 0.3853027474406937 0 0.1271742827044339 0.39597619803598749 0 0.1402717845598023 0.40641241395674649 0 0.1162621503634904 0.41872732341568758 0 0.1271742827044339 0.39597619803598749 0 0.1402717845598023 0.40641241395674649 0 0.1162621503634904 0.41872732341568758 0 0.1402717845598023 0.40641241395674649 0 0.14380353536204241 0.43078456768362461 0 0.1162621503634904 0.41872732341568758 0 0.14380353536204241 0.43078456768362461 0 0.1205619018159948 0.44674810255646558 0 0.1162621503634904 0.41872732341568758 0 0.13914808732176639 0.43525501877606959 0 0.1162621503634904 0.41872732341568758 0 0.13914808732176639 0.43525501877606959 0 0.14380353536204241 0.43078456768362461 0 0.1402717845598023 0.40641241395674649 0 0.16129649351817349 0.40676751558544272 0 0.1583102357697074 0.42239552662274649 0 0.1402717845598023 0.40641241395674649 0 0.14380353536204241 0.43078456768362461 0 0.1583102357697074 0.42239552662274649 0 0.16129649351817349 0.40676751558544272 0 0.17483444504792359 0.42517132393635743 0 0.1767108048052333 0.40648620419478521 0 0.16129649351817349 0.40676751558544272 0 0.1583102357697074 0.42239552662274649 0 0.17483444504792359 0.42517132393635743 0 0.1583102357697074 0.42239552662274649 0 0.17483444504792359 0.42517132393635743 0 0.1713449203605947 0.44284181195156158 0 0.14380353536204241 0.43078456768362461 0 0.1713449203605947 0.44284181195156158 0 0.14380353536204241 0.43078456768362461 0 0.1583102357697074 0.42239552662274649 0 0.1713449203605947 0.44284181195156158 0 0.17483444504792359 0.42517132393635743 0 0.18216746451451801 0.43740730714955978 0 0.1713449203605947 0.44284181195156158 0 0.17483444504792359 0.42517132393635743 0 0.1713449203605947 0.44284181195156158 0 0.17483444504792359 0.42517132393635743 0 0.1894098998784805 0.41329321868770491 0 0.19020123220431809 0.42989189963497759 0 0.17483444504792359 0.42517132393635743 0 0.18216746451451801 0.43740730714955978 0 0.19020123220431809 0.42989189963497759 0 0.17483444504792359 0.42517132393635743 0 0.1767108048052333 0.40648620419478521 0 0.1894098998784805 0.41329321868770491 0 0.1767108048052333 0.40648620419478521 0 0.16971698500113649 0.39319336099264368 0 0.18829620058045249 0.39400560177177729 0 0.1767108048052333 0.40648620419478521 0 0.18829620058045249 0.39400560177177729 0 0.1894098998784805 0.41329321868770491 0 0.15196678808574959 0.39634912392256672 0 0.15611970777082879 0.38410855928095938 0 0.16971698500113649 0.39319336099264368 0 0.15196678808574959 0.39634912392256672 0 0.16129649351817349 0.40676751558544272 0 0.16971698500113649 0.39319336099264368 0 0.16129649351817349 0.40676751558544272 0 0.1767108048052333 0.40648620419478521 0 0.16971698500113649 0.39319336099264368 0 0.17637045729064621 0.37495278481954358 0 0.15975417249048229 0.36968310563447321 0 0.15611970777082879 0.38410855928095938 0 0.17637045729064621 0.37495278481954358 0 0.15611970777082879 0.38410855928095938 0 0.16971698500113649 0.39319336099264368 0 0.17637045729064621 0.37495278481954358 0 0.16971698500113649 0.39319336099264368 0 0.18829620058045249 0.39400560177177729 0 0.20200890290724041 0.36500873302905812 0 0.18829620058045249 0.39400560177177729 0 0.21022739730807871 0.38998636848418261 0 0.20200890290724041 0.36500873302905812 0 0.17637045729064621 0.37495278481954358 0 0.18829620058045249 0.39400560177177729 0 0.18829620058045249 0.39400560177177729 0 0.21022739730807871 0.38998636848418261 0 0.20498907662426999 0.40636669370009521 0 0.18829620058045249 0.39400560177177729 0 0.20498907662426999 0.40636669370009521 0 0.1894098998784805 0.41329321868770491 0 0.21022739730807871 0.38998636848418261 0 0.225418264115859 0.4045632601918206 0 0.20498907662426999 0.40636669370009521 0 0.20200890290724041 0.36500873302905812 0 0.21022739730807871 0.38998636848418261 0 0.22860253219506471 0.37841014948266538 0 0.21022739730807871 0.38998636848418261 0 0.22860253219506471 0.37841014948266538 0 0.225418264115859 0.4045632601918206 0 0.225418264115859 0.4045632601918206 0 0.2490748840761759 0.41447913741323361 0 0.25519616148288887 0.39181156593627298 0 0.22860253219506471 0.37841014948266538 0 0.225418264115859 0.4045632601918206 0 0.25519616148288887 0.39181156593627298 0 0.22860253219506471 0.37841014948266538 0 0.25519616148288887 0.39181156593627298 0 0.24305895760768401 0.36641304215893011 0 0.22860253219506471 0.37841014948266538 0 0.25519616148288887 0.39181156593627298 0 0.2490748840761759 0.41447913741323361 0 0.23040520055063371 0.42472223384156732 0 0.24517769652138269 0.43868647355565088 0 0.225418264115859 0.4045632601918206 0 0.2490748840761759 0.41447913741323361 0 0.23040520055063371 0.42472223384156732 0 0.225418264115859 0.4045632601918206 0 0.23040520055063371 0.42472223384156732 0 0.20794960100346549 0.42683021087399747 0 0.23040520055063371 0.42472223384156732 0 0.20794960100346549 0.42683021087399747 0 0.2229924843016429 0.43948176305630821 0 0.23040520055063371 0.42472223384156732 0 0.2229924843016429 0.43948176305630821 0 0.24517769652138269 0.43868647355565088 0 0.225418264115859 0.4045632601918206 0 0.20794960100346549 0.42683021087399747 0 0.20498907662426999 0.40636669370009521 0 0.20794960100346549 0.42683021087399747 0 0.20498907662426999 0.40636669370009521 0 0.1894098998784805 0.41329321868770491 0 0.20794960100346549 0.42683021087399747 0 0.19020123220431809 0.42989189963497759 0 0.19426067079655579 0.44330707928475449 0 0.20794960100346549 0.42683021087399747 0 0.1894098998784805 0.41329321868770491 0 0.19020123220431809 0.42989189963497759 0 0.18216746451451801 0.43740730714955978 0 0.19020123220431809 0.42989189963497759 0 0.19426067079655579 0.44330707928475449 0 0.19426067079655579 0.44330707928475449 0 0.1940681668251448 0.45640187690020761 0 0.18254949088188149 0.4477470207382499 0 0.19426067079655579 0.44330707928475449 0 0.1940681668251448 0.45640187690020761 0 0.20814429074563079 0.44944136850783811 0 0.1940681668251448 0.45640187690020761 0 0.20814429074563079 0.44944136850783811 0 0.2039949308663013 0.472197178379127 0 0.1940681668251448 0.45640187690020761 0 0.2039949308663013 0.472197178379127 0 0.18608081776579821 0.46867989557539208 0 0.1940681668251448 0.45640187690020761 0 0.18608081776579821 0.46867989557539208 0 0.18254949088188149 0.4477470207382499 0 0.20814429074563079 0.44944136850783811 0 0.22852149564367849 0.45772005811557609 0 0.2039949308663013 0.472197178379127 0 0.20794960100346549 0.42683021087399747 0 0.19426067079655579 0.44330707928475449 0 0.20814429074563079 0.44944136850783811 0 0.20794960100346549 0.42683021087399747 0 0.20814429074563079 0.44944136850783811 0 0.2229924843016429 0.43948176305630821 0 0.2229924843016429 0.43948176305630821 0 0.22852149564367849 0.45772005811557609 0 0.24517769652138269 0.43868647355565088 0 0.20814429074563079 0.44944136850783811 0 0.2229924843016429 0.43948176305630821 0 0.22852149564367849 0.45772005811557609 0 0.22852149564367849 0.45772005811557609 0 0.2480713074063006 0.45455858161591112 0 0.2508124586903176 0.47172026355836871 0 0.22852149564367849 0.45772005811557609 0 0.2480713074063006 0.45455858161591112 0 0.24517769652138269 0.43868647355565088 0 0.24658834009167641 0.5 0 0.2268462464291012 0.47913099520174052 0 0.2508124586903176 0.47172026355836871 0 0.22852149564367849 0.45772005811557609 0 0.2268462464291012 0.47913099520174052 0 0.2508124586903176 0.47172026355836871 0 0.22852149564367849 0.45772005811557609 0 0.2268462464291012 0.47913099520174052 0 0.2039949308663013 0.472197178379127 0 0.24658834009167641 0.5 0 0.2268462464291012 0.47913099520174052 0 0.21774471386125249 0.5 0 0.2039949308663013 0.472197178379127 0 0.18890108763082861 0.5 0 0.18608081776579821 0.46867989557539208 0 0.21774471386125249 0.5 0 0.2039949308663013 0.472197178379127 0 0.18890108763082861 0.5 0 0.2268462464291012 0.47913099520174052 0 0.21774471386125249 0.5 0 0.2039949308663013 0.472197178379127 0 0.18890108763082861 0.5 0 0.16570119088049859 0.47142090597577962 0 0.18608081776579821 0.46867989557539208 0 0.18890108763082861 0.5 0 0.1600574614004048 0.499999999999998 0 0.16570119088049859 0.47142090597577962 0 0.1600574614004048 0.499999999999998 0 0.16570119088049859 0.47142090597577962 0 0.1600574614004048 0.499999999999998 0 0.16570119088049859 0.47142090597577962 0 0.1473140710794911 0.47841155746419622 0 0.16570119088049859 0.47142090597577962 0 0.18608081776579821 0.46867989557539208 0 0.18254949088188149 0.4477470207382499 0 0.16570119088049859 0.47142090597577962 0 0.18254949088188149 0.4477470207382499 0 0.1713449203605947 0.44284181195156158 0 0.18216746451451801 0.43740730714955978 0 0.19426067079655579 0.44330707928475449 0 0.18254949088188149 0.4477470207382499 0 0.18254949088188149 0.4477470207382499 0 0.1713449203605947 0.44284181195156158 0 0.18216746451451801 0.43740730714955978 0 0.18254949088188149 0.4477470207382499 0 0.1713449203605947 0.44284181195156158 0 0.16570119088049859 0.47142090597577962 0 0.1713449203605947 0.44284181195156158 0 0.16570119088049859 0.47142090597577962 0 0.1713449203605947 0.44284181195156158 0 0.15076126992746861 0.45128164001408699 0 0.16570119088049859 0.47142090597577962 0 0.14979107830043681 0.4659705410046826 0 0.15076126992746861 0.45128164001408699 0 0.14979107830043681 0.4659705410046826 0 0.15076126992746861 0.45128164001408699 0 0.13538778131428869 0.46276806056466779 0 0.13914808732176639 0.43525501877606959 0 0.14380353536204241 0.43078456768362461 0 0.15076126992746861 0.45128164001408699 0 0.14380353536204241 0.43078456768362461 0 0.1713449203605947 0.44284181195156158 0 0.15076126992746861 0.45128164001408699 0 0.13914808732176639 0.43525501877606959 0 0.15076126992746861 0.45128164001408699 0 0.13538778131428869 0.46276806056466779 0 0.13914808732176639 0.43525501877606959 0 0.13538778131428869 0.46276806056466779 0 0.1205619018159948 0.44674810255646558 0 0.13914808732176639 0.43525501877606959 0 0.13538778131428869 0.46276806056466779 0 0.1248616532684987 0.47476888169724352 0 0.1205619018159948 0.44674810255646558 0 0.13538778131428869 0.46276806056466779 0 0.13538778131428869 0.46276806056466779 0 0.13162747530681079 0.49028110235326611 0 0.1248616532684987 0.47476888169724352 0 0.13538778131428869 0.46276806056466779 0 0.13162747530681079 0.49028110235326611 0 0.13538778131428869 0.46276806056466779 0 0.13162747530681079 0.49028110235326611 0 0.1473140710794911 0.47841155746419622 0 0.1248616532684987 0.47476888169724352 0 0.13162747530681079 0.49028110235326611 0 0.1248616532684987 0.47476888169724352 0 0.1287333349596296 0.50000000000000233 0 0.1248616532684987 0.47476888169724352 0 0.13162747530681079 0.49028110235326611 0 0.1287333349596296 0.50000000000000233 0 0.13162747530681079 0.49028110235326611 0 0.1302991587401483 0.50000000000000044 0 0.13162747530681079 0.49028110235326611 0 0.1302991587401483 0.50000000000000044 0 0.13586647714571501 0.50000000000000044 0 0.13162747530681079 0.49028110235326611 0 0.1287333349596296 0.50000000000000233 0 0.1302991587401483 0.50000000000000044 0 0.13162747530681079 0.49028110235326611 0 0.13586647714571501 0.50000000000000044 0 0.14406777576738011 0.49099847585001533 0 0.13162747530681079 0.49028110235326611 0 0.13586647714571501 0.50000000000000044 0 0.1600574614004048 0.499999999999998 0 0.13586647714571501 0.50000000000000044 0 0.14406777576738011 0.49099847585001533 0 0.1600574614004048 0.499999999999998 0 0.14406777576738011 0.49099847585001533 0 0.1473140710794911 0.47841155746419622 0 0.13162747530681079 0.49028110235326611 0 0.14406777576738011 0.49099847585001533 0 0.1473140710794911 0.47841155746419622 0 0.16570119088049859 0.47142090597577962 0 0.14979107830043681 0.4659705410046826 0 0.1473140710794911 0.47841155746419622 0 0.14979107830043681 0.4659705410046826 0 0.13538778131428869 0.46276806056466779 0 0.1473140710794911 0.47841155746419622 0 0.3484716028812469 0.46927922019571022 0 0.3639431844790027 0.47792576209206161 0 0.36215729707138089 0.45952194433731441 0 0.3484716028812469 0.46927922019571022 0 0.34825454286986979 0.4866410253547736 0 0.3639431844790027 0.47792576209206161 0 0.34825454286986979 0.4866410253547736 0 0.36196284501337178 0.5 0 0.3639431844790027 0.47792576209206161 0 0.34825454286986979 0.4866410253547736 0 0.36196284501337178 0.5 0 0.33311921878294798 0.5 0 0.36196284501337178 0.5 0 0.3639431844790027 0.47792576209206161 0 0.38120033573297152 0.48442634992442057 0 0.3639431844790027 0.47792576209206161 0 0.37844435483634198 0.4675903904274426 0 0.38120033573297152 0.48442634992442057 0 0.3639431844790027 0.47792576209206161 0 0.36215729707138089 0.45952194433731441 0 0.37844435483634198 0.4675903904274426 0 0.36215729707138089 0.45952194433731441 0 0.37809165231809289 0.44568724501072521 0 0.37844435483634198 0.4675903904274426 0 0.36215729707138089 0.45952194433731441 0 0.35494335133579169 0.44207750056399991 0 0.37809165231809289 0.44568724501072521 0 0.35494335133579169 0.44207750056399991 0 0.365542703577178 0.42914551292816783 0 0.37809165231809289 0.44568724501072521 0 0.35494335133579169 0.44207750056399991 0 0.33746945485668051 0.4332718215327816 0 0.35494335133579169 0.44207750056399991 0 0.33933393763431879 0.44574212964051668 0 0.33746945485668051 0.4332718215327816 0 0.36215729707138089 0.45952194433731441 0 0.35494335133579169 0.44207750056399991 0 0.34904963657780902 0.45457154773394731 0 0.35494335133579169 0.44207750056399991 0 0.34904963657780902 0.45457154773394731 0 0.33933393763431879 0.44574212964051668 0 0.3484716028812469 0.46927922019571022 0 0.36215729707138089 0.45952194433731441 0 0.34904963657780902 0.45457154773394731 0 0.3484716028812469 0.46927922019571022 0 0.34904963657780902 0.45457154773394731 0 0.33768006752307722 0.45817683321967928 0 0.33768006752307722 0.45817683321967928 0 0.32516604183334019 0.44948070643492349 0 0.3263791186886712 0.4718105620932988 0 0.3484716028812469 0.46927922019571022 0 0.33768006752307722 0.45817683321967928 0 0.3263791186886712 0.4718105620932988 0 0.33933393763431879 0.44574212964051668 0 0.32516604183334019 0.44948070643492349 0 0.33457771181584611 0.43369686048393857 0 0.32516604183334019 0.44948070643492349 0 0.33457771181584611 0.43369686048393857 0 0.33933393763431879 0.44574212964051668 0 0.33457771181584611 0.43369686048393857 0 0.33746945485668051 0.4332718215327816 0 0.34904963657780902 0.45457154773394731 0 0.33768006752307722 0.45817683321967928 0 0.33933393763431879 0.44574212964051668 0 0.33768006752307722 0.45817683321967928 0 0.33933393763431879 0.44574212964051668 0 0.32516604183334019 0.44948070643492349 0 0.32516604183334019 0.44948070643492349 0 0.30610823095482448 0.43788140873538328 0 0.33457771181584611 0.43369686048393857 0 0.32516604183334019 0.44948070643492349 0 0.30909376894118562 0.45443190325323968 0 0.30610823095482448 0.43788140873538328 0 0.32516604183334019 0.44948070643492349 0 0.3263791186886712 0.4718105620932988 0 0.30909376894118562 0.45443190325323968 0 0.3263791186886712 0.4718105620932988 0 0.30059931196992168 0.47005809262963882 0 0.31153103284441203 0.48323920778459489 0 0.3484716028812469 0.46927922019571022 0 0.34825454286986979 0.4866410253547736 0 0.3263791186886712 0.4718105620932988 0 0.34825454286986979 0.4866410253547736 0 0.3263791186886712 0.4718105620932988 0 0.33311921878294798 0.5 0 0.3263791186886712 0.4718105620932988 0 0.33311921878294798 0.5 0 0.31153103284441203 0.48323920778459489 0 0.33311921878294798 0.5 0 0.30427559255252412 0.5 0 0.31153103284441203 0.48323920778459489 0 0.30427559255252412 0.5 0 0.31153103284441203 0.48323920778459489 0 0.29110307967174748 0.48580921065493432 0 0.30059931196992168 0.47005809262963882 0 0.31153103284441203 0.48323920778459489 0 0.29110307967174748 0.48580921065493432 0 0.30059931196992168 0.47005809262963882 0 0.29110307967174748 0.48580921065493432 0 0.27585954767988607 0.47408041721782612 0 0.30427559255252412 0.5 0 0.29110307967174748 0.48580921065493432 0 0.27543196632210021 0.5 0 0.27543196632210021 0.5 0 0.27585954767988607 0.47408041721782612 0 0.26198527678341299 0.48673919500437729 0 0.29110307967174748 0.48580921065493432 0 0.27543196632210021 0.5 0 0.27585954767988607 0.47408041721782612 0 0.27585954767988607 0.47408041721782612 0 0.2508124586903176 0.47172026355836871 0 0.26198527678341299 0.48673919500437729 0 0.24658834009167641 0.5 0 0.2508124586903176 0.47172026355836871 0 0.26198527678341299 0.48673919500437729 0 0.24658834009167641 0.5 0 0.27543196632210021 0.5 0 0.26198527678341299 0.48673919500437729 0 0.2480713074063006 0.45455858161591112 0 0.24517769652138269 0.43868647355565088 0 0.26777357876982372 0.45010753123404867 0 0.24517769652138269 0.43868647355565088 0 0.26777357876982372 0.45010753123404867 0 0.26600993858745892 0.42808938636359573 0 0.2480713074063006 0.45455858161591112 0 0.2508124586903176 0.47172026355836871 0 0.26777357876982372 0.45010753123404867 0 0.27585954767988607 0.47408041721782612 0 0.2508124586903176 0.47172026355836871 0 0.26777357876982372 0.45010753123404867 0 0.27585954767988607 0.47408041721782612 0 0.26777357876982372 0.45010753123404867 0 0.28975077836376328 0.45156795454144122 0 0.26777357876982372 0.45010753123404867 0 0.28975077836376328 0.45156795454144122 0 0.28607917402868899 0.43188291486824332 0 0.28975077836376328 0.45156795454144122 0 0.30610823095482448 0.43788140873538328 0 0.28607917402868899 0.43188291486824332 0 0.30059931196992168 0.47005809262963882 0 0.27585954767988607 0.47408041721782612 0 0.28975077836376328 0.45156795454144122 0 0.3263791186886712 0.4718105620932988 0 0.30059931196992168 0.47005809262963882 0 0.30909376894118562 0.45443190325323968 0 0.30059931196992168 0.47005809262963882 0 0.28975077836376328 0.45156795454144122 0 0.30909376894118562 0.45443190325323968 0 0.28975077836376328 0.45156795454144122 0 0.30909376894118562 0.45443190325323968 0 0.30610823095482448 0.43788140873538328 0 0.30610823095482448 0.43788140873538328 0 0.30869255759955722 0.41877018355733042 0 0.28607917402868899 0.43188291486824332 0 0.3075810200549029 0.4073564129674252 0 0.30869255759955722 0.41877018355733042 0 0.30232024370737348 0.40459188745546998 0 0.31142364564813352 0.41093370315849659 0 0.3075810200549029 0.4073564129674252 0 0.31015955469665918 0.40201373970895371 0 0.31142364564813352 0.41093370315849659 0 0.3075810200549029 0.4073564129674252 0 0.30869255759955722 0.41877018355733042 0 0.30869255759955722 0.41877018355733042 0 0.29605666041485018 0.40551048050067168 0 0.30232024370737348 0.40459188745546998 0 0.30869255759955722 0.41877018355733042 0 0.2819443595412231 0.40529087474680159 0 0.30869255759955722 0.41877018355733042 0 0.2819443595412231 0.40529087474680159 0 0.29605666041485018 0.40551048050067168 0 0.30869255759955722 0.41877018355733042 0 0.28607917402868899 0.43188291486824332 0 0.2819443595412231 0.40529087474680159 0 0.2490748840761759 0.41447913741323361 0 0.26600993858745892 0.42808938636359573 0 0.2819443595412231 0.40529087474680159 0 0.26777357876982372 0.45010753123404867 0 0.28607917402868899 0.43188291486824332 0 0.26600993858745892 0.42808938636359573 0 0.28607917402868899 0.43188291486824332 0 0.26600993858745892 0.42808938636359573 0 0.2819443595412231 0.40529087474680159 0 0.2490748840761759 0.41447913741323361 0 0.24517769652138269 0.43868647355565088 0 0.26600993858745892 0.42808938636359573 0 0.2490748840761759 0.41447913741323361 0 0.25519616148288887 0.39181156593627298 0 0.2819443595412231 0.40529087474680159 0 0.25519616148288887 0.39181156593627298 0 0.2618259464583832 0.36726095095448358 0 0.25519616148288887 0.39181156593627298 0 0.27405714121884811 0.38409687161834088 0 0.2618259464583832 0.36726095095448358 0 0.24305895760768401 0.36641304215893011 0 0.25519616148288887 0.39181156593627298 0 0.2618259464583832 0.36726095095448358 0 0.2490748840761759 0.41447913741323361 0 0.25519616148288887 0.39181156593627298 0 0.27405714121884811 0.38409687161834088 0 0.2819443595412231 0.40529087474680159 0 0.28762179706039948 0.39125587461843808 0 0.25519616148288887 0.39181156593627298 0 0.2819443595412231 0.40529087474680159 0 0.25519616148288887 0.39181156593627298 0 0.27405714121884811 0.38409687161834088 0 0.2819443595412231 0.40529087474680159 0 0.27405714121884811 0.38409687161834088 0 0.28403056220722062 0.37531448917755911 0 0.2737626695690904 0.37327007608818358 0 0.27405714121884811 0.38409687161834088 0 0.28403056220722062 0.37531448917755911 0 0.28762179706039948 0.39125587461843808 0 0.29405085274881382 0.37834813740539031 0 0.28762179706039948 0.39125587461843808 0 0.30049862001061489 0.39881078008944609 0 0.28403056220722062 0.37531448917755911 0 0.29405085274881382 0.37834813740539031 0 0.28762179706039948 0.39125587461843808 0 0.2819443595412231 0.40529087474680159 0 0.28762179706039948 0.39125587461843808 0 0.29316512877403511 0.40022580951085568 0 0.28762179706039948 0.39125587461843808 0 0.29316512877403511 0.40022580951085568 0 0.30049862001061489 0.39881078008944609 0 0.2819443595412231 0.40529087474680159 0 0.29316512877403511 0.40022580951085568 0 0.29605666041485018 0.40551048050067168 0 0.29316512877403511 0.40022580951085568 0 0.29605666041485018 0.40551048050067168 0 0.30042223720462058 0.4004666581126537 0 0.29605666041485018 0.40551048050067168 0 0.30232024370737348 0.40459188745546998 0 0.30042223720462058 0.4004666581126537 0 0.29316512877403511 0.40022580951085568 0 0.30042223720462058 0.4004666581126537 0 0.30049862001061489 0.39881078008944609 0 0.30042223720462058 0.4004666581126537 0 0.30049862001061489 0.39881078008944609 0 0.30232024370737348 0.40459188745546998 0 0.30049862001061489 0.39881078008944609 0 0.30232024370737348 0.40459188745546998 0 0.30049862001061489 0.39881078008944609 0 0.30430913302558388 0.40020258685778032 0 0.30232024370737348 0.40459188745546998 0 0.30042223720462058 0.4004666581126537 0 0.30049862001061489 0.39881078008944609 0 0.30049862001061489 0.39881078008944609 0 0.30098622665836988 0.38824011406760628 0 0.30049862001061489 0.39881078008944609 0 0.30430913302558388 0.40020258685778032 0 0.30098622665836988 0.38824011406760628 0 0.30098622665836988 0.38824011406760628 0 0.30110064445947421 0.38575968774854158 0 0.31262554991773928 0.39787599139405988 0 0.31015955469665918 0.40201373970895371 0 0.30098622665836988 0.38824011406760628 0 0.30110064445947421 0.38575968774854158 0 0.31262554991773928 0.39787599139405988 0 0.30430913302558388 0.40020258685778032 0 0.31015955469665918 0.40201373970895371 0 0.30098622665836988 0.38824011406760628 0 0.31015955469665918 0.40201373970895371 0 0.30098622665836988 0.38824011406760628 0 0.31262554991773928 0.39787599139405988 0 0.3075810200549029 0.4073564129674252 0 0.30232024370737348 0.40459188745546998 0 0.30430913302558388 0.40020258685778032 0 0.3075810200549029 0.4073564129674252 0 0.30430913302558388 0.40020258685778032 0 0.31015955469665918 0.40201373970895371 0 0.29405085274881382 0.37834813740539031 0 0.30049862001061489 0.39881078008944609 0 0.29405085274881382 0.37834813740539031 0 0.30049862001061489 0.39881078008944609 0 0.30098622665836988 0.38824011406760628 0 0.30110064445947421 0.38575968774854158 0 0.30177514978199971 0.3711373061071076 0 0.30110064445947421 0.38575968774854158 0 0.3104817065657739 0.3858680532317833 0 0.30177514978199971 0.3711373061071076 0 0.29405085274881382 0.37834813740539031 0 0.30110064445947421 0.38575968774854158 0 0.30177514978199971 0.3711373061071076 0 0.29405085274881382 0.37834813740539031 0 0.30110064445947421 0.38575968774854158 0 0.29405085274881382 0.37834813740539031 0 0.30098622665836988 0.38824011406760628 0 0.30110064445947421 0.38575968774854158 0 0.29405085274881382 0.37834813740539031 0 0.30098622665836988 0.38824011406760628 0 0.30098622665836988 0.38824011406760628 0 0.30110064445947421 0.38575968774854158 0 0.30110064445947421 0.38575968774854158 0 0.3104817065657739 0.3858680532317833 0 0.31262554991773928 0.39787599139405988 0 0.3104817065657739 0.3858680532317833 0 0.30177514978199971 0.3711373061071076 0 0.3104817065657739 0.3858680532317833 0 0.31717345926189522 0.3709258031848055 0 0.30177514978199971 0.3711373061071076 0 0.3104817065657739 0.3858680532317833 0 0.3376156911696272 0.37620073599141618 0 0.3104817065657739 0.3858680532317833 0 0.3376156911696272 0.37620073599141618 0 0.31717345926189522 0.3709258031848055 0 0.3104817065657739 0.3858680532317833 0 0.3376156911696272 0.37620073599141618 0 0.3351802944883514 0.39738750443412002 0 0.3376156911696272 0.37620073599141618 0 0.3351802944883514 0.39738750443412002 0 0.34879159400795012 0.38769315231290841 0 0.3351802944883514 0.39738750443412002 0 0.33658962428999861 0.41133204962483783 0 0.34988972217452752 0.40801784569160632 0 0.3351802944883514 0.39738750443412002 0 0.32415045537600512 0.40999229503957763 0 0.33658962428999861 0.41133204962483783 0 0.3351802944883514 0.39738750443412002 0 0.31909953512109351 0.40044867980609039 0 0.32415045537600512 0.40999229503957763 0 0.3104817065657739 0.3858680532317833 0 0.3351802944883514 0.39738750443412002 0 0.31909953512109351 0.40044867980609039 0 0.3104817065657739 0.3858680532317833 0 0.31909953512109351 0.40044867980609039 0 0.3104817065657739 0.3858680532317833 0 0.31262554991773928 0.39787599139405988 0 0.31909953512109351 0.40044867980609039 0 0.31262554991773928 0.39787599139405988 0 0.32415045537600512 0.40999229503957763 0 0.31015955469665918 0.40201373970895371 0 0.31262554991773928 0.39787599139405988 0 0.32415045537600512 0.40999229503957763 0 0.31262554991773928 0.39787599139405988 0 0.31909953512109351 0.40044867980609039 0 0.32415045537600512 0.40999229503957763 0 0.31015955469665918 0.40201373970895371 0 0.31933288273494848 0.41578736535030097 0 0.32415045537600512 0.40999229503957763 0 0.31142364564813352 0.41093370315849659 0 0.31015955469665918 0.40201373970895371 0 0.31933288273494848 0.41578736535030097 0 0.30869255759955722 0.41877018355733042 0 0.31933288273494848 0.41578736535030097 0 0.32906281765607392 0.42006619542527468 0 0.31015955469665918 0.40201373970895371 0 0.31933288273494848 0.41578736535030097 0 0.31142364564813352 0.41093370315849659 0 0.30869255759955722 0.41877018355733042 0 0.31933288273494848 0.41578736535030097 0 0.31933288273494848 0.41578736535030097 0 0.32415045537600512 0.40999229503957763 0 0.32906281765607392 0.42006619542527468 0 0.30869255759955722 0.41877018355733042 0 0.33457771181584611 0.43369686048393857 0 0.33544075565789128 0.43224949236785898 0 0.30869255759955722 0.41877018355733042 0 0.33544075565789128 0.43224949236785898 0 0.30610823095482448 0.43788140873538328 0 0.30869255759955722 0.41877018355733042 0 0.33457771181584611 0.43369686048393857 0 0.30869255759955722 0.41877018355733042 0 0.33544075565789128 0.43224949236785898 0 0.32906281765607392 0.42006619542527468 0 0.30610823095482448 0.43788140873538328 0 0.33457771181584611 0.43369686048393857 0 0.33457771181584611 0.43369686048393857 0 0.33544075565789128 0.43224949236785898 0 0.33746945485668051 0.4332718215327816 0 0.33457771181584611 0.43369686048393857 0 0.33544075565789128 0.43224949236785898 0 0.33544075565789128 0.43224949236785898 0 0.33746945485668051 0.4332718215327816 0 0.35001853239939229 0.42365555934674631 0 0.33544075565789128 0.43224949236785898 0 0.33746945485668051 0.4332718215327816 0 0.33457771181584611 0.43369686048393857 0 0.33746945485668051 0.4332718215327816 0 0.33544075565789128 0.43224949236785898 0 0.33658962428999861 0.41133204962483783 0 0.34988972217452752 0.40801784569160632 0 0.33544075565789128 0.43224949236785898 0 0.32906281765607392 0.42006619542527468 0 0.33658962428999861 0.41133204962483783 0 0.33544075565789128 0.43224949236785898 0 0.34988972217452752 0.40801784569160632 0 0.32415045537600512 0.40999229503957763 0 0.32906281765607392 0.42006619542527468 0 0.33658962428999861 0.41133204962483783 0 0.33544075565789128 0.43224949236785898 0 0.34988972217452752 0.40801784569160632 0 0.35001853239939229 0.42365555934674631 0 0.34988972217452752 0.40801784569160632 0 0.36165970526353591 0.41519797525725338 0 0.36412400085156282 0.39702719229323191 0 0.34988972217452752 0.40801784569160632 0 0.35001853239939229 0.42365555934674631 0 0.36165970526353591 0.41519797525725338 0 0.35494335133579169 0.44207750056399991 0 0.33746945485668051 0.4332718215327816 0 0.365542703577178 0.42914551292816783 0 0.33746945485668051 0.4332718215327816 0 0.35001853239939229 0.42365555934674631 0 0.365542703577178 0.42914551292816783 0 0.33746945485668051 0.4332718215327816 0 0.365542703577178 0.42914551292816783 0 0.35001853239939229 0.42365555934674631 0 0.365542703577178 0.42914551292816783 0 0.36165970526353591 0.41519797525725338 0 0.365542703577178 0.42914551292816783 0 0.36165970526353591 0.41519797525725338 0 0.37744029411777058 0.41252948965876268 0 0.36165970526353591 0.41519797525725338 0 0.36412400085156282 0.39702719229323191 0 0.37744029411777058 0.41252948965876268 0 0.36412400085156282 0.39702719229323191 0 0.38026367080056678 0.39066664182047522 0 0.37744029411777058 0.41252948965876268 0 0.34988972217452752 0.40801784569160632 0 0.36412400085156282 0.39702719229323191 0 0.36433868869116592 0.38378619901535488 0 0.36433868869116592 0.38378619901535488 0 0.3773824667175657 0.37546563606013739 0 0.38026367080056678 0.39066664182047522 0 0.36433868869116592 0.38378619901535488 0 0.36474967577348072 0.36653341875104961 0 0.3773824667175657 0.37546563606013739 0 0.36412400085156282 0.39702719229323191 0 0.36433868869116592 0.38378619901535488 0 0.38026367080056678 0.39066664182047522 0 0.36433868869116592 0.38378619901535488 0 0.36474967577348072 0.36653341875104961 0 0.36412400085156282 0.39702719229323191 0 0.36433868869116592 0.38378619901535488 0 0.3376156911696272 0.37620073599141618 0 0.34879159400795012 0.38769315231290841 0 0.36474967577348072 0.36653341875104961 0 0.36433868869116592 0.38378619901535488 0 0.34879159400795012 0.38769315231290841 0 0.36474967577348072 0.36653341875104961 0 0.3351802944883514 0.39738750443412002 0 0.34988972217452752 0.40801784569160632 0 0.34879159400795012 0.38769315231290841 0 0.34988972217452752 0.40801784569160632 0 0.36433868869116592 0.38378619901535488 0 0.34988972217452752 0.40801784569160632 0 0.36433868869116592 0.38378619901535488 0 0.34879159400795012 0.38769315231290841 0 0.34699100967064078 0.35539672769273539 0 0.36474967577348072 0.36653341875104961 0 0.36518945593320651 0.34509967395937191 0 0.34699100967064078 0.35539672769273539 0 0.36518945593320651 0.34509967395937191 0 0.348137396692076 0.34077307725183559 0 0.3376156911696272 0.37620073599141618 0 0.34699100967064078 0.35539672769273539 0 0.36474967577348072 0.36653341875104961 0 0.3376156911696272 0.37620073599141618 0 0.36474967577348072 0.36653341875104961 0 0.36474967577348072 0.36653341875104961 0 0.36518945593320651 0.34509967395937191 0 0.36474967577348072 0.36653341875104961 0 0.36518945593320651 0.34509967395937191 0 0.3855881021147175 0.35910908792858098 0 0.36518945593320651 0.34509967395937191 0 0.36562923609293069 0.32366592916769399 0 0.36518945593320651 0.34509967395937191 0 0.36562923609293069 0.32366592916769399 0 0.348137396692076 0.34077307725183559 0 0.36518945593320651 0.34509967395937191 0 0.36562923609293069 0.32366592916769399 0 0.38128435600444488 0.32837669887387311 0 0.36562923609293069 0.32366592916769399 0 0.36606901625265492 0.30223218437601618 0 0.38242981621443428 0.31397380775534678 0 0.36562923609293069 0.32366592916769399 0 0.36606901625265492 0.30223218437601618 0 0.36562923609293069 0.32366592916769399 0 0.34238706329751362 0.32476320095938682 0 0.35183379698966949 0.31056891257481539 0 0.36562923609293069 0.32366592916769399 0 0.348137396692076 0.34077307725183559 0 0.34238706329751362 0.32476320095938682 0 0.348137396692076 0.34077307725183559 0 0.33072504187423118 0.34237289876026822 0 0.34238706329751362 0.32476320095938682 0 0.33072504187423118 0.34237289876026822 0 0.34238706329751362 0.32476320095938682 0 0.32122702449841589 0.32177081607522939 0 0.34238706329751362 0.32476320095938682 0 0.33644502425256478 0.30910566618648461 0 0.35183379698966949 0.31056891257481539 0 0.34238706329751362 0.32476320095938682 0 0.32122702449841589 0.32177081607522939 0 0.33644502425256478 0.30910566618648461 0 0.32122702449841589 0.32177081607522939 0 0.31445651652981632 0.33878768779705848 0 0.30372390616191358 0.32889084998335888 0 0.33072504187423118 0.34237289876026822 0 0.32122702449841589 0.32177081607522939 0 0.31445651652981632 0.33878768779705848 0 0.33072504187423118 0.34237289876026822 0 0.31445651652981632 0.33878768779705848 0 0.31594857135045817 0.35062531106266931 0 0.33072504187423118 0.34237289876026822 0 0.31594857135045817 0.35062531106266931 0 0.32442852787466708 0.36030442639367111 0 0.31594857135045817 0.35062531106266931 0 0.32442852787466708 0.36030442639367111 0 0.31156622091740832 0.36111849420004938 0 0.34699100967064078 0.35539672769273539 0 0.348137396692076 0.34077307725183559 0 0.33072504187423118 0.34237289876026822 0 0.34699100967064078 0.35539672769273539 0 0.33072504187423118 0.34237289876026822 0 0.32442852787466708 0.36030442639367111 0 0.3376156911696272 0.37620073599141618 0 0.34699100967064078 0.35539672769273539 0 0.32442852787466708 0.36030442639367111 0 0.3376156911696272 0.37620073599141618 0 0.32442852787466708 0.36030442639367111 0 0.31717345926189522 0.3709258031848055 0 0.32442852787466708 0.36030442639367111 0 0.31717345926189522 0.3709258031848055 0 0.31156622091740832 0.36111849420004938 0 0.30177514978199971 0.3711373061071076 0 0.30274952797195698 0.35001407804523332 0 0.31717345926189522 0.3709258031848055 0 0.31156622091740832 0.36111849420004938 0 0.30177514978199971 0.3711373061071076 0 0.31156622091740832 0.36111849420004938 0 0.30177514978199971 0.3711373061071076 0 0.30274952797195698 0.35001407804523332 0 0.30177514978199971 0.3711373061071076 0 0.30274952797195698 0.35001407804523332 0 0.29106955940472562 0.3530243656434488 0 0.31445651652981632 0.33878768779705848 0 0.31594857135045817 0.35062531106266931 0 0.30274952797195698 0.35001407804523332 0 0.31594857135045817 0.35062531106266931 0 0.31156622091740832 0.36111849420004938 0 0.30274952797195698 0.35001407804523332 0 0.29106955940472562 0.3530243656434488 0 0.28705150305193838 0.35613499197806497 0 0.28036396902745148 0.33491142517978989 0 0.28705150305193838 0.35613499197806497 0 0.28036396902745148 0.33491142517978989 0 0.28705150305193838 0.35613499197806497 0 0.27644360280618341 0.34191623842927221 0 0.28036396902745148 0.33491142517978989 0 0.29106955940472562 0.3530243656434488 0 0.28036396902745148 0.33491142517978989 0 0.30274952797195698 0.35001407804523332 0 0.29106955940472562 0.3530243656434488 0 0.29374099595638509 0.3392252011883215 0 0.28705150305193838 0.35613499197806497 0 0.28458867991473008 0.36361942358965982 0 0.27543832275303448 0.34988028840297991 0 0.29405085274881382 0.37834813740539031 0 0.28705150305193838 0.35613499197806497 0 0.28458867991473008 0.36361942358965982 0 0.29405085274881382 0.37834813740539031 0 0.28705150305193838 0.35613499197806497 0 0.30177514978199971 0.3711373061071076 0 0.29106955940472562 0.3530243656434488 0 0.29405085274881382 0.37834813740539031 0 0.30177514978199971 0.3711373061071076 0 0.28705150305193838 0.35613499197806497 0 0.30177514978199971 0.3711373061071076 0 0.29106955940472562 0.3530243656434488 0 0.28705150305193838 0.35613499197806497 0 0.29405085274881382 0.37834813740539031 0 0.28458867991473008 0.36361942358965982 0 0.28403056220722062 0.37531448917755911 0 0.2815017213106239 0.3651550498314205 0 0.27898286169525299 0.37041503512408969 0 0.29405085274881382 0.37834813740539031 0 0.2815017213106239 0.3651550498314205 0 0.28403056220722062 0.37531448917755911 0 0.29405085274881382 0.37834813740539031 0 0.2815017213106239 0.3651550498314205 0 0.29405085274881382 0.37834813740539031 0 0.28458867991473008 0.36361942358965982 0 0.2815017213106239 0.3651550498314205 0 0.28403056220722062 0.37531448917755911 0 0.27898286169525299 0.37041503512408969 0 0.2737626695690904 0.37327007608818358 0 0.27663649369407689 0.36792052539919551 0 0.2737626695690904 0.37327007608818358 0 0.27125000512352843 0.36234153133647429 0 0.27405714121884811 0.38409687161834088 0 0.2737626695690904 0.37327007608818358 0 0.2618259464583832 0.36726095095448358 0 0.2815017213106239 0.3651550498314205 0 0.27898286169525299 0.37041503512408969 0 0.27663649369407689 0.36792052539919551 0 0.27898286169525299 0.37041503512408969 0 0.27663649369407689 0.36792052539919551 0 0.2737626695690904 0.37327007608818358 0 0.2737626695690904 0.37327007608818358 0 0.27125000512352843 0.36234153133647429 0 0.2618259464583832 0.36726095095448358 0 0.27125000512352843 0.36234153133647429 0 0.26895258987243392 0.3519619622574508 0 0.2618259464583832 0.36726095095448358 0 0.2815017213106239 0.3651550498314205 0 0.27125000512352843 0.36234153133647429 0 0.26895258987243392 0.3519619622574508 0 0.2815017213106239 0.3651550498314205 0 0.27663649369407689 0.36792052539919551 0 0.27125000512352843 0.36234153133647429 0 0.28458867991473008 0.36361942358965982 0 0.2815017213106239 0.3651550498314205 0 0.27543832275303448 0.34988028840297991 0 0.2815017213106239 0.3651550498314205 0 0.26895258987243392 0.3519619622574508 0 0.28458867991473008 0.36361942358965982 0 0.27543832275303448 0.34988028840297991 0 0.26895258987243392 0.3519619622574508 0 0.2618259464583832 0.36726095095448358 0 0.2684557314338783 0.34271033597269462 0 0.2815017213106239 0.3651550498314205 0 0.27543832275303448 0.34988028840297991 0 0.26895258987243392 0.3519619622574508 0 0.28705150305193838 0.35613499197806497 0 0.27543832275303448 0.34988028840297991 0 0.27644360280618341 0.34191623842927221 0 0.27543832275303448 0.34988028840297991 0 0.2684557314338783 0.34271033597269462 0 0.27644360280618341 0.34191623842927221 0 0.27543832275303448 0.34988028840297991 0 0.26895258987243392 0.3519619622574508 0 0.2684557314338783 0.34271033597269462 0 0.2618259464583832 0.36726095095448358 0 0.2684557314338783 0.34271033597269462 0 0.24521693247762111 0.35027114815259558 0 0.2618259464583832 0.36726095095448358 0 0.2684557314338783 0.34271033597269462 0 0.24305895760768401 0.36641304215893011 0 0.24521693247762111 0.35027114815259558 0 0.2618259464583832 0.36726095095448358 0 0.24490867605631639 0.32967072069511189 0 0.26050839607327853 0.32387463406168998 0 0.25114017462525878 0.31153615041935723 0 0.26050839607327853 0.32387463406168998 0 0.25114017462525878 0.31153615041935723 0 0.26342424027676908 0.31148804944983333 0 0.24490867605631639 0.32967072069511189 0 0.26050839607327853 0.32387463406168998 0 0.2684557314338783 0.34271033597269462 0 0.24490867605631639 0.32967072069511189 0 0.24521693247762111 0.35027114815259558 0 0.2684557314338783 0.34271033597269462 0 0.26050839607327853 0.32387463406168998 0 0.2684557314338783 0.34271033597269462 0 0.27508551640937329 0.31815972099090539 0 0.2684557314338783 0.34271033597269462 0 0.27508551640937329 0.31815972099090539 0 0.2684557314338783 0.34271033597269462 0 0.27787730485363338 0.33070420273373929 0 0.27508551640937329 0.31815972099090539 0 0.2684557314338783 0.34271033597269462 0 0.27644360280618341 0.34191623842927221 0 0.27787730485363338 0.33070420273373929 0 0.27644360280618341 0.34191623842927221 0 0.28036396902745148 0.33491142517978989 0 0.27787730485363338 0.33070420273373929 0 0.28036396902745148 0.33491142517978989 0 0.27787730485363338 0.33070420273373929 0 0.28036396902745148 0.33491142517978989 0 0.27787730485363338 0.33070420273373929 0 0.27508551640937329 0.31815972099090539 0 0.28036396902745148 0.33491142517978989 0 0.27508551640937329 0.31815972099090539 0 0.26050839607327853 0.32387463406168998 0 0.27508551640937329 0.31815972099090539 0 0.26342424027676908 0.31148804944983333 0 0.27584787744150779 0.31533663815394608 0 0.27508551640937329 0.31815972099090539 0 0.2839587577339367 0.31315639516335231 0 0.27584787744150779 0.31533663815394608 0 0.27508551640937329 0.31815972099090539 0 0.28036396902745148 0.33491142517978989 0 0.27508551640937329 0.31815972099090539 0 0.28884331716543121 0.32432796479040632 0 0.27508551640937329 0.31815972099090539 0 0.2839587577339367 0.31315639516335231 0 0.28884331716543121 0.32432796479040632 0 0.2839587577339367 0.31315639516335231 0 0.28884331716543121 0.32432796479040632 0 0.29436859405188742 0.31561290386725788 0 0.28884331716543121 0.32432796479040632 0 0.29436859405188742 0.31561290386725788 0 0.30372390616191358 0.32889084998335888 0 0.29106955940472562 0.3530243656434488 0 0.28036396902745148 0.33491142517978989 0 0.29374099595638509 0.3392252011883215 0 0.28036396902745148 0.33491142517978989 0 0.28884331716543121 0.32432796479040632 0 0.29374099595638509 0.3392252011883215 0 0.28884331716543121 0.32432796479040632 0 0.29374099595638509 0.3392252011883215 0 0.30372390616191358 0.32889084998335888 0 0.30274952797195698 0.35001407804523332 0 0.29374099595638509 0.3392252011883215 0 0.30372390616191358 0.32889084998335888 0 0.31445651652981632 0.33878768779705848 0 0.30274952797195698 0.35001407804523332 0 0.30372390616191358 0.32889084998335888 0 0.30274952797195698 0.35001407804523332 0 0.30372390616191358 0.32889084998335888 0 0.29436859405188742 0.31561290386725788 0 0.30372390616191358 0.32889084998335888 0 0.30469828435187041 0.30776762192148471 0 0.32122702449841589 0.32177081607522939 0 0.30372390616191358 0.32889084998335888 0 0.30469828435187041 0.30776762192148471 0 0.30372390616191358 0.32889084998335888 0 0.30469828435187041 0.30776762192148471 0 0.30469828435187041 0.30776762192148471 0 0.29887142377560671 0.29447355700322281 0 0.31975384086217118 0.29390073052843008 0 0.30469828435187041 0.30776762192148471 0 0.29887142377560671 0.29447355700322281 0 0.29061870484628499 0.30392168747768772 0 0.29887142377560671 0.29447355700322281 0 0.29803417524575498 0.27809430922643119 0 0.31975384086217118 0.29390073052843008 0 0.29887142377560671 0.29447355700322281 0 0.28125211357195179 0.28868343586208051 0 0.29803417524575498 0.27809430922643119 0 0.29887142377560671 0.29447355700322281 0 0.28125211357195179 0.28868343586208051 0 0.29061870484628499 0.30392168747768772 0 0.29436859405188742 0.31561290386725788 0 0.30469828435187041 0.30776762192148471 0 0.29061870484628499 0.30392168747768772 0 0.2839587577339367 0.31315639516335231 0 0.29436859405188742 0.31561290386725788 0 0.29061870484628499 0.30392168747768772 0 0.28125211357195179 0.28868343586208051 0 0.29061870484628499 0.30392168747768772 0 0.27979091010679558 0.3031930520058399 0 0.2839587577339367 0.31315639516335231 0 0.29061870484628499 0.30392168747768772 0 0.27979091010679558 0.3031930520058399 0 0.27584787744150779 0.31533663815394608 0 0.2839587577339367 0.31315639516335231 0 0.27979091010679558 0.3031930520058399 0 0.27584787744150779 0.31533663815394608 0 0.27979091010679558 0.3031930520058399 0 0.26696287399916629 0.2923816923273807 0 0.27508551640937329 0.31815972099090539 0 0.26696287399916629 0.2923816923273807 0 0.27508551640937329 0.31815972099090539 0 0.26696287399916629 0.2923816923273807 0 0.26342424027676908 0.31148804944983333 0 0.27584787744150779 0.31533663815394608 0 0.27508551640937329 0.31815972099090539 0 0.26696287399916629 0.2923816923273807 0 0.28125211357195179 0.28868343586208051 0 0.26696287399916629 0.2923816923273807 0 0.26185531842249993 0.2787869231154117 0 0.28125211357195179 0.28868343586208051 0 0.27979091010679558 0.3031930520058399 0 0.26696287399916629 0.2923816923273807 0 0.2454028482605469 0.29267792886045368 0 0.26696287399916629 0.2923816923273807 0 0.26185531842249993 0.2787869231154117 0 0.24818821145747599 0.27522177653690871 0 0.2454028482605469 0.29267792886045368 0 0.26185531842249993 0.2787869231154117 0 0.26696287399916629 0.2923816923273807 0 0.25114017462525878 0.31153615041935723 0 0.26342424027676908 0.31148804944983333 0 0.2454028482605469 0.29267792886045368 0 0.26696287399916629 0.2923816923273807 0 0.25114017462525878 0.31153615041935723 0 0.25404003316197471 0.25208422786308371 0 0.25530776412370298 0.26639583896058622 0 0.27103688063193948 0.26427270241964718 0 0.24090080429007341 0.26281353644332878 0 0.25404003316197471 0.25208422786308371 0 0.25530776412370298 0.26639583896058622 0 0.25530776412370298 0.26639583896058622 0 0.26185531842249993 0.2787869231154117 0 0.27103688063193948 0.26427270241964718 0 0.24818821145747599 0.27522177653690871 0 0.25530776412370298 0.26639583896058622 0 0.26185531842249993 0.2787869231154117 0 0.28125211357195179 0.28868343586208051 0 0.26185531842249993 0.2787869231154117 0 0.27103688063193948 0.26427270241964718 0 0.25404003316197471 0.25208422786308371 0 0.27103688063193948 0.26427270241964718 0 0.27355486584907379 0.24364475180805101 0 0.27103688063193948 0.26427270241964718 0 0.29692855903906679 0.25537037528416417 0 0.27355486584907379 0.24364475180805101 0 0.27103688063193948 0.26427270241964718 0 0.29803417524575498 0.27809430922643119 0 0.29692855903906679 0.25537037528416417 0 0.28125211357195179 0.28868343586208051 0 0.27103688063193948 0.26427270241964718 0 0.29803417524575498 0.27809430922643119 0 0.29803417524575498 0.27809430922643119 0 0.29692855903906679 0.25537037528416417 0 0.32239972953691409 0.26902358330948362 0 0.29692855903906679 0.25537037528416417 0 0.32239972953691409 0.26902358330948362 0 0.32448256229391081 0.244023600812113 0 0.34859232732963041 0.2656914204712259 0 0.32448256229391081 0.244023600812113 0 0.35052125483258301 0.2434514759103418 0 0.32239972953691409 0.26902358330948362 0 0.34859232732963041 0.2656914204712259 0 0.32448256229391081 0.244023600812113 0 0.32239972953691409 0.26902358330948362 0 0.34580587121379802 0.29027056413174801 0 0.34859232732963041 0.2656914204712259 0 0.32239972953691409 0.26902358330948362 0 0.34859232732963041 0.2656914204712259 0 0.29803417524575498 0.27809430922643119 0 0.32239972953691409 0.26902358330948362 0 0.31975384086217118 0.29390073052843008 0 0.32122702449841589 0.32177081607522939 0 0.30469828435187041 0.30776762192148471 0 0.31975384086217118 0.29390073052843008 0 0.32122702449841589 0.32177081607522939 0 0.31975384086217118 0.29390073052843008 0 0.33644502425256478 0.30910566618648461 0 0.31975384086217118 0.29390073052843008 0 0.33644502425256478 0.30910566618648461 0 0.34580587121379802 0.29027056413174801 0 0.32239972953691409 0.26902358330948362 0 0.31975384086217118 0.29390073052843008 0 0.34580587121379802 0.29027056413174801 0 0.34580587121379802 0.29027056413174801 0 0.35183379698966949 0.31056891257481539 0 0.36606901625265492 0.30223218437601618 0 0.33644502425256478 0.30910566618648461 0 0.34580587121379802 0.29027056413174801 0 0.35183379698966949 0.31056891257481539 0 0.36562923609293069 0.32366592916769399 0 0.35183379698966949 0.31056891257481539 0 0.36606901625265492 0.30223218437601618 0 0.36606901625265492 0.30223218437601618 0 0.37288852905391068 0.28307277276217568 0 0.38313639778678782 0.29894980138166888 0 0.34580587121379802 0.29027056413174801 0 0.36606901625265492 0.30223218437601618 0 0.37288852905391068 0.28307277276217568 0 0.37288852905391068 0.28307277276217568 0 0.37478492512234668 0.26235925763296819 0 0.34859232732963041 0.2656914204712259 0 0.37478492512234668 0.26235925763296819 0 0.34859232732963041 0.2656914204712259 0 0.37478492512234668 0.26235925763296819 0 0.34859232732963041 0.2656914204712259 0 0.35052125483258301 0.2434514759103418 0 0.34580587121379802 0.29027056413174801 0 0.37288852905391068 0.28307277276217568 0 0.34859232732963041 0.2656914204712259 0 0.40237095019481112 0.27711100542787093 0 0.40097752291506289 0.25902709479471048 0 0.38795285511664351 0.27501277358291848 0 0.40237095019481112 0.27711100542787093 0 0.38795285511664351 0.27501277358291848 0 0.39245341439736259 0.28869000139839213 0 0.37478492512234668 0.26235925763296819 0 0.40097752291506289 0.25902709479471048 0 0.37478492512234668 0.26235925763296819 0 0.40097752291506289 0.25902709479471048 0 0.38795285511664351 0.27501277358291848 0 0.37478492512234668 0.26235925763296819 0 0.40097752291506289 0.25902709479471048 0 0.39333580902427501 0.24081282939082621 0 0.37288852905391068 0.28307277276217568 0 0.37478492512234668 0.26235925763296819 0 0.38795285511664351 0.27501277358291848 0 0.37288852905391068 0.28307277276217568 0 0.38795285511664351 0.27501277358291848 0 0.39245341439736259 0.28869000139839213 0 0.37288852905391068 0.28307277276217568 0 0.38313639778678782 0.29894980138166888 0 0.39245341439736259 0.28869000139839213 0 0.38313639778678782 0.29894980138166888 0 0.40184121301557668 0.30678024061641418 0 0.38242981621443428 0.31397380775534678 0 0.36606901625265492 0.30223218437601618 0 0.38313639778678782 0.29894980138166888 0 0.38242981621443428 0.31397380775534678 0 0.38313639778678782 0.29894980138166888 0 0.40184121301557668 0.30678024061641418 0 0.39245341439736259 0.28869000139839213 0 0.40184121301557668 0.30678024061641418 0 0.39245341439736259 0.28869000139839213 0 0.4080647950624654 0.29173952990842672 0 0.40237095019481112 0.27711100542787093 0 0.39245341439736259 0.28869000139839213 0 0.4080647950624654 0.29173952990842672 0 0.4080647950624654 0.29173952990842672 0 0.42111158276914429 0.29961990628964941 0 0.41801819212357011 0.2740782959756311 0 0.42111158276914429 0.29961990628964941 0 0.41801819212357011 0.2740782959756311 0 0.42111158276914429 0.29961990628964941 0 0.41431845905081632 0.31211616404088999 0 0.42420497341471841 0.32516151660366771 0 0.40184121301557668 0.30678024061641418 0 0.41169384258873692 0.3030193229363472 0 0.41431845905081632 0.31211616404088999 0 0.4080647950624654 0.29173952990842672 0 0.41169384258873692 0.3030193229363472 0 0.42111158276914429 0.29961990628964941 0 0.40184121301557668 0.30678024061641418 0 0.4080647950624654 0.29173952990842672 0 0.41169384258873692 0.3030193229363472 0 0.41169384258873692 0.3030193229363472 0 0.42111158276914429 0.29961990628964941 0 0.41431845905081632 0.31211616404088999 0 0.42111158276914429 0.29961990628964941 0 0.42420497341471841 0.32516151660366771 0 0.42111158276914429 0.29961990628964941 0 0.42968026012840121 0.30115694743242971 0 0.43130474666914309 0.31304161877190062 0 0.42968026012840121 0.30115694743242971 0 0.44258646999382029 0.30990113159980692 0 0.42968026012840121 0.30115694743242971 0 0.44258646999382029 0.30990113159980692 0 0.43130474666914309 0.31304161877190062 0 0.42111158276914429 0.29961990628964941 0 0.42800801910193731 0.28582653817902792 0 0.41801819212357011 0.2740782959756311 0 0.42968026012840121 0.30115694743242971 0 0.42800801910193731 0.28582653817902792 0 0.44797459424715858 0.28113195035900113 0 0.42111158276914429 0.29961990628964941 0 0.42968026012840121 0.30115694743242971 0 0.42800801910193731 0.28582653817902792 0 0.4349067289361882 0.26981889711766149 0 0.41801819212357011 0.2740782959756311 0 0.42717012070777932 0.25569493195645271 0 0.42800801910193731 0.28582653817902792 0 0.4349067289361882 0.26981889711766149 0 0.44797459424715858 0.28113195035900113 0 0.42800801910193731 0.28582653817902792 0 0.4349067289361882 0.26981889711766149 0 0.41801819212357011 0.2740782959756311 0 0.40237095019481112 0.27711100542787093 0 0.4080647950624654 0.29173952990842672 0 0.41801819212357011 0.2740782959756311 0 0.40237095019481112 0.27711100542787093 0 0.40097752291506289 0.25902709479471048 0 0.41801819212357011 0.2740782959756311 0 0.40097752291506289 0.25902709479471048 0 0.42717012070777932 0.25569493195645271 0 0.40097752291506289 0.25902709479471048 0 0.41801819212357011 0.2740782959756311 0 0.42717012070777932 0.25569493195645271 0 0.40097752291506289 0.25902709479471048 0 0.42717012070777932 0.25569493195645271 0 0.41286841049430861 0.24788583003777651 0 0.42717012070777932 0.25569493195645271 0 0.45336271850049548 0.25236276911819511 0 0.42717012070777932 0.25569493195645271 0 0.45336271850049548 0.25236276911819511 0 0.44134696414428898 0.24814556957704689 0 0.4349067289361882 0.26981889711766149 0 0.42717012070777932 0.25569493195645271 0 0.45336271850049548 0.25236276911819511 0 0.44797459424715858 0.28113195035900113 0 0.45336271850049548 0.25236276911819511 0 0.4349067289361882 0.26981889711766149 0 0.44797459424715858 0.28113195035900113 0 0.45336271850049548 0.25236276911819511 0 0.44797459424715858 0.28113195035900113 0 0.46860043072286323 0.26090172283992602 0 0.47518926652314969 0.27560515809727743 0 0.44797459424715858 0.28113195035900113 0 0.45336271850049548 0.25236276911819511 0 0.46860043072286323 0.26090172283992602 0 0.45336271850049548 0.25236276911819511 0 0.46860043072286323 0.26090172283992602 0 0.48180965237011408 0.2487438147612096 0 0.45336271850049548 0.25236276911819511 0 0.48180965237011408 0.2487438147612096 0 0.46860043072286323 0.26090172283992602 0 0.48241006781490819 0.26268970127635521 0 0.48180965237011408 0.2487438147612096 0 0.46860043072286323 0.26090172283992602 0 0.48241006781490819 0.26268970127635521 0 0.47518926652314969 0.27560515809727743 0 0.48241006781490819 0.26268970127635521 0 0.47518926652314969 0.27560515809727743 0 0.48864569132575902 0.27555399191102209 0 0.48864569132575902 0.27555399191102209 0 0.5 0.25788891558126559 0 0.5 0.28784398070901179 0 0.48241006781490819 0.26268970127635521 0 0.5 0.25788891558126559 0 0.48180965237011408 0.2487438147612096 0 0.48241006781490819 0.26268970127635521 0 0.48864569132575902 0.27555399191102209 0 0.5 0.25788891558126559 0 0.49687855588093471 0.30562269631142192 0 0.5 0.28784398070901179 0 0.5 0.31779904583675789 0 0.48491490847636098 0.30901068293115042 0 0.49687855588093471 0.30562269631142192 0 0.48562912229073679 0.29374220389120048 0 0.48491490847636098 0.30901068293115042 0 0.49687855588093471 0.30562269631142192 0 0.48893996521802741 0.32077530068026477 0 0.48864569132575902 0.27555399191102209 0 0.5 0.28784398070901179 0 0.48562912229073679 0.29374220389120048 0 0.49687855588093471 0.30562269631142192 0 0.5 0.28784398070901179 0 0.48562912229073679 0.29374220389120048 0 0.47518926652314969 0.27560515809727743 0 0.48864569132575902 0.27555399191102209 0 0.48562912229073679 0.29374220389120048 0 0.47518926652314969 0.27560515809727743 0 0.48562912229073679 0.29374220389120048 0 0.46816558308298489 0.29083511245767268 0 0.48562912229073679 0.29374220389120048 0 0.47222103054853309 0.30536857664361422 0 0.46816558308298489 0.29083511245767268 0 0.48491490847636098 0.30901068293115042 0 0.48562912229073679 0.29374220389120048 0 0.47222103054853309 0.30536857664361422 0 0.48491490847636098 0.30901068293115042 0 0.47222103054853309 0.30536857664361422 0 0.47648252662976798 0.31886183994020412 0 0.47222103054853309 0.30536857664361422 0 0.45866337291811637 0.30169365927876157 0 0.46179392227446953 0.32291451832445861 0 0.45866337291811637 0.30169365927876157 0 0.44258646999382029 0.30990113159980692 0 0.46179392227446953 0.32291451832445861 0 0.47222103054853309 0.30536857664361422 0 0.45866337291811637 0.30169365927876157 0 0.46816558308298489 0.29083511245767268 0 0.44797459424715858 0.28113195035900113 0 0.45866337291811637 0.30169365927876157 0 0.46816558308298489 0.29083511245767268 0 0.44797459424715858 0.28113195035900113 0 0.47518926652314969 0.27560515809727743 0 0.46816558308298489 0.29083511245767268 0 0.44797459424715858 0.28113195035900113 0 0.44258646999382029 0.30990113159980692 0 0.42968026012840121 0.30115694743242971 0 0.44797459424715858 0.28113195035900113 0 0.44258646999382029 0.30990113159980692 0 0.44797459424715858 0.28113195035900113 0 0.45866337291811637 0.30169365927876157 0 0.44258646999382029 0.30990113159980692 0 0.44258646999382029 0.30990113159980692 0 0.46179392227446953 0.32291451832445861 0 0.44258646999382029 0.30990113159980692 0 0.43894044703962998 0.32936859193394902 0 0.46179392227446953 0.32291451832445861 0 0.44258646999382029 0.30990113159980692 0 0.43894044703962998 0.32936859193394902 0 0.44258646999382029 0.30990113159980692 0 0.43894044703962998 0.32936859193394902 0 0.43130474666914309 0.31304161877190062 0 0.43894044703962998 0.32936859193394902 0 0.45181909328986353 0.33594590439129729 0 0.43529442408543872 0.34883605226809089 0 0.43894044703962998 0.32936859193394902 0 0.45181909328986353 0.33594590439129729 0 0.46179392227446953 0.32291451832445861 0 0.45181909328986353 0.33594590439129729 0 0.46495921083649527 0.33796731498031379 0 0.45493863887308472 0.34850758154427958 0 0.45181909328986353 0.33594590439129729 0 0.46495921083649527 0.33796731498031379 0 0.46179392227446953 0.32291451832445861 0 0.47648252662976798 0.31886183994020412 0 0.48100137455512032 0.33592790504910791 0 0.48893996521802741 0.32077530068026477 0 0.46179392227446953 0.32291451832445861 0 0.47648252662976798 0.31886183994020412 0 0.48100137455512032 0.33592790504910791 0 0.47222103054853309 0.30536857664361422 0 0.46179392227446953 0.32291451832445861 0 0.47648252662976798 0.31886183994020412 0 0.48491490847636098 0.30901068293115042 0 0.47648252662976798 0.31886183994020412 0 0.48893996521802741 0.32077530068026477 0 0.46179392227446953 0.32291451832445861 0 0.48100137455512032 0.33592790504910791 0 0.46495921083649527 0.33796731498031379 0 0.48100137455512032 0.33592790504910791 0 0.47458285366073072 0.34817911082046721 0 0.46495921083649527 0.33796731498031379 0 0.46179392227446953 0.32291451832445861 0 0.48100137455512032 0.33592790504910791 0 0.48100137455512032 0.33592790504910791 0 0.47458285366073072 0.34817911082046721 0 0.48100137455512032 0.33592790504910791 0 0.48893996521802741 0.32077530068026477 0 0.48100137455512032 0.33592790504910791 0 0.4984937498586452 0.34777929695842291 0 0.5 0.31779904583675789 0 0.48893996521802741 0.32077530068026477 0 0.4984937498586452 0.34777929695842291 0 0.5 0.31779904583675789 0 0.4984937498586452 0.34777929695842291 0 0.50000000000000433 0.34775411096450393 0 0.48100137455512032 0.33592790504910791 0 0.48893996521802741 0.32077530068026477 0 0.4984937498586452 0.34777929695842291 0 0.49687855588093471 0.30562269631142192 0 0.48893996521802741 0.32077530068026477 0 0.49687855588093471 0.30562269631142192 0 0.5 0.31779904583675789 0 0.48893996521802741 0.32077530068026477 0 0.5 0.37175840028027313 0 0.48688174284785979 0.35971936811564431 0 0.50000000000000433 0.34775411096450393 0 0.5 0.37175840028027313 0 0.48688174284785979 0.35971936811564431 0 0.48177296974371542 0.3780796821533936 0 0.48100137455512032 0.33592790504910791 0 0.4984937498586452 0.34777929695842291 0 0.47458285366073072 0.34817911082046721 0 0.48688174284785979 0.35971936811564431 0 0.4984937498586452 0.34777929695842291 0 0.47458285366073072 0.34817911082046721 0 0.48688174284785979 0.35971936811564431 0 0.4984937498586452 0.34777929695842291 0 0.50000000000000433 0.34775411096450393 0 0.4984937498586452 0.34777929695842291 0 0.47458285366073072 0.34817911082046721 0 0.4984937498586452 0.34777929695842291 0 0.50000000000000433 0.34775411096450393 0 0.48688174284785979 0.35971936811564431 0 0.47458285366073072 0.34817911082046721 0 0.46644088382406917 0.36371991056145853 0 0.47458285366073072 0.34817911082046721 0 0.46644088382406917 0.36371991056145853 0 0.46644088382406917 0.36371991056145853 0 0.45829891398740957 0.37926071030245079 0 0.48177296974371542 0.3780796821533936 0 0.48688174284785979 0.35971936811564431 0 0.46644088382406917 0.36371991056145853 0 0.48177296974371542 0.3780796821533936 0 0.46644088382406917 0.36371991056145853 0 0.45829891398740957 0.37926071030245079 0 0.46644088382406917 0.36371991056145853 0 0.45450488254489102 0.36219879314378839 0 0.45829891398740957 0.37926071030245079 0 0.46495921083649527 0.33796731498031379 0 0.47458285366073072 0.34817911082046721 0 0.45493863887308472 0.34850758154427958 0 0.47458285366073072 0.34817911082046721 0 0.45493863887308472 0.34850758154427958 0 0.47458285366073072 0.34817911082046721 0 0.46644088382406917 0.36371991056145853 0 0.45493863887308472 0.34850758154427958 0 0.46644088382406917 0.36371991056145853 0 0.45450488254489102 0.36219879314378839 0 0.45493863887308472 0.34850758154427958 0 0.45181909328986353 0.33594590439129729 0 0.45493863887308472 0.34850758154427958 0 0.43529442408543872 0.34883605226809089 0 0.45493863887308472 0.34850758154427958 0 0.44448268479035308 0.35511800724889642 0 0.43529442408543872 0.34883605226809089 0 0.45493863887308472 0.34850758154427958 0 0.43529442408543872 0.34883605226809089 0 0.45450488254489102 0.36219879314378839 0 0.45493863887308472 0.34850758154427958 0 0.44448268479035308 0.35511800724889642 0 0.44448268479035308 0.35511800724889642 0 0.44279863902385319 0.36498191861006751 0 0.43487683942449812 0.35106569067825599 0 0.44448268479035308 0.35511800724889642 0 0.43529442408543872 0.34883605226809089 0 0.43487683942449812 0.35106569067825599 0 0.45450488254489102 0.36219879314378839 0 0.44279863902385319 0.36498191861006751 0 0.45829891398740957 0.37926071030245079 0 0.44279863902385319 0.36498191861006751 0 0.45829891398740957 0.37926071030245079 0 0.45450488254489102 0.36219879314378839 0 0.44448268479035308 0.35511800724889642 0 0.44279863902385319 0.36498191861006751 0 0.42892444364691579 0.3641293946929936 0 0.42225433889660879 0.37545697575276449 0 0.43605286711449009 0.38080977408974359 0 0.44279863902385319 0.36498191861006751 0 0.42892444364691579 0.3641293946929936 0 0.43605286711449009 0.38080977408974359 0 0.44279863902385319 0.36498191861006751 0 0.42892444364691579 0.3641293946929936 0 0.42729836406029548 0.35070312691768563 0 0.42892444364691579 0.3641293946929936 0 0.41660844069210962 0.35988002802349189 0 0.42225433889660879 0.37545697575276449 0 0.41660844069210962 0.35988002802349189 0 0.40918213701441342 0.3736144609854074 0 0.42225433889660879 0.37545697575276449 0 0.41660844069210962 0.35988002802349189 0 0.40918213701441342 0.3736144609854074 0 0.40205795884979889 0.36380219258680641 0 0.40642652845595439 0.35168475710611302 0 0.41593005466970517 0.35003896004439389 0 0.41338688547046137 0.33788792813028518 0 0.41660844069210962 0.35988002802349189 0 0.40642652845595439 0.35168475710611302 0 0.40205795884979889 0.36380219258680641 0 0.41660844069210962 0.35988002802349189 0 0.40642652845595439 0.35168475710611302 0 0.41593005466970517 0.35003896004439389 0 0.41660844069210962 0.35988002802349189 0 0.41593005466970517 0.35003896004439389 0 0.42729836406029548 0.35070312691768563 0 0.42729836406029548 0.35070312691768563 0 0.41338688547046137 0.33788792813028518 0 0.41593005466970517 0.35003896004439389 0 0.42729836406029548 0.35070312691768563 0 0.41338688547046137 0.33788792813028518 0 0.42892444364691579 0.3641293946929936 0 0.41660844069210962 0.35988002802349189 0 0.42729836406029548 0.35070312691768563 0 0.42892444364691579 0.3641293946929936 0 0.42729836406029548 0.35070312691768563 0 0.44279863902385319 0.36498191861006751 0 0.42729836406029548 0.35070312691768563 0 0.43487683942449812 0.35106569067825599 0 0.44279863902385319 0.36498191861006751 0 0.42729836406029548 0.35070312691768563 0 0.43109136567724748 0.3489063315667284 0 0.43529442408543872 0.34883605226809089 0 0.42729836406029548 0.35070312691768563 0 0.43109136567724748 0.3489063315667284 0 0.43487683942449812 0.35106569067825599 0 0.43109136567724748 0.3489063315667284 0 0.43529442408543872 0.34883605226809089 0 0.43487683942449812 0.35106569067825599 0 0.43529442408543872 0.34883605226809089 0 0.43487683942449812 0.35106569067825599 0 0.42729836406029548 0.35070312691768563 0 0.42420497341471841 0.32516151660366771 0 0.43894044703962998 0.32936859193394902 0 0.43529442408543872 0.34883605226809089 0 0.43894044703962998 0.32936859193394902 0 0.43109136567724748 0.3489063315667284 0 0.43529442408543872 0.34883605226809089 0 0.42729836406029548 0.35070312691768563 0 0.43109136567724748 0.3489063315667284 0 0.42420497341471841 0.32516151660366771 0 0.43894044703962998 0.32936859193394902 0 0.43109136567724748 0.3489063315667284 0 0.42420497341471841 0.32516151660366771 0 0.43894044703962998 0.32936859193394902 0 0.43130474666914309 0.31304161877190062 0 0.42420497341471841 0.32516151660366771 0 0.42111158276914429 0.29961990628964941 0 0.43130474666914309 0.31304161877190062 0 0.42420497341471841 0.32516151660366771 0 0.40184121301557668 0.30678024061641418 0 0.41431845905081632 0.31211616404088999 0 0.41140534993910638 0.32360132811636988 0 0.41431845905081632 0.31211616404088999 0 0.42420497341471841 0.32516151660366771 0 0.41140534993910638 0.32360132811636988 0 0.42729836406029548 0.35070312691768563 0 0.42420497341471841 0.32516151660366771 0 0.41338688547046137 0.33788792813028518 0 0.42420497341471841 0.32516151660366771 0 0.41140534993910638 0.32360132811636988 0 0.41338688547046137 0.33788792813028518 0 0.41140534993910638 0.32360132811636988 0 0.41338688547046137 0.33788792813028518 0 0.39947540688062583 0.32507272934288628 0 0.41338688547046137 0.33788792813028518 0 0.39947540688062583 0.32507272934288628 0 0.40642652845595439 0.35168475710611302 0 0.41338688547046137 0.33788792813028518 0 0.39105145014164849 0.3414869239971704 0 0.41338688547046137 0.33788792813028518 0 0.39105145014164849 0.3414869239971704 0 0.39947540688062583 0.32507272934288628 0 0.40184121301557668 0.30678024061641418 0 0.41140534993910638 0.32360132811636988 0 0.39947540688062583 0.32507272934288628 0 0.40184121301557668 0.30678024061641418 0 0.39947540688062583 0.32507272934288628 0 0.38242981621443428 0.31397380775534678 0 0.36562923609293069 0.32366592916769399 0 0.38242981621443428 0.31397380775534678 0 0.38128435600444488 0.32837669887387311 0 0.39947540688062583 0.32507272934288628 0 0.38242981621443428 0.31397380775534678 0 0.38128435600444488 0.32837669887387311 0 0.39105145014164849 0.3414869239971704 0 0.39947540688062583 0.32507272934288628 0 0.38128435600444488 0.32837669887387311 0 0.36518945593320651 0.34509967395937191 0 0.39105145014164849 0.3414869239971704 0 0.38128435600444488 0.32837669887387311 0 0.36518945593320651 0.34509967395937191 0 0.39105145014164849 0.3414869239971704 0 0.3855881021147175 0.35910908792858098 0 0.36474967577348072 0.36653341875104961 0 0.3855881021147175 0.35910908792858098 0 0.3855881021147175 0.35910908792858098 0 0.39248458597179969 0.37472262889043839 0 0.3773824667175657 0.37546563606013739 0 0.36474967577348072 0.36653341875104961 0 0.3855881021147175 0.35910908792858098 0 0.3773824667175657 0.37546563606013739 0 0.40918213701441342 0.3736144609854074 0 0.39248458597179969 0.37472262889043839 0 0.40205795884979889 0.36380219258680641 0 0.3855881021147175 0.35910908792858098 0 0.39248458597179969 0.37472262889043839 0 0.40205795884979889 0.36380219258680641 0 0.40642652845595439 0.35168475710611302 0 0.39105145014164849 0.3414869239971704 0 0.3855881021147175 0.35910908792858098 0 0.40642652845595439 0.35168475710611302 0 0.3855881021147175 0.35910908792858098 0 0.40642652845595439 0.35168475710611302 0 0.3855881021147175 0.35910908792858098 0 0.40205795884979889 0.36380219258680641 0 0.39221066862400811 0.40518894945558848 0 0.39940032860097008 0.38986983405391068 0 0.41033309730305728 0.40785957742124029 0 0.40918213701441342 0.3736144609854074 0 0.39248458597179969 0.37472262889043839 0 0.39940032860097008 0.38986983405391068 0 0.39248458597179969 0.37472262889043839 0 0.39940032860097008 0.38986983405391068 0 0.38026367080056678 0.39066664182047522 0 0.39248458597179969 0.37472262889043839 0 0.3773824667175657 0.37546563606013739 0 0.38026367080056678 0.39066664182047522 0 0.39221066862400811 0.40518894945558848 0 0.39940032860097008 0.38986983405391068 0 0.38026367080056678 0.39066664182047522 0 0.39221066862400811 0.40518894945558848 0 0.38026367080056678 0.39066664182047522 0 0.37744029411777058 0.41252948965876268 0 0.39221066862400811 0.40518894945558848 0 0.37744029411777058 0.41252948965876268 0 0.39361595229767549 0.42501920432355378 0 0.365542703577178 0.42914551292816783 0 0.39361595229767549 0.42501920432355378 0 0.37809165231809289 0.44568724501072521 0 0.365542703577178 0.42914551292816783 0 0.37744029411777058 0.41252948965876268 0 0.39361595229767549 0.42501920432355378 0 0.365542703577178 0.42914551292816783 0 0.39361595229767549 0.42501920432355378 0 0.39361595229767549 0.42501920432355378 0 0.41035062152962531 0.4256058815429955 0 0.40092741287151468 0.44093224530230651 0 0.39361595229767549 0.42501920432355378 0 0.40092741287151468 0.44093224530230651 0 0.37809165231809289 0.44568724501072521 0 0.39361595229767549 0.42501920432355378 0 0.41033309730305728 0.40785957742124029 0 0.41035062152962531 0.4256058815429955 0 0.39221066862400811 0.40518894945558848 0 0.39361595229767549 0.42501920432355378 0 0.41033309730305728 0.40785957742124029 0 0.41033309730305728 0.40785957742124029 0 0.41035062152962531 0.4256058815429955 0 0.42646345733135449 0.42088686527347441 0 0.41035062152962531 0.4256058815429955 0 0.4216403136361262 0.43569606407888728 0 0.42646345733135449 0.42088686527347441 0 0.41035062152962531 0.4256058815429955 0 0.4216403136361262 0.43569606407888728 0 0.40092741287151468 0.44093224530230651 0 0.43504649219903713 0.43385430946487219 0 0.42646345733135449 0.42088686527347441 0 0.44292677264660579 0.42392515796168401 0 0.4216403136361262 0.43569606407888728 0 0.43504649219903713 0.43385430946487219 0 0.42646345733135449 0.42088686527347441 0 0.4216403136361262 0.43569606407888728 0 0.43504649219903713 0.43385430946487219 0 0.4309855774719657 0.44262377444488737 0 0.41033309730305728 0.40785957742124029 0 0.42646345733135449 0.42088686527347441 0 0.43473852811684172 0.40482082561786309 0 0.42646345733135449 0.42088686527347441 0 0.43473852811684172 0.40482082561786309 0 0.44292677264660579 0.42392515796168401 0 0.43473852811684172 0.40482082561786309 0 0.42003555557297712 0.38799376876492359 0 0.43605286711449009 0.38080977408974359 0 0.41033309730305728 0.40785957742124029 0 0.43473852811684172 0.40482082561786309 0 0.42003555557297712 0.38799376876492359 0 0.39940032860097008 0.38986983405391068 0 0.41033309730305728 0.40785957742124029 0 0.42003555557297712 0.38799376876492359 0 0.40918213701441342 0.3736144609854074 0 0.39940032860097008 0.38986983405391068 0 0.42003555557297712 0.38799376876492359 0 0.40918213701441342 0.3736144609854074 0 0.42003555557297712 0.38799376876492359 0 0.42225433889660879 0.37545697575276449 0 0.42003555557297712 0.38799376876492359 0 0.42225433889660879 0.37545697575276449 0 0.43605286711449009 0.38080977408974359 0 0.44279863902385319 0.36498191861006751 0 0.43605286711449009 0.38080977408974359 0 0.45829891398740957 0.37926071030245079 0 0.43605286711449009 0.38080977408974359 0 0.44916269767969552 0.39669925538146661 0 0.45829891398740957 0.37926071030245079 0 0.43473852811684172 0.40482082561786309 0 0.43605286711449009 0.38080977408974359 0 0.44916269767969552 0.39669925538146661 0 0.43473852811684172 0.40482082561786309 0 0.44916269767969552 0.39669925538146661 0 0.45819524916971172 0.41557138043250991 0 0.44916269767969552 0.39669925538146661 0 0.47914945699370431 0.3984681476517854 0 0.45819524916971172 0.41557138043250991 0 0.44916269767969552 0.39669925538146661 0 0.45829891398740957 0.37926071030245079 0 0.47914945699370431 0.3984681476517854 0 0.45829891398740957 0.37926071030245079 0 0.47914945699370431 0.3984681476517854 0 0.44916269767969552 0.39669925538146661 0 0.45829891398740957 0.37926071030245079 0 0.45829891398740957 0.37926071030245079 0 0.48177296974371542 0.3780796821533936 0 0.47914945699370431 0.3984681476517854 0 0.47914945699370431 0.3984681476517854 0 0.5 0.39471699264069632 0 0.49999999999999928 0.41767558500111929 0 0.48177296974371542 0.3780796821533936 0 0.47914945699370431 0.3984681476517854 0 0.5 0.39471699264069632 0 0.5 0.37175840028027313 0 0.48177296974371542 0.3780796821533936 0 0.5 0.39471699264069632 0 0.48950419912568011 0.43203648207583117 0 0.49999999999999928 0.41767558500111929 0 0.47941257652712138 0.42859526255965119 0 0.48950419912568011 0.43203648207583117 0 0.49999999999999928 0.41767558500111929 0 0.50000000000000022 0.44212157098762489 0 0.49999999999999928 0.41767558500111929 0 0.47638758820359789 0.4177788365799131 0 0.47941257652712138 0.42859526255965119 0 0.47914945699370431 0.3984681476517854 0 0.49999999999999928 0.41767558500111929 0 0.47638758820359789 0.4177788365799131 0 0.47914945699370431 0.3984681476517854 0 0.49999999999999928 0.41767558500111929 0 0.47914945699370431 0.3984681476517854 0 0.47638758820359789 0.4177788365799131 0 0.45819524916971172 0.41557138043250991 0 0.47638758820359789 0.4177788365799131 0 0.46959145424244531 0.42892785421681912 0 0.47941257652712138 0.42859526255965119 0 0.48950419912568011 0.43203648207583117 0 0.47941257652712138 0.42859526255965119 0 0.47860421997559988 0.43975350975492877 0 0.46959145424244531 0.42892785421681912 0 0.47941257652712138 0.42859526255965119 0 0.47860421997559988 0.43975350975492877 0 0.46959145424244531 0.42892785421681912 0 0.45720843995119947 0.43738544852223271 0 0.45819524916971172 0.41557138043250991 0 0.46959145424244531 0.42892785421681912 0 0.45720843995119947 0.43738544852223271 0 0.47860421997559988 0.43975350975492877 0 0.47638758820359789 0.4177788365799131 0 0.46959145424244531 0.42892785421681912 0 0.45819524916971172 0.41557138043250991 0 0.43473852811684172 0.40482082561786309 0 0.45819524916971172 0.41557138043250991 0 0.44292677264660579 0.42392515796168401 0 0.45720843995119947 0.43738544852223271 0 0.45819524916971172 0.41557138043250991 0 0.44292677264660579 0.42392515796168401 0 0.45720843995119947 0.43738544852223271 0 0.44292677264660579 0.42392515796168401 0 0.44501475256406542 0.43710487641451851 0 0.43504649219903713 0.43385430946487219 0 0.44292677264660579 0.42392515796168401 0 0.44501475256406542 0.43710487641451851 0 0.44501475256406542 0.43710487641451851 0 0.44086930591740259 0.443703986550611 0 0.44426520485267701 0.44828521544284999 0 0.43504649219903713 0.43385430946487219 0 0.44501475256406542 0.43710487641451851 0 0.44086930591740259 0.443703986550611 0 0.44576605402647751 0.45131382091928901 0 0.43097115028835131 0.45382894378787952 0 0.4371491165808723 0.44919465112914592 0 0.44086930591740259 0.443703986550611 0 0.44106718496795649 0.44783878756079798 0 0.4371491165808723 0.44919465112914592 0 0.44106718496795649 0.44783878756079798 0 0.44576605402647751 0.45131382091928901 0 0.4371491165808723 0.44919465112914592 0 0.44086930591740259 0.443703986550611 0 0.44426520485267701 0.44828521544284999 0 0.44106718496795649 0.44783878756079798 0 0.44426520485267701 0.44828521544284999 0 0.44576605402647751 0.45131382091928901 0 0.44086930591740259 0.443703986550611 0 0.44106718496795649 0.44783878756079798 0 0.44426520485267701 0.44828521544284999 0 0.45720843995119947 0.43738544852223271 0 0.44501475256406542 0.43710487641451851 0 0.44426520485267701 0.44828521544284999 0 0.44576605402647751 0.45131382091928901 0 0.44334270512280699 0.46695283516179431 0 0.45751300038554987 0.46615712058798953 0 0.44426520485267701 0.44828521544284999 0 0.45751300038554987 0.46615712058798953 0 0.44576605402647751 0.45131382091928901 0 0.44334270512280699 0.46695283516179431 0 0.42744619309891668 0.4675425472795256 0 0.44426520485267701 0.44828521544284999 0 0.44576605402647751 0.45131382091928901 0 0.45751300038554987 0.46615712058798953 0 0.44426520485267701 0.44828521544284999 0 0.45751300038554987 0.46615712058798953 0 0.47213260242633898 0.44992772785007767 0 0.44426520485267701 0.44828521544284999 0 0.47213260242633898 0.44992772785007767 0 0.45720843995119947 0.43738544852223271 0 0.47860421997559988 0.43975350975492877 0 0.45720843995119947 0.43738544852223271 0 0.44426520485267701 0.44828521544284999 0 0.47213260242633898 0.44992772785007767 0 0.47213260242633898 0.44992772785007767 0 0.47860421997559988 0.43975350975492877 0 0.50000000000000067 0.45157024025730719 0 0.45720843995119947 0.43738544852223271 0 0.47213260242633898 0.44992772785007767 0 0.47860421997559988 0.43975350975492877 0 0.47213260242633898 0.44992772785007767 0 0.48064266697128027 0.4673483066551633 0 0.50000000000000067 0.45157024025730719 0 0.45751300038554987 0.46615712058798953 0 0.47213260242633898 0.44992772785007767 0 0.48064266697128027 0.4673483066551633 0 0.48064266697128027 0.4673483066551633 0 0.5 0.46843982966384828 0 0.50000000000000067 0.45157024025730719 0 0.47860421997559988 0.43975350975492877 0 0.50000000000000022 0.44212157098762489 0 0.47860421997559988 0.43975350975492877 0 0.50000000000000067 0.45157024025730719 0 0.50000000000000022 0.44212157098762489 0 0.47213260242633898 0.44992772785007767 0 0.50000000000000067 0.45157024025730719 0 0.48950419912568011 0.43203648207583117 0 0.47860421997559988 0.43975350975492877 0 0.50000000000000022 0.44212157098762489 0 0.48834007405180069 0.49233461120087918 0 0.50000000000000222 0.48530941907038949 0 0.47076079591842229 0.48402902573312923 0 0.48834007405180069 0.49233461120087918 0 0.5 0.5 0 0.48259950028877657 0.49999999999999922 0 0.50000000000000222 0.48530941907038949 0 0.47076079591842229 0.48402902573312923 0 0.48834007405180069 0.49233461120087918 0 0.5 0.5 0 0.50000000000000222 0.48530941907038949 0 0.50000000000000222 0.48530941907038949 0 0.48785086572242647 0.47628164528063233 0 0.47076079591842229 0.48402902573312923 0 0.48064266697128027 0.4673483066551633 0 0.5 0.46843982966384828 0 0.48785086572242647 0.47628164528063233 0 0.5 0.46843982966384828 0 0.50000000000000222 0.48530941907038949 0 0.48785086572242647 0.47628164528063233 0 0.45751300038554987 0.46615712058798953 0 0.48064266697128027 0.4673483066551633 0 0.47076079591842229 0.48402902573312923 0 0.48064266697128027 0.4673483066551633 0 0.48785086572242647 0.47628164528063233 0 0.47076079591842229 0.48402902573312923 0 0.47076079591842229 0.48402902573312923 0 0.48259950028877657 0.49999999999999922 0 0.45965124302753141 0.5 0 0.48834007405180069 0.49233461120087918 0 0.47076079591842229 0.48402902573312923 0 0.48259950028877657 0.49999999999999922 0 0.47076079591842229 0.48402902573312923 0 0.48259950028877657 0.49999999999999922 0 0.47076079591842229 0.48402902573312923 0 0.45965124302753141 0.5 0 0.44264557298028417 0.48279785186037327 0 0.45751300038554987 0.46615712058798953 0 0.47076079591842229 0.48402902573312923 0 0.47076079591842229 0.48402902573312923 0 0.44264557298028417 0.48279785186037327 0 0.45751300038554987 0.46615712058798953 0 0.47076079591842229 0.48402902573312923 0 0.44264557298028417 0.48279785186037327 0 0.44334270512280699 0.46695283516179431 0 0.44264557298028417 0.48279785186037327 0 0.42744619309891668 0.4675425472795256 0 0.44334270512280699 0.46695283516179431 0 0.45751300038554987 0.46615712058798953 0 0.44264557298028417 0.48279785186037327 0 0.45965124302753141 0.5 0 0.44264557298028417 0.48279785186037327 0 0.43670298576628619 0.5 0 0.44264557298028417 0.48279785186037327 0 0.42814010978677508 0.48883471415535268 0 0.41453035004214622 0.48156667798761449 0 0.43670298576628619 0.5 0 0.42814010978677508 0.48883471415535268 0 0.41868153035838401 0.49097432677342312 0 0.44264557298028417 0.48279785186037327 0 0.43670298576628619 0.5 0 0.42814010978677508 0.48883471415535268 0 0.43670298576628619 0.5 0 0.41375472850504103 0.5 0 0.41868153035838401 0.49097432677342312 0 0.41375472850504103 0.5 0 0.41868153035838401 0.49097432677342312 0 0.40912633217135602 0.48377127363976219 0 0.42814010978677508 0.48883471415535268 0 0.41868153035838401 0.49097432677342312 0 0.41453035004214622 0.48156667798761449 0 0.41868153035838401 0.49097432677342312 0 0.40912633217135602 0.48377127363976219 0 0.41453035004214622 0.48156667798761449 0 0.40882198151684829 0.470458307354371 0 0.40912633217135602 0.48377127363976219 0 0.42744619309891668 0.4675425472795256 0 0.40912633217135602 0.48377127363976219 0 0.42744619309891668 0.4675425472795256 0 0.40912633217135602 0.48377127363976219 0 0.41453035004214622 0.48156667798761449 0 0.42744619309891668 0.4675425472795256 0 0.40882198151684829 0.470458307354371 0 0.40912633217135602 0.48377127363976219 0 0.40257181831080802 0.47789339995616598 0 0.44264557298028417 0.48279785186037327 0 0.41453035004214622 0.48156667798761449 0 0.44264557298028417 0.48279785186037327 0 0.41453035004214622 0.48156667798761449 0 0.42744619309891668 0.4675425472795256 0 0.44576605402647751 0.45131382091928901 0 0.42744619309891668 0.4675425472795256 0 0.44576605402647751 0.45131382091928901 0 0.43097115028835131 0.45382894378787952 0 0.42744619309891668 0.4675425472795256 0 0.43097115028835131 0.45382894378787952 0 0.42744619309891668 0.4675425472795256 0 0.41709851720120961 0.46055572465752248 0 0.44086930591740259 0.443703986550611 0 0.4309855774719657 0.44262377444488737 0 0.4371491165808723 0.44919465112914592 0 0.43504649219903713 0.43385430946487219 0 0.44086930591740259 0.443703986550611 0 0.4309855774719657 0.44262377444488737 0 0.43097115028835131 0.45382894378787952 0 0.4309855774719657 0.44262377444488737 0 0.4371491165808723 0.44919465112914592 0 0.43097115028835131 0.45382894378787952 0 0.4309855774719657 0.44262377444488737 0 0.41665312800777271 0.44940921386284588 0 0.4216403136361262 0.43569606407888728 0 0.4309855774719657 0.44262377444488737 0 0.41665312800777271 0.44940921386284588 0 0.41665312800777271 0.44940921386284588 0 0.4029362549212489 0.45832899449672349 0 0.40092741287151468 0.44093224530230651 0 0.4216403136361262 0.43569606407888728 0 0.41665312800777271 0.44940921386284588 0 0.40092741287151468 0.44093224530230651 0 0.40882198151684829 0.470458307354371 0 0.42744619309891668 0.4675425472795256 0 0.41709851720120961 0.46055572465752248 0 0.43097115028835131 0.45382894378787952 0 0.41665312800777271 0.44940921386284588 0 0.41709851720120961 0.46055572465752248 0 0.41665312800777271 0.44940921386284588 0 0.41709851720120961 0.46055572465752248 0 0.4029362549212489 0.45832899449672349 0 0.40882198151684829 0.470458307354371 0 0.41709851720120961 0.46055572465752248 0 0.4029362549212489 0.45832899449672349 0 0.40882198151684829 0.470458307354371 0 0.4029362549212489 0.45832899449672349 0 0.3944208343110962 0.47305259584339332 0 0.4029362549212489 0.45832899449672349 0 0.38943508825963058 0.45629052964312111 0 0.3944208343110962 0.47305259584339332 0 0.4029362549212489 0.45832899449672349 0 0.40092741287151468 0.44093224530230651 0 0.38943508825963058 0.45629052964312111 0 0.40092741287151468 0.44093224530230651 0 0.37809165231809289 0.44568724501072521 0 0.38943508825963058 0.45629052964312111 0 0.37809165231809289 0.44568724501072521 0 0.38943508825963058 0.45629052964312111 0 0.37844435483634198 0.4675903904274426 0 0.38943508825963058 0.45629052964312111 0 0.37844435483634198 0.4675903904274426 0 0.3944208343110962 0.47305259584339332 0 0.37844435483634198 0.4675903904274426 0 0.38120033573297152 0.48442634992442057 0 0.3944208343110962 0.47305259584339332 0 0.38120033573297152 0.48442634992442057 0 0.3944208343110962 0.47305259584339332 0 0.39562515835400552 0.48382872387274839 0 0.36196284501337178 0.5 0 0.38120033573297152 0.48442634992442057 0 0.39080647124379558 0.49999999999999922 0 0.38120033573297152 0.48442634992442057 0 0.39080647124379558 0.49999999999999922 0 0.39562515835400552 0.48382872387274839 0 0.40912633217135602 0.48377127363976219 0 0.39080647124379558 0.49999999999999922 0 0.40912633217135602 0.48377127363976219 0 0.39080647124379558 0.49999999999999922 0 0.39562515835400552 0.48382872387274839 0 0.41375472850504103 0.5 0 0.40912633217135602 0.48377127363976219 0 0.39080647124379558 0.49999999999999922 0 0.40912633217135602 0.48377127363976219 0 0.40257181831080802 0.47789339995616598 0 0.39562515835400552 0.48382872387274839 0 0.40882198151684829 0.470458307354371 0 0.40257181831080802 0.47789339995616598 0 0.3944208343110962 0.47305259584339332 0 0.40257181831080802 0.47789339995616598 0 0.3944208343110962 0.47305259584339332 0 0.39562515835400552 0.48382872387274839 0 0.34137977846588119 0.091947059702449957 0 0.3184977734976509 0.082531855017860187 0 0.34137977846588119 0.091947059702449957 0 0.33853514524224232 0.092154422351098803 0 0.3184977734976509 0.082531855017860187 0 0.33853514524224232 0.092154422351098803 0 0.3184977734976509 0.082531855017860187 0 0.3305269393921435 0.093893314460775035 0 0.34137977846588119 0.091947059702449957 0 0.33488127772135701 0.070909675734900868 0 0.3184977734976509 0.082531855017860187 0 0.33488127772135701 0.070909675734900868 0 0.35624300874513559 0.071190975121652081 0 0.33828509493208109 0.051113002016081502 0 0.3184977734976509 0.082531855017860187 0 0.31750720709783492 0.060828210965220328 0 0.30506359630307739 0.067813250175554993 0 0.33488127772135701 0.070909675734900868 0 0.32846421329825382 0.059059627678852658 0 0.31750720709783492 0.060828210965220328 0 0.33488127772135701 0.070909675734900868 0 0.3184977734976509 0.082531855017860187 0 0.31750720709783492 0.060828210965220328 0 0.3184977734976509 0.082531855017860187 0 0.3254096333834442 0.096971455496547829 0 0.3305269393921435 0.093893314460775035 0 0.3184977734976509 0.082531855017860187 0 0.3254096333834442 0.096971455496547829 0 0.31111548734401751 0.094174984339189319 0 0.3254096333834442 0.096971455496547829 0 0.33219394353324039 0.1121017755840282 0 0.31111548734401751 0.094174984339189319 0 0.33219394353324039 0.1121017755840282 0 0.31111548734401751 0.094174984339189319 0 0.33219394353324039 0.1121017755840282 0 0.31151194808720201 0.1150643222194616 0 0.31111548734401751 0.094174984339189319 0 0.33219394353324039 0.1121017755840282 0 0.31151194808720201 0.1150643222194616 0 0.32387679174541939 0.1297141718462434 0 0.33219394353324039 0.1121017755840282 0 0.32387679174541939 0.1297141718462434 0 0.35327239972246333 0.1300285668288671 0 0.33219394353324039 0.1121017755840282 0 0.35327239972246333 0.1300285668288671 0 0.33219394353324039 0.1121017755840282 0 0.34279585490336462 0.1026082003979065 0 0.35159211237321392 0.11222190062690381 0 0.33853514524224232 0.092154422351098803 0 0.3305269393921435 0.093893314460775035 0 0.33650548478629722 0.09727411407467923 0 0.3254096333834442 0.096971455496547829 0 0.33351858274250701 0.1005678965871936 0 0.3305269393921435 0.093893314460775035 0 0.33351858274250701 0.1005678965871936 0 0.3305269393921435 0.093893314460775035 0 0.33650548478629722 0.09727411407467923 0 0.3254096333834442 0.096971455496547829 0 0.33219394353324039 0.1121017755840282 0 0.33351858274250701 0.1005678965871936 0 0.33219394353324039 0.1121017755840282 0 0.33351858274250701 0.1005678965871936 0 0.34279585490336462 0.1026082003979065 0 0.33351858274250701 0.1005678965871936 0 0.34279585490336462 0.1026082003979065 0 0.33650548478629722 0.09727411407467923 0 0.33853514524224232 0.092154422351098803 0 0.34279585490336462 0.1026082003979065 0 0.33650548478629722 0.09727411407467923 0 0.34279585490336462 0.1026082003979065 0 0.35159211237321392 0.11222190062690381 0 0.36426178343411147 0.1013622643870397 0 0.33853514524224232 0.092154422351098803 0 0.34279585490336462 0.1026082003979065 0 0.36426178343411147 0.1013622643870397 0 0.34137977846588119 0.091947059702449957 0 0.33853514524224232 0.092154422351098803 0 0.36426178343411147 0.1013622643870397 0 0.33853514524224232 0.092154422351098803 0 0.36426178343411147 0.1013622643870397 0 0.34137977846588119 0.091947059702449957 0 0.36426178343411147 0.1013622643870397 0 0.33219394353324039 0.1121017755840282 0 0.35159211237321392 0.11222190062690381 0 0.35327239972246333 0.1300285668288671 0 0.35159211237321392 0.11222190062690381 0 0.36649271172908648 0.1176987398754743 0 0.35327239972246333 0.1300285668288671 0 0.35159211237321392 0.11222190062690381 0 0.36649271172908648 0.1176987398754743 0 0.36426178343411147 0.1013622643870397 0 0.36649271172908648 0.1176987398754743 0 0.36938385952287339 0.13266757129752671 0 0.38138511069115272 0.12353481432135879 0 0.36649271172908648 0.1176987398754743 0 0.36426178343411147 0.1013622643870397 0 0.3795225325030368 0.1068242515199407 0 0.36426178343411147 0.1013622643870397 0 0.3795225325030368 0.1068242515199407 0 0.36426178343411147 0.1013622643870397 0 0.3742009225581896 0.091268948227223284 0 0.3795225325030368 0.1068242515199407 0 0.3742009225581896 0.091268948227223284 0 0.35754778501084228 0.087847667021068221 0 0.35624300874513559 0.071190975121652081 0 0.36426178343411147 0.1013622643870397 0 0.3742009225581896 0.091268948227223284 0 0.35754778501084228 0.087847667021068221 0 0.3742009225581896 0.091268948227223284 0 0.35624300874513559 0.071190975121652081 0 0.34137977846588119 0.091947059702449957 0 0.35754778501084228 0.087847667021068221 0 0.35624300874513559 0.071190975121652081 0 0.34137977846588119 0.091947059702449957 0 0.36426178343411147 0.1013622643870397 0 0.35754778501084228 0.087847667021068221 0 0.34137977846588119 0.091947059702449957 0 0.33488127772135701 0.070909675734900868 0 0.35624300874513559 0.071190975121652081 0 0.3742009225581896 0.091268948227223284 0 0.35624300874513559 0.071190975121652081 0 0.37575225644292037 0.071709270247263784 0 0.35624300874513559 0.071190975121652081 0 0.36737709041569239 0.056764699852256018 0 0.37575225644292037 0.071709270247263784 0 0.36737709041569239 0.056764699852256018 0 0.36443667806580698 0.054513224756226962 0 0.39058826119953283 0.057913447496371839 0 0.36443667806580698 0.054513224756226962 0 0.36984281421283938 0.03924660656396721 0 0.37608467898805159 0.048096788967416412 0 0.36984281421283938 0.03924660656396721 0 0.35576481933353549 0.041718099984820838 0 0.3798040161112804 0.028996110171619349 0 0.35576481933353549 0.041718099984820838 0 0.36136411866671431 0.026161729739540451 0 0.37786156531075732 0.02725125369877367 0 0.35576481933353549 0.041718099984820838 0 0.3798040161112804 0.028996110171619349 0 0.37786156531075732 0.02725125369877367 0 0.35576481933353549 0.041718099984820838 0 0.3798040161112804 0.028996110171619349 0 0.36984281421283938 0.03924660656396721 0 0.37726993283737248 0.041439113600633092 0 0.37608467898805159 0.048096788967416412 0 0.36984281421283938 0.03924660656396721 0 0.37675727284589372 0.036323400775862158 0 0.37726993283737248 0.041439113600633092 0 0.36443667806580698 0.054513224756226962 0 0.36984281421283938 0.03924660656396721 0 0.35576481933353549 0.041718099984820838 0 0.35576481933353549 0.041718099984820838 0 0.36136411866671431 0.026161729739540451 0 0.34099279295720591 0.031691385536231111 0 0.35576481933353549 0.041718099984820838 0 0.34539840685914608 0.044617690611648012 0 0.34099279295720591 0.031691385536231111 0 0.35624300874513559 0.071190975121652081 0 0.34416591963185211 0.055615952208139578 0 0.33828509493208109 0.051113002016081502 0 0.36443667806580698 0.054513224756226962 0 0.34416591963185211 0.055615952208139578 0 0.33828509493208109 0.051113002016081502 0 0.36737709041569239 0.056764699852256018 0 0.34416591963185211 0.055615952208139578 0 0.35624300874513559 0.071190975121652081 0 0.33828509493208109 0.051113002016081502 0 0.35624300874513559 0.071190975121652081 0 0.36737709041569239 0.056764699852256018 0 0.34416591963185211 0.055615952208139578 0 0.36443667806580698 0.054513224756226962 0 0.33828509493208109 0.051113002016081502 0 0.36443667806580698 0.054513224756226962 0 0.34539840685914608 0.044617690611648012 0 0.33828509493208109 0.051113002016081502 0 0.36443667806580698 0.054513224756226962 0 0.35576481933353549 0.041718099984820838 0 0.34539840685914608 0.044617690611648012 0 0.36737709041569239 0.056764699852256018 0 0.36443667806580698 0.054513224756226962 0 0.34416591963185211 0.055615952208139578 0 0.35686418876597309 0.010252504770385159 0 0.37537418671591988 0.012891754799621079 0 0.3700201466167648 -0.002195575246397889 0 0.35686418876597309 0.010252504770385159 0 0.37786156531075732 0.02725125369877367 0 0.36136411866671431 0.026161729739540451 0 0.35686418876597309 0.010252504770385159 0 0.37786156531075732 0.02725125369877367 0 0.35686418876597309 0.010252504770385159 0 0.37537418671591988 0.012891754799621079 0 0.37786156531075732 0.02725125369877367 0 0.36136411866671431 0.026161729739540451 0 0.35686418876597309 0.010252504770385159 0 0.34167945108238768 0.015605415956853899 0 0.36136411866671431 0.026161729739540451 0 0.34167945108238768 0.015605415956853899 0 0.34099279295720591 0.031691385536231111 0 0.35686418876597309 0.010252504770385159 0 0.34167945108238768 0.015605415956853899 0 0.33586681222118892 -0.0067462441580033658 0 0.35686418876597309 0.010252504770385159 0 0.33586681222118892 -0.0067462441580033658 0 0.34167945108238768 0.015605415956853899 0 0.32490055802469708 0.021190940670656921 0 0.33586681222118892 -0.0067462441580033658 0 0.34167945108238768 0.015605415956853899 0 0.32490055802469708 0.021190940670656921 0 0.34099279295720591 0.031691385536231111 0 0.32490055802469708 0.021190940670656921 0 0.34099279295720591 0.031691385536231111 0 0.32801258046435111 0.036170166979635328 0 0.32490055802469708 0.021190940670656921 0 0.31497710433926901 0.036033128519756527 0 0.30595588987094691 0.026092456194660541 0 0.32490055802469708 0.021190940670656921 0 0.31046320235639918 0.0067575729804437252 0 0.30595588987094691 0.026092456194660541 0 0.32490055802469708 0.021190940670656921 0 0.32801258046435111 0.036170166979635328 0 0.31497710433926901 0.036033128519756527 0 0.32490055802469708 0.021190940670656921 0 0.31046320235639918 0.0067575729804437252 0 0.33586681222118892 -0.0067462441580033658 0 0.33488127772135701 0.070909675734900868 0 0.32846421329825382 0.059059627678852658 0 0.33828509493208109 0.051113002016081502 0 0.33828509493208109 0.051113002016081502 0 0.33632782521092219 0.048924662700562782 0 0.31456469921871788 0.048028881697348168 0 0.34539840685914608 0.044617690611648012 0 0.33828509493208109 0.051113002016081502 0 0.33632782521092219 0.048924662700562782 0 0.33828509493208109 0.051113002016081502 0 0.33632782521092219 0.048924662700562782 0 0.34539840685914608 0.044617690611648012 0 0.33609782728063148 0.04111054955314445 0 0.34099279295720591 0.031691385536231111 0 0.34539840685914608 0.044617690611648012 0 0.33632782521092219 0.048924662700562782 0 0.33609782728063148 0.04111054955314445 0 0.33609782728063148 0.04111054955314445 0 0.34099279295720591 0.031691385536231111 0 0.32801258046435111 0.036170166979635328 0 0.33632782521092219 0.048924662700562782 0 0.33609782728063148 0.04111054955314445 0 0.33051084790212298 0.042529329228536181 0 0.33632782521092219 0.048924662700562782 0 0.33051084790212298 0.042529329228536181 0 0.32327528761916352 0.043108517346294839 0 0.33609782728063148 0.04111054955314445 0 0.33051084790212298 0.042529329228536181 0 0.32801258046435111 0.036170166979635328 0 0.33632782521092219 0.048924662700562782 0 0.32327528761916352 0.043108517346294839 0 0.31456469921871788 0.048028881697348168 0 0.33051084790212298 0.042529329228536181 0 0.32327528761916352 0.043108517346294839 0 0.32801258046435111 0.036170166979635328 0 0.32327528761916352 0.043108517346294839 0 0.32801258046435111 0.036170166979635328 0 0.31497710433926901 0.036033128519756527 0 0.32327528761916352 0.043108517346294839 0 0.31497710433926901 0.036033128519756527 0 0.31456469921871788 0.048028881697348168 0 0.33828509493208109 0.051113002016081502 0 0.31456469921871788 0.048028881697348168 0 0.32846421329825382 0.059059627678852658 0 0.33828509493208109 0.051113002016081502 0 0.31456469921871788 0.048028881697348168 0 0.32846421329825382 0.059059627678852658 0 0.31456469921871788 0.048028881697348168 0 0.31750720709783492 0.060828210965220328 0 0.31456469921871788 0.048028881697348168 0 0.31750720709783492 0.060828210965220328 0 0.30386903740065402 0.05697431224277244 0 0.31750720709783492 0.060828210965220328 0 0.30386903740065402 0.05697431224277244 0 0.30506359630307739 0.067813250175554993 0 0.31456469921871788 0.048028881697348168 0 0.30386903740065402 0.05697431224277244 0 0.29084430350535467 0.044944761378613682 0 0.30386903740065402 0.05697431224277244 0 0.29325963230024937 0.057606978803657879 0 0.29690158384745241 0.06457818982176422 0 0.31456469921871788 0.048028881697348168 0 0.30257644158749403 0.037675663858353942 0 0.29084430350535467 0.044944761378613682 0 0.31456469921871788 0.048028881697348168 0 0.29084430350535467 0.044944761378613682 0 0.30257644158749403 0.037675663858353942 0 0.28728110375769011 0.032980092644635972 0 0.30595588987094691 0.026092456194660541 0 0.31497710433926901 0.036033128519756527 0 0.31456469921871788 0.048028881697348168 0 0.30257644158749403 0.037675663858353942 0 0.31497710433926901 0.036033128519756527 0 0.30257644158749403 0.037675663858353942 0 0.30595588987094691 0.026092456194660541 0 0.28728110375769011 0.032980092644635972 0 0.28354425329012439 0.021068516806879451 0 0.27754771987688809 0.040797440569893019 0 0.30257644158749403 0.037675663858353942 0 0.29084430350535467 0.044944761378613682 0 0.28728110375769011 0.032980092644635972 0 0.28728110375769011 0.032980092644635972 0 0.2844924432277231 0.043204628682168907 0 0.27754771987688809 0.040797440569893019 0 0.29084430350535467 0.044944761378613682 0 0.28728110375769011 0.032980092644635972 0 0.2844924432277231 0.043204628682168907 0 0.2844924432277231 0.043204628682168907 0 0.28229664577095948 0.054096220135532967 0 0.27754771987688809 0.040797440569893019 0 0.29084430350535467 0.044944761378613682 0 0.2844924432277231 0.043204628682168907 0 0.28229664577095948 0.054096220135532967 0 0.29084430350535467 0.044944761378613682 0 0.28229664577095948 0.054096220135532967 0 0.29325963230024937 0.057606978803657879 0 0.28229664577095948 0.054096220135532967 0 0.28695696052130792 0.062426000594819037 0 0.29325963230024937 0.057606978803657879 0 0.28229664577095948 0.054096220135532967 0 0.28695696052130792 0.062426000594819037 0 0.27961998430175328 0.060695812266760227 0 0.28695696052130792 0.062426000594819037 0 0.29325963230024937 0.057606978803657879 0 0.29690158384745241 0.06457818982176422 0 0.30386903740065402 0.05697431224277244 0 0.29084430350535467 0.044944761378613682 0 0.29325963230024937 0.057606978803657879 0 0.31046320235639918 0.0067575729804437252 0 0.29633736445586178 0.016145334388179639 0 0.2895407867033607 0.0013395930438658619 0 0.31046320235639918 0.0067575729804437252 0 0.30595588987094691 0.026092456194660541 0 0.29633736445586178 0.016145334388179639 0 0.28728110375769011 0.032980092644635972 0 0.29633736445586178 0.016145334388179639 0 0.28354425329012439 0.021068516806879451 0 0.28728110375769011 0.032980092644635972 0 0.30595588987094691 0.026092456194660541 0 0.29633736445586178 0.016145334388179639 0 0.29633736445586178 0.016145334388179639 0 0.28354425329012439 0.021068516806879451 0 0.2895407867033607 0.0013395930438658619 0 0.28354425329012439 0.021068516806879451 0 0.2895407867033607 0.0013395930438658619 0 0.27605408581287011 0.0090157940159830471 0 0.28354425329012439 0.021068516806879451 0 0.2895407867033607 0.0013395930438658619 0 0.2895407867033607 0.0013395930438658619 0 0.27605408581287011 0.0090157940159830471 0 0.26778398551549509 -0.0036893303100333872 0 0.27605408581287011 0.0090157940159830471 0 0.26417056773795178 0.0090152440179189393 0 0.26778398551549509 -0.0036893303100333872 0 0.27605408581287011 0.0090157940159830471 0 0.26936383070045983 0.02007531215695801 0 0.26417056773795178 0.0090152440179189393 0 0.28354425329012439 0.021068516806879451 0 0.27754771987688809 0.040797440569893019 0 0.28354425329012439 0.021068516806879451 0 0.27605408581287011 0.0090157940159830471 0 0.26936383070045983 0.02007531215695801 0 0.28354425329012439 0.021068516806879451 0 0.26936383070045983 0.02007531215695801 0 0.27332262009486957 0.033728107725222278 0 0.26936383070045983 0.02007531215695801 0 0.26667678125960848 0.028969541142501901 0 0.27332262009486957 0.033728107725222278 0 0.26936383070045983 0.02007531215695801 0 0.26667678125960848 0.028969541142501901 0 0.25978705670837199 0.02772172808684556 0 0.26667678125960848 0.028969541142501901 0 0.25978705670837199 0.02772172808684556 0 0.26423361753473251 0.034353016600981737 0 0.24818833723327199 0.02644705719899533 0 0.25978705670837199 0.02772172808684556 0 0.25442723867738032 0.016379625870619269 0 0.24818833723327199 0.02644705719899533 0 0.25978705670837199 0.02772172808684556 0 0.25704478259505842 0.035809011079610743 0 0.26936383070045983 0.02007531215695801 0 0.25978705670837199 0.02772172808684556 0 0.25442723867738032 0.016379625870619269 0 0.26936383070045983 0.02007531215695801 0 0.25442723867738032 0.016379625870619269 0 0.26417056773795178 0.0090152440179189393 0 0.25442723867738032 0.016379625870619269 0 0.26417056773795178 0.0090152440179189393 0 0.25322369798355371 0.0032948183560677501 0 0.26417056773795178 0.0090152440179189393 0 0.25322369798355371 0.0032948183560677501 0 0.26778398551549509 -0.0036893303100333872 0 0.28229664577095948 0.054096220135532967 0 0.27155118646365262 0.060526364332906778 0 0.27754771987688809 0.040797440569893019 0 0.26803735397675288 0.057537922442449492 0 0.27155118646365262 0.060526364332906778 0 0.27754771987688809 0.040797440569893019 0 0.27155118646365262 0.060526364332906778 0 0.27754771987688809 0.040797440569893019 0 0.26803735397675288 0.057537922442449492 0 0.26717674565759131 0.061414912581717808 0 0.27155118646365262 0.060526364332906778 0 0.26803735397675288 0.057537922442449492 0 0.26717674565759131 0.061414912581717808 0 0.26717674565759131 0.061414912581717808 0 0.27082486665434358 0.062915996334918609 0 0.26717674565759131 0.061414912581717808 0 0.27155118646365262 0.060526364332906778 0 0.27082486665434358 0.062915996334918609 0 0.27155118646365262 0.060526364332906778 0 0.27082486665434358 0.062915996334918609 0 0.26803735397675288 0.057537922442449492 0 0.27155118646365262 0.060526364332906778 0 0.27155118646365262 0.060526364332906778 0 0.27961998430175328 0.060695812266760227 0 0.27767514445109232 0.065734664003783444 0 0.28229664577095948 0.054096220135532967 0 0.27155118646365262 0.060526364332906778 0 0.27961998430175328 0.060695812266760227 0 0.28354425329012439 0.021068516806879451 0 0.27754771987688809 0.040797440569893019 0 0.27332262009486957 0.033728107725222278 0 0.26803735397675288 0.057537922442449492 0 0.27754771987688809 0.040797440569893019 0 0.27332262009486957 0.033728107725222278 0 0.26803735397675288 0.057537922442449492 0 0.27332262009486957 0.033728107725222278 0 0.26337349528673171 0.044011131262296957 0 0.26803735397675288 0.057537922442449492 0 0.27332262009486957 0.033728107725222278 0 0.26667678125960848 0.028969541142501901 0 0.27332262009486957 0.033728107725222278 0 0.26423361753473251 0.034353016600981737 0 0.27332262009486957 0.033728107725222278 0 0.26337349528673171 0.044011131262296957 0 0.26423361753473251 0.034353016600981737 0 0.25978705670837199 0.02772172808684556 0 0.26423361753473251 0.034353016600981737 0 0.25704478259505842 0.035809011079610743 0 0.26337349528673171 0.044011131262296957 0 0.26423361753473251 0.034353016600981737 0 0.25704478259505842 0.035809011079610743 0 0.2492733855269578 0.041579555173777823 0 0.24818833723327199 0.02644705719899533 0 0.25704478259505842 0.035809011079610743 0 0.2492733855269578 0.041579555173777823 0 0.26337349528673171 0.044011131262296957 0 0.25704478259505842 0.035809011079610743 0 0.2492733855269578 0.041579555173777823 0 0.26803735397675288 0.057537922442449492 0 0.26337349528673171 0.044011131262296957 0 0.2492733855269578 0.041579555173777823 0 0.26803735397675288 0.057537922442449492 0 0.24629062771517271 0.052820950830226497 0 0.2492733855269578 0.041579555173777823 0 0.26803735397675288 0.057537922442449492 0 0.24874122334595 0.07170785510379532 0 0.24629062771517271 0.052820950830226497 0 0.26717674565759131 0.061414912581717808 0 0.24629062771517271 0.052820950830226497 0 0.26717674565759131 0.061414912581717808 0 0.24629062771517271 0.052820950830226497 0 0.26803735397675288 0.057537922442449492 0 0.26717674565759131 0.061414912581717808 0 0.24874122334595 0.07170785510379532 0 0.26717674565759131 0.061414912581717808 0 0.26207170159221099 0.084412837492877896 0 0.26717674565759131 0.061414912581717808 0 0.26207170159221099 0.084412837492877896 0 0.26717674565759131 0.061414912581717808 0 0.26459661937193729 0.083407271434054076 0 0.26207170159221099 0.084412837492877896 0 0.24736227196270541 0.090270970101712061 0 0.24874122334595 0.07170785510379532 0 0.26207170159221099 0.084412837492877896 0 0.24736227196270541 0.090270970101712061 0 0.26207170159221099 0.084412837492877896 0 0.24736227196270541 0.090270970101712061 0 0.26016144869860108 0.09301841504440217 0 0.25459763100830068 0.096141582858552177 0 0.24736227196270541 0.090270970101712061 0 0.26207170159221099 0.084412837492877896 0 0.26016144869860108 0.09301841504440217 0 0.24736227196270541 0.090270970101712061 0 0.25459763100830068 0.096141582858552177 0 0.26459661937193729 0.083407271434054076 0 0.26207170159221099 0.084412837492877896 0 0.26207170159221099 0.084412837492877896 0 0.26016144869860108 0.09301841504440217 0 0.26459661937193729 0.083407271434054076 0 0.2619867778419176 0.09199379318438361 0 0.26207170159221099 0.084412837492877896 0 0.2619867778419176 0.09199379318438361 0 0.26016144869860108 0.09301841504440217 0 0.26459661937193729 0.083407271434054076 0 0.26207170159221099 0.084412837492877896 0 0.2619867778419176 0.09199379318438361 0 0.2619867778419176 0.09199379318438361 0 0.26016144869860108 0.09301841504440217 0 0.26459661937193729 0.083407271434054076 0 0.28765643041333783 0.074223541376674432 0 0.26459661937193729 0.083407271434054076 0 0.27601190449835611 0.084120993139366301 0 0.28765643041333783 0.074223541376674432 0 0.2619867778419176 0.09199379318438361 0 0.27601190449835611 0.084120993139366301 0 0.27597760534302263 0.093816081557894046 0 0.2619867778419176 0.09199379318438361 0 0.27601190449835611 0.084120993139366301 0 0.26459661937193729 0.083407271434054076 0 0.2619867778419176 0.09199379318438361 0 0.27601190449835611 0.084120993139366301 0 0.27601190449835611 0.084120993139366301 0 0.28527214605629803 0.093542631019163408 0 0.27597760534302263 0.093816081557894046 0 0.26459661937193729 0.083407271434054076 0 0.27082486665434358 0.062915996334918609 0 0.26717674565759131 0.061414912581717808 0 0.26459661937193729 0.083407271434054076 0 0.27082486665434358 0.062915996334918609 0 0.26459661937193729 0.083407271434054076 0 0.27082486665434358 0.062915996334918609 0 0.27767514445109232 0.065734664003783444 0 0.26459661937193729 0.083407271434054076 0 0.27767514445109232 0.065734664003783444 0 0.28765643041333783 0.074223541376674432 0 0.27155118646365262 0.060526364332906778 0 0.27082486665434358 0.062915996334918609 0 0.27767514445109232 0.065734664003783444 0 0.27082486665434358 0.062915996334918609 0 0.27767514445109232 0.065734664003783444 0 0.27155118646365262 0.060526364332906778 0 0.27767514445109232 0.065734664003783444 0 0.27767514445109232 0.065734664003783444 0 0.28765643041333783 0.074223541376674432 0 0.27767514445109232 0.065734664003783444 0 0.29306802488508721 0.072068336257275281 0 0.28695696052130792 0.062426000594819037 0 0.27961998430175328 0.060695812266760227 0 0.27767514445109232 0.065734664003783444 0 0.28695696052130792 0.062426000594819037 0 0.27767514445109232 0.065734664003783444 0 0.29306802488508721 0.072068336257275281 0 0.28695696052130792 0.062426000594819037 0 0.29306802488508721 0.072068336257275281 0 0.29690158384745241 0.06457818982176422 0 0.29561576852942001 0.073116650333272012 0 0.29306802488508721 0.072068336257275281 0 0.29561576852942001 0.073116650333272012 0 0.29306802488508721 0.072068336257275281 0 0.29003703115479512 0.076248193094349867 0 0.29306802488508721 0.072068336257275281 0 0.28765643041333783 0.074223541376674432 0 0.29306802488508721 0.072068336257275281 0 0.29003703115479512 0.076248193094349867 0 0.28765643041333783 0.074223541376674432 0 0.29561576852942001 0.073116650333272012 0 0.29003703115479512 0.076248193094349867 0 0.27767514445109232 0.065734664003783444 0 0.29306802488508721 0.072068336257275281 0 0.28765643041333783 0.074223541376674432 0 0.29003703115479512 0.076248193094349867 0 0.28765643041333783 0.074223541376674432 0 0.27601190449835611 0.084120993139366301 0 0.29003703115479512 0.076248193094349867 0 0.27601190449835611 0.084120993139366301 0 0.29003703115479512 0.076248193094349867 0 0.28765643041333783 0.074223541376674432 0 0.27601190449835611 0.084120993139366301 0 0.29003703115479512 0.076248193094349867 0 0.28870857493654689 0.086239244916881869 0 0.27601190449835611 0.084120993139366301 0 0.28870857493654689 0.086239244916881869 0 0.28527214605629803 0.093542631019163408 0 0.28870857493654689 0.086239244916881869 0 0.28527214605629803 0.093542631019163408 0 0.29246213629446111 0.095768124011444758 0 0.28870857493654689 0.086239244916881869 0 0.29698271976236568 0.089899813846382556 0 0.29246213629446111 0.095768124011444758 0 0.29003703115479512 0.076248193094349867 0 0.28870857493654689 0.086239244916881869 0 0.29698271976236568 0.089899813846382556 0 0.29561576852942001 0.073116650333272012 0 0.29003703115479512 0.076248193094349867 0 0.31111548734401751 0.094174984339189319 0 0.29003703115479512 0.076248193094349867 0 0.31111548734401751 0.094174984339189319 0 0.29003703115479512 0.076248193094349867 0 0.29698271976236568 0.089899813846382556 0 0.31111548734401751 0.094174984339189319 0 0.3184977734976509 0.082531855017860187 0 0.29561576852942001 0.073116650333272012 0 0.31111548734401751 0.094174984339189319 0 0.3184977734976509 0.082531855017860187 0 0.29561576852942001 0.073116650333272012 0 0.3184977734976509 0.082531855017860187 0 0.29561576852942001 0.073116650333272012 0 0.30506359630307739 0.067813250175554993 0 0.31750720709783492 0.060828210965220328 0 0.30506359630307739 0.067813250175554993 0 0.29306802488508721 0.072068336257275281 0 0.30506359630307739 0.067813250175554993 0 0.29690158384745241 0.06457818982176422 0 0.30386903740065402 0.05697431224277244 0 0.30506359630307739 0.067813250175554993 0 0.29690158384745241 0.06457818982176422 0 0.29306802488508721 0.072068336257275281 0 0.30506359630307739 0.067813250175554993 0 0.29561576852942001 0.073116650333272012 0 0.30506359630307739 0.067813250175554993 0 0.29561576852942001 0.073116650333272012 0 0.29306802488508721 0.072068336257275281 0 0.30506359630307739 0.067813250175554993 0 0.31151194808720201 0.1150643222194616 0 0.30247500772594699 0.1071381656543656 0 0.29129275041579278 0.1172303442398579 0 0.31151194808720201 0.1150643222194616 0 0.29622008012258699 0.12991313160987961 0 0.32387679174541939 0.1297141718462434 0 0.31151194808720201 0.1150643222194616 0 0.29129275041579278 0.1172303442398579 0 0.29622008012258699 0.12991313160987961 0 0.31151194808720201 0.1150643222194616 0 0.31111548734401751 0.094174984339189319 0 0.30247500772594699 0.1071381656543656 0 0.31111548734401751 0.094174984339189319 0 0.30128354362195031 0.098124169066782854 0 0.30247500772594699 0.1071381656543656 0 0.29698271976236568 0.089899813846382556 0 0.30128354362195031 0.098124169066782854 0 0.29246213629446111 0.095768124011444758 0 0.29698271976236568 0.089899813846382556 0 0.31111548734401751 0.094174984339189319 0 0.30128354362195031 0.098124169066782854 0 0.30128354362195031 0.098124169066782854 0 0.30247500772594699 0.1071381656543656 0 0.29260899031297011 0.10538418601464609 0 0.29260899031297011 0.10538418601464609 0 0.29246213629446111 0.095768124011444758 0 0.28702757351663483 0.1001100210532227 0 0.30128354362195031 0.098124169066782854 0 0.29260899031297011 0.10538418601464609 0 0.29246213629446111 0.095768124011444758 0 0.28527214605629803 0.093542631019163408 0 0.29246213629446111 0.095768124011444758 0 0.28702757351663483 0.1001100210532227 0 0.28527214605629803 0.093542631019163408 0 0.28702757351663483 0.1001100210532227 0 0.28108272677848523 0.099874609951530163 0 0.29260899031297011 0.10538418601464609 0 0.28356239405763972 0.106033323917978 0 0.28664880997705461 0.11131452551203889 0 0.29260899031297011 0.10538418601464609 0 0.28702757351663483 0.1001100210532227 0 0.28356239405763972 0.106033323917978 0 0.28702757351663483 0.1001100210532227 0 0.28356239405763972 0.106033323917978 0 0.28108272677848523 0.099874609951530163 0 0.28356239405763972 0.106033323917978 0 0.2814598539497668 0.10990299155730229 0 0.28664880997705461 0.11131452551203889 0 0.27786688771157569 0.1150217509861922 0 0.29622008012258699 0.12991313160987961 0 0.28664880997705461 0.11131452551203889 0 0.29129275041579278 0.1172303442398579 0 0.27786688771157569 0.1150217509861922 0 0.27786688771157569 0.1150217509861922 0 0.27913813953766042 0.12972245958528131 0 0.29622008012258699 0.12991313160987961 0 0.29129275041579278 0.1172303442398579 0 0.27786688771157569 0.1150217509861922 0 0.29622008012258699 0.12991313160987961 0 0.2814598539497668 0.10990299155730229 0 0.28664880997705461 0.11131452551203889 0 0.27786688771157569 0.1150217509861922 0 0.30247500772594699 0.1071381656543656 0 0.29260899031297011 0.10538418601464609 0 0.29129275041579278 0.1172303442398579 0 0.29260899031297011 0.10538418601464609 0 0.28664880997705461 0.11131452551203889 0 0.29129275041579278 0.1172303442398579 0 0.27418517611644572 0.1163335826691398 0 0.26638390190257438 0.1102685147937751 0 0.25655208948606423 0.10927836717886751 0 0.27786688771157569 0.1150217509861922 0 0.27418517611644572 0.1163335826691398 0 0.27913813953766042 0.12972245958528131 0 0.27418517611644572 0.1163335826691398 0 0.27248198541775659 0.12784311929978001 0 0.27913813953766042 0.12972245958528131 0 0.2814598539497668 0.10990299155730229 0 0.27786688771157569 0.1150217509861922 0 0.27702128122739278 0.10689832557857171 0 0.27786688771157569 0.1150217509861922 0 0.27418517611644572 0.1163335826691398 0 0.26638390190257438 0.1102685147937751 0 0.27418517611644572 0.1163335826691398 0 0.26888095198589312 0.11979825388229511 0 0.26487973471170051 0.1148861259760711 0 0.27418517611644572 0.1163335826691398 0 0.26888095198589312 0.11979825388229511 0 0.27248198541775659 0.12784311929978001 0 0.26888095198589312 0.11979825388229511 0 0.26519442307348812 0.1188177922564181 0 0.26487973471170051 0.1148861259760711 0 0.26888095198589312 0.11979825388229511 0 0.26562400985315288 0.1251654340079911 0 0.27248198541775659 0.12784311929978001 0 0.26888095198589312 0.11979825388229511 0 0.26519442307348812 0.1188177922564181 0 0.26562400985315288 0.1251654340079911 0 0.27786688771157569 0.1150217509861922 0 0.26638390190257438 0.1102685147937751 0 0.25872482925013801 0.09949030162923457 0 0.27786688771157569 0.1150217509861922 0 0.25872482925013801 0.09949030162923457 0 0.27786688771157569 0.1150217509861922 0 0.27150352658480642 0.1040925172930806 0 0.25872482925013801 0.09949030162923457 0 0.28527214605629803 0.093542631019163408 0 0.27597760534302263 0.093816081557894046 0 0.28108272677848523 0.099874609951530163 0 0.27597760534302263 0.093816081557894046 0 0.28108272677848523 0.099874609951530163 0 0.27461357126647679 0.10027579108255071 0 0.27786688771157569 0.1150217509861922 0 0.27702128122739278 0.10689832557857171 0 0.27150352658480642 0.1040925172930806 0 0.27461357126647679 0.10027579108255071 0 0.27702128122739278 0.10689832557857171 0 0.27150352658480642 0.1040925172930806 0 0.28356239405763972 0.106033323917978 0 0.28108272677848523 0.099874609951530163 0 0.27702128122739278 0.10689832557857171 0 0.28108272677848523 0.099874609951530163 0 0.27461357126647679 0.10027579108255071 0 0.27702128122739278 0.10689832557857171 0 0.28356239405763972 0.106033323917978 0 0.2814598539497668 0.10990299155730229 0 0.27702128122739278 0.10689832557857171 0 0.2619867778419176 0.09199379318438361 0 0.27597760534302263 0.093816081557894046 0 0.26850219741802223 0.0981363484555835 0 0.27150352658480642 0.1040925172930806 0 0.26850219741802223 0.0981363484555835 0 0.25872482925013801 0.09949030162923457 0 0.27461357126647679 0.10027579108255071 0 0.27150352658480642 0.1040925172930806 0 0.26850219741802223 0.0981363484555835 0 0.27597760534302263 0.093816081557894046 0 0.27461357126647679 0.10027579108255071 0 0.26850219741802223 0.0981363484555835 0 0.2619867778419176 0.09199379318438361 0 0.26850219741802223 0.0981363484555835 0 0.25872482925013801 0.09949030162923457 0 0.2619867778419176 0.09199379318438361 0 0.26016144869860108 0.09301841504440217 0 0.25872482925013801 0.09949030162923457 0 0.2619867778419176 0.09199379318438361 0 0.25872482925013801 0.09949030162923457 0 0.26016144869860108 0.09301841504440217 0 0.25872482925013801 0.09949030162923457 0 0.26016144869860108 0.09301841504440217 0 0.25872482925013801 0.09949030162923457 0 0.25459763100830068 0.096141582858552177 0 0.26638390190257438 0.1102685147937751 0 0.25872482925013801 0.09949030162923457 0 0.26054083413963042 0.1068609537315081 0 0.26638390190257438 0.1102685147937751 0 0.26054083413963042 0.1068609537315081 0 0.25655208948606423 0.10927836717886751 0 0.25872482925013801 0.09949030162923457 0 0.258042440935632 0.10497087790269199 0 0.26054083413963042 0.1068609537315081 0 0.25872482925013801 0.09949030162923457 0 0.258042440935632 0.10497087790269199 0 0.258042440935632 0.10497087790269199 0 0.26054083413963042 0.1068609537315081 0 0.25655208948606423 0.10927836717886751 0 0.25872482925013801 0.09949030162923457 0 0.25655208948606423 0.10927836717886751 0 0.25872482925013801 0.09949030162923457 0 0.25655208948606423 0.10927836717886751 0 0.25459763100830068 0.096141582858552177 0 0.24174744587836799 0.1033548466348798 0 0.25655208948606423 0.10927836717886751 0 0.25459763100830068 0.096141582858552177 0 0.25872482925013801 0.09949030162923457 0 0.258042440935632 0.10497087790269199 0 0.25655208948606423 0.10927836717886751 0 0.25872482925013801 0.09949030162923457 0 0.25459763100830068 0.096141582858552177 0 0.26016144869860108 0.09301841504440217 0 0.25459763100830068 0.096141582858552177 0 0.27418517611644572 0.1163335826691398 0 0.25655208948606423 0.10927836717886751 0 0.26487973471170051 0.1148861259760711 0 0.27418517611644572 0.1163335826691398 0 0.25655208948606423 0.10927836717886751 0 0.2613903323121034 0.11972876860365821 0 0.25824300399834771 0.11754386918627879 0 0.25813574029091341 0.12532111527980791 0 0.2613903323121034 0.11972876860365821 0 0.25824300399834771 0.11754386918627879 0 0.26064106818342869 0.11649387083006101 0 0.2613903323121034 0.11972876860365821 0 0.26303182906276251 0.1167652494283456 0 0.26064106818342869 0.11649387083006101 0 0.2613903323121034 0.11972876860365821 0 0.25813574029091341 0.12532111527980791 0 0.26562400985315288 0.1251654340079911 0 0.2613903323121034 0.11972876860365821 0 0.26519442307348812 0.1188177922564181 0 0.26562400985315288 0.1251654340079911 0 0.2613903323121034 0.11972876860365821 0 0.26519442307348812 0.1188177922564181 0 0.26303182906276251 0.1167652494283456 0 0.26487973471170051 0.1148861259760711 0 0.2618287337373767 0.1148464313763837 0 0.2589676606418963 0.1122376160430168 0 0.25655208948606423 0.10927836717886751 0 0.26487973471170051 0.1148861259760711 0 0.2589676606418963 0.1122376160430168 0 0.26519442307348812 0.1188177922564181 0 0.26487973471170051 0.1148861259760711 0 0.26303182906276251 0.1167652494283456 0 0.26487973471170051 0.1148861259760711 0 0.2618287337373767 0.1148464313763837 0 0.26303182906276251 0.1167652494283456 0 0.2618287337373767 0.1148464313763837 0 0.26303182906276251 0.1167652494283456 0 0.26064106818342869 0.11649387083006101 0 0.2618287337373767 0.1148464313763837 0 0.26064106818342869 0.11649387083006101 0 0.26015078570541528 0.1146524558252945 0 0.2618287337373767 0.1148464313763837 0 0.2589676606418963 0.1122376160430168 0 0.26015078570541528 0.1146524558252945 0 0.2589676606418963 0.1122376160430168 0 0.26015078570541528 0.1146524558252945 0 0.25777400528710798 0.1147846643059361 0 0.25824300399834771 0.11754386918627879 0 0.26015078570541528 0.1146524558252945 0 0.25777400528710798 0.1147846643059361 0 0.25824300399834771 0.11754386918627879 0 0.26064106818342869 0.11649387083006101 0 0.26015078570541528 0.1146524558252945 0 0.24646482385440791 0.1109165710353929 0 0.25655208948606423 0.10927836717886751 0 0.255186127323073 0.11543194682551421 0 0.25824300399834771 0.11754386918627879 0 0.25777400528710798 0.1147846643059361 0 0.255186127323073 0.11543194682551421 0 0.2589676606418963 0.1122376160430168 0 0.25777400528710798 0.1147846643059361 0 0.255186127323073 0.11543194682551421 0 0.25655208948606423 0.10927836717886751 0 0.255186127323073 0.11543194682551421 0 0.25655208948606423 0.10927836717886751 0 0.2589676606418963 0.1122376160430168 0 0.255186127323073 0.11543194682551421 0 0.255186127323073 0.11543194682551421 0 0.25238596385504641 0.12804651946228041 0 0.24420216851797599 0.1292372680552665 0 0.255186127323073 0.11543194682551421 0 0.25238596385504641 0.12804651946228041 0 0.255186127323073 0.11543194682551421 0 0.25238596385504641 0.12804651946228041 0 0.25813574029091341 0.12532111527980791 0 0.25824300399834771 0.11754386918627879 0 0.255186127323073 0.11543194682551421 0 0.25813574029091341 0.12532111527980791 0 0.25238596385504641 0.12804651946228041 0 0.25813574029091341 0.12532111527980791 0 0.26818611498992623 0.1403022215883418 0 0.24420216851797599 0.1292372680552665 0 0.26818611498992623 0.1403022215883418 0 0.24301228879775941 0.13939302681245261 0 0.24420216851797599 0.1292372680552665 0 0.26818611498992623 0.1403022215883418 0 0.24420216851797599 0.1292372680552665 0 0.25238596385504641 0.12804651946228041 0 0.26818611498992623 0.1403022215883418 0 0.25813574029091341 0.12532111527980791 0 0.26562400985315288 0.1251654340079911 0 0.26818611498992623 0.1403022215883418 0 0.27248198541775659 0.12784311929978001 0 0.26818611498992623 0.1403022215883418 0 0.27913813953766042 0.12972245958528131 0 0.26562400985315288 0.1251654340079911 0 0.27248198541775659 0.12784311929978001 0 0.26818611498992623 0.1403022215883418 0 0.26818611498992623 0.1403022215883418 0 0.27913813953766042 0.12972245958528131 0 0.28414721419066807 0.1482284927670183 0 0.26818611498992623 0.1403022215883418 0 0.26583546295036609 0.16369396270660089 0 0.28414721419066807 0.1482284927670183 0 0.26818611498992623 0.1403022215883418 0 0.25486404381895789 0.1523024957907583 0 0.26583546295036609 0.16369396270660089 0 0.24301228879775941 0.13939302681245261 0 0.26818611498992623 0.1403022215883418 0 0.25486404381895789 0.1523024957907583 0 0.2424223085377801 0.16582077205563811 0 0.25486404381895789 0.1523024957907583 0 0.26583546295036609 0.16369396270660089 0 0.2424223085377801 0.16582077205563811 0 0.26032431562704572 0.18342712708893841 0 0.26583546295036609 0.16369396270660089 0 0.26032431562704572 0.18342712708893841 0 0.27712404590978218 0.18082877805207789 0 0.26583546295036609 0.16369396270660089 0 0.27712404590978218 0.18082877805207789 0 0.26583546295036609 0.16369396270660089 0 0.28977860037431658 0.16805367250728201 0 0.26583546295036609 0.16369396270660089 0 0.28977860037431658 0.16805367250728201 0 0.28414721419066807 0.1482284927670183 0 0.27712404590978218 0.18082877805207789 0 0.28977860037431658 0.16805367250728201 0 0.29478084704188562 0.18627619782702401 0 0.28977860037431658 0.16805367250728201 0 0.29478084704188562 0.18627619782702401 0 0.31259037162619269 0.16725562300018509 0 0.29478084704188562 0.18627619782702401 0 0.31732062797233113 0.1926592597090995 0 0.31259037162619269 0.16725562300018509 0 0.28977860037431658 0.16805367250728201 0 0.29946190776947251 0.15165108642358641 0 0.31259037162619269 0.16725562300018509 0 0.29946190776947251 0.15165108642358641 0 0.31457327253359829 0.14480451223356691 0 0.31259037162619269 0.16725562300018509 0 0.29946190776947251 0.15165108642358641 0 0.29622008012258699 0.12991313160987961 0 0.31457327253359829 0.14480451223356691 0 0.29622008012258699 0.12991313160987961 0 0.31457327253359829 0.14480451223356691 0 0.29622008012258699 0.12991313160987961 0 0.32387679174541939 0.1297141718462434 0 0.31457327253359829 0.14480451223356691 0 0.27913813953766042 0.12972245958528131 0 0.29622008012258699 0.12991313160987961 0 0.28414721419066807 0.1482284927670183 0 0.29946190776947251 0.15165108642358641 0 0.29622008012258699 0.12991313160987961 0 0.28414721419066807 0.1482284927670183 0 0.28977860037431658 0.16805367250728201 0 0.29946190776947251 0.15165108642358641 0 0.28414721419066807 0.1482284927670183 0 0.27355486584907379 0.24364475180805101 0 0.25452501640087027 0.2374112721999547 0 0.26408278890255732 0.22479217687295791 0 0.25404003316197471 0.25208422786308371 0 0.27355486584907379 0.24364475180805101 0 0.25452501640087027 0.2374112721999547 0 0.24523436150048811 0.24199469982198529 0 0.25404003316197471 0.25208422786308371 0 0.25452501640087027 0.2374112721999547 0 0.24868260911088891 0.2303107595792985 0 0.2471090749199483 0.2357199094212839 0 0.25452501640087027 0.2374112721999547 0 0.24868260911088891 0.2303107595792985 0 0.25452501640087027 0.2374112721999547 0 0.26408278890255732 0.22479217687295791 0 0.24868260911088891 0.2303107595792985 0 0.26408278890255732 0.22479217687295791 0 0.25357276657721323 0.21641202867955539 0 0.27355486584907379 0.24364475180805101 0 0.26408278890255732 0.22479217687295791 0 0.28109637724199782 0.22150209212538899 0 0.26408278890255732 0.22479217687295791 0 0.28109637724199782 0.22150209212538899 0 0.27306509823529962 0.19947215684549871 0 0.26408278890255732 0.22479217687295791 0 0.25357276657721323 0.21641202867955539 0 0.27306509823529962 0.19947215684549871 0 0.25357276657721323 0.21641202867955539 0 0.25471258750952741 0.20148162901819469 0 0.27306509823529962 0.19947215684549871 0 0.25357276657721323 0.21641202867955539 0 0.27306509823529962 0.19947215684549871 0 0.2418323282778008 0.1922485172988235 0 0.26032431562704572 0.18342712708893841 0 0.25471258750952741 0.20148162901819469 0 0.26032431562704572 0.18342712708893841 0 0.25471258750952741 0.20148162901819469 0 0.27306509823529962 0.19947215684549871 0 0.26032431562704572 0.18342712708893841 0 0.27712404590978218 0.18082877805207789 0 0.27306509823529962 0.19947215684549871 0 0.29478084704188562 0.18627619782702401 0 0.27306509823529962 0.19947215684549871 0 0.29788838547339219 0.20777731020547871 0 0.27712404590978218 0.18082877805207789 0 0.29478084704188562 0.18627619782702401 0 0.27306509823529962 0.19947215684549871 0 0.29478084704188562 0.18627619782702401 0 0.29788838547339219 0.20777731020547871 0 0.31732062797233113 0.1926592597090995 0 0.29788838547339219 0.20777731020547871 0 0.31916040529159301 0.2166328624030785 0 0.31732062797233113 0.1926592597090995 0 0.28109637724199782 0.22150209212538899 0 0.27306509823529962 0.19947215684549871 0 0.29788838547339219 0.20777731020547871 0 0.28109637724199782 0.22150209212538899 0 0.29788838547339219 0.20777731020547871 0 0.29668368374297521 0.23238313674276659 0 0.27355486584907379 0.24364475180805101 0 0.28109637724199782 0.22150209212538899 0 0.29668368374297521 0.23238313674276659 0 0.29788838547339219 0.20777731020547871 0 0.29668368374297521 0.23238313674276659 0 0.31916040529159301 0.2166328624030785 0 0.29692855903906679 0.25537037528416417 0 0.29668368374297521 0.23238313674276659 0 0.32448256229391081 0.244023600812113 0 0.29692855903906679 0.25537037528416417 0 0.27355486584907379 0.24364475180805101 0 0.29668368374297521 0.23238313674276659 0 0.32448256229391081 0.244023600812113 0 0.33724611662768478 0.226971671205 0 0.35052125483258301 0.2434514759103418 0 0.32448256229391081 0.244023600812113 0 0.33724611662768478 0.226971671205 0 0.31916040529159301 0.2166328624030785 0 0.29668368374297521 0.23238313674276659 0 0.32448256229391081 0.244023600812113 0 0.31916040529159301 0.2166328624030785 0 0.33724611662768478 0.226971671205 0 0.31916040529159301 0.2166328624030785 0 0.34036716376080012 0.20191553243135291 0 0.31916040529159301 0.2166328624030785 0 0.31732062797233113 0.1926592597090995 0 0.34036716376080012 0.20191553243135291 0 0.31732062797233113 0.1926592597090995 0 0.34036716376080012 0.20191553243135291 0 0.33327910971122948 0.1769249887409369 0 0.34036716376080012 0.20191553243135291 0 0.33327910971122948 0.1769249887409369 0 0.35363051640006049 0.1838751638919715 0 0.34036716376080012 0.20191553243135291 0 0.36940151407566268 0.20038014978660379 0 0.35363051640006049 0.1838751638919715 0 0.36940151407566268 0.20038014978660379 0 0.35418005050780299 0.2186338278764331 0 0.36970064025412291 0.2313836502337521 0 0.34036716376080012 0.20191553243135291 0 0.36940151407566268 0.20038014978660379 0 0.35418005050780299 0.2186338278764331 0 0.33724611662768478 0.226971671205 0 0.34036716376080012 0.20191553243135291 0 0.35418005050780299 0.2186338278764331 0 0.33724611662768478 0.226971671205 0 0.35418005050780299 0.2186338278764331 0 0.35052125483258301 0.2434514759103418 0 0.35418005050780299 0.2186338278764331 0 0.36970064025412291 0.2313836502337521 0 0.35052125483258301 0.2434514759103418 0 0.37478492512234668 0.26235925763296819 0 0.36970064025412291 0.2313836502337521 0 0.35052125483258301 0.2434514759103418 0 0.33497932682518311 0.1519205034936916 0 0.32387679174541939 0.1297141718462434 0 0.35327239972246333 0.1300285668288671 0 0.33497932682518311 0.1519205034936916 0 0.31457327253359829 0.14480451223356691 0 0.31259037162619269 0.16725562300018509 0 0.33497932682518311 0.1519205034936916 0 0.32387679174541939 0.1297141718462434 0 0.31457327253359829 0.14480451223356691 0 0.33497932682518311 0.1519205034936916 0 0.31259037162619269 0.16725562300018509 0 0.33327910971122948 0.1769249887409369 0 0.31732062797233113 0.1926592597090995 0 0.31259037162619269 0.16725562300018509 0 0.33327910971122948 0.1769249887409369 0 0.33497932682518311 0.1519205034936916 0 0.33327910971122948 0.1769249887409369 0 0.34907151432127381 0.16521020144779211 0 0.34907151432127381 0.16521020144779211 0 0.35363051640006049 0.1838751638919715 0 0.37277469716236061 0.17385369407461371 0 0.33327910971122948 0.1769249887409369 0 0.34907151432127381 0.16521020144779211 0 0.35363051640006049 0.1838751638919715 0 0.36940151407566268 0.20038014978660379 0 0.35363051640006049 0.1838751638919715 0 0.37277469716236061 0.17385369407461371 0 0.37277469716236061 0.17385369407461371 0 0.36285879787080821 0.15032831482926681 0 0.3843829660287168 0.1587008111838667 0 0.34907151432127381 0.16521020144779211 0 0.37277469716236061 0.17385369407461371 0 0.36285879787080821 0.15032831482926681 0 0.36285879787080821 0.15032831482926681 0 0.36938385952287339 0.13266757129752671 0 0.38232915319187621 0.14145147187989651 0 0.33497932682518311 0.1519205034936916 0 0.36285879787080821 0.15032831482926681 0 0.35327239972246333 0.1300285668288671 0 0.33497932682518311 0.1519205034936916 0 0.34907151432127381 0.16521020144779211 0 0.36285879787080821 0.15032831482926681 0 0.36649271172908648 0.1176987398754743 0 0.35327239972246333 0.1300285668288671 0 0.36938385952287339 0.13266757129752671 0 0.36285879787080821 0.15032831482926681 0 0.35327239972246333 0.1300285668288671 0 0.36938385952287339 0.13266757129752671 0 0.39421974672685411 0.13240309148155921 0 0.38232915319187621 0.14145147187989651 0 0.38138511069115272 0.12353481432135879 0 0.36938385952287339 0.13266757129752671 0 0.38232915319187621 0.14145147187989651 0 0.38138511069115272 0.12353481432135879 0 0.39421974672685411 0.13240309148155921 0 0.41199731756477831 0.13352747615702071 0 0.3942733283070321 0.11371104406223111 0 0.39421974672685411 0.13240309148155921 0 0.40120830104283178 0.15077536395034899 0 0.41199731756477831 0.13352747615702071 0 0.39421974672685411 0.13240309148155921 0 0.40120830104283178 0.15077536395034899 0 0.38232915319187621 0.14145147187989651 0 0.36285879787080821 0.15032831482926681 0 0.38232915319187621 0.14145147187989651 0 0.3843829660287168 0.1587008111838667 0 0.40120830104283178 0.15077536395034899 0 0.38232915319187621 0.14145147187989651 0 0.3843829660287168 0.1587008111838667 0 0.37277469716236061 0.17385369407461371 0 0.3843829660287168 0.1587008111838667 0 0.39936082591505218 0.176604797209717 0 0.37277469716236061 0.17385369407461371 0 0.39936082591505218 0.176604797209717 0 0.38992891259608609 0.19548318162929729 0 0.40120830104283178 0.15077536395034899 0 0.39936082591505218 0.176604797209717 0 0.41410660213767347 0.1652382216241598 0 0.40120830104283178 0.15077536395034899 0 0.3843829660287168 0.1587008111838667 0 0.39936082591505218 0.176604797209717 0 0.40120830104283178 0.15077536395034899 0 0.41410660213767347 0.1652382216241598 0 0.42972130682252457 0.1533439082518103 0 0.39936082591505218 0.176604797209717 0 0.41410660213767347 0.1652382216241598 0 0.42626679864566441 0.18172907206941921 0 0.42626679864566441 0.18172907206941921 0 0.42972130682252457 0.1533439082518103 0 0.45055708181009879 0.1690731760043504 0 0.41410660213767347 0.1652382216241598 0 0.42626679864566441 0.18172907206941921 0 0.42972130682252457 0.1533439082518103 0 0.42972130682252457 0.1533439082518103 0 0.43054248402473921 0.1250848439374013 0 0.44904083753606949 0.1441389705362057 0 0.42972130682252457 0.1533439082518103 0 0.43054248402473921 0.1250848439374013 0 0.41199731756477831 0.13352747615702071 0 0.43054248402473921 0.1250848439374013 0 0.41199731756477831 0.13352747615702071 0 0.41135066019799099 0.1182158826350982 0 0.40120830104283178 0.15077536395034899 0 0.42972130682252457 0.1533439082518103 0 0.41199731756477831 0.13352747615702071 0 0.42972130682252457 0.1533439082518103 0 0.41199731756477831 0.13352747615702071 0 0.40097752291506289 0.25902709479471048 0 0.39333580902427501 0.24081282939082621 0 0.41286841049430861 0.24788583003777651 0 0.37478492512234668 0.26235925763296819 0 0.36970064025412291 0.2313836502337521 0 0.39333580902427501 0.24081282939082621 0 0.36970064025412291 0.2313836502337521 0 0.39333580902427501 0.24081282939082621 0 0.39338333076520482 0.2163019563834182 0 0.39338333076520482 0.2163019563834182 0 0.41736514745474701 0.23222376298023259 0 0.39333580902427501 0.24081282939082621 0 0.39338333076520482 0.2163019563834182 0 0.41736514745474701 0.23222376298023259 0 0.39338333076520482 0.2163019563834182 0 0.38992891259608609 0.19548318162929729 0 0.41508715600771068 0.20488700545500521 0 0.36940151407566268 0.20038014978660379 0 0.39338333076520482 0.2163019563834182 0 0.36940151407566268 0.20038014978660379 0 0.39338333076520482 0.2163019563834182 0 0.38992891259608609 0.19548318162929729 0 0.36940151407566268 0.20038014978660379 0 0.36970064025412291 0.2313836502337521 0 0.39338333076520482 0.2163019563834182 0 0.36940151407566268 0.20038014978660379 0 0.37277469716236061 0.17385369407461371 0 0.38992891259608609 0.19548318162929729 0 0.39936082591505218 0.176604797209717 0 0.38992891259608609 0.19548318162929729 0 0.41508715600771068 0.20488700545500521 0 0.39936082591505218 0.176604797209717 0 0.42626679864566441 0.18172907206941921 0 0.41508715600771068 0.20488700545500521 0 0.42626679864566441 0.18172907206941921 0 0.44140000057487638 0.20455834627575151 0 0.44473765559285833 0.18692520255949671 0 0.42626679864566441 0.18172907206941921 0 0.41508715600771068 0.20488700545500521 0 0.44140000057487638 0.20455834627575151 0 0.41508715600771068 0.20488700545500521 0 0.43790507610234408 0.2273079216372012 0 0.44140000057487638 0.20455834627575151 0 0.39338333076520482 0.2163019563834182 0 0.41508715600771068 0.20488700545500521 0 0.41736514745474701 0.23222376298023259 0 0.41508715600771068 0.20488700545500521 0 0.41736514745474701 0.23222376298023259 0 0.43790507610234408 0.2273079216372012 0 0.42717012070777932 0.25569493195645271 0 0.41736514745474701 0.23222376298023259 0 0.44134696414428898 0.24814556957704689 0 0.41736514745474701 0.23222376298023259 0 0.44134696414428898 0.24814556957704689 0 0.41736514745474701 0.23222376298023259 0 0.44134696414428898 0.24814556957704689 0 0.43790507610234408 0.2273079216372012 0 0.39333580902427501 0.24081282939082621 0 0.41736514745474701 0.23222376298023259 0 0.41286841049430861 0.24788583003777651 0 0.42717012070777932 0.25569493195645271 0 0.41736514745474701 0.23222376298023259 0 0.41286841049430861 0.24788583003777651 0 0.45336271850049548 0.25236276911819511 0 0.45602225988021539 0.23816249748875179 0 0.48180965237011408 0.2487438147612096 0 0.45336271850049548 0.25236276911819511 0 0.45602225988021539 0.23816249748875179 0 0.44134696414428898 0.24814556957704689 0 0.44600400848591359 0.23698591979390529 0 0.43790507610234408 0.2273079216372012 0 0.45336271850049548 0.25236276911819511 0 0.44134696414428898 0.24814556957704689 0 0.44600400848591359 0.23698591979390529 0 0.45336271850049548 0.25236276911819511 0 0.45602225988021539 0.23816249748875179 0 0.44600400848591359 0.23698591979390529 0 0.45602225988021539 0.23816249748875179 0 0.44600400848591359 0.23698591979390529 0 0.45492939023952461 0.2194397610932603 0 0.44600400848591359 0.23698591979390529 0 0.43790507610234408 0.2273079216372012 0 0.45492939023952461 0.2194397610932603 0 0.45602225988021539 0.23816249748875179 0 0.45492939023952461 0.2194397610932603 0 0.47419086539053962 0.2296972043723752 0 0.45492939023952461 0.2194397610932603 0 0.46072674134079361 0.19234021588846559 0 0.47847088324409548 0.2092058758105422 0 0.45492939023952461 0.2194397610932603 0 0.44140000057487638 0.20455834627575151 0 0.46072674134079361 0.19234021588846559 0 0.43790507610234408 0.2273079216372012 0 0.45492939023952461 0.2194397610932603 0 0.44140000057487638 0.20455834627575151 0 0.44140000057487638 0.20455834627575151 0 0.46072674134079361 0.19234021588846559 0 0.44473765559285833 0.18692520255949671 0 0.46072674134079361 0.19234021588846559 0 0.4812983336831132 0.1885899983914231 0 0.47847088324409548 0.2092058758105422 0 0.4812983336831132 0.1885899983914231 0 0.5 0.19797878532577309 0 0.47847088324409548 0.2092058758105422 0 0.5 0.19797878532577309 0 0.47847088324409548 0.2092058758105422 0 0.5 0.22793385045351919 0 0.47847088324409548 0.2092058758105422 0 0.47419086539053962 0.2296972043723752 0 0.5 0.22793385045351919 0 0.45492939023952461 0.2194397610932603 0 0.47847088324409548 0.2092058758105422 0 0.47419086539053962 0.2296972043723752 0 0.5 0.25788891558126559 0 0.5 0.22793385045351919 0 0.48180965237011408 0.2487438147612096 0 0.47419086539053962 0.2296972043723752 0 0.5 0.22793385045351919 0 0.48180965237011408 0.2487438147612096 0 0.45602225988021539 0.23816249748875179 0 0.47419086539053962 0.2296972043723752 0 0.48180965237011408 0.2487438147612096 0 0.46287167922105149 0.15545842773829099 0 0.44904083753606949 0.1441389705362057 0 0.45055708181009879 0.1690731760043504 0 0.46287167922105149 0.15545842773829099 0 0.46355845200513762 0.13850516077978961 0 0.47909635670674228 0.14767892477560191 0 0.46287167922105149 0.15545842773829099 0 0.46355845200513762 0.13850516077978961 0 0.44904083753606949 0.1441389705362057 0 0.46355845200513762 0.13850516077978961 0 0.47795750643906171 0.12649365297180731 0 0.4559740449914913 0.1245921335342187 0 0.46355845200513762 0.13850516077978961 0 0.44904083753606949 0.1441389705362057 0 0.4559740449914913 0.1245921335342187 0 0.43054248402473921 0.1250848439374013 0 0.44904083753606949 0.1441389705362057 0 0.4559740449914913 0.1245921335342187 0 0.42972130682252457 0.1533439082518103 0 0.44904083753606949 0.1441389705362057 0 0.45055708181009879 0.1690731760043504 0 0.42626679864566441 0.18172907206941921 0 0.45055708181009879 0.1690731760043504 0 0.44473765559285833 0.18692520255949671 0 0.46072674134079361 0.19234021588846559 0 0.45055708181009879 0.1690731760043504 0 0.44473765559285833 0.18692520255949671 0 0.46072674134079361 0.19234021588846559 0 0.45055708181009879 0.1690731760043504 0 0.4752785409050499 0.1685484481011886 0 0.46287167922105149 0.15545842773829099 0 0.45055708181009879 0.1690731760043504 0 0.4752785409050499 0.1685484481011886 0 0.45055708181009879 0.1690731760043504 0 0.4752785409050499 0.1685484481011886 0 0.46287167922105149 0.15545842773829099 0 0.4752785409050499 0.1685484481011886 0 0.47909635670674228 0.14767892477560191 0 0.46072674134079361 0.19234021588846559 0 0.4812983336831132 0.1885899983914231 0 0.4752785409050499 0.1685484481011886 0 0.4812983336831132 0.1885899983914231 0 0.4752785409050499 0.1685484481011886 0 0.50000000000000111 0.1680237201980268 0 0.4812983336831132 0.1885899983914231 0 0.5 0.19797878532577309 0 0.50000000000000111 0.1680237201980268 0 0.4752785409050499 0.1685484481011886 0 0.50000000000000111 0.1680237201980268 0 0.4752785409050499 0.1685484481011886 0 0.50000000000000111 0.1680237201980268 0 0.47909635670674228 0.14767892477560191 0 0.50000000000000111 0.1680237201980268 0 0.5 0.14405257421324749 0 0.47909635670674228 0.14767892477560191 0 0.46355845200513762 0.13850516077978961 0 0.47909635670674228 0.14767892477560191 0 0.47795750643906171 0.12649365297180731 0 0.5 0.14405257421324749 0 0.47795750643906171 0.12649365297180731 0 0.5 0.12008142822846821 0 0.5 0.14405257421324749 0 0.47909635670674228 0.14767892477560191 0 0.47795750643906171 0.12649365297180731 0 0.47795750643906171 0.12649365297180731 0 0.5 0.12008142822846821 0 0.48437617198066579 0.1083096126220475 0 0.48437617198066579 0.1083096126220475 0 0.5 0.096110282243688894 0 0.4787628640296252 0.09057766153942011 0 0.5 0.12008142822846821 0 0.48437617198066579 0.1083096126220475 0 0.5 0.096110282243688894 0 0.48437617198066579 0.1083096126220475 0 0.4787628640296252 0.09057766153942011 0 0.46516048943464161 0.10828503812685281 0 0.47795750643906171 0.12649365297180731 0 0.48437617198066579 0.1083096126220475 0 0.46516048943464161 0.10828503812685281 0 0.49999999999999389 0.072139136258909636 0 0.47264706529987838 0.068582714068275596 0 0.5 0.096110282243688894 0 0.49999999999999389 0.072139136258909636 0 0.4787628640296252 0.09057766153942011 0 0.49999999999999389 0.072139136258909636 0 0.4787628640296252 0.09057766153942011 0 0.47264706529987838 0.068582714068275596 0 0.47264706529987838 0.068582714068275596 0 0.44529413059976319 0.065026291877640793 0 0.47264706529987838 0.068582714068275596 0 0.45009241250792742 0.089848104882156193 0 0.44529413059976319 0.065026291877640793 0 0.4787628640296252 0.09057766153942011 0 0.47264706529987838 0.068582714068275596 0 0.45009241250792742 0.089848104882156193 0 0.45009241250792742 0.089848104882156193 0 0.44529413059976319 0.065026291877640793 0 0.42710943965072512 0.080764761008918995 0 0.4559740449914913 0.1245921335342187 0 0.46516048943464161 0.10828503812685281 0 0.44660059903698529 0.1095612823054605 0 0.47795750643906171 0.12649365297180731 0 0.4559740449914913 0.1245921335342187 0 0.46516048943464161 0.10828503812685281 0 0.45009241250792742 0.089848104882156193 0 0.46516048943464161 0.10828503812685281 0 0.44660059903698529 0.1095612823054605 0 0.4787628640296252 0.09057766153942011 0 0.45009241250792742 0.089848104882156193 0 0.46516048943464161 0.10828503812685281 0 0.45009241250792742 0.089848104882156193 0 0.44660059903698529 0.1095612823054605 0 0.42999027194599682 0.1018780191517587 0 0.43054248402473921 0.1250848439374013 0 0.4559740449914913 0.1245921335342187 0 0.44660059903698529 0.1095612823054605 0 0.43054248402473921 0.1250848439374013 0 0.44660059903698529 0.1095612823054605 0 0.42999027194599682 0.1018780191517587 0 0.43054248402473921 0.1250848439374013 0 0.41661501870526302 0.10782610780512 0 0.42999027194599682 0.1018780191517587 0 0.43054248402473921 0.1250848439374013 0 0.41135066019799099 0.1182158826350982 0 0.41661501870526302 0.10782610780512 0 0.43054248402473921 0.1250848439374013 0 0.41135066019799099 0.1182158826350982 0 0.41135066019799099 0.1182158826350982 0 0.41661501870526302 0.10782610780512 0 0.40605193543095291 0.1101899923625959 0 0.41199731756477831 0.13352747615702071 0 0.40856435551682457 0.1195913393650266 0 0.41135066019799099 0.1182158826350982 0 0.41661501870526302 0.10782610780512 0 0.42999027194599682 0.1018780191517587 0 0.41050144950628809 0.092342992232264526 0 0.41661501870526302 0.10782610780512 0 0.41050144950628809 0.092342992232264526 0 0.40408322644931421 0.10337105767737099 0 0.41661501870526302 0.10782610780512 0 0.40605193543095291 0.1101899923625959 0 0.40408322644931421 0.10337105767737099 0 0.45009241250792742 0.089848104882156193 0 0.42999027194599682 0.1018780191517587 0 0.42710943965072512 0.080764761008918995 0 0.42999027194599682 0.1018780191517587 0 0.42710943965072512 0.080764761008918995 0 0.41050144950628809 0.092342992232264526 0 0.44529413059976319 0.065026291877640793 0 0.42710943965072512 0.080764761008918995 0 0.41794119589964812 0.061469869687005997 0 0.44529413059976319 0.065026291877640793 0 0.41794119589964812 0.061469869687005997 0 0.42710943965072512 0.080764761008918995 0 0.40780427562880051 0.074340584248736047 0 0.41794119589964812 0.061469869687005997 0 0.42710943965072512 0.080764761008918995 0 0.40780427562880051 0.074340584248736047 0 0.41050144950628809 0.092342992232264526 0 0.41050144950628809 0.092342992232264526 0 0.39288103188780799 0.079211850819119467 0 0.39173805803946632 0.094638931286680023 0 0.40780427562880051 0.074340584248736047 0 0.41050144950628809 0.092342992232264526 0 0.39288103188780799 0.079211850819119467 0 0.40780427562880051 0.074340584248736047 0 0.39058826119953283 0.057913447496371839 0 0.41794119589964812 0.061469869687005997 0 0.40780427562880051 0.074340584248736047 0 0.39288103188780799 0.079211850819119467 0 0.39058826119953283 0.057913447496371839 0 0.39288103188780799 0.079211850819119467 0 0.37575225644292037 0.071709270247263784 0 0.39058826119953283 0.057913447496371839 0 0.3742009225581896 0.091268948227223284 0 0.39288103188780799 0.079211850819119467 0 0.39173805803946632 0.094638931286680023 0 0.3742009225581896 0.091268948227223284 0 0.39288103188780799 0.079211850819119467 0 0.37575225644292037 0.071709270247263784 0 0.3742009225581896 0.091268948227223284 0 0.39215883637124299 0.11134692133279479 0 0.39173805803946632 0.094638931286680023 0 0.3742009225581896 0.091268948227223284 0 0.39215883637124299 0.11134692133279479 0 0.3742009225581896 0.091268948227223284 0 0.3795225325030368 0.1068242515199407 0 0.39215883637124299 0.11134692133279479 0 0.3795225325030368 0.1068242515199407 0 0.39215883637124299 0.11134692133279479 0 0.3795225325030368 0.1068242515199407 0 0.38138511069115272 0.12353481432135879 0 0.3942733283070321 0.11371104406223111 0 0.36649271172908648 0.1176987398754743 0 0.3795225325030368 0.1068242515199407 0 0.38138511069115272 0.12353481432135879 0 0.39421974672685411 0.13240309148155921 0 0.38138511069115272 0.12353481432135879 0 0.3942733283070321 0.11371104406223111 0 0.3795225325030368 0.1068242515199407 0 0.3942733283070321 0.11371104406223111 0 0.3795225325030368 0.1068242515199407 0 0.39215883637124299 0.11134692133279479 0 0.3942733283070321 0.11371104406223111 0 0.41135066019799099 0.1182158826350982 0 0.39215883637124299 0.11134692133279479 0 0.40605193543095291 0.1101899923625959 0 0.41135066019799099 0.1182158826350982 0 0.39215883637124299 0.11134692133279479 0 0.3942733283070321 0.11371104406223111 0 0.41135066019799099 0.1182158826350982 0 0.39215883637124299 0.11134692133279479 0 0.41199731756477831 0.13352747615702071 0 0.40856435551682457 0.1195913393650266 0 0.3942733283070321 0.11371104406223111 0 0.41199731756477831 0.13352747615702071 0 0.3942733283070321 0.11371104406223111 0 0.40856435551682457 0.1195913393650266 0 0.41135066019799099 0.1182158826350982 0 0.3942733283070321 0.11371104406223111 0 0.39215883637124299 0.11134692133279479 0 0.3942733283070321 0.11371104406223111 0 0.40856435551682457 0.1195913393650266 0 0.3942733283070321 0.11371104406223111 0 0.39215883637124299 0.11134692133279479 0 0.40408322644931421 0.10337105767737099 0 0.39173805803946632 0.094638931286680023 0 0.39215883637124299 0.11134692133279479 0 0.40605193543095291 0.1101899923625959 0 0.40408322644931421 0.10337105767737099 0 0.41050144950628809 0.092342992232264526 0 0.40408322644931421 0.10337105767737099 0 0.39173805803946632 0.094638931286680023 0 0.4038432128890253 0.016274120358417851 0 0.39452024459155199 0.029629145094844 0 0.3798040161112804 0.028996110171619349 0 0.4038432128890253 0.016274120358417851 0 0.39452024459155199 0.029629145094844 0 0.40714332068978548 0.032011032787191827 0 0.4038432128890253 0.016274120358417851 0 0.3798040161112804 0.028996110171619349 0 0.4038432128890253 0.016274120358417851 0 0.39390920682105918 0.0040204267233196643 0 0.38813729234829519 0.016219836643301819 0 0.4038432128890253 0.016274120358417851 0 0.39390920682105918 0.0040204267233196643 0 0.40369857438468087 -0.0060371637805465179 0 0.39390920682105918 0.0040204267233196643 0 0.38212023564171321 0.001094655884648786 0 0.38813729234829519 0.016219836643301819 0 0.38212023564171321 0.001094655884648786 0 0.37537418671591988 0.012891754799621079 0 0.3700201466167648 -0.002195575246397889 0 0.38212023564171321 0.001094655884648786 0 0.37537418671591988 0.012891754799621079 0 0.38813729234829519 0.016219836643301819 0 0.38029426512156322 0.021339738828328979 0 0.38813729234829519 0.016219836643301819 0 0.3798040161112804 0.028996110171619349 0 0.4038432128890253 0.016274120358417851 0 0.38813729234829519 0.016219836643301819 0 0.3798040161112804 0.028996110171619349 0 0.37537418671591988 0.012891754799621079 0 0.38029426512156322 0.021339738828328979 0 0.37786156531075732 0.02725125369877367 0 0.37537418671591988 0.012891754799621079 0 0.38029426512156322 0.021339738828328979 0 0.38813729234829519 0.016219836643301819 0 0.39452024459155199 0.029629145094844 0 0.3798040161112804 0.028996110171619349 0 0.384792923869274 0.033192425096464057 0 0.38029426512156322 0.021339738828328979 0 0.3798040161112804 0.028996110171619349 0 0.37786156531075732 0.02725125369877367 0 0.36984281421283938 0.03924660656396721 0 0.3798040161112804 0.028996110171619349 0 0.37675727284589372 0.036323400775862158 0 0.3798040161112804 0.028996110171619349 0 0.38012370578730592 0.033949837724153123 0 0.37675727284589372 0.036323400775862158 0 0.3798040161112804 0.028996110171619349 0 0.38012370578730592 0.033949837724153123 0 0.384792923869274 0.033192425096464057 0 0.38012370578730592 0.033949837724153123 0 0.38115894465086869 0.037510150111343843 0 0.384792923869274 0.033192425096464057 0 0.38012370578730592 0.033949837724153123 0 0.38115894465086869 0.037510150111343843 0 0.37675727284589372 0.036323400775862158 0 0.38115894465086869 0.037510150111343843 0 0.37675727284589372 0.036323400775862158 0 0.37726993283737248 0.041439113600633092 0 0.37726993283737248 0.041439113600633092 0 0.38325871491723518 0.0441773091346798 0 0.37608467898805159 0.048096788967416412 0 0.38115894465086869 0.037510150111343843 0 0.37726993283737248 0.041439113600633092 0 0.38325871491723518 0.0441773091346798 0 0.38115894465086869 0.037510150111343843 0 0.38325871491723518 0.0441773091346798 0 0.38884635116990662 0.036871995634108659 0 0.38325871491723518 0.0441773091346798 0 0.38884635116990662 0.036871995634108659 0 0.39118926401298038 0.043344116461786472 0 0.39452024459155199 0.029629145094844 0 0.38884635116990662 0.036871995634108659 0 0.384792923869274 0.033192425096464057 0 0.38115894465086869 0.037510150111343843 0 0.38884635116990662 0.036871995634108659 0 0.384792923869274 0.033192425096464057 0 0.36737709041569239 0.056764699852256018 0 0.39058826119953283 0.057913447496371839 0 0.36443667806580698 0.054513224756226962 0 0.37608467898805159 0.048096788967416412 0 0.39058826119953283 0.057913447496371839 0 0.36737709041569239 0.056764699852256018 0 0.37575225644292037 0.071709270247263784 0 0.39058826119953283 0.057913447496371839 0 0.36443667806580698 0.054513224756226962 0 0.39058826119953283 0.057913447496371839 0 0.38325871491723518 0.0441773091346798 0 0.37608467898805159 0.048096788967416412 0 0.39058826119953283 0.057913447496371839 0 0.38325871491723518 0.0441773091346798 0 0.39058826119953283 0.057913447496371839 0 0.39118926401298038 0.043344116461786472 0 0.39058826119953283 0.057913447496371839 0 0.39917917489280202 0.048669550515315511 0 0.40824027372044169 0.058787065978875973 0 0.39058826119953283 0.057913447496371839 0 0.40824027372044169 0.058787065978875973 0 0.39058826119953283 0.057913447496371839 0 0.41794119589964812 0.061469869687005997 0 0.40824027372044169 0.058787065978875973 0 0.39058826119953283 0.057913447496371839 0 0.41794119589964812 0.061469869687005997 0 0.39058826119953283 0.057913447496371839 0 0.39917917489280202 0.048669550515315511 0 0.39118926401298038 0.043344116461786472 0 0.39917917489280202 0.048669550515315511 0 0.40803146459590139 0.044566129264659721 0 0.40824027372044169 0.058787065978875973 0 0.39452024459155199 0.029629145094844 0 0.38884635116990662 0.036871995634108659 0 0.39784661093515339 0.038736993374884177 0 0.39917917489280202 0.048669550515315511 0 0.39784661093515339 0.038736993374884177 0 0.39118926401298038 0.043344116461786472 0 0.38884635116990662 0.036871995634108659 0 0.39784661093515339 0.038736993374884177 0 0.39118926401298038 0.043344116461786472 0 0.39917917489280202 0.048669550515315511 0 0.39784661093515339 0.038736993374884177 0 0.40803146459590139 0.044566129264659721 0 0.39452024459155199 0.029629145094844 0 0.39784661093515339 0.038736993374884177 0 0.40714332068978548 0.032011032787191827 0 0.39784661093515339 0.038736993374884177 0 0.40714332068978548 0.032011032787191827 0 0.40803146459590139 0.044566129264659721 0 0.40714332068978548 0.032011032787191827 0 0.40803146459590139 0.044566129264659721 0 0.41964440497126981 0.040250358009145122 0 0.40803146459590139 0.044566129264659721 0 0.41964440497126981 0.040250358009145122 0 0.41733432138732551 0.050785193364838402 0 0.40714332068978548 0.032011032787191827 0 0.41964440497126981 0.040250358009145122 0 0.41891932927970088 0.026081136014491389 0 0.40824027372044169 0.058787065978875973 0 0.41733432138732551 0.050785193364838402 0 0.42589228624135061 0.059660684461379461 0 0.40824027372044169 0.058787065978875973 0 0.42589228624135061 0.059660684461379461 0 0.41794119589964812 0.061469869687005997 0 0.40824027372044169 0.058787065978875973 0 0.42589228624135061 0.059660684461379461 0 0.40803146459590139 0.044566129264659721 0 0.40824027372044169 0.058787065978875973 0 0.41733432138732551 0.050785193364838402 0 0.41964440497126981 0.040250358009145122 0 0.41733432138732551 0.050785193364838402 0 0.42647272639553008 0.050672874727357403 0 0.44529413059976319 0.065026291877640793 0 0.42589228624135061 0.059660684461379461 0 0.43583307009461808 0.053135938561971199 0 0.44529413059976319 0.065026291877640793 0 0.41794119589964812 0.061469869687005997 0 0.42589228624135061 0.059660684461379461 0 0.42589228624135061 0.059660684461379461 0 0.42647272639553008 0.050672874727357403 0 0.43583307009461808 0.053135938561971199 0 0.41733432138732551 0.050785193364838402 0 0.42589228624135061 0.059660684461379461 0 0.42647272639553008 0.050672874727357403 0 0.42647272639553008 0.050672874727357403 0 0.43583307009461808 0.053135938561971199 0 0.4340740022190257 0.043822740937536728 0 0.41964440497126981 0.040250358009145122 0 0.42987588244635011 0.033334548906864728 0 0.41891932927970088 0.026081136014491389 0 0.41964440497126981 0.040250358009145122 0 0.4340740022190257 0.043822740937536728 0 0.42987588244635011 0.033334548906864728 0 0.41964440497126981 0.040250358009145122 0 0.42647272639553008 0.050672874727357403 0 0.4340740022190257 0.043822740937536728 0 0.4340740022190257 0.043822740937536728 0 0.42987588244635011 0.033334548906864728 0 0.44528176508543132 0.032905620831071007 0 0.42987588244635011 0.033334548906864728 0 0.43184963590009789 0.021236349906575389 0 0.44528176508543132 0.032905620831071007 0 0.43184963590009789 0.021236349906575389 0 0.42259879527057942 0.015927249454054739 0 0.43188165484739188 0.01287087804949661 0 0.43184963590009789 0.021236349906575389 0 0.42259879527057942 0.015927249454054739 0 0.41891932927970088 0.026081136014491389 0 0.42987588244635011 0.033334548906864728 0 0.43184963590009789 0.021236349906575389 0 0.41891932927970088 0.026081136014491389 0 0.4038432128890253 0.016274120358417851 0 0.42259879527057942 0.015927249454054739 0 0.41891932927970088 0.026081136014491389 0 0.4038432128890253 0.016274120358417851 0 0.40714332068978548 0.032011032787191827 0 0.41891932927970088 0.026081136014491389 0 0.4038432128890253 0.016274120358417851 0 0.41402040698134779 -0.0025911497673051101 0 0.40369857438468087 -0.0060371637805465179 0 0.4038432128890253 0.016274120358417851 0 0.42788240966677021 0.003552130545216341 0 0.4038432128890253 0.016274120358417851 0 0.42101935538117791 0.0050386314779034547 0 0.41402040698134779 -0.0025911497673051101 0 0.4038432128890253 0.016274120358417851 0 0.42259879527057942 0.015927249454054739 0 0.42788240966677021 0.003552130545216341 0 0.4038432128890253 0.016274120358417851 0 0.42101935538117791 0.0050386314779034547 0 0.42788240966677021 0.003552130545216341 0 0.42788240966677021 0.003552130545216341 0 0.43188165484739188 0.01287087804949661 0 0.44740740452026229 0.01137317045841814 0 0.42259879527057942 0.015927249454054739 0 0.42788240966677021 0.003552130545216341 0 0.43188165484739188 0.01287087804949661 0 0.43184963590009789 0.021236349906575389 0 0.43188165484739188 0.01287087804949661 0 0.44740740452026229 0.01137317045841814 0 0.42788240966677021 0.003552130545216341 0 0.44740740452026229 0.01137317045841814 0 0.45192160644451512 -0.0091698592679851504 0 0.43184963590009789 0.021236349906575389 0 0.44740740452026229 0.01137317045841814 0 0.44528176508543132 0.032905620831071007 0 0.44740740452026229 0.01137317045841814 0 0.44528176508543132 0.032905620831071007 0 0.46875558315454652 0.02621282055229885 0 0.44740740452026229 0.01137317045841814 0 0.4740075662235973 0.0028935560396234419 0 0.46875558315454652 0.02621282055229885 0 0.44740740452026229 0.01137317045841814 0 0.4740075662235973 0.0028935560396234419 0 0.45192160644451512 -0.0091698592679851504 0 0.44529413059976319 0.065026291877640793 0 0.44587589901867808 0.047550444472131762 0 0.4614262583005877 0.04791767975015173 0 0.44529413059976319 0.065026291877640793 0 0.43583307009461808 0.053135938561971199 0 0.44587589901867808 0.047550444472131762 0 0.43583307009461808 0.053135938561971199 0 0.4340740022190257 0.043822740937536728 0 0.44587589901867808 0.047550444472131762 0 0.44587589901867808 0.047550444472131762 0 0.44528176508543132 0.032905620831071007 0 0.4614262583005877 0.04791767975015173 0 0.4340740022190257 0.043822740937536728 0 0.44587589901867808 0.047550444472131762 0 0.44528176508543132 0.032905620831071007 0 0.44528176508543132 0.032905620831071007 0 0.4614262583005877 0.04791767975015173 0 0.46875558315454652 0.02621282055229885 0 0.47264706529987838 0.068582714068275596 0 0.44529413059976319 0.065026291877640793 0 0.4614262583005877 0.04791767975015173 0 0.47264706529987838 0.068582714068275596 0 0.4614262583005877 0.04791767975015173 0 0.48053199367993171 0.043851827509569327 0 0.4614262583005877 0.04791767975015173 0 0.48053199367993171 0.043851827509569327 0 0.46875558315454652 0.02621282055229885 0 0.48053199367993171 0.043851827509569327 0 0.5 0.04545089247058498 0 0.5 0.018762648682260189 0 0.49999999999999389 0.072139136258909636 0 0.47264706529987838 0.068582714068275596 0 0.48053199367993171 0.043851827509569327 0 0.49999999999999389 0.072139136258909636 0 0.48053199367993171 0.043851827509569327 0 0.5 0.04545089247058498 0 0.48053199367993171 0.043851827509569327 0 0.46875558315454652 0.02621282055229885 0 0.5 0.018762648682260189 0 0.4740075662235973 0.0028935560396234419 0 0.46875558315454652 0.02621282055229885 0 0.5 0.018762648682260189 0 0.4740075662235973 0.0028935560396234419 0 0.5 0.018762648682260189 0 0.5 -0.0079255951060647756 0 0.4740075662235973 0.0028935560396234419 0 0.5 -0.0079255951060647756 0 0.47596080322225992 -0.02189184908118659 0 0.47596080322225992 -0.02189184908118659 0 0.50000000000000377 -0.034613838894389633 0 0.5 -0.0079255951060647756 0 0.47596080322225992 -0.02189184908118659 0 0.50000000000000377 -0.034613838894389633 0 0.47596080322225992 -0.02189184908118659 0 0.50000000000000377 -0.034613838894389633 0 0.48339532061042467 -0.042675677639817791 0 0.50000000000000377 -0.034613838894389633 0 0.5 -0.052291970509826757 0 0.48339532061042467 -0.042675677639817791 0 0.5 -0.052291970509826757 0 0.48378938215607542 -0.060491629721736481 0 0.49999999999999678 -0.069970102125263903 0 0.5 -0.052291970509826757 0 0.48378938215607542 -0.060491629721736481 0 0.48339532061042467 -0.042675677639817791 0 0.48378938215607542 -0.060491629721736481 0 0.47035919737641452 -0.05083356829212015 0 0.48339532061042467 -0.042675677639817791 0 0.48378938215607542 -0.060491629721736481 0 0.47035919737641452 -0.05083356829212015 0 0.46263532094350251 -0.0655193079319734 0 0.47596080322225992 -0.02189184908118659 0 0.48339532061042467 -0.042675677639817791 0 0.46122373864745198 -0.034064038759572521 0 0.47035919737641452 -0.05083356829212015 0 0.48339532061042467 -0.042675677639817791 0 0.46122373864745198 -0.034064038759572521 0 0.46122373864745198 -0.034064038759572521 0 0.45641225836005789 -0.05051217933658872 0 0.44483042593949818 -0.041063070916932051 0 0.47035919737641452 -0.05083356829212015 0 0.46122373864745198 -0.034064038759572521 0 0.45641225836005789 -0.05051217933658872 0 0.45641225836005789 -0.05051217933658872 0 0.44526353314296241 -0.062107813217869068 0 0.46263532094350251 -0.0655193079319734 0 0.47035919737641452 -0.05083356829212015 0 0.45641225836005789 -0.05051217933658872 0 0.46263532094350251 -0.0655193079319734 0 0.45641225836005789 -0.05051217933658872 0 0.44526353314296241 -0.062107813217869068 0 0.44483042593949818 -0.041063070916932051 0 0.44526353314296241 -0.062107813217869068 0 0.44483042593949818 -0.041063070916932051 0 0.42768193525564641 -0.052738548234870043 0 0.46122373864745198 -0.034064038759572521 0 0.44483042593949818 -0.041063070916932051 0 0.44260817666721519 -0.025216613737701819 0 0.44483042593949818 -0.041063070916932051 0 0.44260817666721519 -0.025216613737701819 0 0.43454865465473302 -0.032105158367880783 0 0.46122373864745198 -0.034064038759572521 0 0.44260817666721519 -0.025216613737701819 0 0.45192160644451512 -0.0091698592679851504 0 0.42788240966677021 0.003552130545216341 0 0.45192160644451512 -0.0091698592679851504 0 0.44260817666721519 -0.025216613737701819 0 0.45192160644451512 -0.0091698592679851504 0 0.43543049063324413 -0.012350052332502739 0 0.42788240966677021 0.003552130545216341 0 0.45192160644451512 -0.0091698592679851504 0 0.43543049063324413 -0.012350052332502739 0 0.4740075662235973 0.0028935560396234419 0 0.47596080322225992 -0.02189184908118659 0 0.45192160644451512 -0.0091698592679851504 0 0.47596080322225992 -0.02189184908118659 0 0.45192160644451512 -0.0091698592679851504 0 0.47596080322225992 -0.02189184908118659 0 0.46122373864745198 -0.034064038759572521 0 0.45192160644451512 -0.0091698592679851504 0 0.47621403880257929 -0.099362679963144546 0 0.45825176112352212 -0.1171944005084963 0 0.47461064769812122 -0.12772964805397971 0 0.50000000000000433 -0.1143432737178363 0 0.47621403880257929 -0.099362679963144546 0 0.47461064769812122 -0.12772964805397971 0 0.50000000000000433 -0.1143432737178363 0 0.47461064769812122 -0.12772964805397971 0 0.49999999999998102 -0.1000967699598443 0 0.47621403880257929 -0.099362679963144546 0 0.49999999999998102 -0.1000967699598443 0 0.47621403880257929 -0.099362679963144546 0 0.48785951469139027 -0.086657123706384981 0 0.50000000000000433 -0.1143432737178363 0 0.49999999999998102 -0.1000967699598443 0 0.47621403880257929 -0.099362679963144546 0 0.47621403880257929 -0.099362679963144546 0 0.48785951469139027 -0.086657123706384981 0 0.47522401996300467 -0.077198942777287505 0 0.47621403880257929 -0.099362679963144546 0 0.47522401996300467 -0.077198942777287505 0 0.46460819440086443 -0.0896918568577834 0 0.49999999999998102 -0.1000967699598443 0 0.48785951469139027 -0.086657123706384981 0 0.49999999999999678 -0.069970102125263903 0 0.49999999999999678 -0.069970102125263903 0 0.47522401996300467 -0.077198942777287505 0 0.48785951469139027 -0.086657123706384981 0 0.49999999999999678 -0.069970102125263903 0 0.47522401996300467 -0.077198942777287505 0 0.48378938215607542 -0.060491629721736481 0 0.49999999999999678 -0.069970102125263903 0 0.47522401996300467 -0.077198942777287505 0 0.48378938215607542 -0.060491629721736481 0 0.47522401996300467 -0.077198942777287505 0 0.46263532094350251 -0.0655193079319734 0 0.47522401996300467 -0.077198942777287505 0 0.46263532094350251 -0.0655193079319734 0 0.4504480399260129 -0.084427783429311939 0 0.44526353314296241 -0.062107813217869068 0 0.46263532094350251 -0.0655193079319734 0 0.4504480399260129 -0.084427783429311939 0 0.44526353314296241 -0.062107813217869068 0 0.4504480399260129 -0.084427783429311939 0 0.43069868055782679 -0.078899440675300136 0 0.4504480399260129 -0.084427783429311939 0 0.45242807760517778 -0.098628589966444233 0 0.42864211640777627 -0.097894499969741214 0 0.4504480399260129 -0.084427783429311939 0 0.42567205988902129 -0.091656624081337568 0 0.47522401996300467 -0.077198942777287505 0 0.4504480399260129 -0.084427783429311939 0 0.47522401996300467 -0.077198942777287505 0 0.4504480399260129 -0.084427783429311939 0 0.46460819440086443 -0.0896918568577834 0 0.4504480399260129 -0.084427783429311939 0 0.46460819440086443 -0.0896918568577834 0 0.45242807760517778 -0.098628589966444233 0 0.47621403880257929 -0.099362679963144546 0 0.45242807760517778 -0.098628589966444233 0 0.45825176112352212 -0.1171944005084963 0 0.47621403880257929 -0.099362679963144546 0 0.45242807760517778 -0.098628589966444233 0 0.47621403880257929 -0.099362679963144546 0 0.46460819440086443 -0.0896918568577834 0 0.45242807760517778 -0.098628589966444233 0 0.45242807760517778 -0.098628589966444233 0 0.42864211640777627 -0.097894499969741214 0 0.45242807760517778 -0.098628589966444233 0 0.43893170590200609 -0.1195052611799315 0 0.42864211640777627 -0.097894499969741214 0 0.45242807760517778 -0.098628589966444233 0 0.43893170590200609 -0.1195052611799315 0 0.45825176112352212 -0.1171944005084963 0 0.42080162445294911 -0.1170697999396166 0 0.40604313277712428 -0.1171380761358455 0 0.41368108829086198 -0.13554811058748131 0 0.42080162445294911 -0.1170697999396166 0 0.40662173914453831 -0.097214899993173481 0 0.40604313277712428 -0.1171380761358455 0 0.43893170590200609 -0.1195052611799315 0 0.42080162445294911 -0.1170697999396166 0 0.430889964195386 -0.135117951771525 0 0.43893170590200609 -0.1195052611799315 0 0.42080162445294911 -0.1170697999396166 0 0.42864211640777627 -0.097894499969741214 0 0.43893170590200609 -0.1195052611799315 0 0.42864211640777627 -0.097894499969741214 0 0.42864211640777627 -0.097894499969741214 0 0.42567205988902129 -0.091656624081337568 0 0.42864211640777627 -0.097894499969741214 0 0.40662173914453831 -0.097214899993173481 0 0.42567205988902129 -0.091656624081337568 0 0.42080162445294911 -0.1170697999396166 0 0.42864211640777627 -0.097894499969741214 0 0.40662173914453831 -0.097214899993173481 0 0.42864211640777627 -0.097894499969741214 0 0.40662173914453831 -0.097214899993173481 0 0.40662173914453831 -0.097214899993173481 0 0.42567205988902129 -0.091656624081337568 0 0.40662173914453831 -0.097214899993173481 0 0.41829766411352998 -0.087706900461061957 0 0.42567205988902129 -0.091656624081337568 0 0.40662173914453831 -0.097214899993173481 0 0.41020628866808312 -0.08357079425946129 0 0.41829766411352998 -0.087706900461061957 0 0.41020628866808312 -0.08357079425946129 0 0.42012861486432151 -0.07981881462850364 0 0.41094109939792961 -0.074512111623280808 0 0.41020628866808312 -0.08357079425946129 0 0.41094109939792961 -0.074512111623280808 0 0.40556094342569721 -0.078918860306745137 0 0.41020628866808312 -0.08357079425946129 0 0.42012861486432151 -0.07981881462850364 0 0.41829766411352998 -0.087706900461061957 0 0.42012861486432151 -0.07981881462850364 0 0.41829766411352998 -0.087706900461061957 0 0.42254342745458301 -0.084546146485576762 0 0.41829766411352998 -0.087706900461061957 0 0.42461385466063262 -0.08943412331831832 0 0.42254342745458301 -0.084546146485576762 0 0.42567205988902129 -0.091656624081337568 0 0.42461385466063262 -0.08943412331831832 0 0.43069868055782679 -0.078899440675300136 0 0.4504480399260129 -0.084427783429311939 0 0.42567205988902129 -0.091656624081337568 0 0.43069868055782679 -0.078899440675300136 0 0.4504480399260129 -0.084427783429311939 0 0.42864211640777627 -0.097894499969741214 0 0.42567205988902129 -0.091656624081337568 0 0.42567205988902129 -0.091656624081337568 0 0.42461385466063262 -0.08943412331831832 0 0.41829766411352998 -0.087706900461061957 0 0.42567205988902129 -0.091656624081337568 0 0.42461385466063262 -0.08943412331831832 0 0.42012861486432151 -0.07981881462850364 0 0.43069868055782679 -0.078899440675300136 0 0.42254342745458301 -0.084546146485576762 0 0.42461385466063262 -0.08943412331831832 0 0.43069868055782679 -0.078899440675300136 0 0.42254342745458301 -0.084546146485576762 0 0.43069868055782679 -0.078899440675300136 0 0.42085386234523608 -0.065266903626460593 0 0.41911482919747139 -0.073234494934215744 0 0.43069868055782679 -0.078899440675300136 0 0.42085386234523608 -0.065266903626460593 0 0.42768193525564641 -0.052738548234870043 0 0.44526353314296241 -0.062107813217869068 0 0.43069868055782679 -0.078899440675300136 0 0.42768193525564641 -0.052738548234870043 0 0.43069868055782679 -0.078899440675300136 0 0.42768193525564641 -0.052738548234870043 0 0.42012861486432151 -0.07981881462850364 0 0.43069868055782679 -0.078899440675300136 0 0.41911482919747139 -0.073234494934215744 0 0.42085386234523608 -0.065266903626460593 0 0.41911482919747139 -0.073234494934215744 0 0.41247118756252621 -0.068972059658544485 0 0.41911482919747139 -0.073234494934215744 0 0.41094109939792961 -0.074512111623280808 0 0.41247118756252621 -0.068972059658544485 0 0.42012861486432151 -0.07981881462850364 0 0.41911482919747139 -0.073234494934215744 0 0.41094109939792961 -0.074512111623280808 0 0.41094109939792961 -0.074512111623280808 0 0.41247118756252621 -0.068972059658544485 0 0.40519344017519737 -0.069697512887539489 0 0.42085386234523608 -0.065266903626460593 0 0.41247118756252621 -0.068972059658544485 0 0.40625270669679608 -0.06214927522122575 0 0.41247118756252621 -0.068972059658544485 0 0.40519344017519737 -0.069697512887539489 0 0.40625270669679608 -0.06214927522122575 0 0.40519344017519737 -0.069697512887539489 0 0.3909339432522656 -0.07145852807871525 0 0.40625270669679608 -0.06214927522122575 0 0.41094109939792961 -0.074512111623280808 0 0.40094221169150912 -0.074554002884685597 0 0.40556094342569721 -0.078918860306745137 0 0.40519344017519737 -0.069697512887539489 0 0.40094221169150912 -0.074554002884685597 0 0.3909339432522656 -0.07145852807871525 0 0.41094109939792961 -0.074512111623280808 0 0.40519344017519737 -0.069697512887539489 0 0.40094221169150912 -0.074554002884685597 0 0.40094221169150912 -0.074554002884685597 0 0.3909339432522656 -0.07145852807871525 0 0.39616481607021642 -0.077435810443283751 0 0.3909339432522656 -0.07145852807871525 0 0.39616481607021642 -0.077435810443283751 0 0.39262893539182381 -0.080692178350181262 0 0.39181446083091098 -0.066763706552935329 0 0.38421934743036401 -0.068446750892908373 0 0.38398729378694407 -0.058429379279077209 0 0.38421934743036401 -0.068446750892908373 0 0.37813424473731178 -0.068262582352726586 0 0.38398729378694407 -0.058429379279077209 0 0.37813424473731178 -0.068262582352726586 0 0.38294139036628899 -0.080331335386894381 0 0.37353404377441052 -0.075370636612477671 0 0.38421934743036401 -0.068446750892908373 0 0.37813424473731178 -0.068262582352726586 0 0.38294139036628899 -0.080331335386894381 0 0.39181446083091098 -0.066763706552935329 0 0.38294139036628899 -0.080331335386894381 0 0.39181446083091098 -0.066763706552935329 0 0.38421934743036401 -0.068446750892908373 0 0.38294139036628899 -0.080331335386894381 0 0.3909339432522656 -0.07145852807871525 0 0.39181446083091098 -0.066763706552935329 0 0.38294139036628899 -0.080331335386894381 0 0.38598565568847482 -0.085166122563822014 0 0.39289996883908601 -0.089154852807517448 0 0.39262893539182381 -0.080692178350181262 0 0.3909339432522656 -0.07145852807871525 0 0.38598565568847482 -0.085166122563822014 0 0.39262893539182381 -0.080692178350181262 0 0.3909339432522656 -0.07145852807871525 0 0.37406831990166722 -0.093898964220853504 0 0.3909339432522656 -0.07145852807871525 0 0.38598565568847482 -0.085166122563822014 0 0.37406831990166722 -0.093898964220853504 0 0.3909339432522656 -0.07145852807871525 0 0.38294139036628899 -0.080331335386894381 0 0.37406831990166722 -0.093898964220853504 0 0.38294139036628899 -0.080331335386894381 0 0.37406831990166722 -0.093898964220853504 0 0.38598565568847482 -0.085166122563822014 0 0.38240509603332101 -0.092127683864182172 0 0.37406831990166722 -0.093898964220853504 0 0.38240509603332101 -0.092127683864182172 0 0.39289996883908601 -0.089154852807517448 0 0.38960421283109031 -0.096689699614190994 0 0.38598565568847482 -0.085166122563822014 0 0.38240509603332101 -0.092127683864182172 0 0.39289996883908601 -0.089154852807517448 0 0.39289996883908601 -0.089154852807517448 0 0.39262893539182381 -0.080692178350181262 0 0.40015417394526698 -0.083038532459552866 0 0.39616481607021642 -0.077435810443283751 0 0.39262893539182381 -0.080692178350181262 0 0.40015417394526698 -0.083038532459552866 0 0.40094221169150912 -0.074554002884685597 0 0.40556094342569721 -0.078918860306745137 0 0.40015417394526698 -0.083038532459552866 0 0.40094221169150912 -0.074554002884685597 0 0.39616481607021642 -0.077435810443283751 0 0.40015417394526698 -0.083038532459552866 0 0.41020628866808312 -0.08357079425946129 0 0.40556094342569721 -0.078918860306745137 0 0.40015417394526698 -0.083038532459552866 0 0.40662173914453831 -0.097214899993173481 0 0.39289996883908601 -0.089154852807517448 0 0.40015417394526698 -0.083038532459552866 0 0.40662173914453831 -0.097214899993173481 0 0.41020628866808312 -0.08357079425946129 0 0.40015417394526698 -0.083038532459552866 0 0.40662173914453831 -0.097214899993173481 0 0.3851668720105898 -0.10347474583943909 0 0.38960421283109031 -0.096689699614190994 0 0.40662173914453831 -0.097214899993173481 0 0.3851668720105898 -0.10347474583943909 0 0.40662173914453831 -0.097214899993173481 0 0.39289996883908601 -0.089154852807517448 0 0.38960421283109031 -0.096689699614190994 0 0.40662173914453831 -0.097214899993173481 0 0.38960421283109031 -0.096689699614190994 0 0.40662173914453831 -0.097214899993173481 0 0.3851668720105898 -0.10347474583943909 0 0.39374350655696688 -0.1137959578468639 0 0.38960421283109031 -0.096689699614190994 0 0.37237061700676077 -0.09615783082836224 0 0.3851668720105898 -0.10347474583943909 0 0.38960421283109031 -0.096689699614190994 0 0.37237061700676077 -0.09615783082836224 0 0.38240509603332101 -0.092127683864182172 0 0.38960421283109031 -0.096689699614190994 0 0.37237061700676077 -0.09615783082836224 0 0.38240509603332101 -0.092127683864182172 0 0.37406831990166722 -0.093898964220853504 0 0.37237061700676077 -0.09615783082836224 0 0.3785150876385216 -0.1195111518185689 0 0.39374350655696688 -0.1137959578468639 0 0.39237070121405998 -0.13164091544729051 0 0.3851668720105898 -0.10347474583943909 0 0.3785150876385216 -0.1195111518185689 0 0.36371200487664068 -0.10973459168570281 0 0.3851668720105898 -0.10347474583943909 0 0.3785150876385216 -0.1195111518185689 0 0.39374350655696688 -0.1137959578468639 0 0.40662173914453831 -0.097214899993173481 0 0.39374350655696688 -0.1137959578468639 0 0.40604313277712428 -0.1171380761358455 0 0.39374350655696688 -0.1137959578468639 0 0.40604313277712428 -0.1171380761358455 0 0.39237070121405998 -0.13164091544729051 0 0.41728163952739061 -0.019334187549187701 0 0.42284227266732188 -0.010769512158268201 0 0.42466518995346408 -0.026577655794440151 0 0.41728163952739061 -0.019334187549187701 0 0.41227128108974659 -0.029924501558089681 0 0.42466518995346408 -0.026577655794440151 0 0.41227128108974659 -0.029924501558089681 0 0.40863720631140932 -0.019892986955346081 0 0.40014031603924488 -0.033106741091830219 0 0.41728163952739061 -0.019334187549187701 0 0.41227128108974659 -0.029924501558089681 0 0.40863720631140932 -0.019892986955346081 0 0.41728163952739061 -0.019334187549187701 0 0.40863720631140932 -0.019892986955346081 0 0.41436166681859882 -0.01226683791037885 0 0.40863720631140932 -0.019892986955346081 0 0.41436166681859882 -0.01226683791037885 0 0.40369857438468087 -0.0060371637805465179 0 0.42101935538117791 0.0050386314779034547 0 0.41402040698134779 -0.0025911497673051101 0 0.42284227266732188 -0.010769512158268201 0 0.41402040698134779 -0.0025911497673051101 0 0.41436166681859882 -0.01226683791037885 0 0.40369857438468087 -0.0060371637805465179 0 0.41402040698134779 -0.0025911497673051101 0 0.41436166681859882 -0.01226683791037885 0 0.42284227266732188 -0.010769512158268201 0 0.41728163952739061 -0.019334187549187701 0 0.41436166681859882 -0.01226683791037885 0 0.42284227266732188 -0.010769512158268201 0 0.42284227266732188 -0.010769512158268201 0 0.43543049063324413 -0.012350052332502739 0 0.42769414368384923 -0.02254750278133769 0 0.42101935538117791 0.0050386314779034547 0 0.42284227266732188 -0.010769512158268201 0 0.42101935538117791 0.0050386314779034547 0 0.42788240966677021 0.003552130545216341 0 0.42284227266732188 -0.010769512158268201 0 0.42788240966677021 0.003552130545216341 0 0.42284227266732188 -0.010769512158268201 0 0.43543049063324413 -0.012350052332502739 0 0.42284227266732188 -0.010769512158268201 0 0.42466518995346408 -0.026577655794440151 0 0.42284227266732188 -0.010769512158268201 0 0.42769414368384923 -0.02254750278133769 0 0.42466518995346408 -0.026577655794440151 0 0.44260817666721519 -0.025216613737701819 0 0.43543049063324413 -0.012350052332502739 0 0.42769414368384923 -0.02254750278133769 0 0.42769414368384923 -0.02254750278133769 0 0.42466518995346408 -0.026577655794440151 0 0.43454865465473302 -0.032105158367880783 0 0.42769414368384923 -0.02254750278133769 0 0.42466518995346408 -0.026577655794440151 0 0.44260817666721519 -0.025216613737701819 0 0.42769414368384923 -0.02254750278133769 0 0.43454865465473302 -0.032105158367880783 0 0.42466518995346408 -0.026577655794440151 0 0.43454865465473302 -0.032105158367880783 0 0.42768193525564641 -0.052738548234870043 0 0.42466518995346408 -0.026577655794440151 0 0.42768193525564641 -0.052738548234870043 0 0.44483042593949818 -0.041063070916932051 0 0.43454865465473302 -0.032105158367880783 0 0.42768193525564641 -0.052738548234870043 0 0.42085386234523608 -0.065266903626460593 0 0.42768193525564641 -0.052738548234870043 0 0.40779956660286398 -0.049018091936576927 0 0.42085386234523608 -0.065266903626460593 0 0.40779956660286398 -0.049018091936576927 0 0.40625270669679608 -0.06214927522122575 0 0.42466518995346408 -0.026577655794440151 0 0.42768193525564641 -0.052738548234870043 0 0.40779956660286398 -0.049018091936576927 0 0.42466518995346408 -0.026577655794440151 0 0.40779956660286398 -0.049018091936576927 0 0.41227128108974659 -0.029924501558089681 0 0.42466518995346408 -0.026577655794440151 0 0.40779956660286398 -0.049018091936576927 0 0.41227128108974659 -0.029924501558089681 0 0.40779956660286398 -0.049018091936576927 0 0.40014031603924488 -0.033106741091830219 0 0.40779956660286398 -0.049018091936576927 0 0.40014031603924488 -0.033106741091830219 0 0.3912967176308087 -0.04756724484766426 0 0.40014031603924488 -0.033106741091830219 0 0.3912967176308087 -0.04756724484766426 0 0.38547037370043469 -0.032308846426106139 0 0.3909339432522656 -0.07145852807871525 0 0.40779956660286398 -0.049018091936576927 0 0.40625270669679608 -0.06214927522122575 0 0.3909339432522656 -0.07145852807871525 0 0.39181446083091098 -0.066763706552935329 0 0.40779956660286398 -0.049018091936576927 0 0.39181446083091098 -0.066763706552935329 0 0.40779956660286398 -0.049018091936576927 0 0.3912967176308087 -0.04756724484766426 0 0.3909339432522656 -0.07145852807871525 0 0.40779956660286398 -0.049018091936576927 0 0.3912967176308087 -0.04756724484766426 0 0.38398729378694407 -0.058429379279077209 0 0.37514153202862571 -0.045861082966856079 0 0.39181446083091098 -0.066763706552935329 0 0.3912967176308087 -0.04756724484766426 0 0.38398729378694407 -0.058429379279077209 0 0.38398729378694407 -0.058429379279077209 0 0.37514153202862571 -0.045861082966856079 0 0.37192531576168952 -0.05914395824800911 0 0.37813424473731178 -0.068262582352726586 0 0.38398729378694407 -0.058429379279077209 0 0.37192531576168952 -0.05914395824800911 0 0.3912967176308087 -0.04756724484766426 0 0.38547037370043469 -0.032308846426106139 0 0.37514153202862571 -0.045861082966856079 0 0.38547037370043469 -0.032308846426106139 0 0.37514153202862571 -0.045861082966856079 0 0.36877413775607049 -0.02995327657106206 0 0.38547037370043469 -0.032308846426106139 0 0.37927030083329177 -0.015743113788958679 0 0.36877413775607049 -0.02995327657106206 0 0.38547037370043469 -0.032308846426106139 0 0.37927030083329177 -0.015743113788958679 0 0.39536675090020662 -0.019928774827198261 0 0.40014031603924488 -0.033106741091830219 0 0.38547037370043469 -0.032308846426106139 0 0.39536675090020662 -0.019928774827198261 0 0.40863720631140932 -0.019892986955346081 0 0.40014031603924488 -0.033106741091830219 0 0.39536675090020662 -0.019928774827198261 0 0.40863720631140932 -0.019892986955346081 0 0.39536675090020662 -0.019928774827198261 0 0.40369857438468087 -0.0060371637805465179 0 0.39536675090020662 -0.019928774827198261 0 0.40369857438468087 -0.0060371637805465179 0 0.39174671884158141 -0.0074493154892236006 0 0.39390920682105918 0.0040204267233196643 0 0.40369857438468087 -0.0060371637805465179 0 0.39174671884158141 -0.0074493154892236006 0 0.38212023564171321 0.001094655884648786 0 0.37927030083329177 -0.015743113788958679 0 0.39174671884158141 -0.0074493154892236006 0 0.38212023564171321 0.001094655884648786 0 0.37927030083329177 -0.015743113788958679 0 0.3700201466167648 -0.002195575246397889 0 0.37927030083329177 -0.015743113788958679 0 0.39536675090020662 -0.019928774827198261 0 0.39174671884158141 -0.0074493154892236006 0 0.39390920682105918 0.0040204267233196643 0 0.38212023564171321 0.001094655884648786 0 0.39174671884158141 -0.0074493154892236006 0 0.35686418876597309 0.010252504770385159 0 0.3700201466167648 -0.002195575246397889 0 0.35727920934793722 -0.0129667368589869 0 0.37927030083329177 -0.015743113788958679 0 0.3700201466167648 -0.002195575246397889 0 0.35727920934793722 -0.0129667368589869 0 0.36877413775607049 -0.02995327657106206 0 0.35727920934793722 -0.0129667368589869 0 0.35227314840285812 -0.03152257084722427 0 0.37927030083329177 -0.015743113788958679 0 0.36877413775607049 -0.02995327657106206 0 0.35727920934793722 -0.0129667368589869 0 0.35727920934793722 -0.0129667368589869 0 0.33875503928457851 -0.02222753562310531 0 0.35227314840285812 -0.03152257084722427 0 0.35727920934793722 -0.0129667368589869 0 0.33586681222118892 -0.0067462441580033658 0 0.33875503928457851 -0.02222753562310531 0 0.35686418876597309 0.010252504770385159 0 0.35727920934793722 -0.0129667368589869 0 0.33586681222118892 -0.0067462441580033658 0 0.33586681222118892 -0.0067462441580033658 0 0.33875503928457851 -0.02222753562310531 0 0.31486943567640469 -0.023744993086391868 0 0.33875503928457851 -0.02222753562310531 0 0.31486943567640469 -0.023744993086391868 0 0.33348659077450338 -0.036157133164920148 0 0.33875503928457851 -0.02222753562310531 0 0.33348659077450338 -0.036157133164920148 0 0.35227314840285812 -0.03152257084722427 0 0.31046320235639918 0.0067575729804437252 0 0.33586681222118892 -0.0067462441580033658 0 0.3153830815233527 -0.0087530987426132929 0 0.33586681222118892 -0.0067462441580033658 0 0.31486943567640469 -0.023744993086391868 0 0.3153830815233527 -0.0087530987426132929 0 0.33586681222118892 -0.0067462441580033658 0 0.31486943567640469 -0.023744993086391868 0 0.32115491610998381 -0.052976688016941227 0 0.32092150739102382 -0.073097043805500014 0 0.30601744289912669 -0.055409131432484229 0 0.32115491610998381 -0.052976688016941227 0 0.31197137499350902 -0.041008225260955711 0 0.30601744289912669 -0.055409131432484229 0 0.31486943567640469 -0.023744993086391868 0 0.33348659077450338 -0.036157133164920148 0 0.31197137499350902 -0.041008225260955711 0 0.32115491610998381 -0.052976688016941227 0 0.33348659077450338 -0.036157133164920148 0 0.31197137499350902 -0.041008225260955711 0 0.33348659077450338 -0.036157133164920148 0 0.3363568723602065 -0.050864743298462772 0 0.35116628403686417 -0.048621598638038131 0 0.32115491610998381 -0.052976688016941227 0 0.33348659077450338 -0.036157133164920148 0 0.3363568723602065 -0.050864743298462772 0 0.32115491610998381 -0.052976688016941227 0 0.3363568723602065 -0.050864743298462772 0 0.33388625794764348 -0.064812423232177271 0 0.3363568723602065 -0.050864743298462772 0 0.34794047334546518 -0.063974584280765273 0 0.33388625794764348 -0.064812423232177271 0 0.3363568723602065 -0.050864743298462772 0 0.35116628403686417 -0.048621598638038131 0 0.34794047334546518 -0.063974584280765273 0 0.35116628403686417 -0.048621598638038131 0 0.35914505774559541 -0.060409417065886872 0 0.36392372675137458 -0.051574144679805103 0 0.35116628403686417 -0.048621598638038131 0 0.36240463436463582 -0.041692596330413237 0 0.36392372675137458 -0.051574144679805103 0 0.35116628403686417 -0.048621598638038131 0 0.35914505774559541 -0.060409417065886872 0 0.34794047334546518 -0.063974584280765273 0 0.35116628403686417 -0.048621598638038131 0 0.35227314840285812 -0.03152257084722427 0 0.36240463436463582 -0.041692596330413237 0 0.33348659077450338 -0.036157133164920148 0 0.35116628403686417 -0.048621598638038131 0 0.35227314840285812 -0.03152257084722427 0 0.37514153202862571 -0.045861082966856079 0 0.36877413775607049 -0.02995327657106206 0 0.36240463436463582 -0.041692596330413237 0 0.36877413775607049 -0.02995327657106206 0 0.35227314840285812 -0.03152257084722427 0 0.36240463436463582 -0.041692596330413237 0 0.37514153202862571 -0.045861082966856079 0 0.36240463436463582 -0.041692596330413237 0 0.36392372675137458 -0.051574144679805103 0 0.35914505774559541 -0.060409417065886872 0 0.36392372675137458 -0.051574144679805103 0 0.37192531576168952 -0.05914395824800911 0 0.37514153202862571 -0.045861082966856079 0 0.36392372675137458 -0.051574144679805103 0 0.37192531576168952 -0.05914395824800911 0 0.37813424473731178 -0.068262582352726586 0 0.37192531576168952 -0.05914395824800911 0 0.3680772617285144 -0.06977757947088653 0 0.35914505774559541 -0.060409417065886872 0 0.37192531576168952 -0.05914395824800911 0 0.3680772617285144 -0.06977757947088653 0 0.35914505774559541 -0.060409417065886872 0 0.3680772617285144 -0.06977757947088653 0 0.35837286676988928 -0.071968688592424085 0 0.3680772617285144 -0.06977757947088653 0 0.36498327826552668 -0.083111049239403226 0 0.35837286676988928 -0.071968688592424085 0 0.3680772617285144 -0.06977757947088653 0 0.37353404377441052 -0.075370636612477671 0 0.36498327826552668 -0.083111049239403226 0 0.37813424473731178 -0.068262582352726586 0 0.3680772617285144 -0.06977757947088653 0 0.37353404377441052 -0.075370636612477671 0 0.38294139036628899 -0.080331335386894381 0 0.37353404377441052 -0.075370636612477671 0 0.36498327826552668 -0.083111049239403226 0 0.36498327826552668 -0.083111049239403226 0 0.37237061700676077 -0.09615783082836224 0 0.34241852099989789 -0.095233439592861846 0 0.38294139036628899 -0.080331335386894381 0 0.36498327826552668 -0.083111049239403226 0 0.37406831990166722 -0.093898964220853504 0 0.36498327826552668 -0.083111049239403226 0 0.37406831990166722 -0.093898964220853504 0 0.37237061700676077 -0.09615783082836224 0 0.36498327826552668 -0.083111049239403226 0 0.3449175019875389 -0.076917716904771144 0 0.34241852099989789 -0.095233439592861846 0 0.36498327826552668 -0.083111049239403226 0 0.3449175019875389 -0.076917716904771144 0 0.35837286676988928 -0.071968688592424085 0 0.3449175019875389 -0.076917716904771144 0 0.34794047334546518 -0.063974584280765273 0 0.35837286676988928 -0.071968688592424085 0 0.35914505774559541 -0.060409417065886872 0 0.34794047334546518 -0.063974584280765273 0 0.35837286676988928 -0.071968688592424085 0 0.36371200487664068 -0.10973459168570281 0 0.35664352332635268 -0.13060513793896061 0 0.36779594019891898 -0.12729788290040461 0 0.3785150876385216 -0.1195111518185689 0 0.36371200487664068 -0.10973459168570281 0 0.36779594019891898 -0.12729788290040461 0 0.36371200487664068 -0.10973459168570281 0 0.37237061700676077 -0.09615783082836224 0 0.34241852099989789 -0.095233439592861846 0 0.3851668720105898 -0.10347474583943909 0 0.36371200487664068 -0.10973459168570281 0 0.37237061700676077 -0.09615783082836224 0 0.3851668720105898 -0.10347474583943909 0 0.36371200487664068 -0.10973459168570281 0 0.36371200487664068 -0.10973459168570281 0 0.37237061700676077 -0.09615783082836224 0 0.37406831990166722 -0.093898964220853504 0 0.37237061700676077 -0.09615783082836224 0 0.36371200487664068 -0.10973459168570281 0 0.34332012240242971 -0.1020930362129598 0 0.34241852099989789 -0.095233439592861846 0 0.36371200487664068 -0.10973459168570281 0 0.35002252173753962 -0.112446561286345 0 0.34332012240242971 -0.1020930362129598 0 0.37237061700676077 -0.09615783082836224 0 0.34241852099989789 -0.095233439592861846 0 0.35002252173753962 -0.112446561286345 0 0.34025414842832208 -0.11782241666052221 0 0.34332012240242971 -0.1020930362129598 0 0.36371200487664068 -0.10973459168570281 0 0.35355367174401742 -0.1211945845718113 0 0.34779048707731292 -0.1340798558009649 0 0.36371200487664068 -0.10973459168570281 0 0.35664352332635268 -0.13060513793896061 0 0.34779048707731292 -0.1340798558009649 0 0.36371200487664068 -0.10973459168570281 0 0.34779048707731292 -0.1340798558009649 0 0.36371200487664068 -0.10973459168570281 0 0.35002252173753962 -0.112446561286345 0 0.35355367174401742 -0.1211945845718113 0 0.36371200487664068 -0.10973459168570281 0 0.35355367174401742 -0.1211945845718113 0 0.35002252173753962 -0.112446561286345 0 0.35355367174401742 -0.1211945845718113 0 0.34025414842832208 -0.11782241666052221 0 0.35355367174401742 -0.1211945845718113 0 0.34025414842832208 -0.11782241666052221 0 0.34381162934489939 -0.12854128697128539 0 0.33094534805706732 -0.1177437606496905 0 0.31854024801571379 -0.1183964408803808 0 0.33718817445421712 -0.13355179710808501 0 0.34025414842832208 -0.11782241666052221 0 0.33378984816934337 -0.1086297847084315 0 0.34332012240242971 -0.1020930362129598 0 0.33094534805706732 -0.1177437606496905 0 0.34025414842832208 -0.11782241666052221 0 0.33718817445421712 -0.13355179710808501 0 0.34025414842832208 -0.11782241666052221 0 0.34332012240242971 -0.1020930362129598 0 0.33094534805706732 -0.1177437606496905 0 0.33378984816934337 -0.1086297847084315 0 0.32495432121773932 -0.110318363891034 0 0.33094534805706732 -0.1177437606496905 0 0.34025414842832208 -0.11782241666052221 0 0.33378984816934337 -0.1086297847084315 0 0.33378984816934337 -0.1086297847084315 0 0.32725903490077729 -0.10071499943534749 0 0.32495432121773932 -0.110318363891034 0 0.33378984816934337 -0.1086297847084315 0 0.33669688161811212 -0.1016678149874002 0 0.32725903490077729 -0.10071499943534749 0 0.33378984816934337 -0.1086297847084315 0 0.34332012240242971 -0.1020930362129598 0 0.33669688161811212 -0.1016678149874002 0 0.34332012240242971 -0.1020930362129598 0 0.33669688161811212 -0.1016678149874002 0 0.34241852099989789 -0.095233439592861846 0 0.33669688161811212 -0.1016678149874002 0 0.34241852099989789 -0.095233439592861846 0 0.32725903490077729 -0.10071499943534749 0 0.34241852099989789 -0.095233439592861846 0 0.31246642499303512 -0.0943090483573608 0 0.34241852099989789 -0.095233439592861846 0 0.32725903490077729 -0.10071499943534749 0 0.31246642499303512 -0.0943090483573608 0 0.32725903490077729 -0.10071499943534749 0 0.31716114910448651 -0.10565591717263 0 0.31246642499303512 -0.0943090483573608 0 0.32725903490077729 -0.10071499943534749 0 0.31716114910448651 -0.10565591717263 0 0.32495432121773932 -0.110318363891034 0 0.33094534805706732 -0.1177437606496905 0 0.32495432121773932 -0.110318363891034 0 0.31854024801571379 -0.1183964408803808 0 0.31716114910448651 -0.10565591717263 0 0.32495432121773932 -0.110318363891034 0 0.31854024801571379 -0.1183964408803808 0 0.31716114910448651 -0.10565591717263 0 0.31854024801571379 -0.1183964408803808 0 0.30531265091832138 -0.10738965970164049 0 0.3449175019875389 -0.076917716904771144 0 0.33388625794764348 -0.064812423232177271 0 0.32092150739102382 -0.073097043805500014 0 0.3449175019875389 -0.076917716904771144 0 0.34794047334546518 -0.063974584280765273 0 0.33388625794764348 -0.064812423232177271 0 0.3449175019875389 -0.076917716904771144 0 0.34241852099989789 -0.095233439592861846 0 0.32092150739102382 -0.073097043805500014 0 0.34241852099989789 -0.095233439592861846 0 0.32092150739102382 -0.073097043805500014 0 0.31246642499303512 -0.0943090483573608 0 0.32115491610998381 -0.052976688016941227 0 0.33388625794764348 -0.064812423232177271 0 0.32092150739102382 -0.073097043805500014 0 0.32092150739102382 -0.073097043805500014 0 0.28819319405889499 -0.06706419956831737 0 0.31246642499303512 -0.0943090483573608 0 0.32092150739102382 -0.073097043805500014 0 0.28819319405889499 -0.06706419956831737 0 0.30601744289912669 -0.055409131432484229 0 0.28251432898617262 -0.093384657121855619 0 0.28819319405889499 -0.06706419956831737 0 0.31246642499303512 -0.0943090483573608 0 0.28251432898617262 -0.093384657121855619 0 0.28819319405889499 -0.06706419956831737 0 0.28251432898617262 -0.093384657121855619 0 0.28819319405889499 -0.06706419956831737 0 0.2788070763813692 -0.075616481315712358 0 0.30531265091832138 -0.10738965970164049 0 0.29209333803684512 -0.1204183792118467 0 0.30316218715013699 -0.13585617877411299 0 0.31854024801571379 -0.1183964408803808 0 0.30531265091832138 -0.10738965970164049 0 0.30316218715013699 -0.13585617877411299 0 0.30531265091832138 -0.10738965970164049 0 0.30316218715013699 -0.13585617877411299 0 0.30531265091832138 -0.10738965970164049 0 0.31246642499303512 -0.0943090483573608 0 0.2913954051317153 -0.1063448066268642 0 0.28251432898617262 -0.093384657121855619 0 0.31246642499303512 -0.0943090483573608 0 0.31716114910448651 -0.10565591717263 0 0.30531265091832138 -0.10738965970164049 0 0.31246642499303512 -0.0943090483573608 0 0.28251432898617262 -0.093384657121855619 0 0.31246642499303512 -0.0943090483573608 0 0.2913954051317153 -0.1063448066268642 0 0.28251432898617262 -0.093384657121855619 0 0.2913954051317153 -0.1063448066268642 0 0.27794998204403759 -0.11453953550188679 0 0.30531265091832138 -0.10738965970164049 0 0.2913954051317153 -0.1063448066268642 0 0.29209333803684512 -0.1204183792118467 0 0.2913954051317153 -0.1063448066268642 0 0.29209333803684512 -0.1204183792118467 0 0.27794998204403759 -0.11453953550188679 0 0.27794998204403759 -0.11453953550188679 0 0.25915390151091949 -0.11811210275817149 0 0.27338563510190422 -0.1356944138819183 0 0.29209333803684512 -0.1204183792118467 0 0.27794998204403759 -0.11453953550188679 0 0.27338563510190422 -0.1356944138819183 0 0.28251432898617262 -0.093384657121855619 0 0.27794998204403759 -0.11453953550188679 0 0.25666672159796139 -0.092586939936295867 0 0.28251432898617262 -0.093384657121855619 0 0.27794998204403759 -0.11453953550188679 0 0.25915390151091949 -0.11811210275817149 0 0.25666672159796139 -0.092586939936295867 0 0.23839025179526999 -0.1151992729885977 0 0.27794998204403759 -0.11453953550188679 0 0.25915390151091949 -0.11811210275817149 0 0.25666672159796139 -0.092586939936295867 0 0.28819319405889499 -0.06706419956831737 0 0.27512965144911827 -0.070681904186227995 0 0.27783686619476677 -0.05372527893061739 0 0.26897876163713708 -0.070467118147906876 0 0.27512965144911827 -0.070681904186227995 0 0.27783686619476677 -0.05372527893061739 0 0.26897876163713708 -0.070467118147906876 0 0.26180167325791431 -0.066706815846455908 0 0.27783686619476677 -0.05372527893061739 0 0.27067132333055188 -0.076788874412469815 0 0.26897876163713708 -0.070467118147906876 0 0.26145119023330071 -0.079000043976386408 0 0.27067132333055188 -0.076788874412469815 0 0.26897876163713708 -0.070467118147906876 0 0.2788070763813692 -0.075616481315712358 0 0.26897876163713708 -0.070467118147906876 0 0.27512965144911827 -0.070681904186227995 0 0.28819319405889499 -0.06706419956831737 0 0.2788070763813692 -0.075616481315712358 0 0.27512965144911827 -0.070681904186227995 0 0.26897876163713708 -0.070467118147906876 0 0.2788070763813692 -0.075616481315712358 0 0.26897876163713708 -0.070467118147906876 0 0.2788070763813692 -0.075616481315712358 0 0.27512965144911827 -0.070681904186227995 0 0.28251432898617262 -0.093384657121855619 0 0.25666672159796139 -0.092586939936295867 0 0.28251432898617262 -0.093384657121855619 0 0.27051227275229911 -0.08315566172012806 0 0.25666672159796139 -0.092586939936295867 0 0.28251432898617262 -0.093384657121855619 0 0.2788070763813692 -0.075616481315712358 0 0.27051227275229911 -0.08315566172012806 0 0.27067132333055188 -0.076788874412469815 0 0.27051227275229911 -0.08315566172012806 0 0.26145119023330071 -0.079000043976386408 0 0.27067132333055188 -0.076788874412469815 0 0.2788070763813692 -0.075616481315712358 0 0.27051227275229911 -0.08315566172012806 0 0.26145119023330071 -0.079000043976386408 0 0.25666672159796139 -0.092586939936295867 0 0.24423239209720191 -0.080930297464084477 0 0.27051227275229911 -0.08315566172012806 0 0.26145119023330071 -0.079000043976386408 0 0.25666672159796139 -0.092586939936295867 0 0.26180167325791431 -0.066706815846455908 0 0.25764566998465072 -0.070071372177431313 0 0.24120587699226881 -0.055916030502087773 0 0.26145119023330071 -0.079000043976386408 0 0.25764566998465072 -0.070071372177431313 0 0.24423239209720191 -0.080930297464084477 0 0.25764566998465072 -0.070071372177431313 0 0.24423239209720191 -0.080930297464084477 0 0.26897876163713708 -0.070467118147906876 0 0.26145119023330071 -0.079000043976386408 0 0.25764566998465072 -0.070071372177431313 0 0.26897876163713708 -0.070467118147906876 0 0.26180167325791431 -0.066706815846455908 0 0.25764566998465072 -0.070071372177431313 0 0.26897876163713708 -0.070467118147906876 0 0.25764566998465072 -0.070071372177431313 0 0.26897876163713708 -0.070467118147906876 0 0.26180167325791431 -0.066706815846455908 0 0.26180167325791431 -0.066706815846455908 0 0.25764566998465072 -0.070071372177431313 0 0.26180167325791431 -0.066706815846455908 0 0.26029261894245981 -0.048826031507571623 0 0.24120587699226881 -0.055916030502087773 0 0.26180167325791431 -0.066706815846455908 0 0.24120587699226881 -0.055916030502087773 0 0.26180167325791431 -0.066706815846455908 0 0.26029261894245981 -0.048826031507571623 0 0.27783686619476677 -0.05372527893061739 0 0.26180167325791431 -0.066706815846455908 0 0.27783686619476677 -0.05372527893061739 0 0.26029261894245981 -0.048826031507571623 0 0.27783686619476677 -0.05372527893061739 0 0.27031708646619812 -0.033638605470610219 0 0.27783686619476677 -0.05372527893061739 0 0.27031708646619812 -0.033638605470610219 0 0.28437966209514692 -0.033534114227583768 0 0.26029261894245981 -0.048826031507571623 0 0.27031708646619812 -0.033638605470610219 0 0.25030159180115191 -0.034143426788088307 0 0.26029261894245981 -0.048826031507571623 0 0.25030159180115191 -0.034143426788088307 0 0.24120587699226881 -0.055916030502087773 0 0.25030159180115191 -0.034143426788088307 0 0.26299580833271302 -0.019789195105520681 0 0.2464198669495459 -0.012097030270161889 0 0.27031708646619812 -0.033638605470610219 0 0.25030159180115191 -0.034143426788088307 0 0.26299580833271302 -0.019789195105520681 0 0.25322369798355371 0.0032948183560677501 0 0.26778398551549509 -0.0036893303100333872 0 0.2464198669495459 -0.012097030270161889 0 0.26299580833271302 -0.019789195105520681 0 0.26778398551549509 -0.0036893303100333872 0 0.2464198669495459 -0.012097030270161889 0 0.26299580833271302 -0.019789195105520681 0 0.26778398551549509 -0.0036893303100333872 0 0.28231604015163769 -0.018351258625531171 0 0.2895407867033607 0.0013395930438658619 0 0.26778398551549509 -0.0036893303100333872 0 0.28231604015163769 -0.018351258625531171 0 0.27031708646619812 -0.033638605470610219 0 0.26299580833271302 -0.019789195105520681 0 0.28231604015163769 -0.018351258625531171 0 0.27031708646619812 -0.033638605470610219 0 0.28231604015163769 -0.018351258625531171 0 0.28437966209514692 -0.033534114227583768 0 0.28231604015163769 -0.018351258625531171 0 0.29600028882747859 -0.03087980289019443 0 0.28437966209514692 -0.033534114227583768 0 0.28231604015163769 -0.018351258625531171 0 0.29600028882747859 -0.03087980289019443 0 0.30132541624728598 -0.01217829343577128 0 0.2895407867033607 0.0013395930438658619 0 0.28231604015163769 -0.018351258625531171 0 0.30132541624728598 -0.01217829343577128 0 0.31046320235639918 0.0067575729804437252 0 0.2895407867033607 0.0013395930438658619 0 0.30132541624728598 -0.01217829343577128 0 0.31046320235639918 0.0067575729804437252 0 0.3153830815233527 -0.0087530987426132929 0 0.30132541624728598 -0.01217829343577128 0 0.31486943567640469 -0.023744993086391868 0 0.3153830815233527 -0.0087530987426132929 0 0.30132541624728598 -0.01217829343577128 0 0.31486943567640469 -0.023744993086391868 0 0.29600028882747859 -0.03087980289019443 0 0.30132541624728598 -0.01217829343577128 0 0.31486943567640469 -0.023744993086391868 0 0.31197137499350902 -0.041008225260955711 0 0.29387205913161968 -0.04074374201477949 0 0.31486943567640469 -0.023744993086391868 0 0.29600028882747859 -0.03087980289019443 0 0.29387205913161968 -0.04074374201477949 0 0.31486943567640469 -0.023744993086391868 0 0.29387205913161968 -0.04074374201477949 0 0.31197137499350902 -0.041008225260955711 0 0.30601744289912669 -0.055409131432484229 0 0.29387205913161968 -0.04074374201477949 0 0.28819319405889499 -0.06706419956831737 0 0.27783686619476677 -0.05372527893061739 0 0.29387205913161968 -0.04074374201477949 0 0.28819319405889499 -0.06706419956831737 0 0.29387205913161968 -0.04074374201477949 0 0.27783686619476677 -0.05372527893061739 0 0.29387205913161968 -0.04074374201477949 0 0.28819319405889499 -0.06706419956831737 0 0.30601744289912669 -0.055409131432484229 0 0.29387205913161968 -0.04074374201477949 0 0.27783686619476677 -0.05372527893061739 0 0.28437966209514692 -0.033534114227583768 0 0.29387205913161968 -0.04074374201477949 0 0.29600028882747859 -0.03087980289019443 0 0.28437966209514692 -0.033534114227583768 0 0.29387205913161968 -0.04074374201477949 0 0.29600028882747859 -0.03087980289019443 0 0.29387205913161968 -0.04074374201477949 0 0.28925369461552242 -0.21547475378801551 0 0.29798535605087828 -0.20438389051808681 0 0.27851755886665591 -0.20371457102860641 0 0.28925369461552242 -0.21547475378801551 0 0.28465086540799672 -0.2254021489655588 0 0.27851755886665591 -0.20371457102860641 0 0.28925369461552242 -0.21547475378801551 0 0.29798535605087828 -0.20438389051808681 0 0.29625974568445868 -0.22722646109941139 0 0.28994099481116897 -0.19128490440727269 0 0.29798535605087828 -0.20438389051808681 0 0.29971096641729777 -0.18154131993676231 0 0.28994099481116897 -0.19128490440727269 0 0.27851755886665591 -0.20371457102860641 0 0.28355009790984409 -0.17549983614563519 0 0.28994099481116897 -0.19128490440727269 0 0.29798535605087828 -0.20438389051808681 0 0.27851755886665591 -0.20371457102860641 0 0.30866677822314281 -0.19370433905286669 0 0.29798535605087828 -0.20438389051808681 0 0.29971096641729777 -0.18154131993676231 0 0.29798535605087828 -0.20438389051808681 0 0.29971096641729777 -0.18154131993676231 0 0.30866677822314281 -0.19370433905286669 0 0.30817512199612251 -0.208018461664154 0 0.29798535605087828 -0.20438389051808681 0 0.29798535605087828 -0.20438389051808681 0 0.29625974568445868 -0.22722646109941139 0 0.30367267472900389 -0.2178556058656746 0 0.31200739898088131 -0.22851072207886541 0 0.31883562653249692 -0.20986103607638071 0 0.29798535605087828 -0.20438389051808681 0 0.30367267472900389 -0.2178556058656746 0 0.29625974568445868 -0.22722646109941139 0 0.30817512199612251 -0.208018461664154 0 0.29798535605087828 -0.20438389051808681 0 0.30367267472900389 -0.2178556058656746 0 0.30817512199612251 -0.208018461664154 0 0.30367267472900389 -0.2178556058656746 0 0.31883562653249692 -0.20986103607638071 0 0.30367267472900389 -0.2178556058656746 0 0.31883562653249692 -0.20986103607638071 0 0.31200739898088131 -0.22851072207886541 0 0.30517917142926537 -0.24716040808135001 0 0.29625974568445868 -0.22722646109941139 0 0.30367267472900389 -0.2178556058656746 0 0.31200739898088131 -0.22851072207886541 0 0.29625974568445868 -0.22722646109941139 0 0.31200739898088131 -0.22851072207886541 0 0.30517917142926537 -0.24716040808135001 0 0.30517917142926537 -0.24716040808135001 0 0.28765229627979871 -0.24304032400626949 0 0.29625974568445868 -0.22722646109941139 0 0.28765229627979871 -0.24304032400626949 0 0.29625974568445868 -0.22722646109941139 0 0.28465086540799672 -0.2254021489655588 0 0.28765229627979871 -0.24304032400626949 0 0.28465086540799672 -0.2254021489655588 0 0.27348501982346762 -0.23192930591157759 0 0.28925369461552242 -0.21547475378801551 0 0.29625974568445868 -0.22722646109941139 0 0.28465086540799672 -0.2254021489655588 0 0.28465086540799672 -0.2254021489655588 0 0.27348501982346762 -0.23192930591157759 0 0.27851755886665591 -0.20371457102860641 0 0.27348501982346762 -0.23192930591157759 0 0.25787859859726192 -0.24372773219337371 0 0.26845248078028039 -0.26014404079454911 0 0.28765229627979871 -0.24304032400626949 0 0.27348501982346762 -0.23192930591157759 0 0.26845248078028039 -0.26014404079454911 0 0.27348501982346762 -0.23192930591157759 0 0.26845248078028039 -0.26014404079454911 0 0.27348501982346762 -0.23192930591157759 0 0.25787859859726192 -0.24372773219337371 0 0.2485278721491469 -0.22983386195931649 0 0.27348501982346762 -0.23192930591157759 0 0.25806059678156651 -0.21160485628964759 0 0.2485278721491469 -0.22983386195931649 0 0.27348501982346762 -0.23192930591157759 0 0.27851755886665591 -0.20371457102860641 0 0.27348501982346762 -0.23192930591157759 0 0.25806059678156651 -0.21160485628964759 0 0.27851755886665591 -0.20371457102860641 0 0.27851755886665591 -0.20371457102860641 0 0.26140201073716351 -0.19316186481753209 0 0.27335445324682811 -0.1824409541049711 0 0.25806059678156651 -0.21160485628964759 0 0.27851755886665591 -0.20371457102860641 0 0.26140201073716351 -0.19316186481753209 0 0.27851755886665591 -0.20371457102860641 0 0.28355009790984409 -0.17549983614563519 0 0.25806059678156651 -0.21160485628964759 0 0.26140201073716351 -0.19316186481753209 0 0.24624710011957149 -0.19756578472926509 0 0.26140201073716351 -0.19316186481753209 0 0.25030889548151403 -0.1837077448593728 0 0.24624710011957149 -0.19756578472926509 0 0.25969225384889538 -0.18295045636353721 0 0.2550208565069661 -0.17514012483034949 0 0.27335445324682811 -0.1824409541049711 0 0.26140201073716351 -0.19316186481753209 0 0.25030889548151403 -0.1837077448593728 0 0.25969225384889538 -0.18295045636353721 0 0.25030889548151403 -0.1837077448593728 0 0.25969225384889538 -0.18295045636353721 0 0.2550208565069661 -0.17514012483034949 0 0.2550208565069661 -0.17514012483034949 0 0.2530488896403309 -0.16079061319898569 0 0.27335445324682811 -0.1824409541049711 0 0.26140201073716351 -0.19316186481753209 0 0.25969225384889538 -0.18295045636353721 0 0.27335445324682811 -0.1824409541049711 0 0.2530488896403309 -0.16079061319898569 0 0.272260185211738 -0.168331689764908 0 0.26878477807763418 -0.16016356734556891 0 0.2530488896403309 -0.16079061319898569 0 0.26878477807763418 -0.16016356734556891 0 0.26293682869207591 -0.15391070786642169 0 0.2530488896403309 -0.16079061319898569 0 0.27335445324682811 -0.1824409541049711 0 0.272260185211738 -0.168331689764908 0 0.27899515764395177 -0.15443660918041571 0 0.28355009790984409 -0.17549983614563519 0 0.2530488896403309 -0.16079061319898569 0 0.272260185211738 -0.168331689764908 0 0.27335445324682811 -0.1824409541049711 0 0.272260185211738 -0.168331689764908 0 0.26878477807763418 -0.16016356734556891 0 0.27899515764395177 -0.15443660918041571 0 0.272260185211738 -0.168331689764908 0 0.27335445324682811 -0.1824409541049711 0 0.28355009790984409 -0.17549983614563519 0 0.27851755886665591 -0.20371457102860641 0 0.27335445324682811 -0.1824409541049711 0 0.28355009790984409 -0.17549983614563519 0 0.25915390151091949 -0.11811210275817149 0 0.25133622254172122 -0.13557462765415079 0 0.27338563510190422 -0.1356944138819183 0 0.25133622254172122 -0.13557462765415079 0 0.27338563510190422 -0.1356944138819183 0 0.25133622254172122 -0.13557462765415079 0 0.25208407187516418 -0.1419613505697605 0 0.27338563510190422 -0.1356944138819183 0 0.26557247671991108 -0.14774187414890411 0 0.25208407187516418 -0.1419613505697605 0 0.27142481771649529 -0.14478242884651979 0 0.25208407187516418 -0.1419613505697605 0 0.27142481771649529 -0.14478242884651979 0 0.2530488896403309 -0.16079061319898569 0 0.25208407187516418 -0.1419613505697605 0 0.26293682869207591 -0.15391070786642169 0 0.26557247671991108 -0.14774187414890411 0 0.25208407187516418 -0.1419613505697605 0 0.26293682869207591 -0.15391070786642169 0 0.27899515764395177 -0.15443660918041571 0 0.27142481771649529 -0.14478242884651979 0 0.28858263695303038 -0.1472851012626637 0 0.25208407187516418 -0.1419613505697605 0 0.27142481771649529 -0.14478242884651979 0 0.27338563510190422 -0.1356944138819183 0 0.27142481771649529 -0.14478242884651979 0 0.28858263695303038 -0.1472851012626637 0 0.27142481771649529 -0.14478242884651979 0 0.27338563510190422 -0.1356944138819183 0 0.28952553314766588 -0.14199879033185039 0 0.26878477807763418 -0.16016356734556891 0 0.27009527632936597 -0.15279308215900331 0 0.27899515764395177 -0.15443660918041571 0 0.26557247671991108 -0.14774187414890411 0 0.27009527632936597 -0.15279308215900331 0 0.27142481771649529 -0.14478242884651979 0 0.26878477807763418 -0.16016356734556891 0 0.26293682869207591 -0.15391070786642169 0 0.27009527632936597 -0.15279308215900331 0 0.26557247671991108 -0.14774187414890411 0 0.26293682869207591 -0.15391070786642169 0 0.27009527632936597 -0.15279308215900331 0 0.27009527632936597 -0.15279308215900331 0 0.27899515764395177 -0.15443660918041571 0 0.27142481771649529 -0.14478242884651979 0 0.27794998204403759 -0.11453953550188679 0 0.27338563510190422 -0.1356944138819183 0 0.27142481771649529 -0.14478242884651979 0 0.27338563510190422 -0.1356944138819183 0 0.27338563510190422 -0.1356944138819183 0 0.30316218715013699 -0.13585617877411299 0 0.29209333803684512 -0.1204183792118467 0 0.27338563510190422 -0.1356944138819183 0 0.30316218715013699 -0.13585617877411299 0 0.27338563510190422 -0.1356944138819183 0 0.28952553314766588 -0.14199879033185039 0 0.30316218715013699 -0.13585617877411299 0 0.27142481771649529 -0.14478242884651979 0 0.28952553314766588 -0.14199879033185039 0 0.28858263695303038 -0.1472851012626637 0 0.28858263695303038 -0.1472851012626637 0 0.30013596324633868 -0.14897029159077979 0 0.28952553314766588 -0.14199879033185039 0 0.28858263695303038 -0.1472851012626637 0 0.30013596324633868 -0.14897029159077979 0 0.28952553314766588 -0.14199879033185039 0 0.28858263695303038 -0.1472851012626637 0 0.28858263695303038 -0.1472851012626637 0 0.30013596324633868 -0.14897029159077979 0 0.29372711844303928 -0.1600295372122347 0 0.30316218715013699 -0.13585617877411299 0 0.30143657678371732 -0.15869874935543771 0 0.30013596324633868 -0.14897029159077979 0 0.30316218715013699 -0.13585617877411299 0 0.30143657678371732 -0.15869874935543771 0 0.30316218715013699 -0.13585617877411299 0 0.30143657678371732 -0.15869874935543771 0 0.31253980123811259 -0.14771969478669131 0 0.30013596324633868 -0.14897029159077979 0 0.29372711844303928 -0.1600295372122347 0 0.30143657678371732 -0.15869874935543771 0 0.30143657678371732 -0.15869874935543771 0 0.31557079919726838 -0.1590044961535387 0 0.31253980123811259 -0.14771969478669131 0 0.28952553314766588 -0.14199879033185039 0 0.30013596324633868 -0.14897029159077979 0 0.30316218715013699 -0.13585617877411299 0 0.30316218715013699 -0.13585617877411299 0 0.31993283661344418 -0.13594728745244961 0 0.31253980123811259 -0.14771969478669131 0 0.30316218715013699 -0.13585617877411299 0 0.31993283661344418 -0.13594728745244961 0 0.28994099481116897 -0.19128490440727269 0 0.28355009790984409 -0.17549983614563519 0 0.29971096641729777 -0.18154131993676231 0 0.28355009790984409 -0.17549983614563519 0 0.29493031732226571 -0.16969370770665679 0 0.29971096641729777 -0.18154131993676231 0 0.27899515764395177 -0.15443660918041571 0 0.28858263695303038 -0.1472851012626637 0 0.28355009790984409 -0.17549983614563519 0 0.28858263695303038 -0.1472851012626637 0 0.28355009790984409 -0.17549983614563519 0 0.28858263695303038 -0.1472851012626637 0 0.28355009790984409 -0.17549983614563519 0 0.29372711844303928 -0.1600295372122347 0 0.29372711844303928 -0.1600295372122347 0 0.29493031732226571 -0.16969370770665679 0 0.30143657678371732 -0.15869874935543771 0 0.28355009790984409 -0.17549983614563519 0 0.29372711844303928 -0.1600295372122347 0 0.29493031732226571 -0.16969370770665679 0 0.30143657678371732 -0.15869874935543771 0 0.29971096641729777 -0.18154131993676231 0 0.30143657678371732 -0.15869874935543771 0 0.30809610970482848 -0.16795036279156811 0 0.29971096641729777 -0.18154131993676231 0 0.29493031732226571 -0.16969370770665679 0 0.30143657678371732 -0.15869874935543771 0 0.29971096641729777 -0.18154131993676231 0 0.30143657678371732 -0.15869874935543771 0 0.30809610970482848 -0.16795036279156811 0 0.31557079919726838 -0.1590044961535387 0 0.29971096641729777 -0.18154131993676231 0 0.31498869866721663 -0.1848028620899877 0 0.3156660964210305 -0.17255688572053399 0 0.30809610970482848 -0.16795036279156811 0 0.29971096641729777 -0.18154131993676231 0 0.3156660964210305 -0.17255688572053399 0 0.30866677822314281 -0.19370433905286669 0 0.29971096641729777 -0.18154131993676231 0 0.31498869866721663 -0.1848028620899877 0 0.32729102930978993 -0.18432716657830939 0 0.3156660964210305 -0.17255688572053399 0 0.33199725769327038 -0.160182781354547 0 0.31498869866721663 -0.1848028620899877 0 0.32729102930978993 -0.18432716657830939 0 0.3156660964210305 -0.17255688572053399 0 0.3156660964210305 -0.17255688572053399 0 0.31557079919726838 -0.1590044961535387 0 0.33199725769327038 -0.160182781354547 0 0.30809610970482848 -0.16795036279156811 0 0.3156660964210305 -0.17255688572053399 0 0.31557079919726838 -0.1590044961535387 0 0.32729102930978993 -0.18432716657830939 0 0.34572674800851178 -0.17666980330527179 0 0.34152908302092871 -0.19789605564194099 0 0.32729102930978993 -0.18432716657830939 0 0.33199725769327038 -0.160182781354547 0 0.34572674800851178 -0.17666980330527179 0 0.32729102930978993 -0.18432716657830939 0 0.33199725769327038 -0.160182781354547 0 0.31854024801571379 -0.1183964408803808 0 0.30316218715013699 -0.13585617877411299 0 0.31993283661344418 -0.13594728745244961 0 0.31993283661344418 -0.13594728745244961 0 0.32334883616376942 -0.1477785311756023 0 0.33670348607675138 -0.13603839613078461 0 0.31854024801571379 -0.1183964408803808 0 0.31993283661344418 -0.13594728745244961 0 0.33718817445421712 -0.13355179710808501 0 0.31854024801571379 -0.1183964408803808 0 0.33718817445421712 -0.13355179710808501 0 0.31557079919726838 -0.1590044961535387 0 0.33199725769327038 -0.160182781354547 0 0.32334883616376942 -0.1477785311756023 0 0.31993283661344418 -0.13594728745244961 0 0.32334883616376942 -0.1477785311756023 0 0.31253980123811259 -0.14771969478669131 0 0.31557079919726838 -0.1590044961535387 0 0.32334883616376942 -0.1477785311756023 0 0.31253980123811259 -0.14771969478669131 0 0.33199725769327038 -0.160182781354547 0 0.34027166502062639 -0.13605778071504529 0 0.33670348607675138 -0.13603839613078461 0 0.33199725769327038 -0.160182781354547 0 0.32334883616376942 -0.1477785311756023 0 0.33670348607675138 -0.13603839613078461 0 0.33199725769327038 -0.160182781354547 0 0.33670348607675138 -0.13603839613078461 0 0.31993283661344418 -0.13594728745244961 0 0.33670348607675138 -0.13603839613078461 0 0.31993283661344418 -0.13594728745244961 0 0.33670348607675138 -0.13603839613078461 0 0.33718817445421712 -0.13355179710808501 0 0.34025414842832208 -0.11782241666052221 0 0.33718817445421712 -0.13355179710808501 0 0.34381162934489939 -0.12854128697128539 0 0.34025414842832208 -0.11782241666052221 0 0.33718817445421712 -0.13355179710808501 0 0.34027166502062639 -0.13605778071504529 0 0.33670348607675138 -0.13603839613078461 0 0.33718817445421712 -0.13355179710808501 0 0.34027166502062639 -0.13605778071504529 0 0.33718817445421712 -0.13355179710808501 0 0.34027166502062639 -0.13605778071504529 0 0.33670348607675138 -0.13603839613078461 0 0.33670348607675138 -0.13603839613078461 0 0.33718817445421712 -0.13355179710808501 0 0.34027166502062639 -0.13605778071504529 0 0.33718817445421712 -0.13355179710808501 0 0.34381162934489939 -0.12854128697128539 0 0.33199725769327038 -0.160182781354547 0 0.34027166502062639 -0.13605778071504529 0 0.36359383050920879 -0.15501193774405861 0 0.35355367174401742 -0.1211945845718113 0 0.34381162934489939 -0.12854128697128539 0 0.34779048707731292 -0.1340798558009649 0 0.34027166502062639 -0.13605778071504529 0 0.34884821061351562 -0.13610437388577321 0 0.35664352332635268 -0.13060513793896061 0 0.34779048707731292 -0.1340798558009649 0 0.34884821061351562 -0.13610437388577321 0 0.34027166502062639 -0.13605778071504529 0 0.34779048707731292 -0.1340798558009649 0 0.34884821061351562 -0.13610437388577321 0 0.34027166502062639 -0.13605778071504529 0 0.34381162934489939 -0.12854128697128539 0 0.34779048707731292 -0.1340798558009649 0 0.35664352332635268 -0.13060513793896061 0 0.34884821061351562 -0.13610437388577321 0 0.36374720336072303 -0.13810563056468389 0 0.34884821061351562 -0.13610437388577321 0 0.36359383050920879 -0.15501193774405861 0 0.36374720336072303 -0.13810563056468389 0 0.34027166502062639 -0.13605778071504529 0 0.36359383050920879 -0.15501193774405861 0 0.34027166502062639 -0.13605778071504529 0 0.34884821061351562 -0.13610437388577321 0 0.36359383050920879 -0.15501193774405861 0 0.36359383050920879 -0.15501193774405861 0 0.36374720336072303 -0.13810563056468389 0 0.37656812491251679 -0.13846106794218549 0 0.3785150876385216 -0.1195111518185689 0 0.36779594019891898 -0.12729788290040461 0 0.37656812491251679 -0.13846106794218549 0 0.36374720336072303 -0.13810563056468389 0 0.36779594019891898 -0.12729788290040461 0 0.37656812491251679 -0.13846106794218549 0 0.35664352332635268 -0.13060513793896061 0 0.36374720336072303 -0.13810563056468389 0 0.36779594019891898 -0.12729788290040461 0 0.33199725769327038 -0.160182781354547 0 0.36359383050920879 -0.15501193774405861 0 0.34572674800851178 -0.17666980330527179 0 0.34572674800851178 -0.17666980330527179 0 0.36422253950936112 -0.1859310752075029 0 0.34152908302092871 -0.19789605564194099 0 0.36359383050920879 -0.15501193774405861 0 0.34572674800851178 -0.17666980330527179 0 0.36422253950936112 -0.1859310752075029 0 0.36359383050920879 -0.15501193774405861 0 0.36422253950936112 -0.1859310752075029 0 0.38691599599779503 -0.1739660947730671 0 0.36422253950936112 -0.1859310752075029 0 0.37220629557919183 -0.19612338441269381 0 0.37910290544765168 -0.18685571494790659 0 0.36422253950936112 -0.1859310752075029 0 0.37220629557919183 -0.19612338441269381 0 0.35685044422528578 -0.20027094664828951 0 0.37220629557919183 -0.19612338441269381 0 0.3556522221671049 -0.2162457527497984 0 0.35685044422528578 -0.20027094664828951 0 0.37220629557919183 -0.19612338441269381 0 0.3556522221671049 -0.2162457527497984 0 0.37273333868611941 -0.2093978965492076 0 0.3556522221671049 -0.2162457527497984 0 0.3731990688381891 -0.2228302363117915 0 0.37220629557919183 -0.19612338441269381 0 0.37273333868611941 -0.2093978965492076 0 0.3556522221671049 -0.2162457527497984 0 0.34913249600123192 -0.20719712371303781 0 0.34152908302092871 -0.19789605564194099 0 0.34144894007629428 -0.2139395960038605 0 0.3556522221671049 -0.2162457527497984 0 0.34913249600123192 -0.20719712371303781 0 0.35685044422528578 -0.20027094664828951 0 0.3556522221671049 -0.2162457527497984 0 0.34913249600123192 -0.20719712371303781 0 0.34144894007629428 -0.2139395960038605 0 0.36422253950936112 -0.1859310752075029 0 0.35685044422528578 -0.20027094664828951 0 0.34152908302092871 -0.19789605564194099 0 0.36422253950936112 -0.1859310752075029 0 0.34152908302092871 -0.19789605564194099 0 0.34913249600123192 -0.20719712371303781 0 0.35685044422528578 -0.20027094664828951 0 0.34152908302092871 -0.19789605564194099 0 0.32729102930978993 -0.18432716657830939 0 0.34152908302092871 -0.19789605564194099 0 0.32289957828838461 -0.19876131457419149 0 0.34152908302092871 -0.19789605564194099 0 0.31883562653249692 -0.20986103607638071 0 0.34152908302092871 -0.19789605564194099 0 0.34144894007629428 -0.2139395960038605 0 0.31883562653249692 -0.20986103607638071 0 0.34144894007629428 -0.2139395960038605 0 0.31883562653249692 -0.20986103607638071 0 0.32331405575278033 -0.23055000204260581 0 0.31883562653249692 -0.20986103607638071 0 0.32289957828838461 -0.19876131457419149 0 0.30817512199612251 -0.208018461664154 0 0.31883562653249692 -0.20986103607638071 0 0.32289957828838461 -0.19876131457419149 0 0.30866677822314281 -0.19370433905286669 0 0.30817512199612251 -0.208018461664154 0 0.32289957828838461 -0.19876131457419149 0 0.34152908302092871 -0.19789605564194099 0 0.31883562653249692 -0.20986103607638071 0 0.32289957828838461 -0.19876131457419149 0 0.30866677822314281 -0.19370433905286669 0 0.31498869866721663 -0.1848028620899877 0 0.32289957828838461 -0.19876131457419149 0 0.31498869866721663 -0.1848028620899877 0 0.32729102930978993 -0.18432716657830939 0 0.32289957828838461 -0.19876131457419149 0 0.30517917142926537 -0.24716040808135001 0 0.32331405575278033 -0.23055000204260581 0 0.30517917142926537 -0.24716040808135001 0 0.32331405575278033 -0.23055000204260581 0 0.322544075342931 -0.25649048942400782 0 0.31200739898088131 -0.22851072207886541 0 0.30517917142926537 -0.24716040808135001 0 0.32331405575278033 -0.23055000204260581 0 0.31200739898088131 -0.22851072207886541 0 0.31883562653249692 -0.20986103607638071 0 0.31200739898088131 -0.22851072207886541 0 0.31883562653249692 -0.20986103607638071 0 0.32331405575278033 -0.23055000204260581 0 0.34144894007629428 -0.2139395960038605 0 0.32331405575278033 -0.23055000204260581 0 0.34144894007629428 -0.2139395960038605 0 0.32331405575278033 -0.23055000204260581 0 0.33909814875501798 -0.23636812108690311 0 0.33909814875501798 -0.23636812108690311 0 0.322544075342931 -0.25649048942400782 0 0.32331405575278033 -0.23055000204260581 0 0.33909814875501798 -0.23636812108690311 0 0.322544075342931 -0.25649048942400782 0 0.33909814875501798 -0.23636812108690311 0 0.35007299243335749 -0.24785688602667111 0 0.33700232267718733 -0.25494009872172468 0 0.33909814875501798 -0.23636812108690311 0 0.322544075342931 -0.25649048942400782 0 0.33700232267718733 -0.25494009872172468 0 0.33909814875501798 -0.23636812108690311 0 0.35007299243335749 -0.24785688602667111 0 0.35471840821638012 -0.232162972911199 0 0.35007299243335749 -0.24785688602667111 0 0.35471840821638012 -0.232162972911199 0 0.36225179838031341 -0.2439392928582107 0 0.35007299243335749 -0.24785688602667111 0 0.36225179838031341 -0.2439392928582107 0 0.36124693131331159 -0.25807728632712912 0 0.3556522221671049 -0.2162457527497984 0 0.33909814875501798 -0.23636812108690311 0 0.3556522221671049 -0.2162457527497984 0 0.33909814875501798 -0.23636812108690311 0 0.35471840821638012 -0.232162972911199 0 0.3556522221671049 -0.2162457527497984 0 0.34144894007629428 -0.2139395960038605 0 0.33909814875501798 -0.23636812108690311 0 0.35471840821638012 -0.232162972911199 0 0.3731990688381891 -0.2228302363117915 0 0.36225179838031341 -0.2439392928582107 0 0.3556522221671049 -0.2162457527497984 0 0.35471840821638012 -0.232162972911199 0 0.3731990688381891 -0.2228302363117915 0 0.3731990688381891 -0.2228302363117915 0 0.36225179838031341 -0.2439392928582107 0 0.3731990688381891 -0.2228302363117915 0 0.36225179838031341 -0.2439392928582107 0 0.38186963046980549 -0.2367879359972051 0 0.36225179838031341 -0.2439392928582107 0 0.38186963046980549 -0.2367879359972051 0 0.37510228513818711 -0.25237727586059511 0 0.38186963046980549 -0.2367879359972051 0 0.39206528024080278 -0.24921397013056479 0 0.37510228513818711 -0.25237727586059511 0 0.39206528024080278 -0.24921397013056479 0 0.40137725565661481 -0.22692044649349019 0 0.4148006158986044 -0.24103970595398019 0 0.39206528024080278 -0.24921397013056479 0 0.4148006158986044 -0.24103970595398019 0 0.40884184876520419 -0.25890250189124958 0 0.38186963046980549 -0.2367879359972051 0 0.39206528024080278 -0.24921397013056479 0 0.40137725565661481 -0.22692044649349019 0 0.40137725565661481 -0.22692044649349019 0 0.39915185452682361 -0.21610044156742811 0 0.41396763236883027 -0.21470461273584779 0 0.40137725565661481 -0.22692044649349019 0 0.38700545273377529 -0.2233412248148075 0 0.39915185452682361 -0.21610044156742811 0 0.38186963046980549 -0.2367879359972051 0 0.40137725565661481 -0.22692044649349019 0 0.38700545273377529 -0.2233412248148075 0 0.3731990688381891 -0.2228302363117915 0 0.38186963046980549 -0.2367879359972051 0 0.38700545273377529 -0.2233412248148075 0 0.3731990688381891 -0.2228302363117915 0 0.38414633929606479 -0.2017211797653724 0 0.37273333868611941 -0.2093978965492076 0 0.3731990688381891 -0.2228302363117915 0 0.38414633929606479 -0.2017211797653724 0 0.3731990688381891 -0.2228302363117915 0 0.38675328488958288 -0.2095276895359276 0 0.38414633929606479 -0.2017211797653724 0 0.3731990688381891 -0.2228302363117915 0 0.38700545273377529 -0.2233412248148075 0 0.38675328488958288 -0.2095276895359276 0 0.38675328488958288 -0.2095276895359276 0 0.38414633929606479 -0.2017211797653724 0 0.39287005569986072 -0.20314648074516001 0 0.38414633929606479 -0.2017211797653724 0 0.38373621375160438 -0.1885238144486111 0 0.39509360975394031 -0.18061212321895309 0 0.38414633929606479 -0.2017211797653724 0 0.39509360975394031 -0.18061212321895309 0 0.37999921147615667 -0.19503406661491049 0 0.38373621375160438 -0.1885238144486111 0 0.37910290544765168 -0.18685571494790659 0 0.37999921147615667 -0.19503406661491049 0 0.38414633929606479 -0.2017211797653724 0 0.38373621375160438 -0.1885238144486111 0 0.37220629557919183 -0.19612338441269381 0 0.37999921147615667 -0.19503406661491049 0 0.37910290544765168 -0.18685571494790659 0 0.37220629557919183 -0.19612338441269381 0 0.37273333868611941 -0.2093978965492076 0 0.38414633929606479 -0.2017211797653724 0 0.37220629557919183 -0.19612338441269381 0 0.37999921147615667 -0.19503406661491049 0 0.38414633929606479 -0.2017211797653724 0 0.38414633929606479 -0.2017211797653724 0 0.39694758591794982 -0.18886739411602391 0 0.39509360975394031 -0.18061212321895309 0 0.39694758591794982 -0.18886739411602391 0 0.3969424320709618 -0.1972324897541754 0 0.40101572763622523 -0.19231380306325679 0 0.38414633929606479 -0.2017211797653724 0 0.39694758591794982 -0.18886739411602391 0 0.3969424320709618 -0.1972324897541754 0 0.38414633929606479 -0.2017211797653724 0 0.3969424320709618 -0.1972324897541754 0 0.39287005569986072 -0.20314648074516001 0 0.3969424320709618 -0.1972324897541754 0 0.400612395600416 -0.20053006859666331 0 0.39287005569986072 -0.20314648074516001 0 0.3969424320709618 -0.1972324897541754 0 0.4059814476455269 -0.19573306963025069 0 0.400612395600416 -0.20053006859666331 0 0.4059814476455269 -0.19573306963025069 0 0.400612395600416 -0.20053006859666331 0 0.40665564698531481 -0.2060082342570673 0 0.3969424320709618 -0.1972324897541754 0 0.4059814476455269 -0.19573306963025069 0 0.40101572763622523 -0.19231380306325679 0 0.4059814476455269 -0.19573306963025069 0 0.40101572763622523 -0.19231380306325679 0 0.40419144491046238 -0.1874222587525772 0 0.39694758591794982 -0.18886739411602391 0 0.40101572763622523 -0.19231380306325679 0 0.40419144491046238 -0.1874222587525772 0 0.38675328488958288 -0.2095276895359276 0 0.40665564698531481 -0.2060082342570673 0 0.38675328488958288 -0.2095276895359276 0 0.39915185452682361 -0.21610044156742811 0 0.40665564698531481 -0.2060082342570673 0 0.38675328488958288 -0.2095276895359276 0 0.39287005569986072 -0.20314648074516001 0 0.40665564698531481 -0.2060082342570673 0 0.38700545273377529 -0.2233412248148075 0 0.38675328488958288 -0.2095276895359276 0 0.39915185452682361 -0.21610044156742811 0 0.400612395600416 -0.20053006859666331 0 0.39287005569986072 -0.20314648074516001 0 0.40665564698531481 -0.2060082342570673 0 0.41396763236883027 -0.21470461273584779 0 0.40665564698531481 -0.2060082342570673 0 0.42655800908104652 -0.20248877897820619 0 0.40665564698531481 -0.2060082342570673 0 0.42655800908104652 -0.20248877897820619 0 0.39915185452682361 -0.21610044156742811 0 0.41396763236883027 -0.21470461273584779 0 0.40665564698531481 -0.2060082342570673 0 0.41396763236883027 -0.21470461273584779 0 0.42655800908104652 -0.20248877897820619 0 0.40665564698531481 -0.2060082342570673 0 0.41640017291144837 -0.19588579121564459 0 0.42655800908104652 -0.20248877897820619 0 0.4059814476455269 -0.19573306963025069 0 0.41640017291144837 -0.19588579121564459 0 0.41453364601533049 -0.1862870086825022 0 0.4059814476455269 -0.19573306963025069 0 0.40419144491046238 -0.1874222587525772 0 0.41453364601533049 -0.1862870086825022 0 0.4059814476455269 -0.19573306963025069 0 0.40665564698531481 -0.2060082342570673 0 0.41640017291144837 -0.19588579121564459 0 0.41640017291144837 -0.19588579121564459 0 0.42581299264578848 -0.18832250896932939 0 0.41453364601533049 -0.1862870086825022 0 0.42655800908104652 -0.20248877897820619 0 0.444302871767289 -0.18527179670816579 0 0.42581299264578848 -0.18832250896932939 0 0.42655800908104652 -0.20248877897820619 0 0.444302871767289 -0.18527179670816579 0 0.41640017291144837 -0.19588579121564459 0 0.42581299264578848 -0.18832250896932939 0 0.42655800908104652 -0.20248877897820619 0 0.42655800908104652 -0.20248877897820619 0 0.43237997939727391 -0.21969514264188619 0 0.44995934289594253 -0.19835057932979169 0 0.41396763236883027 -0.21470461273584779 0 0.42655800908104652 -0.20248877897820619 0 0.43237997939727391 -0.21969514264188619 0 0.43237997939727391 -0.21969514264188619 0 0.43199948472716282 -0.23703470349933331 0 0.4148006158986044 -0.24103970595398019 0 0.43237997939727391 -0.21969514264188619 0 0.4148006158986044 -0.24103970595398019 0 0.43199948472716282 -0.23703470349933331 0 0.4148006158986044 -0.24103970595398019 0 0.42892204251950339 -0.2594807324876427 0 0.43199948472716282 -0.23703470349933331 0 0.44338493428344739 -0.24574379201886831 0 0.42892204251950339 -0.2594807324876427 0 0.43237997939727391 -0.21969514264188619 0 0.4148006158986044 -0.24103970595398019 0 0.41563137083033092 -0.22558997695630109 0 0.41396763236883027 -0.21470461273584779 0 0.43237997939727391 -0.21969514264188619 0 0.41563137083033092 -0.22558997695630109 0 0.40137725565661481 -0.22692044649349019 0 0.4148006158986044 -0.24103970595398019 0 0.41563137083033092 -0.22558997695630109 0 0.40137725565661481 -0.22692044649349019 0 0.41396763236883027 -0.21470461273584779 0 0.40137725565661481 -0.22692044649349019 0 0.41396763236883027 -0.21470461273584779 0 0.41563137083033092 -0.22558997695630109 0 0.39237070121405998 -0.13164091544729051 0 0.39988799210863701 -0.14408364481314989 0 0.41368108829086198 -0.13554811058748131 0 0.40604313277712428 -0.1171380761358455 0 0.39237070121405998 -0.13164091544729051 0 0.41368108829086198 -0.13554811058748131 0 0.39237070121405998 -0.13164091544729051 0 0.37656812491251679 -0.13846106794218549 0 0.38605620033535121 -0.1499684147877679 0 0.3785150876385216 -0.1195111518185689 0 0.39237070121405998 -0.13164091544729051 0 0.37656812491251679 -0.13846106794218549 0 0.36359383050920879 -0.15501193774405861 0 0.37656812491251679 -0.13846106794218549 0 0.38605620033535121 -0.1499684147877679 0 0.39237070121405998 -0.13164091544729051 0 0.38605620033535121 -0.1499684147877679 0 0.39988799210863701 -0.14408364481314989 0 0.38605620033535121 -0.1499684147877679 0 0.39988799210863701 -0.14408364481314989 0 0.39700055726989097 -0.15664682800685811 0 0.39988799210863701 -0.14408364481314989 0 0.39700055726989097 -0.15664682800685811 0 0.40766935758353628 -0.1563629578155839 0 0.40291487034120532 -0.16553079014728059 0 0.39700055726989097 -0.15664682800685811 0 0.38691599599779503 -0.1739660947730671 0 0.40291487034120532 -0.16553079014728059 0 0.38691599599779503 -0.1739660947730671 0 0.40291487034120532 -0.16553079014728059 0 0.39700055726989097 -0.15664682800685811 0 0.40766935758353628 -0.1563629578155839 0 0.40291487034120532 -0.16553079014728059 0 0.40766935758353628 -0.1563629578155839 0 0.38605620033535121 -0.1499684147877679 0 0.39700055726989097 -0.15664682800685811 0 0.38691599599779503 -0.1739660947730671 0 0.36359383050920879 -0.15501193774405861 0 0.38691599599779503 -0.1739660947730671 0 0.36359383050920879 -0.15501193774405861 0 0.38605620033535121 -0.1499684147877679 0 0.38691599599779503 -0.1739660947730671 0 0.36422253950936112 -0.1859310752075029 0 0.38691599599779503 -0.1739660947730671 0 0.37910290544765168 -0.18685571494790659 0 0.36422253950936112 -0.1859310752075029 0 0.38691599599779503 -0.1739660947730671 0 0.38691599599779503 -0.1739660947730671 0 0.38753717637180268 -0.18155585423065651 0 0.39509360975394031 -0.18061212321895309 0 0.38373621375160438 -0.1885238144486111 0 0.38753717637180268 -0.18155585423065651 0 0.39509360975394031 -0.18061212321895309 0 0.38691599599779503 -0.1739660947730671 0 0.37910290544765168 -0.18685571494790659 0 0.38753717637180268 -0.18155585423065651 0 0.38373621375160438 -0.1885238144486111 0 0.37910290544765168 -0.18685571494790659 0 0.38753717637180268 -0.18155585423065651 0 0.40291487034120532 -0.16553079014728059 0 0.38691599599779503 -0.1739660947730671 0 0.39509360975394031 -0.18061212321895309 0 0.39694758591794982 -0.18886739411602391 0 0.39665445354372708 -0.18451779314135289 0 0.39509360975394031 -0.18061212321895309 0 0.39694758591794982 -0.18886739411602391 0 0.39665445354372708 -0.18451779314135289 0 0.40021252966215071 -0.18382207331845951 0 0.39665445354372708 -0.18451779314135289 0 0.39509360975394031 -0.18061212321895309 0 0.40021252966215071 -0.18382207331845951 0 0.38691599599779503 -0.1739660947730671 0 0.39509360975394031 -0.18061212321895309 0 0.40291487034120532 -0.16553079014728059 0 0.39509360975394031 -0.18061212321895309 0 0.40549068313545528 -0.17742909809594989 0 0.40291487034120532 -0.16553079014728059 0 0.39509360975394031 -0.18061212321895309 0 0.40549068313545528 -0.17742909809594989 0 0.40419144491046238 -0.1874222587525772 0 0.40021252966215071 -0.18382207331845951 0 0.39509360975394031 -0.18061212321895309 0 0.40549068313545528 -0.17742909809594989 0 0.40021252966215071 -0.18382207331845951 0 0.39694758591794982 -0.18886739411602391 0 0.40419144491046238 -0.1874222587525772 0 0.40021252966215071 -0.18382207331845951 0 0.42581299264578848 -0.18832250896932939 0 0.41453364601533049 -0.1862870086825022 0 0.42235201908535791 -0.17050045814039369 0 0.40549068313545528 -0.17742909809594989 0 0.41453364601533049 -0.1862870086825022 0 0.42235201908535791 -0.17050045814039369 0 0.40549068313545528 -0.17742909809594989 0 0.40419144491046238 -0.1874222587525772 0 0.41453364601533049 -0.1862870086825022 0 0.42235201908535791 -0.17050045814039369 0 0.44127751826325029 -0.16493106072254701 0 0.444302871767289 -0.18527179670816579 0 0.42581299264578848 -0.18832250896932939 0 0.42235201908535791 -0.17050045814039369 0 0.444302871767289 -0.18527179670816579 0 0.42235201908535791 -0.17050045814039369 0 0.42606808286872072 -0.1533234062687002 0 0.44127751826325029 -0.16493106072254701 0 0.40291487034120532 -0.16553079014728059 0 0.40766935758353628 -0.1563629578155839 0 0.42606808286872072 -0.1533234062687002 0 0.40291487034120532 -0.16553079014728059 0 0.42606808286872072 -0.1533234062687002 0 0.40291487034120532 -0.16553079014728059 0 0.42235201908535791 -0.17050045814039369 0 0.42606808286872072 -0.1533234062687002 0 0.40291487034120532 -0.16553079014728059 0 0.40549068313545528 -0.17742909809594989 0 0.42235201908535791 -0.17050045814039369 0 0.41182663021293903 -0.1473295298712288 0 0.42606808286872072 -0.1533234062687002 0 0.41368108829086198 -0.13554811058748131 0 0.40766935758353628 -0.1563629578155839 0 0.41182663021293903 -0.1473295298712288 0 0.42606808286872072 -0.1533234062687002 0 0.39988799210863701 -0.14408364481314989 0 0.40766935758353628 -0.1563629578155839 0 0.41182663021293903 -0.1473295298712288 0 0.39988799210863701 -0.14408364481314989 0 0.41182663021293903 -0.1473295298712288 0 0.41368108829086198 -0.13554811058748131 0 0.42606808286872072 -0.1533234062687002 0 0.430889964195386 -0.135117951771525 0 0.44922129539623712 -0.14111602239012119 0 0.42606808286872072 -0.1533234062687002 0 0.430889964195386 -0.135117951771525 0 0.41368108829086198 -0.13554811058748131 0 0.42080162445294911 -0.1170697999396166 0 0.430889964195386 -0.135117951771525 0 0.41368108829086198 -0.13554811058748131 0 0.45825176112352212 -0.1171944005084963 0 0.44922129539623712 -0.14111602239012119 0 0.47461064769812122 -0.12772964805397971 0 0.44922129539623712 -0.14111602239012119 0 0.47461064769812122 -0.12772964805397971 0 0.44922129539623712 -0.14111602239012119 0 0.47041229806123103 -0.14236165737458781 0 0.47461064769812122 -0.12772964805397971 0 0.43893170590200609 -0.1195052611799315 0 0.430889964195386 -0.135117951771525 0 0.44922129539623712 -0.14111602239012119 0 0.43893170590200609 -0.1195052611799315 0 0.45825176112352212 -0.1171944005084963 0 0.44922129539623712 -0.14111602239012119 0 0.43893170590200609 -0.1195052611799315 0 0.44922129539623712 -0.14111602239012119 0 0.42606808286872072 -0.1533234062687002 0 0.44922129539623712 -0.14111602239012119 0 0.44127751826325029 -0.16493106072254701 0 0.42606808286872072 -0.1533234062687002 0 0.44922129539623712 -0.14111602239012119 0 0.44922129539623712 -0.14111602239012119 0 0.46204773445353348 -0.16805481443812731 0 0.44922129539623712 -0.14111602239012119 0 0.46204773445353348 -0.16805481443812731 0 0.47041229806123103 -0.14236165737458781 0 0.44922129539623712 -0.14111602239012119 0 0.46204773445353348 -0.16805481443812731 0 0.44127751826325029 -0.16493106072254701 0 0.46204773445353348 -0.16805481443812731 0 0.44127751826325029 -0.16493106072254701 0 0.444302871767289 -0.18527179670816579 0 0.46204773445353348 -0.16805481443812731 0 0.444302871767289 -0.18527179670816579 0 0.46675991992270621 -0.1779516052682695 0 0.47013600328087812 -0.185042241033678 0 0.44995934289594253 -0.19835057932979169 0 0.444302871767289 -0.18527179670816579 0 0.46675991992270621 -0.1779516052682695 0 0.44995934289594253 -0.19835057932979169 0 0.46204773445353348 -0.16805481443812731 0 0.444302871767289 -0.18527179670816579 0 0.46675991992270621 -0.1779516052682695 0 0.46204773445353348 -0.16805481443812731 0 0.46675991992270621 -0.1779516052682695 0 0.46675991992270621 -0.1779516052682695 0 0.47013600328087812 -0.185042241033678 0 0.46675991992270621 -0.1779516052682695 0 0.48388214138120561 -0.17390417728894431 0 0.47927416581767118 -0.18397687174081401 0 0.46675991992270621 -0.1779516052682695 0 0.47013600328087812 -0.185042241033678 0 0.47927416581767118 -0.18397687174081401 0 0.48388214138120561 -0.17390417728894431 0 0.47927416581767118 -0.18397687174081401 0 0.48987334582395858 -0.18140433091368091 0 0.48987334582395858 -0.18140433091368091 0 0.5 -0.16492372169971509 0 0.5 -0.19225537639104809 0 0.48388214138120561 -0.17390417728894431 0 0.48987334582395858 -0.18140433091368091 0 0.5 -0.16492372169971509 0 0.47927416581767118 -0.18397687174081401 0 0.48987334582395858 -0.18140433091368091 0 0.48552241192915191 -0.19206174635411891 0 0.48388214138120561 -0.17390417728894431 0 0.5 -0.16492372169971509 0 0.48337995996135552 -0.1577718361383266 0 0.46675991992270621 -0.1779516052682695 0 0.48388214138120561 -0.17390417728894431 0 0.48337995996135552 -0.1577718361383266 0 0.46204773445353348 -0.16805481443812731 0 0.46675991992270621 -0.1779516052682695 0 0.48337995996135552 -0.1577718361383266 0 0.46204773445353348 -0.16805481443812731 0 0.48337995996135552 -0.1577718361383266 0 0.47713463147989749 -0.15341672773068571 0 0.46675991992270621 -0.1779516052682695 0 0.48337995996135552 -0.1577718361383266 0 0.46204773445353348 -0.16805481443812731 0 0.47713463147989749 -0.15341672773068571 0 0.46204773445353348 -0.16805481443812731 0 0.47041229806123103 -0.14236165737458781 0 0.47713463147989749 -0.15341672773068571 0 0.48337995996135552 -0.1577718361383266 0 0.47713463147989749 -0.15341672773068571 0 0.48456351921585428 -0.1397192317593817 0 0.47041229806123103 -0.14236165737458781 0 0.47713463147989749 -0.15341672773068571 0 0.48456351921585428 -0.1397192317593817 0 0.48337995996135552 -0.1577718361383266 0 0.50000000000000311 -0.1375920670083822 0 0.48456351921585428 -0.1397192317593817 0 0.5 -0.16492372169971509 0 0.48337995996135552 -0.1577718361383266 0 0.50000000000000311 -0.1375920670083822 0 0.48337995996135552 -0.1577718361383266 0 0.50000000000000311 -0.1375920670083822 0 0.50000000000000433 -0.1143432737178363 0 0.50000000000000311 -0.1375920670083822 0 0.48456351921585428 -0.1397192317593817 0 0.50000000000000433 -0.1143432737178363 0 0.48456351921585428 -0.1397192317593817 0 0.47461064769812122 -0.12772964805397971 0 0.47041229806123103 -0.14236165737458781 0 0.48456351921585428 -0.1397192317593817 0 0.47461064769812122 -0.12772964805397971 0 0.46695018322910392 -0.22473955239466681 0 0.44975785303280541 -0.2255898949688982 0 0.46528918090086291 -0.2095084705765255 0 0.46695018322910392 -0.22473955239466681 0 0.46086119099944728 -0.24298014516654151 0 0.44975785303280541 -0.2255898949688982 0 0.46086119099944728 -0.24298014516654151 0 0.44338493428344739 -0.24574379201886831 0 0.44975785303280541 -0.2255898949688982 0 0.43199948472716282 -0.23703470349933331 0 0.44338493428344739 -0.24574379201886831 0 0.44975785303280541 -0.2255898949688982 0 0.46086119099944728 -0.24298014516654151 0 0.44338493428344739 -0.24574379201886831 0 0.45165913482636821 -0.26068325523694041 0 0.43237997939727391 -0.21969514264188619 0 0.43199948472716282 -0.23703470349933331 0 0.44975785303280541 -0.2255898949688982 0 0.43237997939727391 -0.21969514264188619 0 0.44975785303280541 -0.2255898949688982 0 0.44995934289594253 -0.19835057932979169 0 0.43237997939727391 -0.21969514264188619 0 0.44995934289594253 -0.19835057932979169 0 0.42655800908104652 -0.20248877897820619 0 0.444302871767289 -0.18527179670816579 0 0.44995934289594253 -0.19835057932979169 0 0.42655800908104652 -0.20248877897820619 0 0.44995934289594253 -0.19835057932979169 0 0.46675991992270621 -0.1779516052682695 0 0.44995934289594253 -0.19835057932979169 0 0.44995934289594253 -0.19835057932979169 0 0.46774087741254722 -0.19520616284195491 0 0.47013600328087812 -0.185042241033678 0 0.44995934289594253 -0.19835057932979169 0 0.46774087741254722 -0.19520616284195491 0 0.44995934289594253 -0.19835057932979169 0 0.46774087741254722 -0.19520616284195491 0 0.46528918090086291 -0.2095084705765255 0 0.44975785303280541 -0.2255898949688982 0 0.44995934289594253 -0.19835057932979169 0 0.46528918090086291 -0.2095084705765255 0 0.46695018322910392 -0.22473955239466681 0 0.46528918090086291 -0.2095084705765255 0 0.48029579162163721 -0.21558854579597769 0 0.46528918090086291 -0.2095084705765255 0 0.47801733861628259 -0.20339364304417529 0 0.48029579162163721 -0.21558854579597769 0 0.47801733861628259 -0.20339364304417529 0 0.48029579162163721 -0.21558854579597769 0 0.48876710843341442 -0.20457726853354019 0 0.46774087741254722 -0.19520616284195491 0 0.47801733861628259 -0.20339364304417529 0 0.48552241192915191 -0.19206174635411891 0 0.47927416581767118 -0.18397687174081401 0 0.46774087741254722 -0.19520616284195491 0 0.48552241192915191 -0.19206174635411891 0 0.46774087741254722 -0.19520616284195491 0 0.48552241192915191 -0.19206174635411891 0 0.47013600328087812 -0.185042241033678 0 0.47927416581767118 -0.18397687174081401 0 0.46774087741254722 -0.19520616284195491 0 0.46774087741254722 -0.19520616284195491 0 0.46528918090086291 -0.2095084705765255 0 0.47801733861628259 -0.20339364304417529 0 0.47801733861628259 -0.20339364304417529 0 0.48552241192915191 -0.19206174635411891 0 0.48876710843341442 -0.20457726853354019 0 0.48987334582395858 -0.18140433091368091 0 0.48552241192915191 -0.19206174635411891 0 0.5 -0.19225537639104809 0 0.48552241192915191 -0.19206174635411891 0 0.5 -0.19225537639104809 0 0.48876710843341442 -0.20457726853354019 0 0.5 -0.19225537639104809 0 0.48876710843341442 -0.20457726853354019 0 0.5 -0.21958703108238101 0 0.48029579162163721 -0.21558854579597769 0 0.48876710843341442 -0.20457726853354019 0 0.5 -0.21958703108238101 0 0.5 -0.21958703108238101 0 0.48033598971293961 -0.23536730169414519 0 0.5 -0.24691868577371379 0 0.48029579162163721 -0.21558854579597769 0 0.5 -0.21958703108238101 0 0.48033598971293961 -0.23536730169414519 0 0.46695018322910392 -0.22473955239466681 0 0.46086119099944728 -0.24298014516654151 0 0.48033598971293961 -0.23536730169414519 0 0.46695018322910392 -0.22473955239466681 0 0.48029579162163721 -0.21558854579597769 0 0.48033598971293961 -0.23536730169414519 0 0.46086119099944728 -0.24298014516654151 0 0.48033598971293961 -0.23536730169414519 0 0.47450143065275591 -0.2599846894272051 0 0.48033598971293961 -0.23536730169414519 0 0.5 -0.24691868577371379 0 0.47450143065275591 -0.2599846894272051 0 0.5 -0.24691868577371379 0 0.50000000000000222 -0.27425034046504659 0 0.47450143065275591 -0.2599846894272051 0 0.50000000000000222 -0.27425034046504659 0 0.47605513413645029 -0.28008102786359129 0 0.47450143065275591 -0.2599846894272051 0 0.47605513413645029 -0.28008102786359129 0 0.47450143065275591 -0.2599846894272051 0 0.45931845050930209 -0.27772900618102819 0 0.46086119099944728 -0.24298014516654151 0 0.47450143065275591 -0.2599846894272051 0 0.45165913482636821 -0.26068325523694041 0 0.47450143065275591 -0.2599846894272051 0 0.45931845050930209 -0.27772900618102819 0 0.45165913482636821 -0.26068325523694041 0 0.45931845050930209 -0.27772900618102819 0 0.44355941821905998 -0.27577600561597132 0 0.45165913482636821 -0.26068325523694041 0 0.44338493428344739 -0.24574379201886831 0 0.45165913482636821 -0.26068325523694041 0 0.42892204251950339 -0.2594807324876427 0 0.44355941821905998 -0.27577600561597132 0 0.45165913482636821 -0.26068325523694041 0 0.42892204251950339 -0.2594807324876427 0 0.44743457629936911 -0.29125199491084608 0 0.45088585771739531 -0.31517042999936162 0 0.43686388954492023 -0.30206384222820981 0 0.45088585771739531 -0.31517042999936162 0 0.43602078127065758 -0.31524868357114688 0 0.43686388954492023 -0.30206384222820981 0 0.45931845050930209 -0.27772900618102819 0 0.44355941821905998 -0.27577600561597132 0 0.44743457629936911 -0.29125199491084608 0 0.44355941821905998 -0.27577600561597132 0 0.44743457629936911 -0.29125199491084608 0 0.42611848489587972 -0.28658767974219163 0 0.47605513413645029 -0.28008102786359129 0 0.45931845050930209 -0.27772900618102819 0 0.46516191830632447 -0.295844547827811 0 0.45931845050930209 -0.27772900618102819 0 0.44743457629936911 -0.29125199491084608 0 0.46516191830632447 -0.295844547827811 0 0.44743457629936911 -0.29125199491084608 0 0.46516191830632447 -0.295844547827811 0 0.45088585771739531 -0.31517042999936162 0 0.46516191830632447 -0.295844547827811 0 0.47218478901913252 -0.31616939882945228 0 0.45088585771739531 -0.31517042999936162 0 0.4860923945095682 -0.29520986964724988 0 0.47218478901913252 -0.31616939882945228 0 0.50000000000000222 -0.27425034046504659 0 0.4860923945095682 -0.29520986964724988 0 0.5 -0.307151228172029 0 0.46516191830632447 -0.295844547827811 0 0.4860923945095682 -0.29520986964724988 0 0.47218478901913252 -0.31616939882945228 0 0.47605513413645029 -0.28008102786359129 0 0.46516191830632447 -0.295844547827811 0 0.4860923945095682 -0.29520986964724988 0 0.50000000000000222 -0.27425034046504659 0 0.47605513413645029 -0.28008102786359129 0 0.4860923945095682 -0.29520986964724988 0 0.50000000000000222 -0.27425034046504659 0 0.4860923945095682 -0.29520986964724988 0 0.4860923945095682 -0.29520986964724988 0 0.5 -0.307151228172029 0 0.47218478901913252 -0.31616939882945228 0 0.5 -0.307151228172029 0 0.47500442815187882 -0.33618410333150461 0 0.5 -0.35237408365171952 0 0.5 -0.307151228172029 0 0.47500442815187882 -0.33618410333150461 0 0.47218478901913252 -0.31616939882945228 0 0.47500442815187882 -0.33618410333150461 0 0.5 -0.35237408365171952 0 0.46252966193221051 -0.36479181955861489 0 0.5 -0.35237408365171952 0 0.46252966193221051 -0.36479181955861489 0 0.4680243894331878 -0.39009447735167219 0 0.46252966193221051 -0.36479181955861489 0 0.44439653888602387 -0.37108278870097211 0 0.45518384933885458 -0.37953704158418422 0 0.46252966193221051 -0.36479181955861489 0 0.4490308344886651 -0.35295870566956811 0 0.45703493443123322 -0.33948916176555749 0 0.47500442815187882 -0.33618410333150461 0 0.46252966193221051 -0.36479181955861489 0 0.45703493443123322 -0.33948916176555749 0 0.46252966193221051 -0.36479181955861489 0 0.45703493443123322 -0.33948916176555749 0 0.4490308344886651 -0.35295870566956811 0 0.44439653888602387 -0.37108278870097211 0 0.43547581015886039 -0.35374612963373181 0 0.44432011104097457 -0.34600420025309703 0 0.4490308344886651 -0.35295870566956811 0 0.45042795048268808 -0.34263813410543531 0 0.4490308344886651 -0.35295870566956811 0 0.45703493443123322 -0.33948916176555749 0 0.45042795048268808 -0.34263813410543531 0 0.44432011104097457 -0.34600420025309703 0 0.4490308344886651 -0.35295870566956811 0 0.43547581015886039 -0.35374612963373181 0 0.44432011104097457 -0.34600420025309703 0 0.43877314986606192 -0.33818418946214152 0 0.43547581015886039 -0.35374612963373181 0 0.46252966193221051 -0.36479181955861489 0 0.4490308344886651 -0.35295870566956811 0 0.44439653888602387 -0.37108278870097211 0 0.47218478901913252 -0.31616939882945228 0 0.45845081404400378 -0.32484725803309861 0 0.45088585771739531 -0.31517042999936162 0 0.47218478901913252 -0.31616939882945228 0 0.45845081404400378 -0.32484725803309861 0 0.45827718352869679 -0.33712892801165451 0 0.47218478901913252 -0.31616939882945228 0 0.45827718352869679 -0.33712892801165451 0 0.45845081404400378 -0.32484725803309861 0 0.45465012105844921 -0.33200612518688721 0 0.44755831468875862 -0.32470483606049327 0 0.47500442815187882 -0.33618410333150461 0 0.45703493443123322 -0.33948916176555749 0 0.45827718352869679 -0.33712892801165451 0 0.47500442815187882 -0.33618410333150461 0 0.47218478901913252 -0.31616939882945228 0 0.45827718352869679 -0.33712892801165451 0 0.45703493443123322 -0.33948916176555749 0 0.4547926195999189 -0.33699511694280199 0 0.45042795048268808 -0.34263813410543531 0 0.45703493443123322 -0.33948916176555749 0 0.45827718352869679 -0.33712892801165451 0 0.4547926195999189 -0.33699511694280199 0 0.45845081404400378 -0.32484725803309861 0 0.45827718352869679 -0.33712892801165451 0 0.45465012105844921 -0.33200612518688721 0 0.4547926195999189 -0.33699511694280199 0 0.45465012105844921 -0.33200612518688721 0 0.45190540097192972 -0.33615439765103378 0 0.45827718352869679 -0.33712892801165451 0 0.4547926195999189 -0.33699511694280199 0 0.45465012105844921 -0.33200612518688721 0 0.45465012105844921 -0.33200612518688721 0 0.44749393872662357 -0.33307274595813069 0 0.44755831468875862 -0.32470483606049327 0 0.45465012105844921 -0.33200612518688721 0 0.44749393872662357 -0.33307274595813069 0 0.45190540097192972 -0.33615439765103378 0 0.4547926195999189 -0.33699511694280199 0 0.45042795048268808 -0.34263813410543531 0 0.45190540097192972 -0.33615439765103378 0 0.45042795048268808 -0.34263813410543531 0 0.45190540097192972 -0.33615439765103378 0 0.44691761172297523 -0.33872250108465612 0 0.44749393872662357 -0.33307274595813069 0 0.45190540097192972 -0.33615439765103378 0 0.44691761172297523 -0.33872250108465612 0 0.44432011104097457 -0.34600420025309703 0 0.45042795048268808 -0.34263813410543531 0 0.44691761172297523 -0.33872250108465612 0 0.44432011104097457 -0.34600420025309703 0 0.44691761172297523 -0.33872250108465612 0 0.43877314986606192 -0.33818418946214152 0 0.44749393872662357 -0.33307274595813069 0 0.44691761172297523 -0.33872250108465612 0 0.43877314986606192 -0.33818418946214152 0 0.44749393872662357 -0.33307274595813069 0 0.43877314986606192 -0.33818418946214152 0 0.43784837531542259 -0.32788377361433518 0 0.44749393872662357 -0.33307274595813069 0 0.43784837531542259 -0.32788377361433518 0 0.44755831468875862 -0.32470483606049327 0 0.43784837531542259 -0.32788377361433518 0 0.44755831468875862 -0.32470483606049327 0 0.43602078127065758 -0.31524868357114688 0 0.45845081404400378 -0.32484725803309861 0 0.44755831468875862 -0.32470483606049327 0 0.45088585771739531 -0.31517042999936162 0 0.44755831468875862 -0.32470483606049327 0 0.45088585771739531 -0.31517042999936162 0 0.43602078127065758 -0.31524868357114688 0 0.43784837531542259 -0.32788377361433518 0 0.42583518759170652 -0.33528639298719382 0 0.41775460495295358 -0.31793141321765611 0 0.43784837531542259 -0.32788377361433518 0 0.43602078127065758 -0.31524868357114688 0 0.41775460495295358 -0.31793141321765611 0 0.43877314986606192 -0.33818418946214152 0 0.43784837531542259 -0.32788377361433518 0 0.42583518759170652 -0.33528639298719382 0 0.43877314986606192 -0.33818418946214152 0 0.42583518759170652 -0.33528639298719382 0 0.43547581015886039 -0.35374612963373181 0 0.41250416259223432 -0.33960725990233392 0 0.41775460495295358 -0.31793141321765611 0 0.39805431729583179 -0.33510365622952631 0 0.41250416259223432 -0.33960725990233392 0 0.41775460495295358 -0.31793141321765611 0 0.42583518759170652 -0.33528639298719382 0 0.41250416259223432 -0.33960725990233392 0 0.41775460495295358 -0.31793141321765611 0 0.42583518759170652 -0.33528639298719382 0 0.41250416259223432 -0.33960725990233392 0 0.42034794007649889 -0.35298104146800569 0 0.43547581015886039 -0.35374612963373181 0 0.42034794007649889 -0.35298104146800569 0 0.42578668388574042 -0.37577956855813549 0 0.44439653888602387 -0.37108278870097211 0 0.43547581015886039 -0.35374612963373181 0 0.42578668388574042 -0.37577956855813549 0 0.42583518759170652 -0.33528639298719382 0 0.43547581015886039 -0.35374612963373181 0 0.42034794007649889 -0.35298104146800569 0 0.41250416259223432 -0.33960725990233392 0 0.42034794007649889 -0.35298104146800569 0 0.40725372023151529 -0.36128310658701179 0 0.41250416259223432 -0.33960725990233392 0 0.40725372023151529 -0.36128310658701179 0 0.40725372023151529 -0.36128310658701179 0 0.42578668388574042 -0.37577956855813549 0 0.40193856510946419 -0.3832261124550107 0 0.40725372023151529 -0.36128310658701179 0 0.42578668388574042 -0.37577956855813549 0 0.42034794007649889 -0.35298104146800569 0 0.40725372023151529 -0.36128310658701179 0 0.42578668388574042 -0.37577956855813549 0 0.40725372023151529 -0.36128310658701179 0 0.39425043507280438 -0.36432915978129837 0 0.40193856510946419 -0.3832261124550107 0 0.40725372023151529 -0.36128310658701179 0 0.40193856510946419 -0.3832261124550107 0 0.39425043507280438 -0.36432915978129837 0 0.38081427771294768 -0.36737052156009248 0 0.40193856510946419 -0.3832261124550107 0 0.40725372023151529 -0.36128310658701179 0 0.38699517723729038 -0.34543689852307891 0 0.39805431729583179 -0.33510365622952631 0 0.40725372023151529 -0.36128310658701179 0 0.39425043507280438 -0.36432915978129837 0 0.38699517723729038 -0.34543689852307891 0 0.40725372023151529 -0.36128310658701179 0 0.38699517723729038 -0.34543689852307891 0 0.41250416259223432 -0.33960725990233392 0 0.40725372023151529 -0.36128310658701179 0 0.39805431729583179 -0.33510365622952631 0 0.38699517723729038 -0.34543689852307891 0 0.38081427771294768 -0.36737052156009248 0 0.37640125955739012 -0.35149107478397351 0 0.38465179156333151 -0.34360390505586791 0 0.36805061276354478 -0.3427907498460791 0 0.39425043507280438 -0.36432915978129837 0 0.38699517723729038 -0.34543689852307891 0 0.38081427771294768 -0.36737052156009248 0 0.38699517723729038 -0.34543689852307891 0 0.37640125955739012 -0.35149107478397351 0 0.38081427771294768 -0.36737052156009248 0 0.38699517723729038 -0.34543689852307891 0 0.38465179156333151 -0.34360390505586791 0 0.38699517723729038 -0.34543689852307891 0 0.37640125955739012 -0.35149107478397351 0 0.38465179156333151 -0.34360390505586791 0 0.41775460495295358 -0.31793141321765611 0 0.39401776620237461 -0.32051644503610022 0 0.39805431729583179 -0.33510365622952631 0 0.38699517723729038 -0.34543689852307891 0 0.39401776620237461 -0.32051644503610022 0 0.39805431729583179 -0.33510365622952631 0 0.38699517723729038 -0.34543689852307891 0 0.39401776620237461 -0.32051644503610022 0 0.38465179156333151 -0.34360390505586791 0 0.37858644206980091 -0.32769985780377792 0 0.36805061276354478 -0.3427907498460791 0 0.38699517723729038 -0.34543689852307891 0 0.39401776620237461 -0.32051644503610022 0 0.38465179156333151 -0.34360390505586791 0 0.39401776620237461 -0.32051644503610022 0 0.38465179156333151 -0.34360390505586791 0 0.37858644206980091 -0.32769985780377792 0 0.39401776620237461 -0.32051644503610022 0 0.37858644206980091 -0.32769985780377792 0 0.37861767820969228 -0.30691821554646831 0 0.41775460495295358 -0.31793141321765611 0 0.39401776620237461 -0.32051644503610022 0 0.40104035516745928 -0.29559599154912142 0 0.39401776620237461 -0.32051644503610022 0 0.37861767820969228 -0.30691821554646831 0 0.40104035516745928 -0.29559599154912142 0 0.39401776620237461 -0.32051644503610022 0 0.40104035516745928 -0.29559599154912142 0 0.40104035516745928 -0.29559599154912142 0 0.38498320530945151 -0.287592927137584 0 0.39655653748852282 -0.27284147297554762 0 0.38498320530945151 -0.287592927137584 0 0.37764450162479901 -0.26965755496232408 0 0.36873774536035581 -0.28861226174546889 0 0.37861767820969228 -0.30691821554646831 0 0.40104035516745928 -0.29559599154912142 0 0.38498320530945151 -0.287592927137584 0 0.37861767820969228 -0.30691821554646831 0 0.38498320530945151 -0.287592927137584 0 0.36873774536035581 -0.28861226174546889 0 0.38498320530945151 -0.287592927137584 0 0.37764450162479901 -0.26965755496232408 0 0.39655653748852282 -0.27284147297554762 0 0.39206528024080278 -0.24921397013056479 0 0.37764450162479901 -0.26965755496232408 0 0.39655653748852282 -0.27284147297554762 0 0.39206528024080278 -0.24921397013056479 0 0.37764450162479901 -0.26965755496232408 0 0.37510228513818711 -0.25237727586059511 0 0.39206528024080278 -0.24921397013056479 0 0.39655653748852282 -0.27284147297554762 0 0.40884184876520419 -0.25890250189124958 0 0.40104035516745928 -0.29559599154912142 0 0.39655653748852282 -0.27284147297554762 0 0.4136044294752057 -0.2739163227279473 0 0.39655653748852282 -0.27284147297554762 0 0.4136044294752057 -0.2739163227279473 0 0.40884184876520419 -0.25890250189124958 0 0.4148006158986044 -0.24103970595398019 0 0.40884184876520419 -0.25890250189124958 0 0.42892204251950339 -0.2594807324876427 0 0.4136044294752057 -0.2739163227279473 0 0.40884184876520419 -0.25890250189124958 0 0.42892204251950339 -0.2594807324876427 0 0.4136044294752057 -0.2739163227279473 0 0.42892204251950339 -0.2594807324876427 0 0.42611848489587972 -0.28658767974219163 0 0.44355941821905998 -0.27577600561597132 0 0.42892204251950339 -0.2594807324876427 0 0.42611848489587972 -0.28658767974219163 0 0.44743457629936911 -0.29125199491084608 0 0.42611848489587972 -0.28658767974219163 0 0.43686388954492023 -0.30206384222820981 0 0.43602078127065758 -0.31524868357114688 0 0.41775460495295358 -0.31793141321765611 0 0.42179240152309172 -0.30222108271158582 0 0.42611848489587972 -0.28658767974219163 0 0.43686388954492023 -0.30206384222820981 0 0.42179240152309172 -0.30222108271158582 0 0.43602078127065758 -0.31524868357114688 0 0.43686388954492023 -0.30206384222820981 0 0.42179240152309172 -0.30222108271158582 0 0.41775460495295358 -0.31793141321765611 0 0.40104035516745928 -0.29559599154912142 0 0.42179240152309172 -0.30222108271158582 0 0.40104035516745928 -0.29559599154912142 0 0.4136044294752057 -0.2739163227279473 0 0.42611848489587972 -0.28658767974219163 0 0.40104035516745928 -0.29559599154912142 0 0.42611848489587972 -0.28658767974219163 0 0.42179240152309172 -0.30222108271158582 0 0.5 -0.5 0 0.478892924595126 -0.45923392689990328 0 0.5 -0.41454166856117469 0 0.5 -0.5 0 0.47943423265092072 -0.49342116463239621 0 0.40014079662082208 -0.5 0 0.43983937115661631 -0.46972557693384148 0 0.47943423265092072 -0.49342116463239621 0 0.40014079662082208 -0.5 0 0.43983937115661631 -0.46972557693384148 0 0.46715606132834708 -0.47012790102379598 0 0.47943423265092072 -0.49342116463239621 0 0.5 -0.5 0 0.47943423265092072 -0.49342116463239621 0 0.478892924595126 -0.45923392689990328 0 0.46715606132834708 -0.47012790102379598 0 0.47943423265092072 -0.49342116463239621 0 0.478892924595126 -0.45923392689990328 0 0.46715606132834708 -0.47012790102379598 0 0.47943423265092072 -0.49342116463239621 0 0.478892924595126 -0.45923392689990328 0 0.45487789000577361 -0.44683463741519602 0 0.47188936358571532 -0.4304781897668572 0 0.46715606132834708 -0.47012790102379598 0 0.45487789000577361 -0.44683463741519602 0 0.46715606132834708 -0.47012790102379598 0 0.478892924595126 -0.45923392689990328 0 0.45487789000577361 -0.44683463741519602 0 0.43983937115661631 -0.46972557693384148 0 0.46715606132834708 -0.47012790102379598 0 0.45487789000577361 -0.44683463741519602 0 0.43983937115661631 -0.46972557693384148 0 0.45487789000577361 -0.44683463741519602 0 0.43095981599733307 -0.44753658110846528 0 0.45487789000577361 -0.44683463741519602 0 0.43408281430989271 -0.43319973453275151 0 0.43095981599733307 -0.44753658110846528 0 0.45487789000577361 -0.44683463741519602 0 0.44259971868320003 -0.42354137380659601 0 0.45487789000577361 -0.44683463741519602 0 0.44259971868320003 -0.42354137380659601 0 0.43408281430989271 -0.43319973453275151 0 0.45487789000577361 -0.44683463741519602 0 0.44259971868320003 -0.42354137380659601 0 0.45959372781066021 -0.42263882295877442 0 0.44259971868320003 -0.42354137380659601 0 0.45186952978880229 -0.40983589673226128 0 0.45959372781066021 -0.42263882295877442 0 0.44259971868320003 -0.42354137380659601 0 0.45186952978880229 -0.40983589673226128 0 0.44161148704613862 -0.40579593671517361 0 0.44259971868320003 -0.42354137380659601 0 0.44161148704613862 -0.40579593671517361 0 0.43098246877755192 -0.41858878846052949 0 0.45186952978880229 -0.40983589673226128 0 0.45959372781066021 -0.42263882295877442 0 0.46285261119418991 -0.40477249250038388 0 0.45959372781066021 -0.42263882295877442 0 0.4735191169341651 -0.41539713514472942 0 0.46285261119418991 -0.40477249250038388 0 0.45959372781066021 -0.42263882295877442 0 0.47188936358571532 -0.4304781897668572 0 0.4735191169341651 -0.41539713514472942 0 0.45487789000577361 -0.44683463741519602 0 0.45959372781066021 -0.42263882295877442 0 0.47188936358571532 -0.4304781897668572 0 0.5 -0.41454166856117469 0 0.4735191169341651 -0.41539713514472942 0 0.4680243894331878 -0.39009447735167219 0 0.478892924595126 -0.45923392689990328 0 0.47188936358571532 -0.4304781897668572 0 0.5 -0.41454166856117469 0 0.47188936358571532 -0.4304781897668572 0 0.5 -0.41454166856117469 0 0.4735191169341651 -0.41539713514472942 0 0.5 -0.35237408365171952 0 0.5 -0.41454166856117469 0 0.4680243894331878 -0.39009447735167219 0 0.4735191169341651 -0.41539713514472942 0 0.4680243894331878 -0.39009447735167219 0 0.46252966193221051 -0.36479181955861489 0 0.45518384933885458 -0.37953704158418422 0 0.4680243894331878 -0.39009447735167219 0 0.45518384933885458 -0.37953704158418422 0 0.4680243894331878 -0.39009447735167219 0 0.44431964753996511 -0.39027603052925969 0 0.46252966193221051 -0.36479181955861489 0 0.4680243894331878 -0.39009447735167219 0 0.4735191169341651 -0.41539713514472942 0 0.4680243894331878 -0.39009447735167219 0 0.46285261119418991 -0.40477249250038388 0 0.4680243894331878 -0.39009447735167219 0 0.46285261119418991 -0.40477249250038388 0 0.44431964753996511 -0.39027603052925969 0 0.46285261119418991 -0.40477249250038388 0 0.44431964753996511 -0.39027603052925969 0 0.45186952978880229 -0.40983589673226128 0 0.44161148704613862 -0.40579593671517361 0 0.44431964753996511 -0.39027603052925969 0 0.45186952978880229 -0.40983589673226128 0 0.46285261119418991 -0.40477249250038388 0 0.44431964753996511 -0.39027603052925969 0 0.44439653888602387 -0.37108278870097211 0 0.44431964753996511 -0.39027603052925969 0 0.42578668388574042 -0.37577956855813549 0 0.44439653888602387 -0.37108278870097211 0 0.45518384933885458 -0.37953704158418422 0 0.44431964753996511 -0.39027603052925969 0 0.44431964753996511 -0.39027603052925969 0 0.42578668388574042 -0.37577956855813549 0 0.42627525148907153 -0.39512359141131242 0 0.44431964753996511 -0.39027603052925969 0 0.42578668388574042 -0.37577956855813549 0 0.44161148704613862 -0.40579593671517361 0 0.44431964753996511 -0.39027603052925969 0 0.42627525148907153 -0.39512359141131242 0 0.44161148704613862 -0.40579593671517361 0 0.42627525148907153 -0.39512359141131242 0 0.41380476734409732 -0.40903711363024231 0 0.41288573556315727 -0.39366710087554208 0 0.39662340998741341 -0.40516911832300972 0 0.41380476734409732 -0.40903711363024231 0 0.42627525148907153 -0.39512359141131242 0 0.41288573556315727 -0.39366710087554208 0 0.41380476734409732 -0.40903711363024231 0 0.42578668388574042 -0.37577956855813549 0 0.41288573556315727 -0.39366710087554208 0 0.40193856510946419 -0.3832261124550107 0 0.42578668388574042 -0.37577956855813549 0 0.42627525148907153 -0.39512359141131242 0 0.41288573556315727 -0.39366710087554208 0 0.38081427771294768 -0.36737052156009248 0 0.37463337818860382 -0.38930414459710588 0 0.3737028077843495 -0.38742295831448542 0 0.38081427771294768 -0.36737052156009248 0 0.38897026210220897 -0.39170162293651239 0 0.37463337818860382 -0.38930414459710588 0 0.38081427771294768 -0.36737052156009248 0 0.37463337818860382 -0.38930414459710588 0 0.38081427771294768 -0.36737052156009248 0 0.40193856510946419 -0.3832261124550107 0 0.38897026210220897 -0.39170162293651239 0 0.38599804764205609 -0.41227829054531151 0 0.37463337818860382 -0.38930414459710588 0 0.38897026210220897 -0.39170162293651239 0 0.39662340998741341 -0.40516911832300972 0 0.38599804764205609 -0.41227829054531151 0 0.38599804764205609 -0.41227829054531151 0 0.36755341006792419 -0.41442821452601158 0 0.37463337818860382 -0.38930414459710588 0 0.38897026210220897 -0.39170162293651239 0 0.38599804764205609 -0.41227829054531151 0 0.37463337818860382 -0.38930414459710588 0 0.40193856510946419 -0.3832261124550107 0 0.38897026210220897 -0.39170162293651239 0 0.39662340998741341 -0.40516911832300972 0 0.41288573556315727 -0.39366710087554208 0 0.40193856510946419 -0.3832261124550107 0 0.39662340998741341 -0.40516911832300972 0 0.40193856510946419 -0.3832261124550107 0 0.39662340998741341 -0.40516911832300972 0 0.38599804764205609 -0.41227829054531151 0 0.41380476734409732 -0.40903711363024231 0 0.39662340998741341 -0.40516911832300972 0 0.38599804764205609 -0.41227829054531151 0 0.41380476734409732 -0.40903711363024231 0 0.40147331832312588 -0.42054231308375889 0 0.38599804764205609 -0.41227829054531151 0 0.41380476734409732 -0.40903711363024231 0 0.38599804764205609 -0.41227829054531151 0 0.36755341006792419 -0.41442821452601158 0 0.38599804764205609 -0.41227829054531151 0 0.37837193070639508 -0.43074191130029282 0 0.36755341006792419 -0.41442821452601158 0 0.38599804764205609 -0.41227829054531151 0 0.37837193070639508 -0.43074191130029282 0 0.39716653888589531 -0.43485585418744782 0 0.37837193070639508 -0.43074191130029282 0 0.39716653888589531 -0.43485585418744782 0 0.38455236834147782 -0.44235831893697952 0 0.38599804764205609 -0.41227829054531151 0 0.39716653888589531 -0.43485585418744782 0 0.40147331832312588 -0.42054231308375889 0 0.38599804764205609 -0.41227829054531151 0 0.39716653888589531 -0.43485585418744782 0 0.40147331832312588 -0.42054231308375889 0 0.39716653888589531 -0.43485585418744782 0 0.40988830344794153 -0.42850982814637428 0 0.39716653888589531 -0.43485585418744782 0 0.40988830344794153 -0.42850982814637428 0 0.41424956646142452 -0.44145335337101582 0 0.40988830344794153 -0.42850982814637428 0 0.42255857874347952 -0.42798536962106742 0 0.41424956646142452 -0.44145335337101582 0 0.40147331832312588 -0.42054231308375889 0 0.40988830344794153 -0.42850982814637428 0 0.41380476734409732 -0.40903711363024231 0 0.40988830344794153 -0.42850982814637428 0 0.41380476734409732 -0.40903711363024231 0 0.42255857874347952 -0.42798536962106742 0 0.44161148704613862 -0.40579593671517361 0 0.41380476734409732 -0.40903711363024231 0 0.43098246877755192 -0.41858878846052949 0 0.44161148704613862 -0.40579593671517361 0 0.41380476734409732 -0.40903711363024231 0 0.41380476734409732 -0.40903711363024231 0 0.43098246877755192 -0.41858878846052949 0 0.42255857874347952 -0.42798536962106742 0 0.43408281430989271 -0.43319973453275151 0 0.42255857874347952 -0.42798536962106742 0 0.43095981599733307 -0.44753658110846528 0 0.44259971868320003 -0.42354137380659601 0 0.43098246877755192 -0.41858878846052949 0 0.43408281430989271 -0.43319973453275151 0 0.43098246877755192 -0.41858878846052949 0 0.43408281430989271 -0.43319973453275151 0 0.42255857874347952 -0.42798536962106742 0 0.42255857874347952 -0.42798536962106742 0 0.43095981599733307 -0.44753658110846528 0 0.41424956646142452 -0.44145335337101582 0 0.43983937115661631 -0.46972557693384148 0 0.42706067288056998 -0.45966910190407051 0 0.41707216494033877 -0.46659444091922031 0 0.43983937115661631 -0.46972557693384148 0 0.43095981599733307 -0.44753658110846528 0 0.42706067288056998 -0.45966910190407051 0 0.43095981599733307 -0.44753658110846528 0 0.42706067288056998 -0.45966910190407051 0 0.42037133942799187 -0.45481980865475502 0 0.42037133942799187 -0.45481980865475502 0 0.41707216494033877 -0.46659444091922031 0 0.40833503012973449 -0.45743341782958391 0 0.42706067288056998 -0.45966910190407051 0 0.42037133942799187 -0.45481980865475502 0 0.41707216494033877 -0.46659444091922031 0 0.41707216494033877 -0.46659444091922031 0 0.40833503012973449 -0.45743341782958391 0 0.39424227281986102 -0.46676003377889269 0 0.43095981599733307 -0.44753658110846528 0 0.42037133942799187 -0.45481980865475502 0 0.41424956646142452 -0.44145335337101582 0 0.42037133942799187 -0.45481980865475502 0 0.40833503012973449 -0.45743341782958391 0 0.41424956646142452 -0.44145335337101582 0 0.39716653888589531 -0.43485585418744782 0 0.40833503012973449 -0.45743341782958391 0 0.41424956646142452 -0.44145335337101582 0 0.39716653888589531 -0.43485585418744782 0 0.39345157537004599 -0.45057062730194619 0 0.38455236834147782 -0.44235831893697952 0 0.39716653888589531 -0.43485585418744782 0 0.40833503012973449 -0.45743341782958391 0 0.39345157537004599 -0.45057062730194619 0 0.39716653888589531 -0.43485585418744782 0 0.40833503012973449 -0.45743341782958391 0 0.39345157537004599 -0.45057062730194619 0 0.38455236834147782 -0.44235831893697952 0 0.38182359321740972 -0.45292134106576409 0 0.38455236834147782 -0.44235831893697952 0 0.38182359321740972 -0.45292134106576409 0 0.37194820352764257 -0.4427018608294464 0 0.37837193070639508 -0.43074191130029282 0 0.38455236834147782 -0.44235831893697952 0 0.37194820352764257 -0.4427018608294464 0 0.38182359321740972 -0.45292134106576409 0 0.39424227281986102 -0.46676003377889269 0 0.37141238069938332 -0.46692562663856529 0 0.39345157537004599 -0.45057062730194619 0 0.38182359321740972 -0.45292134106576409 0 0.39424227281986102 -0.46676003377889269 0 0.39424227281986102 -0.46676003377889269 0 0.37141238069938332 -0.46692562663856529 0 0.40833503012973449 -0.45743341782958391 0 0.39345157537004599 -0.45057062730194619 0 0.39424227281986102 -0.46676003377889269 0 0.41707216494033877 -0.46659444091922031 0 0.39424227281986102 -0.46676003377889269 0 0.41707216494033877 -0.46659444091922031 0 0.39424227281986102 -0.46676003377889269 0 0.40014079662082208 -0.5 0 0.39424227281986102 -0.46676003377889269 0 0.40014079662082208 -0.5 0 0.37141238069938332 -0.46692562663856529 0 0.43983937115661631 -0.46972557693384148 0 0.41707216494033877 -0.46659444091922031 0 0.40014079662082208 -0.5 0 0.40014079662082208 -0.5 0 0.32546065004022617 -0.5 0 0.3462765218470546 -0.48033279556006703 0 0.32546065004022617 -0.5 0 0.3462765218470546 -0.48033279556006703 0 0.30631021868456298 -0.48072311486568892 0 0.3462765218470546 -0.48033279556006703 0 0.32575259645842791 -0.46725681235791028 0 0.30631021868456298 -0.48072311486568892 0 0.3462765218470546 -0.48033279556006703 0 0.3485824885789055 -0.46709121949823779 0 0.32575259645842791 -0.46725681235791028 0 0.40014079662082208 -0.5 0 0.3462765218470546 -0.48033279556006703 0 0.37141238069938332 -0.46692562663856529 0 0.3462765218470546 -0.48033279556006703 0 0.3485824885789055 -0.46709121949823779 0 0.37141238069938332 -0.46692562663856529 0 0.3485824885789055 -0.46709121949823779 0 0.37141238069938332 -0.46692562663856529 0 0.35324569388809701 -0.44989359131069062 0 0.3485824885789055 -0.46709121949823779 0 0.35324569388809701 -0.44989359131069062 0 0.33806214337105372 -0.45777686618061397 0 0.38182359321740972 -0.45292134106576409 0 0.37141238069938332 -0.46692562663856529 0 0.35324569388809701 -0.44989359131069062 0 0.3485824885789055 -0.46709121949823779 0 0.37141238069938332 -0.46692562663856529 0 0.36060935802898147 -0.43906997082244181 0 0.37194820352764257 -0.4427018608294464 0 0.35324569388809701 -0.44989359131069062 0 0.38182359321740972 -0.45292134106576409 0 0.35324569388809701 -0.44989359131069062 0 0.37837193070639508 -0.43074191130029282 0 0.36060935802898147 -0.43906997082244181 0 0.37194820352764257 -0.4427018608294464 0 0.38182359321740972 -0.45292134106576409 0 0.37194820352764257 -0.4427018608294464 0 0.35324569388809701 -0.44989359131069062 0 0.36060935802898147 -0.43906997082244181 0 0.35324569388809701 -0.44989359131069062 0 0.34315104194743368 -0.43483422324315929 0 0.32466779455878442 -0.44686584155561709 0 0.32761501992215097 -0.43116249501185328 0 0.34315104194743368 -0.43483422324315929 0 0.35324569388809701 -0.44989359131069062 0 0.33806214337105372 -0.45777686618061397 0 0.32466779455878442 -0.44686584155561709 0 0.35324569388809701 -0.44989359131069062 0 0.32466779455878442 -0.44686584155561709 0 0.34315104194743368 -0.43483422324315929 0 0.35324569388809701 -0.44989359131069062 0 0.32466779455878442 -0.44686584155561709 0 0.3485824885789055 -0.46709121949823779 0 0.32575259645842791 -0.46725681235791028 0 0.3485824885789055 -0.46709121949823779 0 0.33806214337105372 -0.45777686618061397 0 0.32575259645842791 -0.46725681235791028 0 0.33806214337105372 -0.45777686618061397 0 0.32575259645842791 -0.46725681235791028 0 0.32466779455878442 -0.44686584155561709 0 0.32575259645842791 -0.46725681235791028 0 0.30904716904302271 -0.45792120175055678 0 0.30631021868456298 -0.48072311486568892 0 0.32575259645842791 -0.46725681235791028 0 0.32466779455878442 -0.44686584155561709 0 0.30904716904302271 -0.45792120175055678 0 0.32466779455878442 -0.44686584155561709 0 0.31800868577585262 -0.43516031519895321 0 0.30735360635596409 -0.43632211706289747 0 0.32466779455878442 -0.44686584155561709 0 0.32761501992215097 -0.43116249501185328 0 0.31800868577585262 -0.43516031519895321 0 0.32761501992215097 -0.43116249501185328 0 0.32339131420283213 -0.41656724990055422 0 0.31239832226651099 -0.42629080716544471 0 0.32761501992215097 -0.43116249501185328 0 0.31800868577585262 -0.43516031519895321 0 0.31239832226651099 -0.42629080716544471 0 0.31800868577585262 -0.43516031519895321 0 0.31239832226651099 -0.42629080716544471 0 0.30735360635596409 -0.43632211706289747 0 0.32339131420283213 -0.41656724990055422 0 0.31120060169272079 -0.4133373498197 0 0.31239832226651099 -0.42629080716544471 0 0.32339131420283213 -0.41656724990055422 0 0.319673984964159 -0.40346676889879052 0 0.31120060169272079 -0.4133373498197 0 0.319673984964159 -0.40346676889879052 0 0.30884060304287331 -0.40229515593698711 0 0.31120060169272079 -0.4133373498197 0 0.32339131420283213 -0.41656724990055422 0 0.33281994217864741 -0.40778505865636938 0 0.319673984964159 -0.40346676889879052 0 0.32761501992215097 -0.43116249501185328 0 0.32339131420283213 -0.41656724990055422 0 0.33796042338316851 -0.41787760036937549 0 0.32339131420283213 -0.41656724990055422 0 0.33281994217864741 -0.40778505865636938 0 0.33796042338316851 -0.41787760036937549 0 0.33281994217864741 -0.40778505865636938 0 0.33796042338316851 -0.41787760036937549 0 0.34601675315157321 -0.40486547886918423 0 0.32761501992215097 -0.43116249501185328 0 0.33796042338316851 -0.41787760036937549 0 0.34315104194743368 -0.43483422324315929 0 0.33796042338316851 -0.41787760036937549 0 0.34315104194743368 -0.43483422324315929 0 0.35231855835687692 -0.42655250224024699 0 0.36060935802898147 -0.43906997082244181 0 0.34315104194743368 -0.43483422324315929 0 0.35231855835687692 -0.42655250224024699 0 0.37837193070639508 -0.43074191130029282 0 0.36060935802898147 -0.43906997082244181 0 0.36755341006792419 -0.41442821452601158 0 0.36060935802898147 -0.43906997082244181 0 0.35231855835687692 -0.42655250224024699 0 0.36755341006792419 -0.41442821452601158 0 0.36060935802898147 -0.43906997082244181 0 0.36755341006792419 -0.41442821452601158 0 0.33796042338316851 -0.41787760036937549 0 0.35231855835687692 -0.42655250224024699 0 0.36755341006792419 -0.41442821452601158 0 0.33796042338316851 -0.41787760036937549 0 0.36755341006792419 -0.41442821452601158 0 0.34601675315157321 -0.40486547886918423 0 0.33796042338316851 -0.41787760036937549 0 0.36755341006792419 -0.41442821452601158 0 0.36755341006792419 -0.41442821452601158 0 0.34601675315157321 -0.40486547886918423 0 0.35566250251704978 -0.3975177511027051 0 0.34601675315157321 -0.40486547886918423 0 0.34667365318154342 -0.39629832909528578 0 0.35566250251704978 -0.3975177511027051 0 0.34667365318154342 -0.39629832909528578 0 0.34795812186604658 -0.38666189116531141 0 0.33705723519150399 -0.3961481952439429 0 0.34667365318154342 -0.39629832909528578 0 0.35566250251704978 -0.3975177511027051 0 0.34795812186604658 -0.38666189116531141 0 0.36755341006792419 -0.41442821452601158 0 0.35566250251704978 -0.3975177511027051 0 0.36706103815962848 -0.39187921332532882 0 0.36755341006792419 -0.41442821452601158 0 0.37463337818860382 -0.38930414459710588 0 0.36755341006792419 -0.41442821452601158 0 0.36706103815962848 -0.39187921332532882 0 0.37463337818860382 -0.38930414459710588 0 0.35566250251704978 -0.3975177511027051 0 0.36706103815962848 -0.39187921332532882 0 0.35924801608749379 -0.38543857686598643 0 0.38081427771294768 -0.36737052156009248 0 0.36848073339739068 -0.37517807712711049 0 0.3737028077843495 -0.38742295831448542 0 0.36848073339739068 -0.37517807712711049 0 0.3737028077843495 -0.38742295831448542 0 0.36599997940964812 -0.38379980358563692 0 0.36706103815962848 -0.39187921332532882 0 0.3737028077843495 -0.38742295831448542 0 0.36599997940964812 -0.38379980358563692 0 0.36706103815962848 -0.39187921332532882 0 0.37463337818860382 -0.38930414459710588 0 0.3737028077843495 -0.38742295831448542 0 0.37463337818860382 -0.38930414459710588 0 0.3737028077843495 -0.38742295831448542 0 0.36706103815962848 -0.39187921332532882 0 0.36599997940964812 -0.38379980358563692 0 0.35924801608749379 -0.38543857686598643 0 0.36599997940964812 -0.38379980358563692 0 0.36207090148421361 -0.37959838259465167 0 0.35924801608749379 -0.38543857686598643 0 0.36848073339739068 -0.37517807712711049 0 0.36599997940964812 -0.38379980358563692 0 0.36207090148421361 -0.37959838259465167 0 0.36848073339739068 -0.37517807712711049 0 0.36207090148421361 -0.37959838259465167 0 0.3554566368260581 -0.37480617727887811 0 0.36207090148421361 -0.37959838259465167 0 0.35924801608749379 -0.38543857686598643 0 0.3554566368260581 -0.37480617727887811 0 0.35924801608749379 -0.38543857686598643 0 0.34795812186604658 -0.38666189116531141 0 0.3554566368260581 -0.37480617727887811 0 0.35566250251704978 -0.3975177511027051 0 0.35924801608749379 -0.38543857686598643 0 0.34795812186604658 -0.38666189116531141 0 0.34795812186604658 -0.38666189116531141 0 0.34537995690420659 -0.3737828605913362 0 0.3554566368260581 -0.37480617727887811 0 0.34795812186604658 -0.38666189116531141 0 0.33323562740676532 -0.37769939737979058 0 0.34537995690420659 -0.3737828605913362 0 0.34795812186604658 -0.38666189116531141 0 0.33323562740676532 -0.37769939737979058 0 0.33705723519150399 -0.3961481952439429 0 0.33323562740676532 -0.37769939737979058 0 0.33705723519150399 -0.3961481952439429 0 0.319673984964159 -0.40346676889879052 0 0.33281994217864741 -0.40778505865636938 0 0.33705723519150399 -0.3961481952439429 0 0.319673984964159 -0.40346676889879052 0 0.33281994217864741 -0.40778505865636938 0 0.34601675315157321 -0.40486547886918423 0 0.33705723519150399 -0.3961481952439429 0 0.34601675315157321 -0.40486547886918423 0 0.34667365318154342 -0.39629832909528578 0 0.33705723519150399 -0.3961481952439429 0 0.33323562740676532 -0.37769939737979058 0 0.319673984964159 -0.40346676889879052 0 0.31422368515007948 -0.393427126581603 0 0.319673984964159 -0.40346676889879052 0 0.31422368515007948 -0.393427126581603 0 0.30884060304287331 -0.40229515593698711 0 0.33323562740676532 -0.37769939737979058 0 0.319673984964159 -0.40346676889879052 0 0.31422368515007948 -0.393427126581603 0 0.30591552541026101 -0.37751124227982003 0 0.32002671755222051 -0.36641101040373808 0 0.33323562740676532 -0.37769939737979058 0 0.31422368515007948 -0.393427126581603 0 0.32002671755222051 -0.36641101040373808 0 0.31422368515007948 -0.393427126581603 0 0.32002671755222051 -0.36641101040373808 0 0.30591552541026101 -0.37751124227982003 0 0.29934269892459558 -0.39453707190143028 0 0.28871394442674109 -0.38265385864092483 0 0.31422368515007948 -0.393427126581603 0 0.30591552541026101 -0.37751124227982003 0 0.29934269892459558 -0.39453707190143028 0 0.31422368515007948 -0.393427126581603 0 0.30884060304287331 -0.40229515593698711 0 0.29934269892459558 -0.39453707190143028 0 0.30884060304287331 -0.40229515593698711 0 0.29934269892459558 -0.39453707190143028 0 0.29896657827583012 -0.40866065312134409 0 0.28871394442674109 -0.38265385864092483 0 0.27786210523133942 -0.40981541802129928 0 0.29934269892459558 -0.39453707190143028 0 0.27786210523133942 -0.40981541802129928 0 0.29896657827583012 -0.40866065312134409 0 0.29934269892459558 -0.39453707190143028 0 0.28871394442674109 -0.38265385864092483 0 0.27786210523133942 -0.40981541802129928 0 0.28871394442674109 -0.38265385864092483 0 0.26416245427686541 -0.38049931320234009 0 0.26125098829365018 -0.39969694482297641 0 0.28871394442674109 -0.38265385864092483 0 0.26416245427686541 -0.38049931320234009 0 0.27571190406721402 -0.36345127203525351 0 0.26416245427686541 -0.38049931320234009 0 0.24971336314328341 -0.36520417674804972 0 0.24502858373403441 -0.39146921073642488 0 0.26416245427686541 -0.38049931320234009 0 0.26125098829365018 -0.39969694482297641 0 0.24502858373403441 -0.39146921073642488 0 0.28871394442674109 -0.38265385864092483 0 0.26125098829365018 -0.39969694482297641 0 0.27786210523133942 -0.40981541802129928 0 0.26125098829365018 -0.39969694482297641 0 0.25610826383841628 -0.42120346698794331 0 0.2333640889907381 -0.41241884790723538 0 0.26125098829365018 -0.39969694482297641 0 0.27786210523133942 -0.40981541802129928 0 0.25610826383841628 -0.42120346698794331 0 0.25610826383841628 -0.42120346698794331 0 0.26701026603593758 -0.43697697740167368 0 0.2518592606704963 -0.43815060111373921 0 0.27786210523133942 -0.40981541802129928 0 0.26701026603593758 -0.43697697740167368 0 0.28078102790119369 -0.4274552938509788 0 0.27786210523133942 -0.40981541802129928 0 0.26701026603593758 -0.43697697740167368 0 0.27786210523133942 -0.40981541802129928 0 0.25610826383841628 -0.42120346698794331 0 0.26701026603593758 -0.43697697740167368 0 0.26701026603593758 -0.43697697740167368 0 0.28078102790119369 -0.4274552938509788 0 0.27712236562531017 -0.4375193999175232 0 0.28078102790119369 -0.4274552938509788 0 0.28865243891263809 -0.43215364344327012 0 0.27712236562531017 -0.4375193999175232 0 0.28865243891263809 -0.43215364344327012 0 0.28959476197880307 -0.44168956347039928 0 0.27712236562531017 -0.4375193999175232 0 0.28865243891263809 -0.43215364344327012 0 0.29503220707493127 -0.43614369036708622 0 0.29829711678041942 -0.42866378264525379 0 0.28865243891263809 -0.43215364344327012 0 0.29503220707493127 -0.43614369036708622 0 0.28959476197880307 -0.44168956347039928 0 0.28865243891263809 -0.43215364344327012 0 0.29108715411517122 -0.42145013040837909 0 0.29829711678041942 -0.42866378264525379 0 0.28078102790119369 -0.4274552938509788 0 0.28865243891263809 -0.43215364344327012 0 0.29108715411517122 -0.42145013040837909 0 0.27786210523133942 -0.40981541802129928 0 0.28078102790119369 -0.4274552938509788 0 0.29108715411517122 -0.42145013040837909 0 0.27786210523133942 -0.40981541802129928 0 0.29108715411517122 -0.42145013040837909 0 0.29896657827583012 -0.40866065312134409 0 0.29108715411517122 -0.42145013040837909 0 0.30377653118007591 -0.4205559058691733 0 0.29896657827583012 -0.40866065312134409 0 0.30377653118007591 -0.4205559058691733 0 0.29896657827583012 -0.40866065312134409 0 0.31120060169272079 -0.4133373498197 0 0.30884060304287331 -0.40229515593698711 0 0.29896657827583012 -0.40866065312134409 0 0.31120060169272079 -0.4133373498197 0 0.30377653118007591 -0.4205559058691733 0 0.31120060169272079 -0.4133373498197 0 0.31239832226651099 -0.42629080716544471 0 0.30377653118007591 -0.4205559058691733 0 0.31239832226651099 -0.42629080716544471 0 0.29829711678041942 -0.42866378264525379 0 0.31239832226651099 -0.42629080716544471 0 0.30735360635596409 -0.43632211706289747 0 0.29829711678041942 -0.42866378264525379 0 0.29503220707493127 -0.43614369036708622 0 0.30735360635596409 -0.43632211706289747 0 0.29829711678041942 -0.42866378264525379 0 0.29108715411517122 -0.42145013040837909 0 0.30377653118007591 -0.4205559058691733 0 0.29829711678041942 -0.42866378264525379 0 0.32466779455878442 -0.44686584155561709 0 0.30904716904302271 -0.45792120175055678 0 0.29608989522947149 -0.44383809180054362 0 0.32466779455878442 -0.44686584155561709 0 0.29608989522947149 -0.44383809180054362 0 0.32466779455878442 -0.44686584155561709 0 0.30735360635596409 -0.43632211706289747 0 0.29608989522947149 -0.44383809180054362 0 0.30904716904302271 -0.45792120175055678 0 0.29860320416278402 -0.45529674645956592 0 0.29608989522947149 -0.44383809180054362 0 0.29503220707493127 -0.43614369036708622 0 0.30735360635596409 -0.43632211706289747 0 0.29608989522947149 -0.44383809180054362 0 0.30904716904302271 -0.45792120175055678 0 0.29721119201091789 -0.46522563712477349 0 0.30631021868456298 -0.48072311486568892 0 0.30904716904302271 -0.45792120175055678 0 0.29721119201091789 -0.46522563712477349 0 0.29860320416278402 -0.45529674645956592 0 0.28932919617959602 -0.45338424297023883 0 0.27756010650442758 -0.45518222858252849 0 0.28072062580449653 -0.47155582870540619 0 0.29721119201091789 -0.46522563712477349 0 0.28932919617959602 -0.45338424297023883 0 0.28072062580449653 -0.47155582870540619 0 0.29721119201091789 -0.46522563712477349 0 0.29860320416278402 -0.45529674645956592 0 0.28932919617959602 -0.45338424297023883 0 0.28932919617959602 -0.45338424297023883 0 0.28959476197880307 -0.44168956347039928 0 0.27756010650442758 -0.45518222858252849 0 0.29860320416278402 -0.45529674645956592 0 0.28932919617959602 -0.45338424297023883 0 0.29608989522947149 -0.44383809180054362 0 0.28932919617959602 -0.45338424297023883 0 0.29608989522947149 -0.44383809180054362 0 0.28959476197880307 -0.44168956347039928 0 0.29503220707493127 -0.43614369036708622 0 0.29608989522947149 -0.44383809180054362 0 0.28959476197880307 -0.44168956347039928 0 0.28959476197880307 -0.44168956347039928 0 0.26138620688844749 -0.44792543592233808 0 0.26701026603593758 -0.43697697740167368 0 0.27712236562531017 -0.4375193999175232 0 0.26138620688844749 -0.44792543592233808 0 0.28959476197880307 -0.44168956347039928 0 0.26138620688844749 -0.44792543592233808 0 0.27756010650442758 -0.45518222858252849 0 0.28959476197880307 -0.44168956347039928 0 0.27712236562531017 -0.4375193999175232 0 0.26138620688844749 -0.44792543592233808 0 0.26701026603593758 -0.43697697740167368 0 0.26138620688844749 -0.44792543592233808 0 0.2518592606704963 -0.43815060111373921 0 0.26138620688844749 -0.44792543592233808 0 0.26339579246569877 -0.46312143350125029 0 0.23317765179809191 -0.45416130837427687 0 0.26138620688844749 -0.44792543592233808 0 0.26339579246569877 -0.46312143350125029 0 0.27756010650442758 -0.45518222858252849 0 0.26339579246569877 -0.46312143350125029 0 0.27756010650442758 -0.45518222858252849 0 0.28072062580449653 -0.47155582870540619 0 0.28072062580449653 -0.47155582870540619 0 0.2532296876789632 -0.47497352743918242 0 0.27004646425256568 -0.5 0 0.26339579246569877 -0.46312143350125029 0 0.28072062580449653 -0.47155582870540619 0 0.2532296876789632 -0.47497352743918242 0 0.32546065004022617 -0.5 0 0.27004646425256568 -0.5 0 0.30631021868456298 -0.48072311486568892 0 0.28072062580449653 -0.47155582870540619 0 0.27004646425256568 -0.5 0 0.30631021868456298 -0.48072311486568892 0 0.29721119201091789 -0.46522563712477349 0 0.28072062580449653 -0.47155582870540619 0 0.30631021868456298 -0.48072311486568892 0 0.33743581475864359 -0.28536266187014298 0 0.3388307833371127 -0.27886836189579028 0 0.34706744656536048 -0.28007479224216619 0 0.33743581475864359 -0.28536266187014298 0 0.3388307833371127 -0.27886836189579028 0 0.33743581475864359 -0.28536266187014298 0 0.33163278235650262 -0.31237877804800812 0 0.33743581475864359 -0.28536266187014298 0 0.33163278235650262 -0.31237877804800812 0 0.34308905326158867 -0.30070827197480321 0 0.33743581475864359 -0.28536266187014298 0 0.33163278235650262 -0.31237877804800812 0 0.32364365619397351 -0.29600562892690968 0 0.33163278235650262 -0.31237877804800812 0 0.32364365619397351 -0.29600562892690968 0 0.30954970221622308 -0.30462347215273478 0 0.31296692944630888 -0.29314018565426941 0 0.32364365619397351 -0.29600562892690968 0 0.30954970221622308 -0.30462347215273478 0 0.31296692944630888 -0.29314018565426941 0 0.32364365619397351 -0.29600562892690968 0 0.31569414790308259 -0.28159305760617132 0 0.33743581475864359 -0.28536266187014298 0 0.32364365619397351 -0.29600562892690968 0 0.31569414790308259 -0.28159305760617132 0 0.33743581475864359 -0.28536266187014298 0 0.31569414790308259 -0.28159305760617132 0 0.33743581475864359 -0.28536266187014298 0 0.31569414790308259 -0.28159305760617132 0 0.32852563272885182 -0.27784073863383552 0 0.31569414790308259 -0.28159305760617132 0 0.31275786215232049 -0.27168837282467972 0 0.32066228436037369 -0.27402337931129878 0 0.31275786215232049 -0.27168837282467972 0 0.32001527731196461 -0.26686042829596718 0 0.31054181011664339 -0.26140137874582919 0 0.31275786215232049 -0.27168837282467972 0 0.32001527731196461 -0.26686042829596718 0 0.32066228436037369 -0.27402337931129878 0 0.32001527731196461 -0.26686042829596718 0 0.32631850170564902 -0.27213429919584042 0 0.32066228436037369 -0.27402337931129878 0 0.32001527731196461 -0.26686042829596718 0 0.32631850170564902 -0.27213429919584042 0 0.32861545200372733 -0.26431566092564712 0 0.32631850170564902 -0.27213429919584042 0 0.32066228436037369 -0.27402337931129878 0 0.32852563272885182 -0.27784073863383552 0 0.31569414790308259 -0.28159305760617132 0 0.32066228436037369 -0.27402337931129878 0 0.32852563272885182 -0.27784073863383552 0 0.30517917142926537 -0.24716040808135001 0 0.322544075342931 -0.25649048942400782 0 0.31054181011664339 -0.26140137874582919 0 0.32001527731196461 -0.26686042829596718 0 0.322544075342931 -0.25649048942400782 0 0.31054181011664339 -0.26140137874582919 0 0.32001527731196461 -0.26686042829596718 0 0.322544075342931 -0.25649048942400782 0 0.32861545200372733 -0.26431566092564712 0 0.322544075342931 -0.25649048942400782 0 0.32861545200372733 -0.26431566092564712 0 0.33700232267718733 -0.25494009872172468 0 0.32861545200372733 -0.26431566092564712 0 0.33700232267718733 -0.25494009872172468 0 0.3370936559567923 -0.26597622971595652 0 0.33700232267718733 -0.25494009872172468 0 0.3370936559567923 -0.26597622971595652 0 0.34612034525793539 -0.26165354425485998 0 0.32852563272885182 -0.27784073863383552 0 0.33374486488877292 -0.2728357791174113 0 0.3388307833371127 -0.27886836189579028 0 0.33743581475864359 -0.28536266187014298 0 0.32852563272885182 -0.27784073863383552 0 0.3388307833371127 -0.27886836189579028 0 0.32631850170564902 -0.27213429919584042 0 0.32852563272885182 -0.27784073863383552 0 0.33374486488877292 -0.2728357791174113 0 0.32631850170564902 -0.27213429919584042 0 0.32861545200372733 -0.26431566092564712 0 0.33374486488877292 -0.2728357791174113 0 0.32861545200372733 -0.26431566092564712 0 0.33374486488877292 -0.2728357791174113 0 0.3370936559567923 -0.26597622971595652 0 0.34349817463331772 -0.27223575233246988 0 0.3370936559567923 -0.26597622971595652 0 0.34612034525793539 -0.26165354425485998 0 0.33374486488877292 -0.2728357791174113 0 0.34349817463331772 -0.27223575233246988 0 0.3370936559567923 -0.26597622971595652 0 0.33374486488877292 -0.2728357791174113 0 0.34349817463331772 -0.27223575233246988 0 0.3388307833371127 -0.27886836189579028 0 0.34349817463331772 -0.27223575233246988 0 0.3388307833371127 -0.27886836189579028 0 0.34706744656536048 -0.28007479224216619 0 0.34349817463331772 -0.27223575233246988 0 0.34706744656536048 -0.28007479224216619 0 0.35711558672006172 -0.27354793744083078 0 0.34349817463331772 -0.27223575233246988 0 0.35711558672006172 -0.27354793744083078 0 0.34612034525793539 -0.26165354425485998 0 0.34706744656536048 -0.28007479224216619 0 0.35711558672006172 -0.27354793744083078 0 0.35357832102308678 -0.28816147489813743 0 0.35007299243335749 -0.24785688602667111 0 0.33700232267718733 -0.25494009872172468 0 0.34612034525793539 -0.26165354425485998 0 0.35711558672006172 -0.27354793744083078 0 0.34612034525793539 -0.26165354425485998 0 0.36124693131331159 -0.25807728632712912 0 0.35007299243335749 -0.24785688602667111 0 0.34612034525793539 -0.26165354425485998 0 0.36124693131331159 -0.25807728632712912 0 0.37764450162479901 -0.26965755496232408 0 0.37510228513818711 -0.25237727586059511 0 0.36124693131331159 -0.25807728632712912 0 0.36225179838031341 -0.2439392928582107 0 0.37510228513818711 -0.25237727586059511 0 0.36124693131331159 -0.25807728632712912 0 0.37764450162479901 -0.26965755496232408 0 0.35711558672006172 -0.27354793744083078 0 0.36124693131331159 -0.25807728632712912 0 0.37764450162479901 -0.26965755496232408 0 0.35711558672006172 -0.27354793744083078 0 0.36873774536035581 -0.28861226174546889 0 0.36873774536035581 -0.28861226174546889 0 0.35357832102308678 -0.28816147489813743 0 0.36087634202934032 -0.30211297570133377 0 0.35711558672006172 -0.27354793744083078 0 0.36873774536035581 -0.28861226174546889 0 0.35357832102308678 -0.28816147489813743 0 0.33743581475864359 -0.28536266187014298 0 0.35357832102308678 -0.28816147489813743 0 0.33743581475864359 -0.28536266187014298 0 0.34706744656536048 -0.28007479224216619 0 0.35357832102308678 -0.28816147489813743 0 0.33743581475864359 -0.28536266187014298 0 0.34308905326158867 -0.30070827197480321 0 0.35357832102308678 -0.28816147489813743 0 0.34308905326158867 -0.30070827197480321 0 0.36087634202934032 -0.30211297570133377 0 0.3603589122919777 -0.32616465434179109 0 0.34308905326158867 -0.30070827197480321 0 0.35357832102308678 -0.28816147489813743 0 0.36087634202934032 -0.30211297570133377 0 0.37861767820969228 -0.30691821554646831 0 0.36873774536035581 -0.28861226174546889 0 0.36087634202934032 -0.30211297570133377 0 0.37861767820969228 -0.30691821554646831 0 0.36087634202934032 -0.30211297570133377 0 0.3603589122919777 -0.32616465434179109 0 0.37858644206980091 -0.32769985780377792 0 0.37861767820969228 -0.30691821554646831 0 0.3603589122919777 -0.32616465434179109 0 0.37858644206980091 -0.32769985780377792 0 0.3603589122919777 -0.32616465434179109 0 0.36805061276354478 -0.3427907498460791 0 0.3603589122919777 -0.32616465434179109 0 0.34679726984937148 -0.35193202586079081 0 0.3603589122919777 -0.32616465434179109 0 0.34679726984937148 -0.35193202586079081 0 0.3423644242317993 -0.33453707324987059 0 0.3603589122919777 -0.32616465434179109 0 0.36805061276354478 -0.3427907498460791 0 0.34679726984937148 -0.35193202586079081 0 0.33163278235650262 -0.31237877804800812 0 0.34308905326158867 -0.30070827197480321 0 0.3603589122919777 -0.32616465434179109 0 0.33163278235650262 -0.31237877804800812 0 0.3603589122919777 -0.32616465434179109 0 0.3423644242317993 -0.33453707324987059 0 0.37640125955739012 -0.35149107478397351 0 0.38081427771294768 -0.36737052156009248 0 0.36600013168445039 -0.36059477107615401 0 0.36848073339739068 -0.37517807712711049 0 0.36600013168445039 -0.36059477107615401 0 0.3554566368260581 -0.37480617727887811 0 0.38081427771294768 -0.36737052156009248 0 0.36848073339739068 -0.37517807712711049 0 0.36600013168445039 -0.36059477107615401 0 0.36805061276354478 -0.3427907498460791 0 0.36600013168445039 -0.36059477107615401 0 0.34679726984937148 -0.35193202586079081 0 0.37640125955739012 -0.35149107478397351 0 0.36805061276354478 -0.3427907498460791 0 0.36600013168445039 -0.36059477107615401 0 0.36600013168445039 -0.36059477107615401 0 0.34679726984937148 -0.35193202586079081 0 0.3554566368260581 -0.37480617727887811 0 0.34679726984937148 -0.35193202586079081 0 0.34537995690420659 -0.3737828605913362 0 0.3554566368260581 -0.37480617727887811 0 0.33323562740676532 -0.37769939737979058 0 0.33171275220581908 -0.35441984147836231 0 0.32002671755222051 -0.36641101040373808 0 0.33323562740676532 -0.37769939737979058 0 0.34679726984937148 -0.35193202586079081 0 0.33323562740676532 -0.37769939737979058 0 0.34679726984937148 -0.35193202586079081 0 0.34537995690420659 -0.3737828605913362 0 0.33323562740676532 -0.37769939737979058 0 0.34679726984937148 -0.35193202586079081 0 0.33171275220581908 -0.35441984147836231 0 0.34679726984937148 -0.35193202586079081 0 0.33171275220581908 -0.35441984147836231 0 0.3423644242317993 -0.33453707324987059 0 0.33171275220581908 -0.35441984147836231 0 0.32002671755222051 -0.36641101040373808 0 0.32582974995436148 -0.33939489422587321 0 0.32002671755222051 -0.36641101040373808 0 0.32582974995436148 -0.33939489422587321 0 0.31500009593534162 -0.35119999692538878 0 0.32002671755222051 -0.36641101040373808 0 0.32582974995436148 -0.33939489422587321 0 0.33163278235650262 -0.31237877804800812 0 0.32582974995436148 -0.33939489422587321 0 0.33163278235650262 -0.31237877804800812 0 0.3423644242317993 -0.33453707324987059 0 0.32582974995436148 -0.33939489422587321 0 0.33171275220581908 -0.35441984147836231 0 0.3423644242317993 -0.33453707324987059 0 0.32582974995436148 -0.33939489422587321 0 0.31500009593534162 -0.35119999692538878 0 0.32582974995436148 -0.33939489422587321 0 0.31041762281754448 -0.32833073988017608 0 0.33163278235650262 -0.31237877804800812 0 0.32582974995436148 -0.33939489422587321 0 0.31041762281754448 -0.32833073988017608 0 0.33163278235650262 -0.31237877804800812 0 0.31041762281754448 -0.32833073988017608 0 0.30954970221622308 -0.30462347215273478 0 0.31041762281754448 -0.32833073988017608 0 0.29592063247569211 -0.31558436997640987 0 0.30954970221622308 -0.30462347215273478 0 0.31041762281754448 -0.32833073988017608 0 0.29132656616613523 -0.33188180257029998 0 0.29592063247569211 -0.31558436997640987 0 0.31041762281754448 -0.32833073988017608 0 0.29132656616613523 -0.33188180257029998 0 0.29956578362214281 -0.35549229926055048 0 0.31041762281754448 -0.32833073988017608 0 0.29956578362214281 -0.35549229926055048 0 0.29132656616613523 -0.33188180257029998 0 0.28219501787468609 -0.34702129220438421 0 0.27282035448602859 -0.33554085100614839 0 0.29132656616613523 -0.33188180257029998 0 0.29592063247569211 -0.31558436997640987 0 0.27986439667319313 -0.31630171845149863 0 0.29132656616613523 -0.33188180257029998 0 0.27986439667319313 -0.31630171845149863 0 0.27282035448602859 -0.33554085100614839 0 0.30591552541026101 -0.37751124227982003 0 0.28871394442674109 -0.38265385864092483 0 0.29956578362214281 -0.35549229926055048 0 0.30591552541026101 -0.37751124227982003 0 0.32002671755222051 -0.36641101040373808 0 0.29956578362214281 -0.35549229926055048 0 0.31500009593534162 -0.35119999692538878 0 0.32002671755222051 -0.36641101040373808 0 0.29956578362214281 -0.35549229926055048 0 0.31500009593534162 -0.35119999692538878 0 0.31041762281754448 -0.32833073988017608 0 0.29956578362214281 -0.35549229926055048 0 0.29956578362214281 -0.35549229926055048 0 0.28219501787468609 -0.34702129220438421 0 0.27571190406721402 -0.36345127203525351 0 0.29132656616613523 -0.33188180257029998 0 0.29956578362214281 -0.35549229926055048 0 0.28219501787468609 -0.34702129220438421 0 0.28871394442674109 -0.38265385864092483 0 0.29956578362214281 -0.35549229926055048 0 0.27571190406721402 -0.36345127203525351 0 0.28871394442674109 -0.38265385864092483 0 0.29956578362214281 -0.35549229926055048 0 0.28219501787468609 -0.34702129220438421 0 0.27571190406721402 -0.36345127203525351 0 0.2669677564247489 -0.35003134695070198 0 0.28219501787468609 -0.34702129220438421 0 0.2669677564247489 -0.35003134695070198 0 0.27282035448602859 -0.33554085100614839 0 0.2669677564247489 -0.35003134695070198 0 0.2543981425525324 -0.33893914275967452 0 0.24971336314328341 -0.36520417674804972 0 0.2543981425525324 -0.33893914275967452 0 0.24971336314328341 -0.36520417674804972 0 0.26416245427686541 -0.38049931320234009 0 0.27571190406721402 -0.36345127203525351 0 0.24971336314328341 -0.36520417674804972 0 0.27571190406721402 -0.36345127203525351 0 0.2669677564247489 -0.35003134695070198 0 0.24971336314328341 -0.36520417674804972 0 0.27986439667319313 -0.31630171845149863 0 0.27282035448602859 -0.33554085100614839 0 0.27986439667319313 -0.31630171845149863 0 0.27282035448602859 -0.33554085100614839 0 0.2590829219617814 -0.31267410877129931 0 0.2669677564247489 -0.35003134695070198 0 0.27282035448602859 -0.33554085100614839 0 0.2543981425525324 -0.33893914275967452 0 0.27282035448602859 -0.33554085100614839 0 0.2543981425525324 -0.33893914275967452 0 0.2590829219617814 -0.31267410877129931 0 0.2543981425525324 -0.33893914275967452 0 0.2590829219617814 -0.31267410877129931 0 0.24087195768162309 -0.32614810142562012 0 0.2543981425525324 -0.33893914275967452 0 0.2590829219617814 -0.31267410877129931 0 0.2590829219617814 -0.31267410877129931 0 0.26376770137103039 -0.2864090747829241 0 0.27385105082646688 -0.29718155094811333 0 0.2590829219617814 -0.31267410877129931 0 0.26376770137103039 -0.2864090747829241 0 0.24821325608307901 -0.29522124281265988 0 0.2590829219617814 -0.31267410877129931 0 0.26376770137103039 -0.2864090747829241 0 0.26376770137103039 -0.2864090747829241 0 0.24785603391849151 -0.27709942466880599 0 0.24821325608307901 -0.29522124281265988 0 0.26376770137103039 -0.2864090747829241 0 0.27275834958840189 -0.28372268528309152 0 0.2724225943816766 -0.27409056785933389 0 0.26376770137103039 -0.2864090747829241 0 0.27275834958840189 -0.28372268528309152 0 0.27385105082646688 -0.29718155094811333 0 0.28072449650403741 -0.28691913250301798 0 0.27385105082646688 -0.29718155094811333 0 0.2869084388603575 -0.29706258589684881 0 0.27275834958840189 -0.28372268528309152 0 0.28072449650403741 -0.28691913250301798 0 0.27385105082646688 -0.29718155094811333 0 0.27275834958840189 -0.28372268528309152 0 0.28072449650403741 -0.28691913250301798 0 0.27996448038040939 -0.28063895974691061 0 0.27986439667319313 -0.31630171845149863 0 0.2590829219617814 -0.31267410877129931 0 0.27385105082646688 -0.29718155094811333 0 0.27986439667319313 -0.31630171845149863 0 0.27385105082646688 -0.29718155094811333 0 0.2869084388603575 -0.29706258589684881 0 0.27986439667319313 -0.31630171845149863 0 0.2869084388603575 -0.29706258589684881 0 0.29592063247569211 -0.31558436997640987 0 0.27986439667319313 -0.31630171845149863 0 0.2869084388603575 -0.29706258589684881 0 0.2869084388603575 -0.29706258589684881 0 0.30298021147195658 -0.29033858393126172 0 0.29395248104752192 -0.27782345334219888 0 0.28072449650403741 -0.28691913250301798 0 0.2869084388603575 -0.29706258589684881 0 0.29395248104752192 -0.27782345334219888 0 0.2869084388603575 -0.29706258589684881 0 0.29395248104752192 -0.27782345334219888 0 0.28072449650403741 -0.28691913250301798 0 0.29395248104752192 -0.27782345334219888 0 0.27996448038040939 -0.28063895974691061 0 0.31569414790308259 -0.28159305760617132 0 0.30298021147195658 -0.29033858393126172 0 0.29395248104752192 -0.27782345334219888 0 0.31296692944630888 -0.29314018565426941 0 0.31569414790308259 -0.28159305760617132 0 0.30298021147195658 -0.29033858393126172 0 0.31296692944630888 -0.29314018565426941 0 0.30298021147195658 -0.29033858393126172 0 0.30954970221622308 -0.30462347215273478 0 0.2869084388603575 -0.29706258589684881 0 0.30298021147195658 -0.29033858393126172 0 0.30954970221622308 -0.30462347215273478 0 0.29592063247569211 -0.31558436997640987 0 0.2869084388603575 -0.29706258589684881 0 0.30954970221622308 -0.30462347215273478 0 0.30517917142926537 -0.24716040808135001 0 0.31054181011664339 -0.26140137874582919 0 0.2976408850071105 -0.26774945168120262 0 0.30517917142926537 -0.24716040808135001 0 0.2976408850071105 -0.26774945168120262 0 0.31275786215232049 -0.27168837282467972 0 0.2976408850071105 -0.26774945168120262 0 0.29395248104752192 -0.27782345334219888 0 0.31275786215232049 -0.27168837282467972 0 0.2976408850071105 -0.26774945168120262 0 0.31275786215232049 -0.27168837282467972 0 0.31054181011664339 -0.26140137874582919 0 0.2976408850071105 -0.26774945168120262 0 0.31569414790308259 -0.28159305760617132 0 0.29395248104752192 -0.27782345334219888 0 0.31569414790308259 -0.28159305760617132 0 0.31275786215232049 -0.27168837282467972 0 0.29395248104752192 -0.27782345334219888 0 0.2976408850071105 -0.26774945168120262 0 0.28600938745522969 -0.26471871668720698 0 0.2976408850071105 -0.26774945168120262 0 0.29395248104752192 -0.27782345334219888 0 0.29395248104752192 -0.27782345334219888 0 0.27996448038040939 -0.28063895974691061 0 0.2724225943816766 -0.27409056785933389 0 0.29395248104752192 -0.27782345334219888 0 0.28600938745522969 -0.26471871668720698 0 0.27658132089261911 -0.27335422882897692 0 0.2976408850071105 -0.26774945168120262 0 0.29395248104752192 -0.27782345334219888 0 0.28600938745522969 -0.26471871668720698 0 0.29395248104752192 -0.27782345334219888 0 0.2724225943816766 -0.27409056785933389 0 0.28600938745522969 -0.26471871668720698 0 0.27658132089261911 -0.27335422882897692 0 0.30517917142926537 -0.24716040808135001 0 0.28600938745522969 -0.26471871668720698 0 0.30517917142926537 -0.24716040808135001 0 0.2976408850071105 -0.26774945168120262 0 0.28600938745522969 -0.26471871668720698 0 0.30517917142926537 -0.24716040808135001 0 0.28765229627979871 -0.24304032400626949 0 0.28600938745522969 -0.26471871668720698 0 0.28600938745522969 -0.26471871668720698 0 0.26845248078028039 -0.26014404079454911 0 0.28765229627979871 -0.24304032400626949 0 0.28600938745522969 -0.26471871668720698 0 0.26845248078028039 -0.26014404079454911 0 0.26376770137103039 -0.2864090747829241 0 0.26845248078028039 -0.26014404079454911 0 0.2724225943816766 -0.27409056785933389 0 0.28600938745522969 -0.26471871668720698 0 0.26845248078028039 -0.26014404079454911 0 0.27658132089261911 -0.27335422882897692 0 0.26376770137103039 -0.2864090747829241 0 0.26845248078028039 -0.26014404079454911 0 0.29395248104752192 -0.27782345334219888 0 0.27658132089261911 -0.27335422882897692 0 0.2724225943816766 -0.27409056785933389 0 0.27275834958840189 -0.28372268528309152 0 0.27996448038040939 -0.28063895974691061 0 0.2724225943816766 -0.27409056785933389 0 0.26845248078028039 -0.26014404079454911 0 0.27658132089261911 -0.27335422882897692 0 0.2724225943816766 -0.27409056785933389 0 0.26376770137103039 -0.2864090747829241 0 0.26845248078028039 -0.26014404079454911 0 0.24785603391849151 -0.27709942466880599 0 0.26845248078028039 -0.26014404079454911 0 0.2410490216361528 -0.25300372010805161 0 0.26845248078028039 -0.26014404079454911 0 0.2410490216361528 -0.25300372010805161 0 0.24785603391849151 -0.27709942466880599 0 0.25787859859726192 -0.24372773219337371 0 0.26845248078028039 -0.26014404079454911 0 0.2410490216361528 -0.25300372010805161 0 0.2410490216361528 -0.25300372010805161 0 0.24785603391849151 -0.27709942466880599 0 0.23139485578507429 -0.27647983237136509 0 0.23139485578507429 -0.27647983237136509 0 0.2171028506536257 -0.26700629366950379 0 0.21674952071488601 -0.28686299221921707 0 0.2410490216361528 -0.25300372010805161 0 0.23139485578507429 -0.27647983237136509 0 0.2171028506536257 -0.26700629366950379 0 0.2410490216361528 -0.25300372010805161 0 0.2171028506536257 -0.26700629366950379 0 0.2136455624920251 -0.24586339942155419 0 0.2171028506536257 -0.26700629366950379 0 0.1960217485778272 -0.26205501631648559 0 0.2136455624920251 -0.24586339942155419 0 0.2171028506536257 -0.26700629366950379 0 0.2037572178097509 -0.27803645254629672 0 0.1960217485778272 -0.26205501631648559 0 0.2171028506536257 -0.26700629366950379 0 0.2037572178097509 -0.27803645254629672 0 0.21674952071488601 -0.28686299221921707 0 0.2037572178097509 -0.27803645254629672 0 0.1960217485778272 -0.26205501631648559 0 0.18672217274589489 -0.28463667424064248 0 0.1960217485778272 -0.26205501631648559 0 0.2136455624920251 -0.24586339942155419 0 0.1970165427207646 -0.2431475676051908 0 0.1960217485778272 -0.26205501631648559 0 0.1970165427207646 -0.2431475676051908 0 0.18013525364959199 -0.24590787480667409 0 0.19163287831415901 -0.30538761534618902 0 0.20219697373587131 -0.29192032270869461 0 0.2153952098199983 -0.30425933719731207 0 0.2037572178097509 -0.27803645254629672 0 0.20219697373587131 -0.29192032270869461 0 0.18672217274589489 -0.28463667424064248 0 0.19163287831415901 -0.30538761534618902 0 0.20219697373587131 -0.29192032270869461 0 0.18672217274589489 -0.28463667424064248 0 0.20219697373587131 -0.29192032270869461 0 0.21674952071488601 -0.28686299221921707 0 0.2153952098199983 -0.30425933719731207 0 0.2037572178097509 -0.27803645254629672 0 0.20219697373587131 -0.29192032270869461 0 0.21674952071488601 -0.28686299221921707 0 0.19163287831415901 -0.30538761534618902 0 0.2153952098199983 -0.30425933719731207 0 0.20381788977078771 -0.32236963909420019 0 0.2153952098199983 -0.30425933719731207 0 0.2333373149176502 -0.29099433783704243 0 0.2370223082464416 -0.30892926800322767 0 0.2153952098199983 -0.30425933719731207 0 0.2370223082464416 -0.30892926800322767 0 0.22300958304019269 -0.32335118517261402 0 0.21674952071488601 -0.28686299221921707 0 0.2153952098199983 -0.30425933719731207 0 0.2333373149176502 -0.29099433783704243 0 0.23139485578507429 -0.27647983237136509 0 0.21674952071488601 -0.28686299221921707 0 0.2333373149176502 -0.29099433783704243 0 0.24785603391849151 -0.27709942466880599 0 0.2333373149176502 -0.29099433783704243 0 0.24821325608307901 -0.29522124281265988 0 0.24785603391849151 -0.27709942466880599 0 0.23139485578507429 -0.27647983237136509 0 0.2333373149176502 -0.29099433783704243 0 0.2333373149176502 -0.29099433783704243 0 0.24821325608307901 -0.29522124281265988 0 0.2370223082464416 -0.30892926800322767 0 0.2590829219617814 -0.31267410877129931 0 0.24821325608307901 -0.29522124281265988 0 0.2370223082464416 -0.30892926800322767 0 0.2590829219617814 -0.31267410877129931 0 0.2370223082464416 -0.30892926800322767 0 0.24087195768162309 -0.32614810142562012 0 0.2543981425525324 -0.33893914275967452 0 0.24087195768162309 -0.32614810142562012 0 0.2308468326071676 -0.34684680242128502 0 0.24087195768162309 -0.32614810142562012 0 0.22300958304019269 -0.32335118517261402 0 0.2308468326071676 -0.34684680242128502 0 0.22300958304019269 -0.32335118517261402 0 0.2308468326071676 -0.34684680242128502 0 0.21275128108028149 -0.33749920242868869 0 0.2370223082464416 -0.30892926800322767 0 0.24087195768162309 -0.32614810142562012 0 0.22300958304019269 -0.32335118517261402 0 0.24971336314328341 -0.36520417674804972 0 0.2308468326071676 -0.34684680242128502 0 0.229200177642885 -0.36995291413531828 0 0.2543981425525324 -0.33893914275967452 0 0.24971336314328341 -0.36520417674804972 0 0.2308468326071676 -0.34684680242128502 0 0.229200177642885 -0.36995291413531828 0 0.20725651587090471 -0.36571099534901208 0 0.22031030243082139 -0.38906492162812378 0 0.2308468326071676 -0.34684680242128502 0 0.229200177642885 -0.36995291413531828 0 0.20725651587090471 -0.36571099534901208 0 0.2308468326071676 -0.34684680242128502 0 0.20725651587090471 -0.36571099534901208 0 0.21275128108028149 -0.33749920242868869 0 0.20725651587090471 -0.36571099534901208 0 0.21275128108028149 -0.33749920242868869 0 0.194202729310988 -0.34235706906990038 0 0.20725651587090471 -0.36571099534901208 0 0.194202729310988 -0.34235706906990038 0 0.180238718969634 -0.3612454971324468 0 0.20725651587090471 -0.36571099534901208 0 0.194202729310988 -0.34235706906990038 0 0.20725651587090471 -0.36571099534901208 0 0.19261827162763251 -0.374541644607297 0 0.180238718969634 -0.3612454971324468 0 0.22300958304019269 -0.32335118517261402 0 0.20381788977078771 -0.32236963909420019 0 0.21275128108028149 -0.33749920242868869 0 0.2153952098199983 -0.30425933719731207 0 0.22300958304019269 -0.32335118517261402 0 0.20381788977078771 -0.32236963909420019 0 0.20381788977078771 -0.32236963909420019 0 0.21275128108028149 -0.33749920242868869 0 0.194202729310988 -0.34235706906990038 0 0.20381788977078771 -0.32236963909420019 0 0.194202729310988 -0.34235706906990038 0 0.18384400034678741 -0.32250280289756078 0 0.19163287831415901 -0.30538761534618902 0 0.20381788977078771 -0.32236963909420019 0 0.18384400034678741 -0.32250280289756078 0 0.18384400034678741 -0.32250280289756078 0 0.17702055828029431 -0.33666004199980942 0 0.15719449589681389 -0.32866913917705798 0 0.194202729310988 -0.34235706906990038 0 0.18384400034678741 -0.32250280289756078 0 0.17702055828029431 -0.33666004199980942 0 0.15719449589681389 -0.32866913917705798 0 0.16581699513551909 -0.35306125248096398 0 0.17702055828029431 -0.33666004199980942 0 0.15719449589681389 -0.32866913917705798 0 0.16581699513551909 -0.35306125248096398 0 0.18384400034678741 -0.32250280289756078 0 0.15719449589681389 -0.32866913917705798 0 0.17186855286937899 -0.30453082832045192 0 0.180238718969634 -0.3612454971324468 0 0.1834568796589737 -0.38583095226508418 0 0.17443949437422429 -0.37745336578486988 0 0.180238718969634 -0.3612454971324468 0 0.16581699513551909 -0.35306125248096398 0 0.17443949437422429 -0.37745336578486988 0 0.180238718969634 -0.3612454971324468 0 0.1834568796589737 -0.38583095226508418 0 0.19261827162763251 -0.374541644607297 0 0.180238718969634 -0.3612454971324468 0 0.1834568796589737 -0.38583095226508418 0 0.17702055828029431 -0.33666004199980942 0 0.180238718969634 -0.3612454971324468 0 0.16581699513551909 -0.35306125248096398 0 0.17702055828029431 -0.33666004199980942 0 0.180238718969634 -0.3612454971324468 0 0.194202729310988 -0.34235706906990038 0 0.17702055828029431 -0.33666004199980942 0 0.180238718969634 -0.3612454971324468 0 0.16581699513551909 -0.35306125248096398 0 0.1602354860011011 -0.36875954027416918 0 0.14952990885070691 -0.36034775620209553 0 0.16581699513551909 -0.35306125248096398 0 0.17443949437422429 -0.37745336578486988 0 0.16581699513551909 -0.35306125248096398 0 0.1602354860011011 -0.36875954027416918 0 0.17443949437422429 -0.37745336578486988 0 0.1602354860011011 -0.36875954027416918 0 0.14673951295096799 -0.37363029079717242 0 0.14952990885070691 -0.36034775620209553 0 0.16581699513551909 -0.35306125248096398 0 0.14952990885070691 -0.36034775620209553 0 0.144826286403443 -0.34676284914488159 0 0.14952990885070691 -0.36034775620209553 0 0.144826286403443 -0.34676284914488159 0 0.12334710111447229 -0.36406834251145731 0 0.144826286403443 -0.34676284914488159 0 0.12334710111447229 -0.36406834251145731 0 0.144826286403443 -0.34676284914488159 0 0.12334710111447229 -0.36406834251145731 0 0.11573058637367541 -0.34380091622275832 0 0.13273239812562251 -0.3803535413873157 0 0.1208593498238435 -0.38006314209191833 0 0.12334710111447229 -0.36406834251145731 0 0.14673951295096799 -0.37363029079717242 0 0.14952990885070691 -0.36034775620209553 0 0.12334710111447229 -0.36406834251145731 0 0.14673951295096799 -0.37363029079717242 0 0.13273239812562251 -0.3803535413873157 0 0.12334710111447229 -0.36406834251145731 0 0.15719449589681389 -0.32866913917705798 0 0.13978194378111039 -0.33004063130878142 0 0.14857199665810869 -0.30427702587315197 0 0.15719449589681389 -0.32866913917705798 0 0.14857199665810869 -0.30427702587315197 0 0.15719449589681389 -0.32866913917705798 0 0.144826286403443 -0.34676284914488159 0 0.13978194378111039 -0.33004063130878142 0 0.15719449589681389 -0.32866913917705798 0 0.16581699513551909 -0.35306125248096398 0 0.144826286403443 -0.34676284914488159 0 0.13978194378111039 -0.33004063130878142 0 0.1249111379911398 -0.32186001205002218 0 0.11573058637367541 -0.34380091622275832 0 0.144826286403443 -0.34676284914488159 0 0.13978194378111039 -0.33004063130878142 0 0.11573058637367541 -0.34380091622275832 0 0.13978194378111039 -0.33004063130878142 0 0.14857199665810869 -0.30427702587315197 0 0.1249111379911398 -0.32186001205002218 0 0.14857199665810869 -0.30427702587315197 0 0.13584279120622419 -0.29064916595208462 0 0.1212075847983899 -0.30357596212866123 0 0.14857199665810869 -0.30427702587315197 0 0.1212075847983899 -0.30357596212866123 0 0.1249111379911398 -0.32186001205002218 0 0.14857199665810869 -0.30427702587315197 0 0.14941647374314521 -0.28066083506566319 0 0.1659314811884508 -0.28303851802095531 0 0.14857199665810869 -0.30427702587315197 0 0.13584279120622419 -0.29064916595208462 0 0.14941647374314521 -0.28066083506566319 0 0.13554841089854469 -0.28148943716570812 0 0.13584279120622419 -0.29064916595208462 0 0.14941647374314521 -0.28066083506566319 0 0.13554841089854469 -0.28148943716570812 0 0.13584279120622419 -0.29064916595208462 0 0.1176113560141319 -0.2851589593963586 0 0.1376178273856396 -0.2676878026278281 0 0.13932302263067731 -0.26948878824872591 0 0.1176113560141319 -0.2851589593963586 0 0.13554841089854469 -0.28148943716570812 0 0.13932302263067731 -0.26948878824872591 0 0.1176113560141319 -0.2851589593963586 0 0.13932302263067731 -0.26948878824872591 0 0.1176113560141319 -0.2851589593963586 0 0.1376178273856396 -0.2676878026278281 0 0.1200034520355143 -0.24749468667538321 0 0.1376178273856396 -0.2676878026278281 0 0.1200034520355143 -0.24749468667538321 0 0.1412434604122122 -0.24631040783256791 0 0.1376178273856396 -0.2676878026278281 0 0.16103468924722281 -0.25381861710109321 0 0.1412434604122122 -0.24631040783256791 0 0.1376178273856396 -0.2676878026278281 0 0.13932302263067731 -0.26948878824872591 0 0.16103468924722281 -0.25381861710109321 0 0.13932302263067731 -0.26948878824872591 0 0.16103468924722281 -0.25381861710109321 0 0.13932302263067731 -0.26948878824872591 0 0.14941647374314521 -0.28066083506566319 0 0.16103468924722281 -0.25381861710109321 0 0.13554841089854469 -0.28148943716570812 0 0.13932302263067731 -0.26948878824872591 0 0.14941647374314521 -0.28066083506566319 0 0.14941647374314521 -0.28066083506566319 0 0.16103468924722281 -0.25381861710109321 0 0.1659314811884508 -0.28303851802095531 0 0.16103468924722281 -0.25381861710109321 0 0.1779690690817976 -0.26589134009717008 0 0.1659314811884508 -0.28303851802095531 0 0.16103468924722281 -0.25381861710109321 0 0.1779690690817976 -0.26589134009717008 0 0.18013525364959199 -0.24590787480667409 0 0.1960217485778272 -0.26205501631648559 0 0.1779690690817976 -0.26589134009717008 0 0.18013525364959199 -0.24590787480667409 0 0.1960217485778272 -0.26205501631648559 0 0.1779690690817976 -0.26589134009717008 0 0.18672217274589489 -0.28463667424064248 0 0.1779690690817976 -0.26589134009717008 0 0.18672217274589489 -0.28463667424064248 0 0.1659314811884508 -0.28303851802095531 0 0.18672217274589489 -0.28463667424064248 0 0.17186855286937899 -0.30453082832045192 0 0.1659314811884508 -0.28303851802095531 0 0.19163287831415901 -0.30538761534618902 0 0.18384400034678741 -0.32250280289756078 0 0.17186855286937899 -0.30453082832045192 0 0.19163287831415901 -0.30538761534618902 0 0.18672217274589489 -0.28463667424064248 0 0.17186855286937899 -0.30453082832045192 0 0.14857199665810869 -0.30427702587315197 0 0.17186855286937899 -0.30453082832045192 0 0.1659314811884508 -0.28303851802095531 0 0.15719449589681389 -0.32866913917705798 0 0.14857199665810869 -0.30427702587315197 0 0.17186855286937899 -0.30453082832045192 0 0.27004646425256568 -0.5 0 0.19840125792562099 -0.499999999999995 0 0.2258071254777905 -0.47806137695806639 0 0.19840125792562099 -0.499999999999995 0 0.1955652389629654 -0.47833395417678298 0 0.19840125792562099 -0.499999999999995 0 0.1955652389629654 -0.47833395417678298 0 0.1857239970351309 -0.48926605560099218 0 0.1955652389629654 -0.47833395417678298 0 0.2258071254777905 -0.47806137695806639 0 0.20496909670773639 -0.46039718082621561 0 0.19840125792562099 -0.499999999999995 0 0.1955652389629654 -0.47833395417678298 0 0.2258071254777905 -0.47806137695806639 0 0.2532296876789632 -0.47497352743918242 0 0.27004646425256568 -0.5 0 0.2258071254777905 -0.47806137695806639 0 0.2532296876789632 -0.47497352743918242 0 0.2258071254777905 -0.47806137695806639 0 0.23317765179809191 -0.45416130837427687 0 0.2258071254777905 -0.47806137695806639 0 0.23317765179809191 -0.45416130837427687 0 0.20496909670773639 -0.46039718082621561 0 0.23317765179809191 -0.45416130837427687 0 0.20496909670773639 -0.46039718082621561 0 0.26339579246569877 -0.46312143350125029 0 0.2532296876789632 -0.47497352743918242 0 0.23317765179809191 -0.45416130837427687 0 0.26138620688844749 -0.44792543592233808 0 0.2518592606704963 -0.43815060111373921 0 0.23317765179809191 -0.45416130837427687 0 0.26138620688844749 -0.44792543592233808 0 0.23317765179809191 -0.45416130837427687 0 0.2518592606704963 -0.43815060111373921 0 0.23317765179809191 -0.45416130837427687 0 0.24161391479158839 -0.43048581688246368 0 0.23317765179809191 -0.45416130837427687 0 0.21274467024756119 -0.44537306322652892 0 0.22596778666418391 -0.43195218695593612 0 0.23317765179809191 -0.45416130837427687 0 0.22596778666418391 -0.43195218695593612 0 0.24161391479158839 -0.43048581688246368 0 0.20738663592967541 -0.43977689630152639 0 0.21274467024756119 -0.44537306322652892 0 0.21231789143938981 -0.43260924517595267 0 0.20738663592967541 -0.43977689630152639 0 0.20306963394956029 -0.44528763306514119 0 0.2014143480821905 -0.43583764373848299 0 0.20738663592967541 -0.43977689630152639 0 0.21274467024756119 -0.44537306322652892 0 0.20306963394956029 -0.44528763306514119 0 0.21274467024756119 -0.44537306322652892 0 0.20306963394956029 -0.44528763306514119 0 0.20202636709778779 -0.45196992376671852 0 0.21274467024756119 -0.44537306322652892 0 0.20496909670773639 -0.46039718082621561 0 0.20202636709778779 -0.45196992376671852 0 0.23317765179809191 -0.45416130837427687 0 0.21274467024756119 -0.44537306322652892 0 0.20496909670773639 -0.46039718082621561 0 0.1955652389629654 -0.47833395417678298 0 0.20496909670773639 -0.46039718082621561 0 0.1927292200003092 -0.45666790835357102 0 0.1955652389629654 -0.47833395417678298 0 0.1927292200003092 -0.45666790835357102 0 0.1955652389629654 -0.47833395417678298 0 0.19047701204926121 -0.46094242075341862 0 0.1927292200003092 -0.45666790835357102 0 0.20496909670773639 -0.46039718082621561 0 0.1927292200003092 -0.45666790835357102 0 0.20202636709778779 -0.45196992376671852 0 0.19047701204926121 -0.46094242075341862 0 0.1927292200003092 -0.45666790835357102 0 0.1876592352144193 -0.45673372923780892 0 0.1927292200003092 -0.45666790835357102 0 0.1876592352144193 -0.45673372923780892 0 0.18777566972406101 -0.44981142861604279 0 0.1927292200003092 -0.45666790835357102 0 0.19595067699787469 -0.4453334870477933 0 0.18989320103765239 -0.43500186253035911 0 0.1927292200003092 -0.45666790835357102 0 0.18989320103765239 -0.43500186253035911 0 0.1927292200003092 -0.45666790835357102 0 0.18777566972406101 -0.44981142861604279 0 0.18989320103765239 -0.43500186253035911 0 0.19521760998379711 -0.43854214036159178 0 0.19595067699787469 -0.4453334870477933 0 0.1916906899727929 -0.43609695451772118 0 0.19595067699787469 -0.4453334870477933 0 0.1916906899727929 -0.43609695451772118 0 0.18989320103765239 -0.43500186253035911 0 0.19521760998379711 -0.43854214036159178 0 0.19821003569121751 -0.44088076654097252 0 0.19595067699787469 -0.4453334870477933 0 0.19821003569121751 -0.44088076654097252 0 0.20306963394956029 -0.44528763306514119 0 0.19595067699787469 -0.4453334870477933 0 0.19821003569121751 -0.44088076654097252 0 0.20306963394956029 -0.44528763306514119 0 0.2014143480821905 -0.43583764373848299 0 0.19521760998379711 -0.43854214036159178 0 0.19821003569121751 -0.44088076654097252 0 0.19632921389935129 -0.43529695882979857 0 0.20306963394956029 -0.44528763306514119 0 0.20202636709778779 -0.45196992376671852 0 0.19595067699787469 -0.4453334870477933 0 0.1927292200003092 -0.45666790835357102 0 0.20202636709778779 -0.45196992376671852 0 0.19595067699787469 -0.4453334870477933 0 0.18989320103765239 -0.43500186253035911 0 0.193210065479164 -0.42351508711829272 0 0.18667504034831339 -0.41041640739772162 0 0.18989320103765239 -0.43500186253035911 0 0.18667504034831339 -0.41041640739772162 0 0.1973860855611401 -0.42692030526330021 0 0.193210065479164 -0.42351508711829272 0 0.19846083006015189 -0.42045811652912207 0 0.1973860855611401 -0.42692030526330021 0 0.19846083006015189 -0.42045811652912207 0 0.20326441538295181 -0.42746054266679712 0 0.1973860855611401 -0.42692030526330021 0 0.19826447490927249 -0.43151164360587502 0 0.20326441538295181 -0.42746054266679712 0 0.2014143480821905 -0.43583764373848299 0 0.19826447490927249 -0.43151164360587502 0 0.20326441538295181 -0.42746054266679712 0 0.19821003569121751 -0.44088076654097252 0 0.2014143480821905 -0.43583764373848299 0 0.19632921389935129 -0.43529695882979857 0 0.2014143480821905 -0.43583764373848299 0 0.19632921389935129 -0.43529695882979857 0 0.19826447490927249 -0.43151164360587502 0 0.19632921389935129 -0.43529695882979857 0 0.19826447490927249 -0.43151164360587502 0 0.1929283116207289 -0.43204276753099607 0 0.1973860855611401 -0.42692030526330021 0 0.19826447490927249 -0.43151164360587502 0 0.1929283116207289 -0.43204276753099607 0 0.1929283116207289 -0.43204276753099607 0 0.18989320103765239 -0.43500186253035911 0 0.193210065479164 -0.42351508711829272 0 0.19521760998379711 -0.43854214036159178 0 0.19632921389935129 -0.43529695882979857 0 0.19377820557052011 -0.43520734882518619 0 0.19521760998379711 -0.43854214036159178 0 0.19377820557052011 -0.43520734882518619 0 0.1916906899727929 -0.43609695451772118 0 0.19632921389935129 -0.43529695882979857 0 0.1929283116207289 -0.43204276753099607 0 0.19377820557052011 -0.43520734882518619 0 0.1929283116207289 -0.43204276753099607 0 0.19210490899723079 -0.4345610298626873 0 0.18989320103765239 -0.43500186253035911 0 0.19377820557052011 -0.43520734882518619 0 0.19210490899723079 -0.4345610298626873 0 0.1916906899727929 -0.43609695451772118 0 0.1929283116207289 -0.43204276753099607 0 0.19377820557052011 -0.43520734882518619 0 0.19210490899723079 -0.4345610298626873 0 0.1916906899727929 -0.43609695451772118 0 0.18989320103765239 -0.43500186253035911 0 0.19210490899723079 -0.4345610298626873 0 0.1916906899727929 -0.43609695451772118 0 0.18989320103765239 -0.43500186253035911 0 0.1973860855611401 -0.42692030526330021 0 0.1929283116207289 -0.43204276753099607 0 0.193210065479164 -0.42351508711829272 0 0.193210065479164 -0.42351508711829272 0 0.1939169242469973 -0.41625106345825691 0 0.18667504034831339 -0.41041640739772162 0 0.193210065479164 -0.42351508711829272 0 0.1939169242469973 -0.41625106345825691 0 0.19846083006015189 -0.42045811652912207 0 0.1968341740193896 -0.41150644481021997 0 0.19418069224578771 -0.40518464808912641 0 0.18667504034831339 -0.41041640739772162 0 0.1939169242469973 -0.41625106345825691 0 0.1968341740193896 -0.41150644481021997 0 0.18667504034831339 -0.41041640739772162 0 0.1968341740193896 -0.41150644481021997 0 0.20469814770209749 -0.41520386531910081 0 0.20485234226760879 -0.40188257102108682 0 0.19846083006015189 -0.42045811652912207 0 0.20469814770209749 -0.41520386531910081 0 0.20326441538295181 -0.42746054266679712 0 0.1939169242469973 -0.41625106345825691 0 0.1968341740193896 -0.41150644481021997 0 0.19846083006015189 -0.42045811652912207 0 0.1968341740193896 -0.41150644481021997 0 0.19846083006015189 -0.42045811652912207 0 0.20469814770209749 -0.41520386531910081 0 0.20469814770209749 -0.41520386531910081 0 0.21626227209603979 -0.41615869782113413 0 0.20326441538295181 -0.42746054266679712 0 0.20469814770209749 -0.41520386531910081 0 0.21626227209603979 -0.41615869782113413 0 0.20485234226760879 -0.40188257102108682 0 0.21626227209603979 -0.41615869782113413 0 0.20326441538295181 -0.42746054266679712 0 0.21231789143938981 -0.43260924517595267 0 0.21626227209603979 -0.41615869782113413 0 0.21231789143938981 -0.43260924517595267 0 0.22596778666418391 -0.43195218695593612 0 0.20738663592967541 -0.43977689630152639 0 0.2014143480821905 -0.43583764373848299 0 0.21231789143938981 -0.43260924517595267 0 0.2014143480821905 -0.43583764373848299 0 0.20326441538295181 -0.42746054266679712 0 0.21231789143938981 -0.43260924517595267 0 0.21274467024756119 -0.44537306322652892 0 0.21231789143938981 -0.43260924517595267 0 0.22596778666418391 -0.43195218695593612 0 0.22596778666418391 -0.43195218695593612 0 0.24161391479158839 -0.43048581688246368 0 0.2333640889907381 -0.41241884790723538 0 0.25610826383841628 -0.42120346698794331 0 0.2518592606704963 -0.43815060111373921 0 0.24161391479158839 -0.43048581688246368 0 0.25610826383841628 -0.42120346698794331 0 0.24161391479158839 -0.43048581688246368 0 0.2333640889907381 -0.41241884790723538 0 0.21626227209603979 -0.41615869782113413 0 0.22596778666418391 -0.43195218695593612 0 0.2333640889907381 -0.41241884790723538 0 0.2333640889907381 -0.41241884790723538 0 0.24502858373403441 -0.39146921073642488 0 0.22031030243082139 -0.38906492162812378 0 0.21626227209603979 -0.41615869782113413 0 0.2333640889907381 -0.41241884790723538 0 0.22031030243082139 -0.38906492162812378 0 0.2333640889907381 -0.41241884790723538 0 0.22031030243082139 -0.38906492162812378 0 0.26125098829365018 -0.39969694482297641 0 0.2333640889907381 -0.41241884790723538 0 0.24502858373403441 -0.39146921073642488 0 0.24971336314328341 -0.36520417674804972 0 0.24502858373403441 -0.39146921073642488 0 0.24971336314328341 -0.36520417674804972 0 0.229200177642885 -0.36995291413531828 0 0.24502858373403441 -0.39146921073642488 0 0.229200177642885 -0.36995291413531828 0 0.24502858373403441 -0.39146921073642488 0 0.22031030243082139 -0.38906492162812378 0 0.20725651587090471 -0.36571099534901208 0 0.22031030243082139 -0.38906492162812378 0 0.19952097201101759 -0.38537913368264481 0 0.20725651587090471 -0.36571099534901208 0 0.22031030243082139 -0.38906492162812378 0 0.21626227209603979 -0.41615869782113413 0 0.22031030243082139 -0.38906492162812378 0 0.20485234226760879 -0.40188257102108682 0 0.22031030243082139 -0.38906492162812378 0 0.20485234226760879 -0.40188257102108682 0 0.19952097201101759 -0.38537913368264481 0 0.20485234226760879 -0.40188257102108682 0 0.19159455078491761 -0.39726910731705511 0 0.19952097201101759 -0.38537913368264481 0 0.1968341740193896 -0.41150644481021997 0 0.20485234226760879 -0.40188257102108682 0 0.19418069224578771 -0.40518464808912641 0 0.20485234226760879 -0.40188257102108682 0 0.19418069224578771 -0.40518464808912641 0 0.19159455078491761 -0.39726910731705511 0 0.19418069224578771 -0.40518464808912641 0 0.19159455078491761 -0.39726910731705511 0 0.18667504034831339 -0.41041640739772162 0 0.20725651587090471 -0.36571099534901208 0 0.19261827162763251 -0.374541644607297 0 0.19952097201101759 -0.38537913368264481 0 0.19261827162763251 -0.374541644607297 0 0.19952097201101759 -0.38537913368264481 0 0.1834568796589737 -0.38583095226508418 0 0.19159455078491761 -0.39726910731705511 0 0.19952097201101759 -0.38537913368264481 0 0.1834568796589737 -0.38583095226508418 0 0.17443949437422429 -0.37745336578486988 0 0.18306199361292941 -0.40184547908877583 0 0.1834568796589737 -0.38583095226508418 0 0.17443949437422429 -0.37745336578486988 0 0.18306199361292941 -0.40184547908877583 0 0.17443949437422429 -0.37745336578486988 0 0.18306199361292941 -0.40184547908877583 0 0.1699565165384864 -0.39219147373696051 0 0.19159455078491761 -0.39726910731705511 0 0.1834568796589737 -0.38583095226508418 0 0.18667504034831339 -0.41041640739772162 0 0.1834568796589737 -0.38583095226508418 0 0.18667504034831339 -0.41041640739772162 0 0.1834568796589737 -0.38583095226508418 0 0.18306199361292941 -0.40184547908877583 0 0.18667504034831339 -0.41041640739772162 0 0.18306199361292941 -0.40184547908877583 0 0.1699565165384864 -0.39219147373696051 0 0.17103987791038719 -0.40450309618882169 0 0.18306199361292941 -0.40184547908877583 0 0.17103987791038719 -0.40450309618882169 0 0.1814131781600461 -0.40758752999736902 0 0.1699565165384864 -0.39219147373696051 0 0.17103987791038719 -0.40450309618882169 0 0.15993177942481909 -0.39557864441750712 0 0.17103987791038719 -0.40450309618882169 0 0.15993177942481909 -0.39557864441750712 0 0.14638679418839309 -0.40849626541203388 0 0.1699565165384864 -0.39219147373696051 0 0.15993177942481909 -0.39557864441750712 0 0.1595700277473481 -0.38298567724053401 0 0.17443949437422429 -0.37745336578486988 0 0.1699565165384864 -0.39219147373696051 0 0.1595700277473481 -0.38298567724053401 0 0.1602354860011011 -0.36875954027416918 0 0.17443949437422429 -0.37745336578486988 0 0.1595700277473481 -0.38298567724053401 0 0.1602354860011011 -0.36875954027416918 0 0.14673951295096799 -0.37363029079717242 0 0.1595700277473481 -0.38298567724053401 0 0.14673951295096799 -0.37363029079717242 0 0.1595700277473481 -0.38298567724053401 0 0.14586341328622179 -0.39002728499933198 0 0.14673951295096799 -0.37363029079717242 0 0.14586341328622179 -0.39002728499933198 0 0.13273239812562251 -0.3803535413873157 0 0.15993177942481909 -0.39557864441750712 0 0.1595700277473481 -0.38298567724053401 0 0.14586341328622179 -0.39002728499933198 0 0.14586341328622179 -0.39002728499933198 0 0.13273239812562251 -0.3803535413873157 0 0.12412735500694751 -0.39493505064503392 0 0.13273239812562251 -0.3803535413873157 0 0.12412735500694751 -0.39493505064503392 0 0.1208593498238435 -0.38006314209191833 0 0.14586341328622179 -0.39002728499933198 0 0.14638679418839309 -0.40849626541203388 0 0.12412735500694751 -0.39493505064503392 0 0.14638679418839309 -0.40849626541203388 0 0.1185943653130178 -0.41089393958744808 0 0.12412735500694751 -0.39493505064503392 0 0.14638679418839309 -0.40849626541203388 0 0.12412735500694751 -0.39493505064503392 0 0.15993177942481909 -0.39557864441750712 0 0.14586341328622179 -0.39002728499933198 0 0.14638679418839309 -0.40849626541203388 0 0.14638679418839309 -0.40849626541203388 0 0.12945713117598301 -0.42527718494859718 0 0.1185943653130178 -0.41089393958744808 0 0.12945713117598301 -0.42527718494859718 0 0.1521605439778134 -0.43517333823265708 0 0.13567485458578729 -0.448289196286278 0 0.14638679418839309 -0.40849626541203388 0 0.12945713117598301 -0.42527718494859718 0 0.1521605439778134 -0.43517333823265708 0 0.14638679418839309 -0.40849626541203388 0 0.1521605439778134 -0.43517333823265708 0 0.16864623336983819 -0.42205748017903449 0 0.1521605439778134 -0.43517333823265708 0 0.16864623336983819 -0.42205748017903449 0 0.1521605439778134 -0.43517333823265708 0 0.16864623336983819 -0.42205748017903449 0 0.16573483381671769 -0.43911683261624462 0 0.16864623336983819 -0.42205748017903449 0 0.17670256027174869 -0.43608133600128551 0 0.16573483381671769 -0.43911683261624462 0 0.17103987791038719 -0.40450309618882169 0 0.14638679418839309 -0.40849626541203388 0 0.16962733287145829 -0.41306172809692981 0 0.14638679418839309 -0.40849626541203388 0 0.16864623336983819 -0.42205748017903449 0 0.14638679418839309 -0.40849626541203388 0 0.16864623336983819 -0.42205748017903449 0 0.16962733287145829 -0.41306172809692981 0 0.16864623336983819 -0.42205748017903449 0 0.17965678171287719 -0.41329759239238029 0 0.18989320103765239 -0.43500186253035911 0 0.17965678171287719 -0.41329759239238029 0 0.18667504034831339 -0.41041640739772162 0 0.16864623336983819 -0.42205748017903449 0 0.16962733287145829 -0.41306172809692981 0 0.17965678171287719 -0.41329759239238029 0 0.17103987791038719 -0.40450309618882169 0 0.16962733287145829 -0.41306172809692981 0 0.17965678171287719 -0.41329759239238029 0 0.17103987791038719 -0.40450309618882169 0 0.17965678171287719 -0.41329759239238029 0 0.1814131781600461 -0.40758752999736902 0 0.18306199361292941 -0.40184547908877583 0 0.1814131781600461 -0.40758752999736902 0 0.18667504034831339 -0.41041640739772162 0 0.17965678171287719 -0.41329759239238029 0 0.1814131781600461 -0.40758752999736902 0 0.18667504034831339 -0.41041640739772162 0 0.18989320103765239 -0.43500186253035911 0 0.16864623336983819 -0.42205748017903449 0 0.18989320103765239 -0.43500186253035911 0 0.16864623336983819 -0.42205748017903449 0 0.17965678171287719 -0.41329759239238029 0 0.18989320103765239 -0.43500186253035911 0 0.16864623336983819 -0.42205748017903449 0 0.17670256027174869 -0.43608133600128551 0 0.18989320103765239 -0.43500186253035911 0 0.17670256027174869 -0.43608133600128551 0 0.18208037526260021 -0.440172852945236 0 0.17851738694434799 -0.45081987712854771 0 0.17618275988476059 -0.44374183802639611 0 0.18401323307134959 -0.44581129240036288 0 0.17851738694434799 -0.45081987712854771 0 0.1776998484129505 -0.456552179461992 0 0.17120073938054131 -0.45123220200337888 0 0.17851738694434799 -0.45081987712854771 0 0.17618275988476059 -0.44374183802639611 0 0.17120073938054131 -0.45123220200337888 0 0.17670256027174869 -0.43608133600128551 0 0.17618275988476059 -0.44374183802639611 0 0.16573483381671769 -0.43911683261624462 0 0.17670256027174869 -0.43608133600128551 0 0.17618275988476059 -0.44374183802639611 0 0.18208037526260021 -0.440172852945236 0 0.18989320103765239 -0.43500186253035911 0 0.18208037526260021 -0.440172852945236 0 0.18401323307134959 -0.44581129240036288 0 0.18777566972406101 -0.44981142861604279 0 0.18989320103765239 -0.43500186253035911 0 0.18401323307134959 -0.44581129240036288 0 0.17618275988476059 -0.44374183802639611 0 0.18208037526260021 -0.440172852945236 0 0.18401323307134959 -0.44581129240036288 0 0.18777566972406101 -0.44981142861604279 0 0.18401323307134959 -0.44581129240036288 0 0.18385690407389799 -0.45446609953290928 0 0.17851738694434799 -0.45081987712854771 0 0.18401323307134959 -0.44581129240036288 0 0.18385690407389799 -0.45446609953290928 0 0.19047701204926121 -0.46094242075341862 0 0.1876592352144193 -0.45673372923780892 0 0.1806900259799068 -0.46227126151247672 0 0.1876592352144193 -0.45673372923780892 0 0.18777566972406101 -0.44981142861604279 0 0.18385690407389799 -0.45446609953290928 0 0.19047701204926121 -0.46094242075341862 0 0.1806900259799068 -0.46227126151247672 0 0.17298031468751371 -0.48047121037671059 0 0.1876592352144193 -0.45673372923780892 0 0.18385690407389799 -0.45446609953290928 0 0.1806900259799068 -0.46227126151247672 0 0.18385690407389799 -0.45446609953290928 0 0.1806900259799068 -0.46227126151247672 0 0.1776998484129505 -0.456552179461992 0 0.17851738694434799 -0.45081987712854771 0 0.18385690407389799 -0.45446609953290928 0 0.1776998484129505 -0.456552179461992 0 0.1806900259799068 -0.46227126151247672 0 0.1776998484129505 -0.456552179461992 0 0.17146684144139809 -0.46446192971202138 0 0.1776998484129505 -0.456552179461992 0 0.17146684144139809 -0.46446192971202138 0 0.17120073938054131 -0.45123220200337888 0 0.17146684144139809 -0.46446192971202138 0 0.15759213853868431 -0.45113306297151079 0 0.14900727366634989 -0.46501884712825781 0 0.17146684144139809 -0.46446192971202138 0 0.15759213853868431 -0.45113306297151079 0 0.17120073938054131 -0.45123220200337888 0 0.1521605439778134 -0.43517333823265708 0 0.15759213853868431 -0.45113306297151079 0 0.16573483381671769 -0.43911683261624462 0 0.15759213853868431 -0.45113306297151079 0 0.17120073938054131 -0.45123220200337888 0 0.16573483381671769 -0.43911683261624462 0 0.17618275988476059 -0.44374183802639611 0 0.17120073938054131 -0.45123220200337888 0 0.16573483381671769 -0.43911683261624462 0 0.1521605439778134 -0.43517333823265708 0 0.15759213853868431 -0.45113306297151079 0 0.13567485458578729 -0.448289196286278 0 0.1521605439778134 -0.43517333823265708 0 0.13567485458578729 -0.448289196286278 0 0.13567485458578729 -0.448289196286278 0 0.1191891651937612 -0.46140505433989892 0 0.12203304576274319 -0.43975504748265359 0 0.12945713117598301 -0.42527718494859718 0 0.13567485458578729 -0.448289196286278 0 0.12203304576274319 -0.43975504748265359 0 0.13567485458578729 -0.448289196286278 0 0.1191891651937612 -0.46140505433989892 0 0.13567485458578729 -0.448289196286278 0 0.13480127744719991 -0.46410976413563299 0 0.1191891651937612 -0.46140505433989892 0 0.13567485458578729 -0.448289196286278 0 0.13480127744719991 -0.46410976413563299 0 0.14900727366634989 -0.46501884712825781 0 0.15759213853868431 -0.45113306297151079 0 0.13567485458578729 -0.448289196286278 0 0.14900727366634989 -0.46501884712825781 0 0.14900727366634989 -0.46501884712825781 0 0.15577652408963519 -0.48266000469618581 0 0.13873200589539489 -0.47945912496791759 0 0.13480127744719991 -0.46410976413563299 0 0.14900727366634989 -0.46501884712825781 0 0.13873200589539489 -0.47945912496791759 0 0.13480127744719991 -0.46410976413563299 0 0.13873200589539489 -0.47945912496791759 0 0.11801755443736479 -0.48060781756800708 0 0.13873200589539489 -0.47945912496791759 0 0.13581988522262109 -0.50000000000000244 0 0.11801755443736479 -0.48060781756800708 0 0.13581988522262109 -0.50000000000000244 0 0.11801755443736479 -0.48060781756800708 0 0.15577652408963519 -0.48266000469618581 0 0.13873200589539489 -0.47945912496791759 0 0.13581988522262109 -0.50000000000000244 0 0.15577652408963519 -0.48266000469618581 0 0.13581988522262109 -0.50000000000000244 0 0.15548361732576529 -0.50000000000000178 0 0.15577652408963519 -0.48266000469618581 0 0.15548361732576529 -0.50000000000000178 0 0.17298031468751371 -0.48047121037671059 0 0.15548361732576529 -0.50000000000000178 0 0.17298031468751371 -0.48047121037671059 0 0.1769424376256932 -0.5 0 0.15548361732576529 -0.50000000000000178 0 0.17298031468751371 -0.48047121037671059 0 0.17146684144139809 -0.46446192971202138 0 0.15577652408963519 -0.48266000469618581 0 0.17298031468751371 -0.48047121037671059 0 0.17146684144139809 -0.46446192971202138 0 0.14900727366634989 -0.46501884712825781 0 0.15577652408963519 -0.48266000469618581 0 0.19047701204926121 -0.46094242075341862 0 0.17298031468751371 -0.48047121037671059 0 0.1806900259799068 -0.46227126151247672 0 0.17146684144139809 -0.46446192971202138 0 0.17298031468751371 -0.48047121037671059 0 0.1955652389629654 -0.47833395417678298 0 0.19047701204926121 -0.46094242075341862 0 0.17298031468751371 -0.48047121037671059 0 0.1955652389629654 -0.47833395417678298 0 0.17298031468751371 -0.48047121037671059 0 0.1857239970351309 -0.48926605560099218 0 0.19840125792562099 -0.499999999999995 0 0.1857239970351309 -0.48926605560099218 0 0.1769424376256932 -0.5 0 0.17298031468751371 -0.48047121037671059 0 0.1857239970351309 -0.48926605560099218 0 0.1769424376256932 -0.5 0 0.074737975103940479 -0.48487994098964171 0 0.071046826552429457 -0.50000000000000733 0 0.059434139084113012 -0.47963991399004141 0 0.071046826552429457 -0.50000000000000733 0 0.059434139084113012 -0.47963991399004141 0 0.074737975103940479 -0.48487994098964171 0 0.05802097188470097 -0.46975988197928431 0 0.059434139084113012 -0.47963991399004141 0 0.074737975103940479 -0.48487994098964171 0 0.071955909258469009 -0.46877079283141743 0 0.05802097188470097 -0.46975988197928431 0 0.074737975103940479 -0.48487994098964171 0 0.071955909258469009 -0.46877079283141743 0 0.082737354296077953 -0.47427357099325013 0 0.074737975103940479 -0.48487994098964171 0 0.05802097188470097 -0.46975988197928431 0 0.074737975103940479 -0.48487994098964171 0 0.082737354296077953 -0.47427357099325013 0 0.094811061721812542 -0.48112121468145302 0 0.082737354296077953 -0.47427357099325013 0 0.094811061721812542 -0.48112121468145302 0 0.1002152236521098 -0.46121563513601083 0 0.074737975103940479 -0.48487994098964171 0 0.091454978323179614 -0.49999999999999939 0 0.094811061721812542 -0.48112121468145302 0 0.074737975103940479 -0.48487994098964171 0 0.091454978323179614 -0.49999999999999939 0 0.074737975103940479 -0.48487994098964171 0 0.071046826552429457 -0.50000000000000733 0 0.091454978323179614 -0.49999999999999939 0 0.1136374317729003 -0.5 0 0.11801755443736479 -0.48060781756800708 0 0.094811061721812542 -0.48112121468145302 0 0.091454978323179614 -0.49999999999999939 0 0.1136374317729003 -0.5 0 0.094811061721812542 -0.48112121468145302 0 0.13581988522262109 -0.50000000000000244 0 0.1136374317729003 -0.5 0 0.11801755443736479 -0.48060781756800708 0 0.11801755443736479 -0.48060781756800708 0 0.094811061721812542 -0.48112121468145302 0 0.1002152236521098 -0.46121563513601083 0 0.11801755443736479 -0.48060781756800708 0 0.1002152236521098 -0.46121563513601083 0 0.1002152236521098 -0.46121563513601083 0 0.1191891651937612 -0.46140505433989892 0 0.1082504500781146 -0.44478934181291102 0 0.11801755443736479 -0.48060781756800708 0 0.1002152236521098 -0.46121563513601083 0 0.1191891651937612 -0.46140505433989892 0 0.13480127744719991 -0.46410976413563299 0 0.11801755443736479 -0.48060781756800708 0 0.1191891651937612 -0.46140505433989892 0 0.1191891651937612 -0.46140505433989892 0 0.12203304576274319 -0.43975504748265359 0 0.1082504500781146 -0.44478934181291102 0 0.1002152236521098 -0.46121563513601083 0 0.1082504500781146 -0.44478934181291102 0 0.082412892866854714 -0.44182345270401441 0 0.1002152236521098 -0.46121563513601083 0 0.082412892866854714 -0.44182345270401441 0 0.082737354296077953 -0.47427357099325013 0 0.1002152236521098 -0.46121563513601083 0 0.07989865607697158 -0.46093656822545309 0 0.1002152236521098 -0.46121563513601083 0 0.082412892866854714 -0.44182345270401441 0 0.07989865607697158 -0.46093656822545309 0 0.071955909258469009 -0.46877079283141743 0 0.082737354296077953 -0.47427357099325013 0 0.07989865607697158 -0.46093656822545309 0 0.071955909258469009 -0.46877079283141743 0 0.07989865607697158 -0.46093656822545309 0 0.064942869781788204 -0.45298741250561531 0 0.071955909258469009 -0.46877079283141743 0 0.064942869781788204 -0.45298741250561531 0 0.05802097188470097 -0.46975988197928431 0 0.082412892866854714 -0.44182345270401441 0 0.07989865607697158 -0.46093656822545309 0 0.064942869781788204 -0.45298741250561531 0 0.082412892866854714 -0.44182345270401441 0 0.064942869781788204 -0.45298741250561531 0 0.064610562081599654 -0.42243127027201799 0 0.082412892866854714 -0.44182345270401441 0 0.064610562081599654 -0.42243127027201799 0 0.085410796704641828 -0.41553833344022301 0 0.082412892866854714 -0.44182345270401441 0 0.064610562081599654 -0.42243127027201799 0 0.064610562081599654 -0.42243127027201799 0 0.085410796704641828 -0.41553833344022301 0 0.071260751408415451 -0.40583032332525898 0 0.082412892866854714 -0.44182345270401441 0 0.085410796704641828 -0.41553833344022301 0 0.10565257718969159 -0.42402980380391259 0 0.1082504500781146 -0.44478934181291102 0 0.10565257718969159 -0.42402980380391259 0 0.1082504500781146 -0.44478934181291102 0 0.082412892866854714 -0.44182345270401441 0 0.10565257718969159 -0.42402980380391259 0 0.12203304576274319 -0.43975504748265359 0 0.1082504500781146 -0.44478934181291102 0 0.10565257718969159 -0.42402980380391259 0 0.12945713117598301 -0.42527718494859718 0 0.12203304576274319 -0.43975504748265359 0 0.10565257718969159 -0.42402980380391259 0 0.12945713117598301 -0.42527718494859718 0 0.10565257718969159 -0.42402980380391259 0 0.1185943653130178 -0.41089393958744808 0 0.10565257718969159 -0.42402980380391259 0 0.10305470430126849 -0.40327026579491432 0 0.10565257718969159 -0.42402980380391259 0 0.1185943653130178 -0.41089393958744808 0 0.10305470430126849 -0.40327026579491432 0 0.085410796704641828 -0.41553833344022301 0 0.10565257718969159 -0.42402980380391259 0 0.10305470430126849 -0.40327026579491432 0 0.10305470430126849 -0.40327026579491432 0 0.1092296532162271 -0.39195520602732847 0 0.1018679158255022 -0.38137383587803358 0 0.10305470430126849 -0.40327026579491432 0 0.1018679158255022 -0.38137383587803358 0 0.084827885114816814 -0.39510276155480978 0 0.10305470430126849 -0.40327026579491432 0 0.1018679158255022 -0.38137383587803358 0 0.1185943653130178 -0.41089393958744808 0 0.10305470430126849 -0.40327026579491432 0 0.1092296532162271 -0.39195520602732847 0 0.1185943653130178 -0.41089393958744808 0 0.1092296532162271 -0.39195520602732847 0 0.12412735500694751 -0.39493505064503392 0 0.12412735500694751 -0.39493505064503392 0 0.1208593498238435 -0.38006314209191833 0 0.1018679158255022 -0.38137383587803358 0 0.1092296532162271 -0.39195520602732847 0 0.12412735500694751 -0.39493505064503392 0 0.1018679158255022 -0.38137383587803358 0 0.12412735500694751 -0.39493505064503392 0 0.1018679158255022 -0.38137383587803358 0 0.1208593498238435 -0.38006314209191833 0 0.1018679158255022 -0.38137383587803358 0 0.12334710111447229 -0.36406834251145731 0 0.1018679158255022 -0.38137383587803358 0 0.1001863568717406 -0.38034937241650962 0 0.10879209213087419 -0.36797725762153549 0 0.1018679158255022 -0.38137383587803358 0 0.1001863568717406 -0.38034937241650962 0 0.092680417082859706 -0.38189565836938699 0 0.1018679158255022 -0.38137383587803358 0 0.1001863568717406 -0.38034937241650962 0 0.1001863568717406 -0.38034937241650962 0 0.092680417082859706 -0.38189565836938699 0 0.078941289569781151 -0.36740614783332631 0 0.1018679158255022 -0.38137383587803358 0 0.084827885114816814 -0.39510276155480978 0 0.1018679158255022 -0.38137383587803358 0 0.092680417082859706 -0.38189565836938699 0 0.084827885114816814 -0.39510276155480978 0 0.083667078469080447 -0.3817485906143725 0 0.076461538166658155 -0.38231907318138902 0 0.078941289569781151 -0.36740614783332631 0 0.092680417082859706 -0.38189565836938699 0 0.083667078469080447 -0.3817485906143725 0 0.078941289569781151 -0.36740614783332631 0 0.084827885114816814 -0.39510276155480978 0 0.073546264855348126 -0.39398280964304111 0 0.076461538166658155 -0.38231907318138902 0 0.083667078469080447 -0.3817485906143725 0 0.084827885114816814 -0.39510276155480978 0 0.076461538166658155 -0.38231907318138902 0 0.092680417082859706 -0.38189565836938699 0 0.083667078469080447 -0.3817485906143725 0 0.084827885114816814 -0.39510276155480978 0 0.085410796704641828 -0.41553833344022301 0 0.10305470430126849 -0.40327026579491432 0 0.084827885114816814 -0.39510276155480978 0 0.085410796704641828 -0.41553833344022301 0 0.084827885114816814 -0.39510276155480978 0 0.071260751408415451 -0.40583032332525898 0 0.084827885114816814 -0.39510276155480978 0 0.073546264855348126 -0.39398280964304111 0 0.071260751408415451 -0.40583032332525898 0 0.073546264855348126 -0.39398280964304111 0 0.071260751408415451 -0.40583032332525898 0 0.061634884731502082 -0.39267908051070671 0 0.076461538166658155 -0.38231907318138902 0 0.061634884731502082 -0.39267908051070671 0 0.076461538166658155 -0.38231907318138902 0 0.061634884731502082 -0.39267908051070671 0 0.061904282875925747 -0.37237526148823941 0 0.073546264855348126 -0.39398280964304111 0 0.076461538166658155 -0.38231907318138902 0 0.061634884731502082 -0.39267908051070671 0 0.051370350477500881 -0.3764161884637201 0 0.045801185216693012 -0.38580832539780119 0 0.043663507306638913 -0.36868104746756258 0 0.051370350477500881 -0.3764161884637201 0 0.061634884731502082 -0.39267908051070671 0 0.045801185216693012 -0.38580832539780119 0 0.051370350477500881 -0.3764161884637201 0 0.061634884731502082 -0.39267908051070671 0 0.061904282875925747 -0.37237526148823941 0 0.071260751408415451 -0.40583032332525898 0 0.061634884731502082 -0.39267908051070671 0 0.04680823129634433 -0.40303908784002201 0 0.061634884731502082 -0.39267908051070671 0 0.04680823129634433 -0.40303908784002201 0 0.045801185216693012 -0.38580832539780119 0 0.061634884731502082 -0.39267908051070671 0 0.04680823129634433 -0.40303908784002201 0 0.04680823129634433 -0.40303908784002201 0 0.02837172461734 -0.38295609391969199 0 0.04680823129634433 -0.40303908784002201 0 0.02837172461734 -0.38295609391969199 0 0.028215565298714249 -0.40094151263492078 0 0.045801185216693012 -0.38580832539780119 0 0.02837172461734 -0.38295609391969199 0 0.043663507306638913 -0.36868104746756258 0 0.04680823129634433 -0.40303908784002201 0 0.045801185216693012 -0.38580832539780119 0 0.02837172461734 -0.38295609391969199 0 0.02837172461734 -0.38295609391969199 0 0.0122991559467155 -0.37891225603134221 0 0.011208636448502229 -0.39508796301279092 0 -0.002178803782163227 -0.37161627006544062 0 0.0122991559467155 -0.37891225603134221 0 0.011208636448502229 -0.39508796301279092 0 -0.002178803782163227 -0.37161627006544062 0 0.011208636448502229 -0.39508796301279092 0 -0.002178803782163227 -0.37161627006544062 0 -0.0066930742226519926 -0.39143820132839208 0 0.011208636448502229 -0.39508796301279092 0 -0.001728596279610697 -0.40597762003102339 0 0.011208636448502229 -0.39508796301279092 0 0.0082246319185010179 -0.41465428951275207 0 -0.0066930742226519926 -0.39143820132839208 0 -0.001728596279610697 -0.40597762003102339 0 0.011208636448502229 -0.39508796301279092 0 0.011208636448502229 -0.39508796301279092 0 0.028215565298714249 -0.40094151263492078 0 0.024596076679173799 -0.41855965596013778 0 0.02837172461734 -0.38295609391969199 0 0.011208636448502229 -0.39508796301279092 0 0.028215565298714249 -0.40094151263492078 0 0.011208636448502229 -0.39508796301279092 0 0.024596076679173799 -0.41855965596013778 0 0.011208636448502229 -0.39508796301279092 0 0.024596076679173799 -0.41855965596013778 0 0.0082246319185010179 -0.41465428951275207 0 0.024596076679173799 -0.41855965596013778 0 0.0082246319185010179 -0.41465428951275207 0 0.01039378864355619 -0.42848339288335913 0 -0.009537301248459449 -0.42510302968362512 0 0.0082246319185010179 -0.41465428951275207 0 0.01039378864355619 -0.42848339288335913 0 0.024596076679173799 -0.41855965596013778 0 0.036208764147486278 -0.43891974197010591 0 0.024596076679173799 -0.41855965596013778 0 0.036208764147486278 -0.43891974197010591 0 0.020713539006084219 -0.44010250100644183 0 0.024596076679173799 -0.41855965596013778 0 0.01039378864355619 -0.42848339288335913 0 0.020713539006084219 -0.44010250100644183 0 0.024596076679173799 -0.41855965596013778 0 0.01039378864355619 -0.42848339288335913 0 0.024596076679173799 -0.41855965596013778 0 0.043950702345966319 -0.42295947833088071 0 0.036208764147486278 -0.43891974197010591 0 0.043950702345966319 -0.42295947833088071 0 0.051347790295756007 -0.43901682978775403 0 0.036208764147486278 -0.43891974197010591 0 0.04680823129634433 -0.40303908784002201 0 0.024596076679173799 -0.41855965596013778 0 0.04680823129634433 -0.40303908784002201 0 0.028215565298714249 -0.40094151263492078 0 0.024596076679173799 -0.41855965596013778 0 0.04680823129634433 -0.40303908784002201 0 0.024596076679173799 -0.41855965596013778 0 0.043950702345966319 -0.42295947833088071 0 0.064610562081599654 -0.42243127027201799 0 0.071260751408415451 -0.40583032332525898 0 0.04680823129634433 -0.40303908784002201 0 0.064610562081599654 -0.42243127027201799 0 0.04680823129634433 -0.40303908784002201 0 0.064610562081599654 -0.42243127027201799 0 0.04680823129634433 -0.40303908784002201 0 0.043950702345966319 -0.42295947833088071 0 0.064610562081599654 -0.42243127027201799 0 0.043950702345966319 -0.42295947833088071 0 0.051347790295756007 -0.43901682978775403 0 0.064942869781788204 -0.45298741250561531 0 0.064610562081599654 -0.42243127027201799 0 0.051347790295756007 -0.43901682978775403 0 0.064942869781788204 -0.45298741250561531 0 0.051347790295756007 -0.43901682978775403 0 0.047821451615799627 -0.45927982798007361 0 0.064942869781788204 -0.45298741250561531 0 0.047821451615799627 -0.45927982798007361 0 0.05802097188470097 -0.46975988197928431 0 0.047821451615799627 -0.45927982798007361 0 0.023714967739582489 -0.4565662814222432 0 0.032020960621095843 -0.47777188036233098 0 0.047821451615799627 -0.45927982798007361 0 0.036208764147486278 -0.43891974197010591 0 0.051347790295756007 -0.43901682978775403 0 0.047821451615799627 -0.45927982798007361 0 0.036208764147486278 -0.43891974197010591 0 0.047821451615799627 -0.45927982798007361 0 0.036208764147486278 -0.43891974197010591 0 0.023714967739582489 -0.4565662814222432 0 0.036208764147486278 -0.43891974197010591 0 0.020713539006084219 -0.44010250100644183 0 0.023714967739582489 -0.4565662814222432 0 -0.0013374034004768371 -0.44947558896604423 0 0.01039378864355619 -0.42848339288335913 0 0.020713539006084219 -0.44010250100644183 0 -0.0013374034004768371 -0.44947558896604423 0 0.020713539006084219 -0.44010250100644183 0 0.023714967739582489 -0.4565662814222432 0 -0.0013374034004768371 -0.44947558896604423 0 0.0068624944475057766 -0.47384814824846327 0 -0.0013374034004768371 -0.44947558896604423 0 0.023714967739582489 -0.4565662814222432 0 0.0068624944475057766 -0.47384814824846327 0 0.023714967739582489 -0.4565662814222432 0 0.0068624944475057766 -0.47384814824846327 0 0.032020960621095843 -0.47777188036233098 0 0.0068624944475057766 -0.47384814824846327 0 0.0150623922954884 -0.49822070753088238 0 0.032020960621095843 -0.47777188036233098 0 -0.015217900669161011 -0.5 0 0.0024053695883212941 -0.48891336768777249 0 0.013537008404702511 -0.5 0 0.0068624944475057766 -0.47384814824846327 0 0.0024053695883212941 -0.48891336768777249 0 0.0150623922954884 -0.49822070753088238 0 0.0068624944475057766 -0.47384814824846327 0 0.0150623922954884 -0.49822070753088238 0 0.0024053695883212941 -0.48891336768777249 0 0.0150623922954884 -0.49822070753088238 0 0.013537008404702511 -0.5 0 0.0150623922954884 -0.49822070753088238 0 0.013537008404702511 -0.5 0 0.042291917478565873 -0.5 0 0.0150623922954884 -0.49822070753088238 0 0.042291917478565873 -0.5 0 0.032020960621095843 -0.47777188036233098 0 0.042291917478565873 -0.5 0 0.032020960621095843 -0.47777188036233098 0 0.059434139084113012 -0.47963991399004141 0 0.047821451615799627 -0.45927982798007361 0 0.032020960621095843 -0.47777188036233098 0 0.059434139084113012 -0.47963991399004141 0 0.047821451615799627 -0.45927982798007361 0 0.05802097188470097 -0.46975988197928431 0 0.059434139084113012 -0.47963991399004141 0 0.047821451615799627 -0.45927982798007361 0 0.059434139084113012 -0.47963991399004141 0 0.071046826552429457 -0.50000000000000733 0 0.042291917478565873 -0.5 0 0.059434139084113012 -0.47963991399004141 0 0.078456545354339768 -0.28525100698693651 0 0.075192778843485145 -0.3004755496101415 0 0.095899689397586599 -0.3008291305439913 0 0.078456545354339768 -0.28525100698693651 0 0.095711127176573443 -0.2751242682777974 0 0.095899689397586599 -0.3008291305439913 0 0.075192778843485145 -0.3004755496101415 0 0.095899689397586599 -0.3008291305439913 0 0.074188022781041252 -0.31649930169162399 0 0.095899689397586599 -0.3008291305439913 0 0.074188022781041252 -0.31649930169162399 0 0.075192778843485145 -0.3004755496101415 0 0.074188022781041252 -0.31649930169162399 0 0.058270312985904418 -0.30816514798469019 0 0.075192778843485145 -0.3004755496101415 0 0.068995976747761104 -0.2945131319279734 0 0.058270312985904418 -0.30816514798469019 0 0.068995976747761104 -0.2945131319279734 0 0.064064269807315097 -0.28416082313012542 0 0.058270312985904418 -0.30816514798469019 0 0.078456545354339768 -0.28525100698693651 0 0.075192778843485145 -0.3004755496101415 0 0.068995976747761104 -0.2945131319279734 0 0.078456545354339768 -0.28525100698693651 0 0.068995976747761104 -0.2945131319279734 0 0.064064269807315097 -0.28416082313012542 0 0.064064269807315097 -0.28416082313012542 0 0.069858226628725775 -0.26015649827556059 0 0.078456545354339768 -0.28525100698693651 0 0.064064269807315097 -0.28416082313012542 0 0.069858226628725775 -0.26015649827556059 0 0.069858226628725775 -0.26015649827556059 0 0.095711127176573443 -0.2751242682777974 0 0.096521476943682558 -0.25181800011133371 0 0.078456545354339768 -0.28525100698693651 0 0.069858226628725775 -0.26015649827556059 0 0.095711127176573443 -0.2751242682777974 0 0.095711127176573443 -0.2751242682777974 0 0.114720785939063 -0.26575264298982931 0 0.1176113560141319 -0.2851589593963586 0 0.095711127176573443 -0.2751242682777974 0 0.096521476943682558 -0.25181800011133371 0 0.114720785939063 -0.26575264298982931 0 0.1376178273856396 -0.2676878026278281 0 0.114720785939063 -0.26575264298982931 0 0.1200034520355143 -0.24749468667538321 0 0.096521476943682558 -0.25181800011133371 0 0.114720785939063 -0.26575264298982931 0 0.1200034520355143 -0.24749468667538321 0 0.1376178273856396 -0.2676878026278281 0 0.114720785939063 -0.26575264298982931 0 0.1176113560141319 -0.2851589593963586 0 0.13584279120622419 -0.29064916595208462 0 0.1176113560141319 -0.2851589593963586 0 0.1212075847983899 -0.30357596212866123 0 0.1176113560141319 -0.2851589593963586 0 0.095899689397586599 -0.3008291305439913 0 0.1212075847983899 -0.30357596212866123 0 0.1176113560141319 -0.2851589593963586 0 0.095899689397586599 -0.3008291305439913 0 0.095711127176573443 -0.2751242682777974 0 0.1176113560141319 -0.2851589593963586 0 0.095899689397586599 -0.3008291305439913 0 0.095899689397586599 -0.3008291305439913 0 0.1212075847983899 -0.30357596212866123 0 0.1047724191350739 -0.31963875894108951 0 0.1212075847983899 -0.30357596212866123 0 0.1249111379911398 -0.32186001205002218 0 0.1047724191350739 -0.31963875894108951 0 0.1249111379911398 -0.32186001205002218 0 0.1047724191350739 -0.31963875894108951 0 0.11573058637367541 -0.34380091622275832 0 0.094619564876377599 -0.33586527524184762 0 0.1047724191350739 -0.31963875894108951 0 0.11573058637367541 -0.34380091622275832 0 0.094619564876377599 -0.33586527524184762 0 0.1047724191350739 -0.31963875894108951 0 0.086339338786571823 -0.32698567366184278 0 0.095899689397586599 -0.3008291305439913 0 0.1047724191350739 -0.31963875894108951 0 0.086339338786571823 -0.32698567366184278 0 0.1018679158255022 -0.38137383587803358 0 0.12334710111447229 -0.36406834251145731 0 0.1018679158255022 -0.38137383587803358 0 0.12334710111447229 -0.36406834251145731 0 0.10879209213087419 -0.36797725762153549 0 0.12334710111447229 -0.36406834251145731 0 0.11573058637367541 -0.34380091622275832 0 0.10879209213087419 -0.36797725762153549 0 0.11573058637367541 -0.34380091622275832 0 0.097402960874061584 -0.35810732382917831 0 0.10879209213087419 -0.36797725762153549 0 0.094619564876377599 -0.33586527524184762 0 0.11573058637367541 -0.34380091622275832 0 0.097402960874061584 -0.35810732382917831 0 0.094619564876377599 -0.33586527524184762 0 0.097402960874061584 -0.35810732382917831 0 0.1001863568717406 -0.38034937241650962 0 0.097402960874061584 -0.35810732382917831 0 0.1001863568717406 -0.38034937241650962 0 0.097402960874061584 -0.35810732382917831 0 0.10879209213087419 -0.36797725762153549 0 0.1001863568717406 -0.38034937241650962 0 0.097402960874061584 -0.35810732382917831 0 0.078941289569781151 -0.36740614783332631 0 0.1001863568717406 -0.38034937241650962 0 0.078941289569781151 -0.36740614783332631 0 0.094619564876377599 -0.33586527524184762 0 0.097402960874061584 -0.35810732382917831 0 0.084740357312199394 -0.34701535865000288 0 0.078941289569781151 -0.36740614783332631 0 0.084740357312199394 -0.34701535865000288 0 0.072564810466095128 -0.35396504242622201 0 0.097402960874061584 -0.35810732382917831 0 0.078941289569781151 -0.36740614783332631 0 0.084740357312199394 -0.34701535865000288 0 0.078941289569781151 -0.36740614783332631 0 0.072564810466095128 -0.35396504242622201 0 0.057696222267823373 -0.35446292325014028 0 0.084740357312199394 -0.34701535865000288 0 0.072564810466095128 -0.35396504242622201 0 0.073102422775426085 -0.33909783780230318 0 0.064643683218506637 -0.34920539315333932 0 0.072564810466095128 -0.35396504242622201 0 0.073102422775426085 -0.33909783780230318 0 0.064643683218506637 -0.34920539315333932 0 0.072564810466095128 -0.35396504242622201 0 0.057696222267823373 -0.35446292325014028 0 0.078941289569781151 -0.36740614783332631 0 0.057696222267823373 -0.35446292325014028 0 0.076461538166658155 -0.38231907318138902 0 0.078941289569781151 -0.36740614783332631 0 0.061904282875925747 -0.37237526148823941 0 0.078941289569781151 -0.36740614783332631 0 0.061904282875925747 -0.37237526148823941 0 0.057696222267823373 -0.35446292325014028 0 0.095899689397586599 -0.3008291305439913 0 0.086339338786571823 -0.32698567366184278 0 0.074188022781041252 -0.31649930169162399 0 0.094619564876377599 -0.33586527524184762 0 0.084740357312199394 -0.34701535865000288 0 0.086339338786571823 -0.32698567366184278 0 0.084740357312199394 -0.34701535865000288 0 0.086339338786571823 -0.32698567366184278 0 0.073102422775426085 -0.33909783780230318 0 0.073102422775426085 -0.33909783780230318 0 0.074188022781041252 -0.31649930169162399 0 0.052476356164494947 -0.33216947283925541 0 0.064643683218506637 -0.34920539315333932 0 0.073102422775426085 -0.33909783780230318 0 0.060945063747813971 -0.34285112352430303 0 0.074188022781041252 -0.31649930169162399 0 0.052476356164494947 -0.33216947283925541 0 0.086339338786571823 -0.32698567366184278 0 0.073102422775426085 -0.33909783780230318 0 0.074188022781041252 -0.31649930169162399 0 0.052476356164494947 -0.33216947283925541 0 0.058270312985904418 -0.30816514798469019 0 0.052476356164494947 -0.33216947283925541 0 0.044648526871603783 -0.31770081170742831 0 0.058270312985904418 -0.30816514798469019 0 0.074188022781041252 -0.31649930169162399 0 0.052476356164494947 -0.33216947283925541 0 0.058270312985904418 -0.30816514798469019 0 0.052476356164494947 -0.33216947283925541 0 0.047583047975914103 -0.35244241635483559 0 0.073102422775426085 -0.33909783780230318 0 0.060945063747813971 -0.34285112352430303 0 0.052476356164494947 -0.33216947283925541 0 0.060945063747813971 -0.34285112352430303 0 0.052476356164494947 -0.33216947283925541 0 0.054181307711507642 -0.34983992205818981 0 0.052476356164494947 -0.33216947283925541 0 0.04071506683574927 -0.34065806194451792 0 0.047583047975914103 -0.35244241635483559 0 0.052476356164494947 -0.33216947283925541 0 0.04071506683574927 -0.34065806194451792 0 0.044648526871603783 -0.31770081170742831 0 0.04071506683574927 -0.34065806194451792 0 0.03015636661650286 -0.3225410253719756 0 0.04071506683574927 -0.34065806194451792 0 0.03015636661650286 -0.3225410253719756 0 0.02636863849756152 -0.33688388254537838 0 0.052476356164494947 -0.33216947283925541 0 0.04071506683574927 -0.34065806194451792 0 0.04071506683574927 -0.34065806194451792 0 0.044648526871603783 -0.31770081170742831 0 0.03015636661650286 -0.3225410253719756 0 0.044648526871603783 -0.31770081170742831 0 0.03015636661650286 -0.3225410253719756 0 0.034491627806478041 -0.30853974567073322 0 0.061904282875925747 -0.37237526148823941 0 0.053259535722039633 -0.3641180164926533 0 0.057696222267823373 -0.35446292325014028 0 0.051370350477500881 -0.3764161884637201 0 0.053259535722039633 -0.3641180164926533 0 0.043663507306638913 -0.36868104746756258 0 0.051370350477500881 -0.3764161884637201 0 0.061904282875925747 -0.37237526148823941 0 0.053259535722039633 -0.3641180164926533 0 0.053259535722039633 -0.3641180164926533 0 0.048773826387857627 -0.3544856011778737 0 0.043663507306638913 -0.36868104746756258 0 0.052476356164494947 -0.33216947283925541 0 0.047583047975914103 -0.35244241635483559 0 0.054181307711507642 -0.34983992205818981 0 0.053259535722039633 -0.3641180164926533 0 0.053244657324237762 -0.3582642649149802 0 0.048773826387857627 -0.3544856011778737 0 0.053244657324237762 -0.3582642649149802 0 0.048773826387857627 -0.3544856011778737 0 0.054181307711507642 -0.34983992205818981 0 0.048773826387857627 -0.3544856011778737 0 0.047583047975914103 -0.35244241635483559 0 0.054181307711507642 -0.34983992205818981 0 0.048773826387857627 -0.3544856011778737 0 0.047583047975914103 -0.35244241635483559 0 0.053259535722039633 -0.3641180164926533 0 0.053244657324237762 -0.3582642649149802 0 0.057696222267823373 -0.35446292325014028 0 0.053244657324237762 -0.3582642649149802 0 0.057696222267823373 -0.35446292325014028 0 0.054181307711507642 -0.34983992205818981 0 0.064643683218506637 -0.34920539315333932 0 0.057696222267823373 -0.35446292325014028 0 0.054181307711507642 -0.34983992205818981 0 0.064643683218506637 -0.34920539315333932 0 0.060945063747813971 -0.34285112352430303 0 0.054181307711507642 -0.34983992205818981 0 0.048773826387857627 -0.3544856011778737 0 0.047583047975914103 -0.35244241635483559 0 0.043663507306638913 -0.36868104746756258 0 0.04071506683574927 -0.34065806194451792 0 0.047583047975914103 -0.35244241635483559 0 0.04071506683574927 -0.34065806194451792 0 0.047583047975914103 -0.35244241635483559 0 0.03985573710467899 -0.35136837444597901 0 0.04071506683574927 -0.34065806194451792 0 0.03985573710467899 -0.35136837444597901 0 0.03205896378917665 -0.35434441690964041 0 0.04071506683574927 -0.34065806194451792 0 0.03205896378917665 -0.35434441690964041 0 0.025431496553892478 -0.35168882095041942 0 0.04071506683574927 -0.34065806194451792 0 0.025431496553892478 -0.35168882095041942 0 0.03985573710467899 -0.35136837444597901 0 0.03205896378917665 -0.35434441690964041 0 0.039065869817875902 -0.35802860257492208 0 0.047583047975914103 -0.35244241635483559 0 0.03985573710467899 -0.35136837444597901 0 0.039065869817875902 -0.35802860257492208 0 0.02837172461734 -0.38295609391969199 0 0.033371525452051833 -0.36592480980272157 0 0.043663507306638913 -0.36868104746756258 0 0.047583047975914103 -0.35244241635483559 0 0.039065869817875902 -0.35802860257492208 0 0.043663507306638913 -0.36868104746756258 0 0.047583047975914103 -0.35244241635483559 0 0.043663507306638913 -0.36868104746756258 0 0.039065869817875902 -0.35802860257492208 0 0.033371525452051833 -0.36592480980272157 0 0.043663507306638913 -0.36868104746756258 0 0.03205896378917665 -0.35434441690964041 0 0.039065869817875902 -0.35802860257492208 0 0.033371525452051833 -0.36592480980272157 0 0.02837172461734 -0.38295609391969199 0 0.0099352179383349771 -0.36287309999936251 0 0.02837172461734 -0.38295609391969199 0 0.023697561729227701 -0.3656138881417908 0 0.0099352179383349771 -0.36287309999936251 0 0.02837172461734 -0.38295609391969199 0 0.033371525452051833 -0.36592480980272157 0 0.023697561729227701 -0.3656138881417908 0 0.02837172461734 -0.38295609391969199 0 0.0122991559467155 -0.37891225603134221 0 0.0099352179383349771 -0.36287309999936251 0 0.03205896378917665 -0.35434441690964041 0 0.033371525452051833 -0.36592480980272157 0 0.023697561729227701 -0.3656138881417908 0 0.023697561729227701 -0.3656138881417908 0 0.025431496553892478 -0.35168882095041942 0 0.0099352179383349771 -0.36287309999936251 0 0.025431496553892478 -0.35168882095041942 0 0.0075807645751098419 -0.34453611388615663 0 0.025431496553892478 -0.35168882095041942 0 0.0075807645751098419 -0.34453611388615663 0 0.02636863849756152 -0.33688388254537838 0 0.025431496553892478 -0.35168882095041942 0 0.0099352179383349771 -0.36287309999936251 0 0.03205896378917665 -0.35434441690964041 0 0.023697561729227701 -0.3656138881417908 0 0.025431496553892478 -0.35168882095041942 0 0.03205896378917665 -0.35434441690964041 0 0.025431496553892478 -0.35168882095041942 0 -0.0096343958099064687 -0.34155580596031437 0 0.0099352179383349771 -0.36287309999936251 0 -0.0096343958099064687 -0.34155580596031437 0 0.0075807645751098419 -0.34453611388615663 0 0.0099352179383349771 -0.36287309999936251 0 0.025431496553892478 -0.35168882095041942 0 0.0075807645751098419 -0.34453611388615663 0 0.0099352179383349771 -0.36287309999936251 0 -0.002178803782163227 -0.37161627006544062 0 0.0122991559467155 -0.37891225603134221 0 0.0099352179383349771 -0.36287309999936251 0 -0.0070150904897389628 -0.35875101633193152 0 -0.002178803782163227 -0.37161627006544062 0 0.0099352179383349771 -0.36287309999936251 0 -0.002178803782163227 -0.37161627006544062 0 0.0099352179383349771 -0.36287309999936251 0 0.03015636661650286 -0.3225410253719756 0 0.019597666397256509 -0.30442398879943339 0 0.03015636661650286 -0.3225410253719756 0 0.014793392922354411 -0.31628120652474823 0 0.019597666397256509 -0.30442398879943339 0 0.03015636661650286 -0.3225410253719756 0 0.01453256369494863 -0.32953892791496292 0 0.014793392922354411 -0.31628120652474823 0 0.03015636661650286 -0.3225410253719756 0 0.02636863849756152 -0.33688388254537838 0 0.01453256369494863 -0.32953892791496292 0 0.0075807645751098419 -0.34453611388615663 0 0.02636863849756152 -0.33688388254537838 0 0.01453256369494863 -0.32953892791496292 0 0.04071506683574927 -0.34065806194451792 0 0.025431496553892478 -0.35168882095041942 0 0.02636863849756152 -0.33688388254537838 0 0.0075807645751098419 -0.34453611388615663 0 0.01453256369494863 -0.32953892791496292 0 0.0034794820758208261 -0.33361449123698089 0 -0.010269967403673339 -0.33738340682189533 0 0.0075807645751098419 -0.34453611388615663 0 0.0034794820758208261 -0.33361449123698089 0 0.01453256369494863 -0.32953892791496292 0 0.0034794820758208261 -0.33361449123698089 0 0.001904989571353899 -0.32214434476741449 0 0.001904989571353899 -0.32214434476741449 0 0.014793392922354411 -0.31628120652474823 0 0.0019518825097332619 -0.30029273945570772 0 0.01453256369494863 -0.32953892791496292 0 0.001904989571353899 -0.32214434476741449 0 0.014793392922354411 -0.31628120652474823 0 0.0019518825097332619 -0.30029273945570772 0 0.0090389661780101715 -0.28630695222689118 0 0.019597666397256509 -0.30442398879943339 0 0.014793392922354411 -0.31628120652474823 0 0.0019518825097332619 -0.30029273945570772 0 0.019597666397256509 -0.30442398879943339 0 -0.0020851015340006161 -0.28052611142458661 0 0.0019518825097332619 -0.30029273945570772 0 0.0090389661780101715 -0.28630695222689118 0 0.0090389661780101715 -0.28630695222689118 0 0.019597666397256509 -0.30442398879943339 0 0.0090389661780101715 -0.28630695222689118 0 0.019597666397256509 -0.30442398879943339 0 0.033821918158706138 -0.27707393290215671 0 0.03015636661650286 -0.3225410253719756 0 0.019597666397256509 -0.30442398879943339 0 0.034491627806478041 -0.30853974567073322 0 0.019597666397256509 -0.30442398879943339 0 0.034491627806478041 -0.30853974567073322 0 0.043330632548044458 -0.29475484461045087 0 0.044648526871603783 -0.31770081170742831 0 0.034491627806478041 -0.30853974567073322 0 0.043330632548044458 -0.29475484461045087 0 0.019597666397256509 -0.30442398879943339 0 0.043330632548044458 -0.29475484461045087 0 0.033821918158706138 -0.27707393290215671 0 0.043330632548044458 -0.29475484461045087 0 0.062049371387241412 -0.28749956346879602 0 0.033821918158706138 -0.27707393290215671 0 0.064064269807315097 -0.28416082313012542 0 0.058270312985904418 -0.30816514798469019 0 0.062049371387241412 -0.28749956346879602 0 0.033821918158706138 -0.27707393290215671 0 0.064064269807315097 -0.28416082313012542 0 0.062049371387241412 -0.28749956346879602 0 0.058270312985904418 -0.30816514798469019 0 0.043330632548044458 -0.29475484461045087 0 0.062049371387241412 -0.28749956346879602 0 0.058270312985904418 -0.30816514798469019 0 0.044648526871603783 -0.31770081170742831 0 0.043330632548044458 -0.29475484461045087 0 0.058270312985904418 -0.30816514798469019 0 0.069858226628725775 -0.26015649827556059 0 0.051624075113339378 -0.26919050519125598 0 0.046498349670861652 -0.24826912251879649 0 0.064064269807315097 -0.28416082313012542 0 0.069858226628725775 -0.26015649827556059 0 0.051624075113339378 -0.26919050519125598 0 0.062049371387241412 -0.28749956346879602 0 0.051624075113339378 -0.26919050519125598 0 0.033821918158706138 -0.27707393290215671 0 0.064064269807315097 -0.28416082313012542 0 0.062049371387241412 -0.28749956346879602 0 0.051624075113339378 -0.26919050519125598 0 0.051624075113339378 -0.26919050519125598 0 0.033821918158706138 -0.27707393290215671 0 0.034240698289148337 -0.25967273023798509 0 0.051624075113339378 -0.26919050519125598 0 0.034240698289148337 -0.25967273023798509 0 0.046498349670861652 -0.24826912251879649 0 0.034240698289148337 -0.25967273023798509 0 0.02296875629887114 -0.2464092256209898 0 0.046498349670861652 -0.24826912251879649 0 0.034240698289148337 -0.25967273023798509 0 0.0055944649301708496 -0.26664830233551728 0 0.02296875629887114 -0.2464092256209898 0 0.0090389661780101715 -0.28630695222689118 0 0.033821918158706138 -0.27707393290215671 0 0.0055944649301708496 -0.26664830233551728 0 0.033821918158706138 -0.27707393290215671 0 0.034240698289148337 -0.25967273023798509 0 0.0055944649301708496 -0.26664830233551728 0 0.033821918158706138 -0.27707393290215671 0 0.0055944649301708496 -0.26664830233551728 0 -0.0020851015340006161 -0.28052611142458661 0 0.0090389661780101715 -0.28630695222689118 0 0.0055944649301708496 -0.26664830233551728 0 0.0055944649301708496 -0.26664830233551728 0 0.0055632338660241776 -0.24332209518663511 0 0.02296875629887114 -0.2464092256209898 0 -0.0080727856436109482 -0.2481099565327444 0 0.0055944649301708496 -0.26664830233551728 0 0.0055632338660241776 -0.24332209518663511 0 0.0055632338660241776 -0.24332209518663511 0 0.0032521440618358652 -0.23009641691855939 0 0.019268989126464159 -0.2308348024940351 0 -0.0084819670471955304 -0.2367225590632196 0 0.0055632338660241776 -0.24332209518663511 0 0.0032521440618358652 -0.23009641691855939 0 -0.0075276580997289226 -0.21896018305478171 0 0.0032521440618358652 -0.23009641691855939 0 0.012041166441398349 -0.21677938876306921 0 0.0032521440618358652 -0.23009641691855939 0 0.019268989126464159 -0.2308348024940351 0 0.012041166441398349 -0.21677938876306921 0 0.019268989126464159 -0.2308348024940351 0 0.028464877365028059 -0.21915571909051779 0 0.012041166441398349 -0.21677938876306921 0 0.019268989126464159 -0.2308348024940351 0 0.028464877365028059 -0.21915571909051779 0 0.041174919052571327 -0.22964645066930789 0 0.0055632338660241776 -0.24332209518663511 0 0.019268989126464159 -0.2308348024940351 0 0.02296875629887114 -0.2464092256209898 0 0.019268989126464159 -0.2308348024940351 0 0.02296875629887114 -0.2464092256209898 0 0.041174919052571327 -0.22964645066930789 0 -0.0075276580997289226 -0.21896018305478171 0 0.003555539334036632 -0.19934620758084881 0 0.012041166441398349 -0.21677938876306921 0 0.003555539334036632 -0.19934620758084881 0 0.012041166441398349 -0.21677938876306921 0 0.02523310686075431 -0.20228300343967229 0 0.028464877365028059 -0.21915571909051779 0 0.012041166441398349 -0.21677938876306921 0 0.02523310686075431 -0.20228300343967229 0 0.02523310686075431 -0.20228300343967229 0 0.033125333554059701 -0.1865598477748947 0 0.018588522793563201 -0.18166153924030251 0 0.003555539334036632 -0.19934620758084881 0 0.02523310686075431 -0.20228300343967229 0 0.018588522793563201 -0.18166153924030251 0 0.048648578511840943 -0.20623258170594561 0 0.049880579816306267 -0.17970719815632741 0 0.033125333554059701 -0.1865598477748947 0 0.02523310686075431 -0.20228300343967229 0 0.048648578511840943 -0.20623258170594561 0 0.033125333554059701 -0.1865598477748947 0 0.028464877365028059 -0.21915571909051779 0 0.02523310686075431 -0.20228300343967229 0 0.048648578511840943 -0.20623258170594561 0 0.028464877365028059 -0.21915571909051779 0 0.048648578511840943 -0.20623258170594561 0 0.041174919052571327 -0.22964645066930789 0 0.048648578511840943 -0.20623258170594561 0 0.059757914812518881 -0.22869522271940709 0 0.066598585428591164 -0.21133354617687591 0 0.048648578511840943 -0.20623258170594561 0 0.067160325985138131 -0.18691533881804831 0 0.049880579816306267 -0.17970719815632741 0 0.048648578511840943 -0.20623258170594561 0 0.066598585428591164 -0.21133354617687591 0 0.067160325985138131 -0.18691533881804831 0 0.069858226628725775 -0.26015649827556059 0 0.046498349670861652 -0.24826912251879649 0 0.059757914812518881 -0.22869522271940709 0 0.02296875629887114 -0.2464092256209898 0 0.046498349670861652 -0.24826912251879649 0 0.041174919052571327 -0.22964645066930789 0 0.048648578511840943 -0.20623258170594561 0 0.041174919052571327 -0.22964645066930789 0 0.059757914812518881 -0.22869522271940709 0 0.046498349670861652 -0.24826912251879649 0 0.041174919052571327 -0.22964645066930789 0 0.059757914812518881 -0.22869522271940709 0 0.069858226628725775 -0.26015649827556059 0 0.059757914812518881 -0.22869522271940709 0 0.080941623453078815 -0.2334444244951252 0 0.069858226628725775 -0.26015649827556059 0 0.096521476943682558 -0.25181800011133371 0 0.080941623453078815 -0.2334444244951252 0 0.096521476943682558 -0.25181800011133371 0 0.080941623453078815 -0.2334444244951252 0 0.102389076685389 -0.22730157072293841 0 0.080941623453078815 -0.2334444244951252 0 0.084774701335263575 -0.20710845477049339 0 0.102389076685389 -0.22730157072293841 0 0.059757914812518881 -0.22869522271940709 0 0.080941623453078815 -0.2334444244951252 0 0.066598585428591164 -0.21133354617687591 0 0.080941623453078815 -0.2334444244951252 0 0.066598585428591164 -0.21133354617687591 0 0.084774701335263575 -0.20710845477049339 0 0.084774701335263575 -0.20710845477049339 0 0.067160325985138131 -0.18691533881804831 0 0.066598585428591164 -0.21133354617687591 0 0.084774701335263575 -0.20710845477049339 0 0.067160325985138131 -0.18691533881804831 0 0.092537347032927528 -0.18889969997864839 0 0.084774701335263575 -0.20710845477049339 0 0.067160325985138131 -0.18691533881804831 0 0.084774701335263575 -0.20710845477049339 0 0.102389076685389 -0.22730157072293841 0 0.084774701335263575 -0.20710845477049339 0 0.10575093398731179 -0.20517541990618701 0 0.102389076685389 -0.22730157072293841 0 0.092537347032927528 -0.18889969997864839 0 0.10575093398731179 -0.20517541990618701 0 0.11404320040195411 -0.17785048998131209 0 0.092537347032927528 -0.18889969997864839 0 0.084774701335263575 -0.20710845477049339 0 0.10575093398731179 -0.20517541990618701 0 0.10575093398731179 -0.20517541990618701 0 0.11404320040195411 -0.17785048998131209 0 0.12592289232087811 -0.19910656028939411 0 0.10575093398731179 -0.20517541990618701 0 0.1284413173888232 -0.22347585252773641 0 0.12592289232087811 -0.19910656028939411 0 0.10575093398731179 -0.20517541990618701 0 0.102389076685389 -0.22730157072293841 0 0.1284413173888232 -0.22347585252773641 0 0.1200034520355143 -0.24749468667538321 0 0.102389076685389 -0.22730157072293841 0 0.1284413173888232 -0.22347585252773641 0 0.1200034520355143 -0.24749468667538321 0 0.102389076685389 -0.22730157072293841 0 0.096521476943682558 -0.25181800011133371 0 0.1200034520355143 -0.24749468667538321 0 0.102389076685389 -0.22730157072293841 0 0.099885875260422058 -0.15149088269105351 0 0.1161887790728692 -0.1476769396888597 0 0.1105045846919957 -0.16013033574144619 0 0.099885875260422058 -0.15149088269105351 0 0.099597293261818404 -0.1347502866929414 0 0.1161887790728692 -0.1476769396888597 0 0.099597293261818404 -0.1347502866929414 0 0.1161887790728692 -0.1476769396888597 0 0.099597293261818404 -0.1347502866929414 0 0.1047785765018954 -0.13712350701568179 0 0.1161887790728692 -0.1476769396888597 0 0.099597293261818404 -0.1347502866929414 0 0.093527805260815264 -0.13002146576964491 0 0.104312872852085 -0.12243825994362539 0 0.099597293261818404 -0.1347502866929414 0 0.093527805260815264 -0.13002146576964491 0 0.099597293261818404 -0.1347502866929414 0 0.093527805260815264 -0.13002146576964491 0 0.092996203934319052 -0.1329056080468716 0 0.099597293261818404 -0.1347502866929414 0 0.1088944047617572 -0.13480079442927331 0 0.104312872852085 -0.12243825994362539 0 0.099597293261818404 -0.1347502866929414 0 0.1047785765018954 -0.13712350701568179 0 0.1088944047617572 -0.13480079442927331 0 0.099597293261818404 -0.1347502866929414 0 0.1088944047617572 -0.13480079442927331 0 0.1047785765018954 -0.13712350701568179 0 0.1088944047617572 -0.13480079442927331 0 0.1088944047617572 -0.13480079442927331 0 0.1161887790728692 -0.1476769396888597 0 0.13638976604354719 -0.13495016646355951 0 0.1088944047617572 -0.13480079442927331 0 0.12800820934211829 -0.12401417466047961 0 0.13638976604354719 -0.13495016646355951 0 0.1047785765018954 -0.13712350701568179 0 0.1088944047617572 -0.13480079442927331 0 0.1161887790728692 -0.1476769396888597 0 0.1088944047617572 -0.13480079442927331 0 0.104312872852085 -0.12243825994362539 0 0.12800820934211829 -0.12401417466047961 0 0.1088944047617572 -0.13480079442927331 0 0.12800820934211829 -0.12401417466047961 0 0.1088944047617572 -0.13480079442927331 0 0.13638976604354719 -0.13495016646355951 0 0.1161887790728692 -0.1476769396888597 0 0.1105045846919957 -0.16013033574144619 0 0.1305387904294309 -0.15561497697083931 0 0.1105045846919957 -0.16013033574144619 0 0.11404320040195411 -0.17785048998131209 0 0.1305387904294309 -0.15561497697083931 0 0.092537347032927528 -0.18889969997864839 0 0.11404320040195411 -0.17785048998131209 0 0.090957573454969964 -0.1674487964172009 0 0.1105045846919957 -0.16013033574144619 0 0.11404320040195411 -0.17785048998131209 0 0.090957573454969964 -0.1674487964172009 0 0.099885875260422058 -0.15149088269105351 0 0.1105045846919957 -0.16013033574144619 0 0.090957573454969964 -0.1674487964172009 0 0.099885875260422058 -0.15149088269105351 0 0.090957573454969964 -0.1674487964172009 0 0.080257725164813276 -0.1505404030764457 0 0.090957573454969964 -0.1674487964172009 0 0.065342325237630991 -0.1650228072456788 0 0.080257725164813276 -0.1505404030764457 0 0.092537347032927528 -0.18889969997864839 0 0.090957573454969964 -0.1674487964172009 0 0.067160325985138131 -0.18691533881804831 0 0.090957573454969964 -0.1674487964172009 0 0.067160325985138131 -0.18691533881804831 0 0.065342325237630991 -0.1650228072456788 0 0.065342325237630991 -0.1650228072456788 0 0.080257725164813276 -0.1505404030764457 0 0.056224073158944461 -0.14994265306170279 0 0.080257725164813276 -0.1505404030764457 0 0.069539210615093855 -0.1345869923500955 0 0.056224073158944461 -0.14994265306170279 0 0.099885875260422058 -0.15149088269105351 0 0.099597293261818404 -0.1347502866929414 0 0.080257725164813276 -0.1505404030764457 0 0.099597293261818404 -0.1347502866929414 0 0.080257725164813276 -0.1505404030764457 0 0.069539210615093855 -0.1345869923500955 0 0.099597293261818404 -0.1347502866929414 0 0.092996203934319052 -0.1329056080468716 0 0.069539210615093855 -0.1345869923500955 0 0.099597293261818404 -0.1347502866929414 0 0.069539210615093855 -0.1345869923500955 0 0.092996203934319052 -0.1329056080468716 0 0.069539210615093855 -0.1345869923500955 0 0.079322302472514483 -0.11895376470488229 0 0.093527805260815264 -0.13002146576964491 0 0.092996203934319052 -0.1329056080468716 0 0.079322302472514483 -0.11895376470488229 0 0.093527805260815264 -0.13002146576964491 0 0.092996203934319052 -0.1329056080468716 0 0.069539210615093855 -0.1345869923500955 0 0.052298963826290519 -0.1211548808236817 0 0.066569319149528045 -0.1206454253796948 0 0.069539210615093855 -0.1345869923500955 0 0.039481127968369292 -0.1344236980072451 0 0.052298963826290519 -0.1211548808236817 0 0.069539210615093855 -0.1345869923500955 0 0.056224073158944461 -0.14994265306170279 0 0.039481127968369292 -0.1344236980072451 0 0.069539210615093855 -0.1345869923500955 0 0.039481127968369292 -0.1344236980072451 0 0.056224073158944461 -0.14994265306170279 0 0.038811693183881758 -0.15444647348478721 0 0.047368807546727579 -0.16279517251764489 0 0.056224073158944461 -0.14994265306170279 0 0.038811693183881758 -0.15444647348478721 0 0.039481127968369292 -0.1344236980072451 0 0.038811693183881758 -0.15444647348478721 0 0.039481127968369292 -0.1344236980072451 0 0.019056913867763529 -0.155566515408149 0 0.034777770017858589 -0.1343981464191871 0 0.039481127968369292 -0.1344236980072451 0 0.022320289212787989 -0.1422177528203018 0 0.034777770017858589 -0.1343981464191871 0 0.039481127968369292 -0.1344236980072451 0 0.034777770017858589 -0.1343981464191871 0 0.029299678594365521 -0.12697140115214181 0 0.037800108132664212 -0.12348471533883321 0 0.034777770017858589 -0.1343981464191871 0 0.039481127968369292 -0.1344236980072451 0 0.037800108132664212 -0.12348471533883321 0 0.039481127968369292 -0.1344236980072451 0 0.052298963826290519 -0.1211548808236817 0 0.039481127968369292 -0.1344236980072451 0 0.052298963826290519 -0.1211548808236817 0 0.037800108132664212 -0.12348471533883321 0 0.067160325985138131 -0.18691533881804831 0 0.065342325237630991 -0.1650228072456788 0 0.049880579816306267 -0.17970719815632741 0 0.065342325237630991 -0.1650228072456788 0 0.049880579816306267 -0.17970719815632741 0 0.047368807546727579 -0.16279517251764489 0 0.065342325237630991 -0.1650228072456788 0 0.056224073158944461 -0.14994265306170279 0 0.047368807546727579 -0.16279517251764489 0 0.049880579816306267 -0.17970719815632741 0 0.047368807546727579 -0.16279517251764489 0 0.031927543377605602 -0.16950432842919569 0 0.038811693183881758 -0.15444647348478721 0 0.047368807546727579 -0.16279517251764489 0 0.031927543377605602 -0.16950432842919569 0 0.049880579816306267 -0.17970719815632741 0 0.031927543377605602 -0.16950432842919569 0 0.033125333554059701 -0.1865598477748947 0 0.031927543377605602 -0.16950432842919569 0 0.033125333554059701 -0.1865598477748947 0 0.018588522793563201 -0.18166153924030251 0 0.031927543377605602 -0.16950432842919569 0 0.018588522793563201 -0.18166153924030251 0 0.019056913867763529 -0.155566515408149 0 0.038811693183881758 -0.15444647348478721 0 0.031927543377605602 -0.16950432842919569 0 0.019056913867763529 -0.155566515408149 0 -0.0013673002328405961 -0.1767093328090546 0 0.018588522793563201 -0.18166153924030251 0 0.019056913867763529 -0.155566515408149 0 -0.0013673002328405961 -0.1767093328090546 0 0.019056913867763529 -0.155566515408149 0 -0.0013673002328405961 -0.1767093328090546 0 0.019056913867763529 -0.155566515408149 0 0.0027310736070901482 -0.15493719994590471 0 -0.0013673002328405961 -0.1767093328090546 0 0.003555539334036632 -0.19934620758084881 0 0.018588522793563201 -0.18166153924030251 0 0.020222670022858619 -0.12863691797839069 0 0.022320289212787989 -0.1422177528203018 0 0.0088678229424013627 -0.13941235935176011 0 0.020222670022858619 -0.12863691797839069 0 0.02665510196196769 -0.1330560545925053 0 0.022320289212787989 -0.1422177528203018 0 0.034777770017858589 -0.1343981464191871 0 0.029299678594365521 -0.12697140115214181 0 0.02665510196196769 -0.1330560545925053 0 0.020222670022858619 -0.12863691797839069 0 0.029299678594365521 -0.12697140115214181 0 0.02665510196196769 -0.1330560545925053 0 0.034777770017858589 -0.1343981464191871 0 0.02665510196196769 -0.1330560545925053 0 0.022320289212787989 -0.1422177528203018 0 0.039481127968369292 -0.1344236980072451 0 0.019056913867763529 -0.155566515408149 0 0.019056913867763529 -0.155566515408149 0 0.022320289212787989 -0.1422177528203018 0 0.0088678229424013627 -0.13941235935176011 0 0.039481127968369292 -0.1344236980072451 0 0.019056913867763529 -0.155566515408149 0 0.022320289212787989 -0.1422177528203018 0 0.019056913867763529 -0.155566515408149 0 0.0027310736070901482 -0.15493719994590471 0 0.0088678229424013627 -0.13941235935176011 0 0.020222670022858619 -0.12863691797839069 0 0.0088678229424013627 -0.13941235935176011 0 0.0015243557028834459 -0.11711868301268021 0 0.020222670022858619 -0.12863691797839069 0 0.0015243557028834459 -0.11711868301268021 0 0.0144479962461943 -0.1082343501681014 0 0.020222670022858619 -0.12863691797839069 0 0.02728947708542654 -0.1146689930447462 0 0.0144479962461943 -0.1082343501681014 0 0.020222670022858619 -0.12863691797839069 0 0.029299678594365521 -0.12697140115214181 0 0.02728947708542654 -0.1146689930447462 0 0.0144479962461943 -0.1082343501681014 0 0.01674231050701382 -0.093658367309864349 0 0.03170108987002046 -0.10050694789866579 0 0.02728947708542654 -0.1146689930447462 0 0.0144479962461943 -0.1082343501681014 0 0.03170108987002046 -0.10050694789866579 0 0.01674231050701382 -0.093658367309864349 0 0.02745527456064175 -0.089089442263575569 0 0.03170108987002046 -0.10050694789866579 0 0.0144479962461943 -0.1082343501681014 0 0.001856719827670471 -0.098182337095309047 0 0.01674231050701382 -0.093658367309864349 0 0.0015243557028834459 -0.11711868301268021 0 0.0144479962461943 -0.1082343501681014 0 0.001856719827670471 -0.098182337095309047 0 0.001856719827670471 -0.098182337095309047 0 0.0065051428120863272 -0.082127796022149757 0 0.01674231050701382 -0.093658367309864349 0 0.0065051428120863272 -0.082127796022149757 0 0.018539693253586439 -0.071597204448153262 0 0.01731060528333208 -0.084118202510935727 0 0.0065051428120863272 -0.082127796022149757 0 0.01674231050701382 -0.093658367309864349 0 0.01731060528333208 -0.084118202510935727 0 0.0065051428120863272 -0.082127796022149757 0 0.018539693253586439 -0.071597204448153262 0 0.00035237720396625368 -0.061086817302918282 0 0.018539693253586439 -0.071597204448153262 0 0.00035237720396625368 -0.061086817302918282 0 0.029337839486141829 -0.062098975348790997 0 0.018539693253586439 -0.071597204448153262 0 0.036998616429076953 -0.080413518666692163 0 0.029337839486141829 -0.062098975348790997 0 0.018539693253586439 -0.071597204448153262 0 0.039278739387756327 -0.087755278287702396 0 0.018539693253586439 -0.071597204448153262 0 0.02745527456064175 -0.089089442263575569 0 0.039278739387756327 -0.087755278287702396 0 0.018539693253586439 -0.071597204448153262 0 0.01731060528333208 -0.084118202510935727 0 0.02745527456064175 -0.089089442263575569 0 0.01674231050701382 -0.093658367309864349 0 0.01731060528333208 -0.084118202510935727 0 0.02745527456064175 -0.089089442263575569 0 0.018539693253586439 -0.071597204448153262 0 0.036998616429076953 -0.080413518666692163 0 0.039278739387756327 -0.087755278287702396 0 0.02745527456064175 -0.089089442263575569 0 0.039278739387756327 -0.087755278287702396 0 0.036114206476440321 -0.094502097047588079 0 0.036998616429076953 -0.080413518666692163 0 0.039278739387756327 -0.087755278287702396 0 0.050747139898636717 -0.081209848062237813 0 0.058323301768317432 -0.063111133394663815 0 0.029337839486141829 -0.062098975348790997 0 0.036998616429076953 -0.080413518666692163 0 0.058323301768317432 -0.063111133394663815 0 0.029337839486141829 -0.062098975348790997 0 0.036998616429076953 -0.080413518666692163 0 0.058323301768317432 -0.063111133394663815 0 0.058323301768317432 -0.063111133394663815 0 0.050747139898636717 -0.081209848062237813 0 0.060228637404373828 -0.081759239016750626 0 0.036998616429076953 -0.080413518666692163 0 0.058323301768317432 -0.063111133394663815 0 0.050747139898636717 -0.081209848062237813 0 0.039278739387756327 -0.087755278287702396 0 0.050747139898636717 -0.081209848062237813 0 0.060818353003097771 -0.090653503469919336 0 0.050747139898636717 -0.081209848062237813 0 0.060228637404373828 -0.081759239016750626 0 0.060818353003097771 -0.090653503469919336 0 0.060017785521926562 -0.10391335212725129 0 0.042153090511964017 -0.099193769589441219 0 0.043653631303676513 -0.1092911725859987 0 0.060017785521926562 -0.10391335212725129 0 0.043653631303676513 -0.1092911725859987 0 0.039278739387756327 -0.087755278287702396 0 0.060818353003097771 -0.090653503469919336 0 0.060017785521926562 -0.10391335212725129 0 0.060017785521926562 -0.10391335212725129 0 0.053375718786791107 -0.1112883554404277 0 0.043653631303676513 -0.1092911725859987 0 0.039278739387756327 -0.087755278287702396 0 0.060017785521926562 -0.10391335212725129 0 0.039278739387756327 -0.087755278287702396 0 0.060017785521926562 -0.10391335212725129 0 0.042153090511964017 -0.099193769589441219 0 0.060017785521926562 -0.10391335212725129 0 0.053375718786791107 -0.1112883554404277 0 0.065116799684213397 -0.10788606364011991 0 0.052298963826290519 -0.1211548808236817 0 0.066569319149528045 -0.1206454253796948 0 0.065116799684213397 -0.10788606364011991 0 0.052298963826290519 -0.1211548808236817 0 0.065116799684213397 -0.10788606364011991 0 0.052298963826290519 -0.1211548808236817 0 0.053375718786791107 -0.1112883554404277 0 0.065116799684213397 -0.10788606364011991 0 0.052298963826290519 -0.1211548808236817 0 0.053375718786791107 -0.1112883554404277 0 0.043653631303676513 -0.1092911725859987 0 0.02728947708542654 -0.1146689930447462 0 0.037800108132664212 -0.12348471533883321 0 0.043653631303676513 -0.1092911725859987 0 0.02728947708542654 -0.1146689930447462 0 0.043653631303676513 -0.1092911725859987 0 0.052298963826290519 -0.1211548808236817 0 0.037800108132664212 -0.12348471533883321 0 0.043653631303676513 -0.1092911725859987 0 0.029299678594365521 -0.12697140115214181 0 0.02728947708542654 -0.1146689930447462 0 0.037800108132664212 -0.12348471533883321 0 0.02728947708542654 -0.1146689930447462 0 0.03170108987002046 -0.10050694789866579 0 0.043653631303676513 -0.1092911725859987 0 0.036114206476440321 -0.094502097047588079 0 0.03170108987002046 -0.10050694789866579 0 0.042153090511964017 -0.099193769589441219 0 0.02745527456064175 -0.089089442263575569 0 0.036114206476440321 -0.094502097047588079 0 0.03170108987002046 -0.10050694789866579 0 0.039278739387756327 -0.087755278287702396 0 0.036114206476440321 -0.094502097047588079 0 0.042153090511964017 -0.099193769589441219 0 0.03170108987002046 -0.10050694789866579 0 0.042153090511964017 -0.099193769589441219 0 0.043653631303676513 -0.1092911725859987 0 0.025695344612614111 0.0095801541182225364 0 0.02812452509478746 -0.0099579005571815878 0 0.006935528729737548 -0.0054826371559186567 0 0.02812452509478746 -0.0099579005571815878 0 0.006935528729737548 -0.0054826371559186567 0 0.01889941714368459 -0.025130787452367569 0 0.006935528729737548 -0.0054826371559186567 0 0.0027408304473846411 -0.028176541972939319 0 0.01889941714368459 -0.025130787452367569 0 0.02812452509478746 -0.0099579005571815878 0 0.01889941714368459 -0.025130787452367569 0 0.035567370731091272 -0.02454493013615917 0 0.01889941714368459 -0.025130787452367569 0 0.02846567832778216 -0.042756626880165419 0 0.035567370731091272 -0.02454493013615917 0 0.01889941714368459 -0.025130787452367569 0 0.02846567832778216 -0.042756626880165419 0 0.0096258971738255473 -0.043108802377643002 0 0.02846567832778216 -0.042756626880165419 0 0.0096258971738255473 -0.043108802377643002 0 0.016945448047928951 -0.052262805477379423 0 0.01889941714368459 -0.025130787452367569 0 0.0096258971738255473 -0.043108802377643002 0 -0.01026660782967455 -0.041229232136501717 0 0.0027408304473846411 -0.028176541972939319 0 0.0096258971738255473 -0.043108802377643002 0 0.0027408304473846411 -0.028176541972939319 0 0.01889941714368459 -0.025130787452367569 0 0.0096258971738255473 -0.043108802377643002 0 0.0096258971738255473 -0.043108802377643002 0 0.00035237720396625368 -0.061086817302918282 0 0.016945448047928951 -0.052262805477379423 0 0.00035237720396625368 -0.061086817302918282 0 0.016945448047928951 -0.052262805477379423 0 0.029337839486141829 -0.062098975348790997 0 0.0096258971738255473 -0.043108802377643002 0 0.00035237720396625368 -0.061086817302918282 0 0.00035237720396625368 -0.061086817302918282 0 0.029337839486141829 -0.062098975348790997 0 0.02846567832778216 -0.042756626880165419 0 0.016945448047928951 -0.052262805477379423 0 0.029337839486141829 -0.062098975348790997 0 0.02846567832778216 -0.042756626880165419 0 0.029337839486141829 -0.062098975348790997 0 0.044041605111135473 -0.049431168693685697 0 0.058323301768317432 -0.063111133394663815 0 0.029337839486141829 -0.062098975348790997 0 0.044041605111135473 -0.049431168693685697 0 0.058323301768317432 -0.063111133394663815 0 0.044041605111135473 -0.049431168693685697 0 0.059903341899081253 -0.040049795258846832 0 0.059903341899081253 -0.040049795258846832 0 0.045154502468205723 -0.035444412579530127 0 0.052999286202529479 -0.022291816621987929 0 0.044041605111135473 -0.049431168693685697 0 0.059903341899081253 -0.040049795258846832 0 0.045154502468205723 -0.035444412579530127 0 0.02846567832778216 -0.042756626880165419 0 0.044041605111135473 -0.049431168693685697 0 0.045154502468205723 -0.035444412579530127 0 0.02846567832778216 -0.042756626880165419 0 0.045154502468205723 -0.035444412579530127 0 0.035567370731091272 -0.02454493013615917 0 0.045154502468205723 -0.035444412579530127 0 0.035567370731091272 -0.02454493013615917 0 0.052999286202529479 -0.022291816621987929 0 0.035567370731091272 -0.02454493013615917 0 0.052999286202529479 -0.022291816621987929 0 0.04138045704507981 -0.013293391242584921 0 0.02812452509478746 -0.0099579005571815878 0 0.035567370731091272 -0.02454493013615917 0 0.04138045704507981 -0.013293391242584921 0 0.059903341899081253 -0.040049795258846832 0 0.052999286202529479 -0.022291816621987929 0 0.073093181043766914 -0.026775388104941698 0 0.052999286202529479 -0.022291816621987929 0 0.049896637954744763 -0.0073960790217490677 0 0.04138045704507981 -0.013293391242584921 0 0.052999286202529479 -0.022291816621987929 0 0.049896637954744763 -0.0073960790217490677 0 0.066530330394949447 -0.012320269852860621 0 0.049896637954744763 -0.0073960790217490677 0 0.040314465242246092 -0.002276229875846851 0 0.04138045704507981 -0.013293391242584921 0 0.025695344612614111 0.0095801541182225364 0 0.02812452509478746 -0.0099579005571815878 0 0.040314465242246092 -0.002276229875846851 0 0.046640351189982193 0.001482106492276504 0 0.049896637954744763 -0.0073960790217490677 0 0.040314465242246092 -0.002276229875846851 0 0.02812452509478746 -0.0099579005571815878 0 0.040314465242246092 -0.002276229875846851 0 0.04138045704507981 -0.013293391242584921 0 0.075461568133428525 0.0044331687040122013 0 0.081703970602104437 -0.011974759962048749 0 0.098011391193308373 -0.0056982583262641584 0 0.075461568133428525 0.0044331687040122013 0 0.049896637954744763 -0.0073960790217490677 0 0.075461568133428525 0.0044331687040122013 0 0.049896637954744763 -0.0073960790217490677 0 0.066530330394949447 -0.012320269852860621 0 0.075461568133428525 0.0044331687040122013 0 0.081703970602104437 -0.011974759962048749 0 0.066530330394949447 -0.012320269852860621 0 0.081703970602104437 -0.011974759962048749 0 0.066530330394949447 -0.012320269852860621 0 0.073093181043766914 -0.026775388104941698 0 0.052999286202529479 -0.022291816621987929 0 0.066530330394949447 -0.012320269852860621 0 0.073093181043766914 -0.026775388104941698 0 0.081703970602104437 -0.011974759962048749 0 0.097837743661838034 -0.031049975793767819 0 0.098011391193308373 -0.0056982583262641584 0 0.081703970602104437 -0.011974759962048749 0 0.073093181043766914 -0.026775388104941698 0 0.097837743661838034 -0.031049975793767819 0 0.078080522715077566 -0.047080554594215653 0 0.097861902682226248 -0.045151270938537998 0 0.097837743661838034 -0.031049975793767819 0 0.073093181043766914 -0.026775388104941698 0 0.078080522715077566 -0.047080554594215653 0 0.097837743661838034 -0.031049975793767819 0 0.078080522715077566 -0.047080554594215653 0 0.097837743661838034 -0.031049975793767819 0 0.059903341899081253 -0.040049795258846832 0 0.073093181043766914 -0.026775388104941698 0 0.078080522715077566 -0.047080554594215653 0 0.058323301768317432 -0.063111133394663815 0 0.078080522715077566 -0.047080554594215653 0 0.058323301768317432 -0.063111133394663815 0 0.059903341899081253 -0.040049795258846832 0 0.078080522715077566 -0.047080554594215653 0 0.058323301768317432 -0.063111133394663815 0 0.078080522715077566 -0.047080554594215653 0 0.081939961595450139 -0.063935815506958552 0 0.078080522715077566 -0.047080554594215653 0 0.094142039140793971 -0.055881476276546937 0 0.081939961595450139 -0.063935815506958552 0 0.078080522715077566 -0.047080554594215653 0 0.094142039140793971 -0.055881476276546937 0 0.097861902682226248 -0.045151270938537998 0 0.094142039140793971 -0.055881476276546937 0 0.081939961595450139 -0.063935815506958552 0 0.1067368008806147 -0.064801708903802782 0 0.094142039140793971 -0.055881476276546937 0 0.1075629424949773 -0.053875431803618333 0 0.097861902682226248 -0.045151270938537998 0 0.094142039140793971 -0.055881476276546937 0 0.1075629424949773 -0.053875431803618333 0 0.1067368008806147 -0.064801708903802782 0 0.1075629424949773 -0.053875431803618333 0 0.1067368008806147 -0.064801708903802782 0 0.1075629424949773 -0.053875431803618333 0 0.1232921759667842 -0.047663851323270827 0 0.1067368008806147 -0.064801708903802782 0 0.1232921759667842 -0.047663851323270827 0 0.1067368008806147 -0.064801708903802782 0 0.1075629424949773 -0.053875431803618333 0 0.1232921759667842 -0.047663851323270827 0 0.1109518143893137 -0.039435966374661548 0 0.1232921759667842 -0.047663851323270827 0 0.1067368008806147 -0.064801708903802782 0 0.13548767730717889 -0.06580567532731052 0 0.1232921759667842 -0.047663851323270827 0 0.1109518143893137 -0.039435966374661548 0 0.124582941869709 -0.030507807285028901 0 0.1109518143893137 -0.039435966374661548 0 0.097861902682226248 -0.045151270938537998 0 0.097837743661838034 -0.031049975793767819 0 0.1075629424949773 -0.053875431803618333 0 0.1109518143893137 -0.039435966374661548 0 0.097861902682226248 -0.045151270938537998 0 0.097837743661838034 -0.031049975793767819 0 0.1175949646085984 -0.015019396993320021 0 0.097837743661838034 -0.031049975793767819 0 0.1175949646085984 -0.015019396993320021 0 0.098011391193308373 -0.0056982583262641584 0 0.1109518143893137 -0.039435966374661548 0 0.097837743661838034 -0.031049975793767819 0 0.1175949646085984 -0.015019396993320021 0 0.1109518143893137 -0.039435966374661548 0 0.124582941869709 -0.030507807285028901 0 0.1175949646085984 -0.015019396993320021 0 0.124582941869709 -0.030507807285028901 0 0.1175949646085984 -0.015019396993320021 0 0.13165260102391191 -0.019660205177744808 0 0.11882011836095251 0.0065886106746579649 0 0.1175949646085984 -0.015019396993320021 0 0.098011391193308373 -0.0056982583262641584 0 0.11882011836095251 0.0065886106746579649 0 0.13735218555535891 0.001011181807127467 0 0.1175949646085984 -0.015019396993320021 0 0.073111172643960082 -0.099610417542301155 0 0.10058413041743761 -0.090581864498492995 0 0.088608598291174498 -0.101420796185217 0 0.073111172643960082 -0.099610417542301155 0 0.10058413041743761 -0.090581864498492995 0 0.083297568291202648 -0.10670285905343881 0 0.088608598291174498 -0.101420796185217 0 0.073111172643960082 -0.099610417542301155 0 0.083297568291202648 -0.10670285905343881 0 0.088608598291174498 -0.101420796185217 0 0.097441521812097198 -0.10878804364663471 0 0.093527805260815264 -0.13002146576964491 0 0.079322302472514483 -0.11895376470488229 0 0.097441521812097198 -0.10878804364663471 0 0.083297568291202648 -0.10670285905343881 0 0.079322302472514483 -0.11895376470488229 0 0.097441521812097198 -0.10878804364663471 0 0.093527805260815264 -0.13002146576964491 0 0.079322302472514483 -0.11895376470488229 0 0.079322302472514483 -0.11895376470488229 0 0.065116799684213397 -0.10788606364011991 0 0.083297568291202648 -0.10670285905343881 0 0.079322302472514483 -0.11895376470488229 0 0.065116799684213397 -0.10788606364011991 0 0.079322302472514483 -0.11895376470488229 0 0.066569319149528045 -0.1206454253796948 0 0.065116799684213397 -0.10788606364011991 0 0.069539210615093855 -0.1345869923500955 0 0.079322302472514483 -0.11895376470488229 0 0.066569319149528045 -0.1206454253796948 0 0.060017785521926562 -0.10391335212725129 0 0.065116799684213397 -0.10788606364011991 0 0.060017785521926562 -0.10391335212725129 0 0.073111172643960082 -0.099610417542301155 0 0.065116799684213397 -0.10788606364011991 0 0.073111172643960082 -0.099610417542301155 0 0.083297568291202648 -0.10670285905343881 0 0.065116799684213397 -0.10788606364011991 0 0.073111172643960082 -0.099610417542301155 0 0.060017785521926562 -0.10391335212725129 0 0.065116799684213397 -0.10788606364011991 0 0.073111172643960082 -0.099610417542301155 0 0.060818353003097771 -0.090653503469919336 0 0.060017785521926562 -0.10391335212725129 0 0.073111172643960082 -0.099610417542301155 0 0.060818353003097771 -0.090653503469919336 0 0.073111172643960082 -0.099610417542301155 0 0.074211161232423301 -0.082716200610011378 0 0.060228637404373828 -0.081759239016750626 0 0.060818353003097771 -0.090653503469919336 0 0.074211161232423301 -0.082716200610011378 0 0.058323301768317432 -0.063111133394663815 0 0.081939961595450139 -0.063935815506958552 0 0.058323301768317432 -0.063111133394663815 0 0.074211161232423301 -0.082716200610011378 0 0.081939961595450139 -0.063935815506958552 0 0.058323301768317432 -0.063111133394663815 0 0.060228637404373828 -0.081759239016750626 0 0.074211161232423301 -0.082716200610011378 0 0.074211161232423301 -0.082716200610011378 0 0.081939961595450139 -0.063935815506958552 0 0.089190063779311518 -0.082965808471458069 0 0.081939961595450139 -0.063935815506958552 0 0.089190063779311518 -0.082965808471458069 0 0.1052689549146623 -0.0663211994006144 0 0.073111172643960082 -0.099610417542301155 0 0.074211161232423301 -0.082716200610011378 0 0.089190063779311518 -0.082965808471458069 0 0.073111172643960082 -0.099610417542301155 0 0.089190063779311518 -0.082965808471458069 0 0.073111172643960082 -0.099610417542301155 0 0.089190063779311518 -0.082965808471458069 0 0.10058413041743761 -0.090581864498492995 0 0.089190063779311518 -0.082965808471458069 0 0.1017080788123951 -0.087804556385465471 0 0.1052689549146623 -0.0663211994006144 0 0.089190063779311518 -0.082965808471458069 0 0.10058413041743761 -0.090581864498492995 0 0.1017080788123951 -0.087804556385465471 0 0.1017080788123951 -0.087804556385465471 0 0.1084674426683357 -0.077888137089068013 0 0.1052689549146623 -0.0663211994006144 0 0.089190063779311518 -0.082965808471458069 0 0.1052689549146623 -0.0663211994006144 0 0.081939961595450139 -0.063935815506958552 0 0.1067368008806147 -0.064801708903802782 0 0.1052689549146623 -0.0663211994006144 0 0.081939961595450139 -0.063935815506958552 0 0.1067368008806147 -0.064801708903802782 0 0.1017080788123951 -0.087804556385465471 0 0.1052689549146623 -0.0663211994006144 0 0.1084674426683357 -0.077888137089068013 0 0.1067368008806147 -0.064801708903802782 0 0.1052689549146623 -0.0663211994006144 0 0.1067368008806147 -0.064801708903802782 0 0.1052689549146623 -0.0663211994006144 0 0.1067368008806147 -0.064801708903802782 0 0.13548767730717889 -0.06580567532731052 0 0.1084674426683357 -0.077888137089068013 0 0.1067368008806147 -0.064801708903802782 0 0.1232061248222129 -0.075206297362028066 0 0.1067368008806147 -0.064801708903802782 0 0.1232061248222129 -0.075206297362028066 0 0.13548767730717889 -0.06580567532731052 0 0.1017080788123951 -0.087804556385465471 0 0.1084674426683357 -0.077888137089068013 0 0.1272797878356694 -0.088593758706814907 0 0.1017080788123951 -0.087804556385465471 0 0.1272797878356694 -0.088593758706814907 0 0.1084674426683357 -0.077888137089068013 0 0.1232061248222129 -0.075206297362028066 0 0.1272797878356694 -0.088593758706814907 0 0.1017080788123951 -0.087804556385465471 0 0.11567178204704499 -0.10568275569041199 0 0.1272797878356694 -0.088593758706814907 0 0.1017080788123951 -0.087804556385465471 0 0.11567178204704499 -0.10568275569041199 0 0.097441521812097198 -0.10878804364663471 0 0.1017080788123951 -0.087804556385465471 0 0.097441521812097198 -0.10878804364663471 0 0.088608598291174498 -0.101420796185217 0 0.10058413041743761 -0.090581864498492995 0 0.097441521812097198 -0.10878804364663471 0 0.10058413041743761 -0.090581864498492995 0 0.1017080788123951 -0.087804556385465471 0 0.097441521812097198 -0.10878804364663471 0 0.093527805260815264 -0.13002146576964491 0 0.097441521812097198 -0.10878804364663471 0 0.104312872852085 -0.12243825994362539 0 0.093527805260815264 -0.13002146576964491 0 0.097441521812097198 -0.10878804364663471 0 0.11567178204704499 -0.10568275569041199 0 0.097441521812097198 -0.10878804364663471 0 0.104312872852085 -0.12243825994362539 0 0.11567178204704499 -0.10568275569041199 0 0.104312872852085 -0.12243825994362539 0 0.12800820934211829 -0.12401417466047961 0 0.12800820934211829 -0.12401417466047961 0 0.14712201392247631 -0.1132275548916801 0 0.13655559816636781 -0.1031347463460832 0 0.12800820934211829 -0.12401417466047961 0 0.14712201392247631 -0.1132275548916801 0 0.11567178204704499 -0.10568275569041199 0 0.12800820934211829 -0.12401417466047961 0 0.13655559816636781 -0.1031347463460832 0 0.12800820934211829 -0.12401417466047961 0 0.14712201392247631 -0.1132275548916801 0 0.1486045981545247 -0.12747252536747111 0 0.14712201392247631 -0.1132275548916801 0 0.16095359288685571 -0.1184472051676727 0 0.1486045981545247 -0.12747252536747111 0 0.15146120268426411 -0.099532086410862586 0 0.13655559816636781 -0.1031347463460832 0 0.1528514968589437 -0.089382961028164357 0 0.14712201392247631 -0.1132275548916801 0 0.15146120268426411 -0.099532086410862586 0 0.16623581850283431 -0.10244093512288061 0 0.14712201392247631 -0.1132275548916801 0 0.15146120268426411 -0.099532086410862586 0 0.13655559816636781 -0.1031347463460832 0 0.11567178204704499 -0.10568275569041199 0 0.13655559816636781 -0.1031347463460832 0 0.1272797878356694 -0.088593758706814907 0 0.1272797878356694 -0.088593758706814907 0 0.13805891541926751 -0.078942206783145619 0 0.1528514968589437 -0.089382961028164357 0 0.1272797878356694 -0.088593758706814907 0 0.1528514968589437 -0.089382961028164357 0 0.13655559816636781 -0.1031347463460832 0 0.1272797878356694 -0.088593758706814907 0 0.1528514968589437 -0.089382961028164357 0 0.1232061248222129 -0.075206297362028066 0 0.1272797878356694 -0.088593758706814907 0 0.13805891541926751 -0.078942206783145619 0 0.1232061248222129 -0.075206297362028066 0 0.13805891541926751 -0.078942206783145619 0 0.13548767730717889 -0.06580567532731052 0 0.13548767730717889 -0.06580567532731052 0 0.16423855373374319 -0.066809641750814969 0 0.13548767730717889 -0.06580567532731052 0 0.1516507619880918 -0.076739651506421189 0 0.16423855373374319 -0.066809641750814969 0 0.13548767730717889 -0.06580567532731052 0 0.16423855373374319 -0.066809641750814969 0 0.16004124225532049 -0.061841453839887157 0 0.13805891541926751 -0.078942206783145619 0 0.13548767730717889 -0.06580567532731052 0 0.1516507619880918 -0.076739651506421189 0 0.13805891541926751 -0.078942206783145619 0 0.1516507619880918 -0.076739651506421189 0 0.1528514968589437 -0.089382961028164357 0 0.15146120268426411 -0.099532086410862586 0 0.1528514968589437 -0.089382961028164357 0 0.15581646250916109 -0.090151240212135456 0 0.1528514968589437 -0.089382961028164357 0 0.15581646250916109 -0.090151240212135456 0 0.17842320588221819 -0.090172163349513806 0 0.1528514968589437 -0.089382961028164357 0 0.17842320588221819 -0.090172163349513806 0 0.15581646250916109 -0.090151240212135456 0 0.16859491992305889 -0.093070393687126218 0 0.17842320588221819 -0.090172163349513806 0 0.1528514968589437 -0.089382961028164357 0 0.1653897445003264 -0.079862578323319361 0 0.17842320588221819 -0.090172163349513806 0 0.1516507619880918 -0.076739651506421189 0 0.1528514968589437 -0.089382961028164357 0 0.1653897445003264 -0.079862578323319361 0 0.1516507619880918 -0.076739651506421189 0 0.1653897445003264 -0.079862578323319361 0 0.16423855373374319 -0.066809641750814969 0 0.1653897445003264 -0.079862578323319361 0 0.16423855373374319 -0.066809641750814969 0 0.17833356117891219 -0.077628002067558224 0 0.16423855373374319 -0.066809641750814969 0 0.1727598808088672 -0.056322389892066158 0 0.1929894301603077 -0.067813608174319001 0 0.16423855373374319 -0.066809641750814969 0 0.1929894301603077 -0.067813608174319001 0 0.16423855373374319 -0.066809641750814969 0 0.17833356117891219 -0.077628002067558224 0 0.1929894301603077 -0.067813608174319001 0 0.17833356117891219 -0.077628002067558224 0 0.19040307974074269 -0.080139672987034255 0 0.1929894301603077 -0.067813608174319001 0 0.16859491992305889 -0.093070393687126218 0 0.17842320588221819 -0.090172163349513806 0 0.17335524666804841 -0.094081054567607611 0 0.17842320588221819 -0.090172163349513806 0 0.17824607109877541 -0.095663109832525739 0 0.17335524666804841 -0.094081054567607611 0 0.1653897445003264 -0.079862578323319361 0 0.17833356117891219 -0.077628002067558224 0 0.17842320588221819 -0.090172163349513806 0 0.17833356117891219 -0.077628002067558224 0 0.1854866420256687 -0.084161575248007242 0 0.19040307974074269 -0.080139672987034255 0 0.17833356117891219 -0.077628002067558224 0 0.17842320588221819 -0.090172163349513806 0 0.1854866420256687 -0.084161575248007242 0 0.18404025852736719 -0.096743595743047278 0 0.18504385230606449 -0.10434071571553651 0 0.19243594079672521 -0.096163448387799222 0 0.17824607109877541 -0.095663109832525739 0 0.18504385230606449 -0.10434071571553651 0 0.16623581850283431 -0.10244093512288061 0 0.18504385230606449 -0.10434071571553651 0 0.18014950107347269 -0.1188522098678762 0 0.16623581850283431 -0.10244093512288061 0 0.18404025852736719 -0.096743595743047278 0 0.17824607109877541 -0.095663109832525739 0 0.18504385230606449 -0.10434071571553651 0 0.17842320588221819 -0.090172163349513806 0 0.18404025852736719 -0.096743595743047278 0 0.19243594079672521 -0.096163448387799222 0 0.17842320588221819 -0.090172163349513806 0 0.18404025852736719 -0.096743595743047278 0 0.17824607109877541 -0.095663109832525739 0 0.17824607109877541 -0.095663109832525739 0 0.17335524666804841 -0.094081054567607611 0 0.16623581850283431 -0.10244093512288061 0 0.17824607109877541 -0.095663109832525739 0 0.16623581850283431 -0.10244093512288061 0 0.18504385230606449 -0.10434071571553651 0 0.18014950107347269 -0.1188522098678762 0 0.1922879604253335 -0.1099500278873989 0 0.18014950107347269 -0.1188522098678762 0 0.16623581850283431 -0.10244093512288061 0 0.18014950107347269 -0.1188522098678762 0 0.16095359288685571 -0.1184472051676727 0 0.16623581850283431 -0.10244093512288061 0 0.14712201392247631 -0.1132275548916801 0 0.16095359288685571 -0.1184472051676727 0 0.16623581850283431 -0.10244093512288061 0 0.18014950107347269 -0.1188522098678762 0 0.16095359288685571 -0.1184472051676727 0 0.16265603278097029 -0.1302428005884553 0 0.14712201392247631 -0.1132275548916801 0 0.16623581850283431 -0.10244093512288061 0 0.15581646250916109 -0.090151240212135456 0 0.16859491992305889 -0.093070393687126218 0 0.16623581850283431 -0.10244093512288061 0 0.15146120268426411 -0.099532086410862586 0 0.15581646250916109 -0.090151240212135456 0 0.16623581850283431 -0.10244093512288061 0 0.15581646250916109 -0.090151240212135456 0 0.16623581850283431 -0.10244093512288061 0 0.16859491992305889 -0.093070393687126218 0 0.17335524666804841 -0.094081054567607611 0 0.16623581850283431 -0.10244093512288061 0 0.13735218555535891 0.001011181807127467 0 0.1449152044553462 -0.019939696741877431 0 0.14216046477152491 0.0049125148476896544 0 0.15727218843160701 -0.01758578836774349 0 0.15849764294065671 -0.0060544572746906826 0 0.14216046477152491 0.0049125148476896544 0 0.15727218843160701 -0.01758578836774349 0 0.14216046477152491 0.0049125148476896544 0 0.1449152044553462 -0.019939696741877431 0 0.15727218843160701 -0.01758578836774349 0 0.14216046477152491 0.0049125148476896544 0 0.13735218555535891 0.001011181807127467 0 0.1449152044553462 -0.019939696741877431 0 0.13735218555535891 0.001011181807127467 0 0.1175949646085984 -0.015019396993320021 0 0.13735218555535891 0.001011181807127467 0 0.1175949646085984 -0.015019396993320021 0 0.13165260102391191 -0.019660205177744808 0 0.13735218555535891 0.001011181807127467 0 0.13165260102391191 -0.019660205177744808 0 0.1449152044553462 -0.019939696741877431 0 0.13165260102391191 -0.019660205177744808 0 0.13984755105295521 -0.030525993742740402 0 0.1449152044553462 -0.019939696741877431 0 0.124582941869709 -0.030507807285028901 0 0.13165260102391191 -0.019660205177744808 0 0.13984755105295521 -0.030525993742740402 0 0.1449152044553462 -0.019939696741877431 0 0.15247822335533329 -0.040890575290882317 0 0.15727218843160701 -0.01758578836774349 0 0.13984755105295521 -0.030525993742740402 0 0.1449152044553462 -0.019939696741877431 0 0.15247822335533329 -0.040890575290882317 0 0.1449152044553462 -0.019939696741877431 0 0.15247822335533329 -0.040890575290882317 0 0.15247822335533329 -0.040890575290882317 0 0.1379109625223634 -0.045605004272587249 0 0.14629243763992239 -0.054068479542427092 0 0.13984755105295521 -0.030525993742740402 0 0.15247822335533329 -0.040890575290882317 0 0.1379109625223634 -0.045605004272587249 0 0.1232921759667842 -0.047663851323270827 0 0.13984755105295521 -0.030525993742740402 0 0.1379109625223634 -0.045605004272587249 0 0.1232921759667842 -0.047663851323270827 0 0.124582941869709 -0.030507807285028901 0 0.13984755105295521 -0.030525993742740402 0 0.1232921759667842 -0.047663851323270827 0 0.13984755105295521 -0.030525993742740402 0 0.1232921759667842 -0.047663851323270827 0 0.13548767730717889 -0.06580567532731052 0 0.1379109625223634 -0.045605004272587249 0 0.13548767730717889 -0.06580567532731052 0 0.1379109625223634 -0.045605004272587249 0 0.14629243763992239 -0.054068479542427092 0 0.13548767730717889 -0.06580567532731052 0 0.14629243763992239 -0.054068479542427092 0 0.16004124225532049 -0.061841453839887157 0 0.15247822335533329 -0.040890575290882317 0 0.14629243763992239 -0.054068479542427092 0 0.16004124225532049 -0.061841453839887157 0 0.15247822335533329 -0.040890575290882317 0 0.16004124225532049 -0.061841453839887157 0 0.1644158146278025 -0.049784627651503079 0 0.1644158146278025 -0.049784627651503079 0 0.1727598808088672 -0.056322389892066158 0 0.1723839120916891 -0.040084091583176683 0 0.15247822335533329 -0.040890575290882317 0 0.16004124225532049 -0.061841453839887157 0 0.16423855373374319 -0.066809641750814969 0 0.16004124225532049 -0.061841453839887157 0 0.1727598808088672 -0.056322389892066158 0 0.16004124225532049 -0.061841453839887157 0 0.1644158146278025 -0.049784627651503079 0 0.1727598808088672 -0.056322389892066158 0 0.1727598808088672 -0.056322389892066158 0 0.18434240851125541 -0.050289724698312777 0 0.1723839120916891 -0.040084091583176683 0 0.1727598808088672 -0.056322389892066158 0 0.18434240851125541 -0.050289724698312777 0 0.1929894301603077 -0.067813608174319001 0 0.1723839120916891 -0.040084091583176683 0 0.18077822909658589 -0.032018797610549231 0 0.17598651952492231 -0.0227560541305885 0 0.18434240851125541 -0.050289724698312777 0 0.1723839120916891 -0.040084091583176683 0 0.18674227588606429 -0.037749552466939278 0 0.1723839120916891 -0.040084091583176683 0 0.18674227588606429 -0.037749552466939278 0 0.18077822909658589 -0.032018797610549231 0 0.18674227588606429 -0.037749552466939278 0 0.18077822909658589 -0.032018797610549231 0 0.18610830639217099 -0.030062433202775862 0 0.15247822335533329 -0.040890575290882317 0 0.1723839120916891 -0.040084091583176683 0 0.15727218843160701 -0.01758578836774349 0 0.15247822335533329 -0.040890575290882317 0 0.1644158146278025 -0.049784627651503079 0 0.1723839120916891 -0.040084091583176683 0 0.1723839120916891 -0.040084091583176683 0 0.15727218843160701 -0.01758578836774349 0 0.1723839120916891 -0.040084091583176683 0 0.1668946229318731 -0.019675061199070819 0 0.17598651952492231 -0.0227560541305885 0 0.1723839120916891 -0.040084091583176683 0 0.15727218843160701 -0.01758578836774349 0 0.1668946229318731 -0.019675061199070819 0 0.1668946229318731 -0.019675061199070819 0 0.17598651952492231 -0.0227560541305885 0 0.16985348277487761 -0.0099868764823510571 0 0.18077822909658589 -0.032018797610549231 0 0.18438258456793261 -0.021379302004443181 0 0.17598651952492231 -0.0227560541305885 0 0.18077822909658589 -0.032018797610549231 0 0.18610830639217099 -0.030062433202775862 0 0.18438258456793261 -0.021379302004443181 0 0.18438258456793261 -0.021379302004443181 0 0.17598651952492231 -0.0227560541305885 0 0.17878486519392331 -0.011645355321630489 0 0.17598651952492231 -0.0227560541305885 0 0.17878486519392331 -0.011645355321630489 0 0.16985348277487761 -0.0099868764823510571 0 0.17878486519392331 -0.011645355321630489 0 0.17506184651935949 -0.0021247232161890161 0 0.16985348277487761 -0.0099868764823510571 0 0.18438258456793261 -0.021379302004443181 0 0.17878486519392331 -0.011645355321630489 0 0.18863989258252481 -0.001979820774580698 0 0.17878486519392331 -0.011645355321630489 0 0.17506184651935949 -0.0021247232161890161 0 0.18863989258252481 -0.001979820774580698 0 0.1628037813635097 0.0015330777282007481 0 0.17506184651935949 -0.0021247232161890161 0 0.16985348277487761 -0.0099868764823510571 0 0.1668946229318731 -0.019675061199070819 0 0.16985348277487761 -0.0099868764823510571 0 0.15849764294065671 -0.0060544572746906826 0 0.15727218843160701 -0.01758578836774349 0 0.1668946229318731 -0.019675061199070819 0 0.15849764294065671 -0.0060544572746906826 0 0.1628037813635097 0.0015330777282007481 0 0.16985348277487761 -0.0099868764823510571 0 0.15849764294065671 -0.0060544572746906826 0 0.1628037813635097 0.0015330777282007481 0 0.15453230216132671 0.0032055715019124438 0 0.15849764294065671 -0.0060544572746906826 0 0.21174544862736719 0.0096628206364345465 0 0.20589386385567829 -0.0063134785331596111 0 0.2185782736923042 -0.0038367730406402641 0 0.20589386385567829 -0.0063134785331596111 0 0.2185782736923042 -0.0038367730406402641 0 0.2199828155312514 -0.0225516893132638 0 0.20589386385567829 -0.0063134785331596111 0 0.18863989258252481 -0.001979820774580698 0 0.1936475112771239 -0.030998707124919651 0 0.20589386385567829 -0.0063134785331596111 0 0.1936475112771239 -0.030998707124919651 0 0.20001428446098229 -0.034334459813343092 0 0.18863989258252481 -0.001979820774580698 0 0.1936475112771239 -0.030998707124919651 0 0.20589386385567829 -0.0063134785331596111 0 0.20001428446098229 -0.034334459813343092 0 0.18438258456793261 -0.021379302004443181 0 0.18863989258252481 -0.001979820774580698 0 0.1936475112771239 -0.030998707124919651 0 0.18610830639217099 -0.030062433202775862 0 0.18438258456793261 -0.021379302004443181 0 0.1936475112771239 -0.030998707124919651 0 0.20589386385567829 -0.0063134785331596111 0 0.20001428446098229 -0.034334459813343092 0 0.2199828155312514 -0.0225516893132638 0 0.20001428446098229 -0.034334459813343092 0 0.22061008072662569 -0.045125245157715169 0 0.20001428446098229 -0.034334459813343092 0 0.22061008072662569 -0.045125245157715169 0 0.2199828155312514 -0.0225516893132638 0 0.20001428446098229 -0.034334459813343092 0 0.19683654360934791 -0.049478981375062181 0 0.22061008072662569 -0.045125245157715169 0 0.1936475112771239 -0.030998707124919651 0 0.19683654360934791 -0.049478981375062181 0 0.18674227588606429 -0.037749552466939278 0 0.1936475112771239 -0.030998707124919651 0 0.19683654360934791 -0.049478981375062181 0 0.1936475112771239 -0.030998707124919651 0 0.20001428446098229 -0.034334459813343092 0 0.19683654360934791 -0.049478981375062181 0 0.1936475112771239 -0.030998707124919651 0 0.20001428446098229 -0.034334459813343092 0 0.18674227588606429 -0.037749552466939278 0 0.18610830639217099 -0.030062433202775862 0 0.1936475112771239 -0.030998707124919651 0 0.18434240851125541 -0.050289724698312777 0 0.18674227588606429 -0.037749552466939278 0 0.19683654360934791 -0.049478981375062181 0 0.20001428446098229 -0.034334459813343092 0 0.19683654360934791 -0.049478981375062181 0 0.19683654360934791 -0.049478981375062181 0 0.1929894301603077 -0.067813608174319001 0 0.2000429458732931 -0.068059913463883598 0 0.19683654360934791 -0.049478981375062181 0 0.21158346953455981 -0.057932445704329483 0 0.2000429458732931 -0.068059913463883598 0 0.19683654360934791 -0.049478981375062181 0 0.2000429458732931 -0.068059913463883598 0 0.19683654360934791 -0.049478981375062181 0 0.1929894301603077 -0.067813608174319001 0 0.18434240851125541 -0.050289724698312777 0 0.19683654360934791 -0.049478981375062181 0 0.1929894301603077 -0.067813608174319001 0 0.19683654360934791 -0.049478981375062181 0 0.21158346953455981 -0.057932445704329483 0 0.22061008072662569 -0.045125245157715169 0 0.24120587699226881 -0.055916030502087773 0 0.22061008072662569 -0.045125245157715169 0 0.2288443079289719 -0.069065642820655804 0 0.21158346953455981 -0.057932445704329483 0 0.22061008072662569 -0.045125245157715169 0 0.2288443079289719 -0.069065642820655804 0 0.24120587699226881 -0.055916030502087773 0 0.22061008072662569 -0.045125245157715169 0 0.25030159180115191 -0.034143426788088307 0 0.24120587699226881 -0.055916030502087773 0 0.23430517811137791 -0.037629801295311363 0 0.25030159180115191 -0.034143426788088307 0 0.23430517811137791 -0.037629801295311363 0 0.23651070060392609 -0.023431292744830981 0 0.22061008072662569 -0.045125245157715169 0 0.23430517811137791 -0.037629801295311363 0 0.2199828155312514 -0.0225516893132638 0 0.24120587699226881 -0.055916030502087773 0 0.22061008072662569 -0.045125245157715169 0 0.23430517811137791 -0.037629801295311363 0 0.2199828155312514 -0.0225516893132638 0 0.23651070060392609 -0.023431292744830981 0 0.2300866381754704 -0.0072438550720441714 0 0.23430517811137791 -0.037629801295311363 0 0.2199828155312514 -0.0225516893132638 0 0.23651070060392609 -0.023431292744830981 0 0.25030159180115191 -0.034143426788088307 0 0.23651070060392609 -0.023431292744830981 0 0.2464198669495459 -0.012097030270161889 0 0.23790413247208811 0.0091049515404343275 0 0.2464198669495459 -0.012097030270161889 0 0.2300866381754704 -0.0072438550720441714 0 0.23651070060392609 -0.023431292744830981 0 0.2464198669495459 -0.012097030270161889 0 0.2300866381754704 -0.0072438550720441714 0 0.2185782736923042 -0.0038367730406402641 0 0.2199828155312514 -0.0225516893132638 0 0.2300866381754704 -0.0072438550720441714 0 0.22518260227175371 0.0072623370788317187 0 0.2185782736923042 -0.0038367730406402641 0 0.2300866381754704 -0.0072438550720441714 0 0.20666963866093291 -0.1113398018781358 0 0.20399491490549271 -0.090961365670864353 0 0.20666963866093291 -0.1113398018781358 0 0.23081911420975029 -0.091789222750733895 0 0.20666963866093291 -0.1113398018781358 0 0.20399491490549271 -0.090961365670864353 0 0.23081911420975029 -0.091789222750733895 0 0.2184940671700534 -0.12394732724419751 0 0.20666963866093291 -0.1113398018781358 0 0.22056261316880149 -0.1108234873110058 0 0.2184940671700534 -0.12394732724419751 0 0.20975191972323501 -0.12432290509972491 0 0.20666963866093291 -0.1113398018781358 0 0.2184940671700534 -0.12394732724419751 0 0.20666963866093291 -0.1113398018781358 0 0.20975191972323501 -0.12432290509972491 0 0.20666963866093291 -0.1113398018781358 0 0.1971408692894723 -0.1190539635876471 0 0.20975191972323501 -0.12432290509972491 0 0.20666963866093291 -0.1113398018781358 0 0.18014950107347269 -0.1188522098678762 0 0.1971408692894723 -0.1190539635876471 0 0.19406318364410949 -0.13526348461287321 0 0.20666963866093291 -0.1113398018781358 0 0.1971408692894723 -0.1190539635876471 0 0.18014950107347269 -0.1188522098678762 0 0.1971408692894723 -0.1190539635876471 0 0.1922879604253335 -0.1099500278873989 0 0.20666963866093291 -0.1113398018781358 0 0.1971408692894723 -0.1190539635876471 0 0.1922879604253335 -0.1099500278873989 0 0.20666963866093291 -0.1113398018781358 0 0.19243594079672521 -0.096163448387799222 0 0.20399491490549271 -0.090961365670864353 0 0.18504385230606449 -0.10434071571553651 0 0.1922879604253335 -0.1099500278873989 0 0.19243594079672521 -0.096163448387799222 0 0.20666963866093291 -0.1113398018781358 0 0.1922879604253335 -0.1099500278873989 0 0.19243594079672521 -0.096163448387799222 0 0.20666963866093291 -0.1113398018781358 0 0.19243594079672521 -0.096163448387799222 0 0.1854866420256687 -0.084161575248007242 0 0.19040307974074269 -0.080139672987034255 0 0.20399491490549271 -0.090961365670864353 0 0.17842320588221819 -0.090172163349513806 0 0.19243594079672521 -0.096163448387799222 0 0.20399491490549271 -0.090961365670864353 0 0.17842320588221819 -0.090172163349513806 0 0.20399491490549271 -0.090961365670864353 0 0.17842320588221819 -0.090172163349513806 0 0.1854866420256687 -0.084161575248007242 0 0.20399491490549271 -0.090961365670864353 0 0.2000429458732931 -0.068059913463883598 0 0.20399491490549271 -0.090961365670864353 0 0.19040307974074269 -0.080139672987034255 0 0.2000429458732931 -0.068059913463883598 0 0.20399491490549271 -0.090961365670864353 0 0.19040307974074269 -0.080139672987034255 0 0.1929894301603077 -0.067813608174319001 0 0.2000429458732931 -0.068059913463883598 0 0.19040307974074269 -0.080139672987034255 0 0.1929894301603077 -0.067813608174319001 0 0.1929894301603077 -0.067813608174319001 0 0.2000429458732931 -0.068059913463883598 0 0.2000429458732931 -0.068059913463883598 0 0.2288443079289719 -0.069065642820655804 0 0.2000429458732931 -0.068059913463883598 0 0.21771238563745279 -0.081480669998114597 0 0.2288443079289719 -0.069065642820655804 0 0.21158346953455981 -0.057932445704329483 0 0.2000429458732931 -0.068059913463883598 0 0.2288443079289719 -0.069065642820655804 0 0.2000429458732931 -0.068059913463883598 0 0.20399491490549271 -0.090961365670864353 0 0.21771238563745279 -0.081480669998114597 0 0.20399491490549271 -0.090961365670864353 0 0.21771238563745279 -0.081480669998114597 0 0.23081911420975029 -0.091789222750733895 0 0.20399491490549271 -0.090961365670864353 0 0.23081911420975029 -0.091789222750733895 0 0.21771238563745279 -0.081480669998114597 0 0.23081911420975029 -0.091789222750733895 0 0.2288443079289719 -0.069065642820655804 0 0.25764566998465072 -0.070071372177431313 0 0.24120587699226881 -0.055916030502087773 0 0.2288443079289719 -0.069065642820655804 0 0.25764566998465072 -0.070071372177431313 0 0.2288443079289719 -0.069065642820655804 0 0.25764566998465072 -0.070071372177431313 0 0.2288443079289719 -0.069065642820655804 0 0.24423239209720191 -0.080930297464084477 0 0.25666672159796139 -0.092586939936295867 0 0.23081911420975029 -0.091789222750733895 0 0.23081911420975029 -0.091789222750733895 0 0.2288443079289719 -0.069065642820655804 0 0.24423239209720191 -0.080930297464084477 0 0.25666672159796139 -0.092586939936295867 0 0.23081911420975029 -0.091789222750733895 0 0.24423239209720191 -0.080930297464084477 0 0.23081911420975029 -0.091789222750733895 0 0.24423239209720191 -0.080930297464084477 0 0.25666672159796139 -0.092586939936295867 0 0.23081911420975029 -0.091789222750733895 0 0.23839025179526999 -0.1151992729885977 0 0.20666963866093291 -0.1113398018781358 0 0.23081911420975029 -0.091789222750733895 0 0.22056261316880149 -0.1108234873110058 0 0.23081911420975029 -0.091789222750733895 0 0.22056261316880149 -0.1108234873110058 0 0.23839025179526999 -0.1151992729885977 0 0.2184940671700534 -0.12394732724419751 0 0.22056261316880149 -0.1108234873110058 0 0.23839025179526999 -0.1151992729885977 0 0.2184940671700534 -0.12394732724419751 0 0.23839025179526999 -0.1151992729885977 0 0.22928680998153819 -0.13545484142638689 0 0.25915390151091949 -0.11811210275817149 0 0.25133622254172122 -0.13557462765415079 0 0.23839025179526999 -0.1151992729885977 0 0.25133622254172122 -0.13557462765415079 0 0.25208407187516418 -0.1419613505697605 0 0.23274332603383319 -0.13914027229300069 0 0.25133622254172122 -0.13557462765415079 0 0.23839025179526999 -0.1151992729885977 0 0.22928680998153819 -0.13545484142638689 0 0.25133622254172122 -0.13557462765415079 0 0.22928680998153819 -0.13545484142638689 0 0.25133622254172122 -0.13557462765415079 0 0.23274332603383319 -0.13914027229300069 0 0.22928680998153819 -0.13545484142638689 0 0.25208407187516418 -0.1419613505697605 0 0.23274332603383319 -0.13914027229300069 0 0.2530488896403309 -0.16079061319898569 0 0.23274332603383319 -0.13914027229300069 0 0.2530488896403309 -0.16079061319898569 0 0.23274332603383319 -0.13914027229300069 0 0.2334622085995452 -0.15779257262933219 0 0.2530488896403309 -0.16079061319898569 0 0.25208407187516418 -0.1419613505697605 0 0.23274332603383319 -0.13914027229300069 0 0.22694604844669111 -0.15137512496012309 0 0.2202725953444182 -0.1456731206256075 0 0.22100128495381829 -0.16152072110389429 0 0.22694604844669111 -0.15137512496012309 0 0.23274332603383319 -0.13914027229300069 0 0.2334622085995452 -0.15779257262933219 0 0.22694604844669111 -0.15137512496012309 0 0.2202725953444182 -0.1456731206256075 0 0.23274332603383319 -0.13914027229300069 0 0.23274332603383319 -0.13914027229300069 0 0.20959101376118139 -0.13576323162740581 0 0.22928680998153819 -0.13545484142638689 0 0.2116749968128239 -0.1353591630196288 0 0.23274332603383319 -0.13914027229300069 0 0.22928680998153819 -0.13545484142638689 0 0.2116749968128239 -0.1353591630196288 0 0.2184940671700534 -0.12394732724419751 0 0.22928680998153819 -0.13545484142638689 0 0.2116749968128239 -0.1353591630196288 0 0.2202725953444182 -0.1456731206256075 0 0.23274332603383319 -0.13914027229300069 0 0.20959101376118139 -0.13576323162740581 0 0.23274332603383319 -0.13914027229300069 0 0.22928680998153819 -0.13545484142638689 0 0.2184940671700534 -0.12394732724419751 0 0.22928680998153819 -0.13545484142638689 0 0.23274332603383319 -0.13914027229300069 0 0.20959101376118139 -0.13576323162740581 0 0.2116749968128239 -0.1353591630196288 0 0.20975191972323501 -0.12432290509972491 0 0.2116749968128239 -0.1353591630196288 0 0.19406318364410949 -0.13526348461287321 0 0.2184940671700534 -0.12394732724419751 0 0.20975191972323501 -0.12432290509972491 0 0.2116749968128239 -0.1353591630196288 0 0.20959101376118139 -0.13576323162740581 0 0.2116749968128239 -0.1353591630196288 0 0.19406318364410949 -0.13526348461287321 0 0.2202725953444182 -0.1456731206256075 0 0.21077041390333781 -0.15496976615408631 0 0.22100128495381829 -0.16152072110389429 0 0.2202725953444182 -0.1456731206256075 0 0.20959101376118139 -0.13576323162740581 0 0.21077041390333781 -0.15496976615408631 0 0.20959101376118139 -0.13576323162740581 0 0.21077041390333781 -0.15496976615408631 0 0.19406318364410949 -0.13526348461287321 0 0.21077041390333781 -0.15496976615408631 0 0.19019323353294471 -0.15547991582157239 0 0.19406318364410949 -0.13526348461287321 0 0.21077041390333781 -0.15496976615408631 0 0.19406318364410949 -0.13526348461287321 0 0.20975191972323501 -0.12432290509972491 0 0.1971408692894723 -0.1190539635876471 0 0.19406318364410949 -0.13526348461287321 0 0.2116749968128239 -0.1353591630196288 0 0.19406318364410949 -0.13526348461287321 0 0.2064216300685435 -0.1763378775815001 0 0.19333004299069351 -0.19482382871724169 0 0.185888281266576 -0.1738959907954824 0 0.21077041390333781 -0.15496976615408631 0 0.19019323353294471 -0.15547991582157239 0 0.2064216300685435 -0.1763378775815001 0 0.19019323353294471 -0.15547991582157239 0 0.2064216300685435 -0.1763378775815001 0 0.185888281266576 -0.1738959907954824 0 0.21077041390333781 -0.15496976615408631 0 0.2064216300685435 -0.1763378775815001 0 0.22100128495381829 -0.16152072110389429 0 0.2064216300685435 -0.1763378775815001 0 0.22637928715471201 -0.1750627007060517 0 0.22100128495381829 -0.16152072110389429 0 0.2064216300685435 -0.1763378775815001 0 0.22637928715471201 -0.1750627007060517 0 0.2213864998634191 -0.19074186604973761 0 0.22637928715471201 -0.1750627007060517 0 0.2363010186387848 -0.18586727398715949 0 0.2213864998634191 -0.19074186604973761 0 0.22637928715471201 -0.1750627007060517 0 0.22100128495381829 -0.16152072110389429 0 0.2334622085995452 -0.15779257262933219 0 0.22637928715471201 -0.1750627007060517 0 0.2334622085995452 -0.15779257262933219 0 0.24133419147104179 -0.17110858194103351 0 0.22694604844669111 -0.15137512496012309 0 0.22100128495381829 -0.16152072110389429 0 0.2334622085995452 -0.15779257262933219 0 0.2530488896403309 -0.16079061319898569 0 0.2334622085995452 -0.15779257262933219 0 0.24133419147104179 -0.17110858194103351 0 0.2550208565069661 -0.17514012483034949 0 0.2530488896403309 -0.16079061319898569 0 0.24133419147104179 -0.17110858194103351 0 0.22637928715471201 -0.1750627007060517 0 0.24133419147104179 -0.17110858194103351 0 0.2363010186387848 -0.18586727398715949 0 0.25030889548151403 -0.1837077448593728 0 0.2550208565069661 -0.17514012483034949 0 0.24133419147104179 -0.17110858194103351 0 0.25030889548151403 -0.1837077448593728 0 0.24133419147104179 -0.17110858194103351 0 0.2363010186387848 -0.18586727398715949 0 0.25030889548151403 -0.1837077448593728 0 0.2363010186387848 -0.18586727398715949 0 0.24624710011957149 -0.19756578472926509 0 0.2363010186387848 -0.18586727398715949 0 0.24624710011957149 -0.19756578472926509 0 0.23232272155890341 -0.19906227567560569 0 0.24624710011957149 -0.19756578472926509 0 0.2390873575194972 -0.2119906927462733 0 0.23232272155890341 -0.19906227567560569 0 0.25806059678156651 -0.21160485628964759 0 0.24624710011957149 -0.19756578472926509 0 0.2390873575194972 -0.2119906927462733 0 0.25806059678156651 -0.21160485628964759 0 0.2390873575194972 -0.2119906927462733 0 0.2485278721491469 -0.22983386195931649 0 0.22156570902884701 -0.2081716276760221 0 0.2275965143199381 -0.22680811778712909 0 0.21130945108473639 -0.22000441216527869 0 0.2390873575194972 -0.2119906927462733 0 0.22156570902884701 -0.2081716276760221 0 0.23232272155890341 -0.19906227567560569 0 0.2390873575194972 -0.2119906927462733 0 0.22156570902884701 -0.2081716276760221 0 0.2275965143199381 -0.22680811778712909 0 0.22156570902884701 -0.2081716276760221 0 0.2213864998634191 -0.19074186604973761 0 0.23232272155890341 -0.19906227567560569 0 0.2363010186387848 -0.18586727398715949 0 0.2213864998634191 -0.19074186604973761 0 0.23232272155890341 -0.19906227567560569 0 0.2410490216361528 -0.25300372010805161 0 0.2485278721491469 -0.22983386195931649 0 0.2275965143199381 -0.22680811778712909 0 0.25787859859726192 -0.24372773219337371 0 0.2410490216361528 -0.25300372010805161 0 0.2485278721491469 -0.22983386195931649 0 0.2390873575194972 -0.2119906927462733 0 0.2485278721491469 -0.22983386195931649 0 0.2275965143199381 -0.22680811778712909 0 0.2410490216361528 -0.25300372010805161 0 0.2275965143199381 -0.22680811778712909 0 0.2136455624920251 -0.24586339942155419 0 0.2410490216361528 -0.25300372010805161 0 0.2136455624920251 -0.24586339942155419 0 0.2136455624920251 -0.24586339942155419 0 0.1995187067769538 -0.22648505830905971 0 0.1970165427207646 -0.2431475676051908 0 0.2275965143199381 -0.22680811778712909 0 0.2136455624920251 -0.24586339942155419 0 0.21130945108473639 -0.22000441216527869 0 0.2136455624920251 -0.24586339942155419 0 0.21130945108473639 -0.22000441216527869 0 0.1995187067769538 -0.22648505830905971 0 0.1995187067769538 -0.22648505830905971 0 0.1970165427207646 -0.2431475676051908 0 0.1843931124890181 -0.23269732176232691 0 0.21130945108473639 -0.22000441216527869 0 0.1995187067769538 -0.22648505830905971 0 0.19847161958806309 -0.21206345826637629 0 0.2064216300685435 -0.1763378775815001 0 0.2213864998634191 -0.19074186604973761 0 0.20705859430259141 -0.20063481153153051 0 0.22156570902884701 -0.2081716276760221 0 0.2213864998634191 -0.19074186604973761 0 0.20705859430259141 -0.20063481153153051 0 0.22156570902884701 -0.2081716276760221 0 0.21130945108473639 -0.22000441216527869 0 0.20705859430259141 -0.20063481153153051 0 0.21130945108473639 -0.22000441216527869 0 0.20705859430259141 -0.20063481153153051 0 0.19847161958806309 -0.21206345826637629 0 0.19847161958806309 -0.21206345826637629 0 0.19333004299069351 -0.19482382871724169 0 0.184507054165965 -0.21658659277756609 0 0.1995187067769538 -0.22648505830905971 0 0.19847161958806309 -0.21206345826637629 0 0.184507054165965 -0.21658659277756609 0 0.20705859430259141 -0.20063481153153051 0 0.19847161958806309 -0.21206345826637629 0 0.19333004299069351 -0.19482382871724169 0 0.2064216300685435 -0.1763378775815001 0 0.20705859430259141 -0.20063481153153051 0 0.19333004299069351 -0.19482382871724169 0 0.1776330785524223 -0.18942424135099509 0 0.184507054165965 -0.21658659277756609 0 0.16837846483810831 -0.20319749351435479 0 0.19333004299069351 -0.19482382871724169 0 0.1776330785524223 -0.18942424135099509 0 0.184507054165965 -0.21658659277756609 0 0.1776330785524223 -0.18942424135099509 0 0.184507054165965 -0.21658659277756609 0 0.184507054165965 -0.21658659277756609 0 0.1749867686249286 -0.21735889230250449 0 0.16837846483810831 -0.20319749351435479 0 0.1749867686249286 -0.21735889230250449 0 0.16837846483810831 -0.20319749351435479 0 0.15045483047290331 -0.2082327262959493 0 0.1749867686249286 -0.21735889230250449 0 0.15045483047290331 -0.2082327262959493 0 0.1749867686249286 -0.21735889230250449 0 0.16226861639455931 -0.22172210758959859 0 0.15045483047290331 -0.2082327262959493 0 0.16837846483810831 -0.20319749351435479 0 0.15045483047290331 -0.2082327262959493 0 0.15431059237432221 -0.18438501484475869 0 0.1776330785524223 -0.18942424135099509 0 0.16837846483810831 -0.20319749351435479 0 0.15431059237432221 -0.18438501484475869 0 0.1970165427207646 -0.2431475676051908 0 0.18013525364959199 -0.24590787480667409 0 0.1843931124890181 -0.23269732176232691 0 0.18013525364959199 -0.24590787480667409 0 0.1843931124890181 -0.23269732176232691 0 0.17030829067285161 -0.2305872157882054 0 0.1995187067769538 -0.22648505830905971 0 0.1749867686249286 -0.21735889230250449 0 0.1995187067769538 -0.22648505830905971 0 0.1749867686249286 -0.21735889230250449 0 0.1843931124890181 -0.23269732176232691 0 0.1995187067769538 -0.22648505830905971 0 0.184507054165965 -0.21658659277756609 0 0.1749867686249286 -0.21735889230250449 0 0.1749867686249286 -0.21735889230250449 0 0.1843931124890181 -0.23269732176232691 0 0.17030829067285161 -0.2305872157882054 0 0.16226861639455931 -0.22172210758959859 0 0.17030829067285161 -0.2305872157882054 0 0.15332457580755371 -0.23070959597173549 0 0.1749867686249286 -0.21735889230250449 0 0.16226861639455931 -0.22172210758959859 0 0.17030829067285161 -0.2305872157882054 0 0.16103468924722281 -0.25381861710109321 0 0.18013525364959199 -0.24590787480667409 0 0.17030829067285161 -0.2305872157882054 0 0.16103468924722281 -0.25381861710109321 0 0.17030829067285161 -0.2305872157882054 0 0.15332457580755371 -0.23070959597173549 0 0.16103468924722281 -0.25381861710109321 0 0.1412434604122122 -0.24631040783256791 0 0.15332457580755371 -0.23070959597173549 0 0.1412434604122122 -0.24631040783256791 0 0.15332457580755371 -0.23070959597173549 0 0.1284413173888232 -0.22347585252773641 0 0.15332457580755371 -0.23070959597173549 0 0.1284413173888232 -0.22347585252773641 0 0.15045483047290331 -0.2082327262959493 0 0.16226861639455931 -0.22172210758959859 0 0.15332457580755371 -0.23070959597173549 0 0.15045483047290331 -0.2082327262959493 0 0.1200034520355143 -0.24749468667538321 0 0.1412434604122122 -0.24631040783256791 0 0.1284413173888232 -0.22347585252773641 0 0.15045483047290331 -0.2082327262959493 0 0.12592289232087811 -0.19910656028939411 0 0.15431059237432221 -0.18438501484475869 0 0.15045483047290331 -0.2082327262959493 0 0.12592289232087811 -0.19910656028939411 0 0.1284413173888232 -0.22347585252773641 0 0.15045483047290331 -0.2082327262959493 0 0.12592289232087811 -0.19910656028939411 0 0.11404320040195411 -0.17785048998131209 0 0.12592289232087811 -0.19910656028939411 0 0.1362427207560932 -0.1734399905344442 0 0.12592289232087811 -0.19910656028939411 0 0.1362427207560932 -0.1734399905344442 0 0.15431059237432221 -0.18438501484475869 0 0.1362427207560932 -0.1734399905344442 0 0.15431059237432221 -0.18438501484475869 0 0.1498051255961938 -0.157092757972084 0 0.11404320040195411 -0.17785048998131209 0 0.1362427207560932 -0.1734399905344442 0 0.1305387904294309 -0.15561497697083931 0 0.1362427207560932 -0.1734399905344442 0 0.1498051255961938 -0.157092757972084 0 0.1305387904294309 -0.15561497697083931 0 0.1498051255961938 -0.157092757972084 0 0.1305387904294309 -0.15561497697083931 0 0.13638976604354719 -0.13495016646355951 0 0.1161887790728692 -0.1476769396888597 0 0.1305387904294309 -0.15561497697083931 0 0.13638976604354719 -0.13495016646355951 0 0.12800820934211829 -0.12401417466047961 0 0.13638976604354719 -0.13495016646355951 0 0.1486045981545247 -0.12747252536747111 0 0.13638976604354719 -0.13495016646355951 0 0.16388512732533739 -0.13509953849785281 0 0.13638976604354719 -0.13495016646355951 0 0.1486045981545247 -0.12747252536747111 0 0.16388512732533739 -0.13509953849785281 0 0.1498051255961938 -0.157092757972084 0 0.13638976604354719 -0.13495016646355951 0 0.16388512732533739 -0.13509953849785281 0 0.16388512732533739 -0.13509953849785281 0 0.17075910293887969 -0.16226188992442411 0 0.1498051255961938 -0.157092757972084 0 0.16388512732533739 -0.13509953849785281 0 0.17075910293887969 -0.16226188992442411 0 0.18014950107347269 -0.1188522098678762 0 0.16265603278097029 -0.1302428005884553 0 0.16388512732533739 -0.13509953849785281 0 0.16095359288685571 -0.1184472051676727 0 0.1486045981545247 -0.12747252536747111 0 0.16265603278097029 -0.1302428005884553 0 0.1486045981545247 -0.12747252536747111 0 0.16265603278097029 -0.1302428005884553 0 0.16388512732533739 -0.13509953849785281 0 0.16265603278097029 -0.1302428005884553 0 0.16388512732533739 -0.13509953849785281 0 0.19406318364410949 -0.13526348461287321 0 0.16388512732533739 -0.13509953849785281 0 0.18014950107347269 -0.1188522098678762 0 0.19406318364410949 -0.13526348461287321 0 0.18014950107347269 -0.1188522098678762 0 0.19406318364410949 -0.13526348461287321 0 0.16388512732533739 -0.13509953849785281 0 0.19019323353294471 -0.15547991582157239 0 0.16388512732533739 -0.13509953849785281 0 0.17075910293887969 -0.16226188992442411 0 0.19019323353294471 -0.15547991582157239 0 0.19406318364410949 -0.13526348461287321 0 0.16388512732533739 -0.13509953849785281 0 0.19019323353294471 -0.15547991582157239 0 0.185888281266576 -0.1738959907954824 0 0.17075910293887969 -0.16226188992442411 0 0.1776330785524223 -0.18942424135099509 0 0.185888281266576 -0.1738959907954824 0 0.17075910293887969 -0.16226188992442411 0 0.1776330785524223 -0.18942424135099509 0 0.17075910293887969 -0.16226188992442411 0 0.19333004299069351 -0.19482382871724169 0 0.1776330785524223 -0.18942424135099509 0 0.185888281266576 -0.1738959907954824 0 0.1776330785524223 -0.18942424135099509 0 0.15431059237432221 -0.18438501484475869 0 0.17075910293887969 -0.16226188992442411 0 0.15431059237432221 -0.18438501484475869 0 0.1498051255961938 -0.157092757972084 0 0.17075910293887969 -0.16226188992442411 0 
</DataArray>
</Points>
<Cells>
<DataArray type="UInt32" Name="connectivity" format="ascii">
0 1 2 3 4 5 6 7 8 9 10 11 12 13 14 15 16 17 18 19 20 21 22 23 24 25 26 27 28 29 30 31 32 33 34 35 36 37 38 39 40 41 42 43 44 45 46 47 48 49 50 51 52 53 54 55 56 57 58 59 60 61 62 63 64 65 66 67 68 69 70 71 72 73 74 75 76 77 78 79 80 81 82 83 84 85 86 87 88 89 90 91 92 93 94 95 96 97 98 99 100 101 102 103 104 105 106 107 108 109 110 111 112 113 114 115 116 117 118 119 120 121 122 123 124 125 126 127 128 129 130 131 132 133 134 135 136 137 138 139 140 141 142 143 144 145 146 147 148 149 150 151 152 153 154 155 156 157 158 159 160 161 162 163 164 165 166 167 168 169 170 171 172 173 174 175 176 177 178 179 180 181 182 183 184 185 186 187 188 189 190 191 192 193 194 195 196 197 198 199 200 201 202 203 204 205 206 207 208 209 210 211 212 213 214 215 216 217 218 219 220 221 222 223 224 225 226 227 228 229 230 231 232 233 234 235 236 237 238 239 240 241 242 243 244 245 246 247 248 249 250 251 252 253 254 255 256 257 258 259 260 261 262 263 264 265 266 267 268 269 270 271 272 273 274 275 276 277 278 279 280 281 282 283 284 285 286 287 288 289 290 291 292 293 294 295 296 297 298 299 300 301 302 303 304 305 306 307 308 309 310 311 312 313 314 315 316 317 318 319 320 321 322 323 324 325 326 327 328 329 330 331 332 333 334 335 336 337 338 339 340 341 342 343 344 345 346 347 348 349 350 351 352 353 354 355 356 357 358 359 360 361 362 363 364 365 366 367 368 369 370 371 372 373 374 375 376 377 378 379 380 381 382 383 384 385 386 387 388 389 390 391 392 393 394 395 396 397 398 399 400 401 402 403 404 405 406 407 408 409 410 411 412 413 414 415 416 417 418 419 420 421 422 423 424 425 426 427 428 429 430 431 432 433 434 435 436 437 438 439 440 441 442 443 444 445 446 447 448 449 450 451 452 453 454 455 456 457 458 459 460 461 462 463 464 465 466 467 468 469 470 471 472 473 474 475 476 477 478 479 480 481 482 483 484 485 486 487 488 489 490 491 492 493 494 495 496 497 498 499 500 501 502 503 504 505 506 507 508 509 510 511 512 513 514 515 516 517 518 519 520 521 522 523 524 525 526 527 528 529 530 531 532 533 534 535 536 537 538 539 540 541 542 543 544 545 546 547 548 549 550 551 552 553 554 555 556 557 558 559 560 561 562 563 564 565 566 567 568 569 570 571 572 573 574 575 576 577 578 579 580 581 582 583 584 585 586 587 588 589 590 591 592 593 594 595 596 597 598 599 600 601 602 603 604 605 606 607 608 609 610 611 612 613 614 615 616 617 618 619 620 621 622 623 624 625 626 627 628 629 630 631 632 633 634 635 636 637 638 639 640 641 642 643 644 645 646 647 648 649 650 651 652 653 654 655 656 657 658 659 660 661 662 663 664 665 666 667 668 669 670 671 672 673 674 675 676 677 678 679 680 681 682 683 684 685 686 687 688 689 690 691 692 693 694 695 696 697 698 699 700 701 702 703 704 705 706 707 708 709 710 711 712 713 714 715 716 717 718 719 720 721 722 723 724 725 726 727 728 729 730 731 732 733 734 735 736 737 738 739 740 741 742 743 744 745 746 747 748 749 750 751 752 753 754 755 756 757 758 759 760 761 762 763 764 765 766 767 768 769 770 771 772 773 774 775 776 777 778 779 780 781 782 783 784 785 786 787 788 789 790 791 792 793 794 795 796 797 798 799 800 801 802 803 804 805 806 807 808 809 810 811 812 813 814 815 816 817 818 819 820 821 822 823 824 825 826 827 828 829 830 831 832 833 834 835 836 837 838 839 840 841 842 843 844 845 846 847 848 849 850 851 852 853 854 855 856 857 858 859 860 861 862 863 864 865 866 867 868 869 870 871 872 873 874 875 876 877 878 879 880 881 882 883 884 885 886 887 888 889 890 891 892 893 894 895 896 897 898 899 900 901 902 903 904 905 906 907 908 909 910 911 912 913 914 915 916 917 918 919 920 921 922 923 924 925 926 927 928 929 930 931 932 933 934 935 936 937 938 939 940 941 942 943 944 945 946 947 948 949 950 951 952 953 954 955 956 957 958 959 960 961 962 963 964 965 966 967 968 969 970 971 972 973 974 975 976 977 978 979 980 981 982 983 984 985 986 987 988 989 990 991 992 993 994 995 996 997 998 999 1000 1001 1002 1003 1004 1005 1006 1007 1008 1009 1010 1011 1012 1013 1014 1015 1016 1017 1018 1019 1020 1021 1022 1023 1024 1025 1026 1027 1028 1029 1030 1031 1032 1033 1034 1035 1036 1037 1038 1039 1040 1041 1042 1043 1044 1045 1046 1047 1048 1049 1050 1051 1052 1053 1054 1055 1056 1057 1058 1059 1060 1061 1062 1063 1064 1065 1066 1067 1068 1069 1070 1071 1072 1073 1074 1075 1076 1077 1078 1079 1080 1081 1082 1083 1084 1085 1086 1087 1088 1089 1090 1091 1092 1093 1094 1095 1096 1097 1098 1099 1100 1101 1102 1103 1104 1105 1106 1107 1108 1109 1110 1111 1112 1113 1114 1115 1116 1117 1118 1119 1120 1121 1122 1123 1124 1125 1126 1127 1128 1129 1130 1131 1132 1133 1134 1135 1136 1137 1138 1139 1140 1141 1142 1143 1144 1145 1146 1147 1148 1149 1150 1151 1152 1153 1154 1155 1156 1157 1158 1159 1160 1161 1162 1163 1164 1165 1166 1167 1168 1169 1170 1171 1172 1173 1174 1175 1176 1177 1178 1179 1180 1181 1182 1183 1184 1185 1186 1187 1188 1189 1190 1191 1192 1193 1194 1195 1196 1197 1198 1199 1200 1201 1202 1203 1204 1205 1206 1207 1208 1209 1210 1211 1212 1213 1214 1215 1216 1217 1218 1219 1220 1221 1222 1223 1224 1225 1226 1227 1228 1229 1230 1231 1232 1233 1234 1235 1236 1237 1238 1239 1240 1241 1242 1243 1244 1245 1246 1247 1248 1249 1250 1251 1252 1253 1254 1255 1256 1257 1258 1259 1260 1261 1262 1263 1264 1265 1266 1267 1268 1269 1270 1271 1272 1273 1274 1275 1276 1277 1278 1279 1280 1281 1282 1283 1284 1285 1286 1287 1288 1289 1290 1291 1292 1293 1294 1295 1296 1297 1298 1299 1300 1301 1302 1303 1304 1305 1306 1307 1308 1309 1310 1311 1312 1313 1314 1315 1316 1317 1318 1319 1320 1321 1322 1323 1324 1325 1326 1327 1328 1329 1330 1331 1332 1333 1334 1335 1336 1337 1338 1339 1340 1341 1342 1343 1344 1345 1346 1347 1348 1349 1350 1351 1352 1353 1354 1355 1356 1357 1358 1359 1360 1361 1362 1363 1364 1365 1366 1367 1368 1369 1370 1371 1372 1373 1374 1375 1376 1377 1378 1379 1380 1381 1382 1383 1384 1385 1386 1387 1388 1389 1390 1391 1392 1393 1394 1395 1396 1397 1398 1399 1400 1401 1402 1403 1404 1405 1406 1407 1408 1409 1410 1411 1412 1413 1414 1415 1416 1417 1418 1419 1420 1421 1422 1423 1424 1425 1426 1427 1428 1429 1430 1431 1432 1433 1434 1435 1436 1437 1438 1439 1440 1441 1442 1443 1444 1445 1446 1447 1448 1449 1450 1451 1452 1453 1454 1455 1456 1457 1458 1459 1460 1461 1462 1463 1464 1465 1466 1467 1468 1469 1470 1471 1472 1473 1474 1475 1476 1477 1478 1479 1480 1481 1482 1483 1484 1485 1486 1487 1488 1489 1490 1491 1492 1493 1494 1495 1496 1497 1498 1499 1500 1501 1502 1503 1504 1505 1506 1507 1508 1509 1510 1511 1512 1513 1514 1515 1516 1517 1518 1519 1520 1521 1522 1523 1524 1525 1526 1527 1528 1529 1530 1531 1532 1533 1534 1535 1536 1537 1538 1539 1540 1541 1542 1543 1544 1545 1546 1547 1548 1549 1550 1551 1552 1553 1554 1555 1556 1557 1558 1559 1560 1561 1562 1563 1564 1565 1566 1567 1568 1569 1570 1571 1572 1573 1574 1575 1576 1577 1578 1579 1580 1581 1582 1583 1584 1585 1586 1587 1588 1589 1590 1591 1592 1593 1594 1595 1596 1597 1598 1599 1600 1601 1602 1603 1604 1605 1606 1607 1608 1609 1610 1611 1612 1613 1614 1615 1616 1617 1618 1619 1620 1621 1622 1623 1624 1625 1626 1627 1628 1629 1630 1631 1632 1633 1634 1635 1636 1637 1638 1639 1640 1641 1642 1643 1644 1645 1646 1647 1648 1649 1650 1651 1652 1653 1654 1655 1656 1657 1658 1659 1660 1661 1662 1663 1664 1665 1666 1667 1668 1669 1670 1671 1672 1673 1674 1675 1676 1677 1678 1679 1680 1681 1682 1683 1684 1685 1686 1687 1688 1689 1690 1691 1692 1693 1694 1695 1696 1697 1698 1699 1700 1701 1702 1703 1704 1705 1706 1707 1708 1709 1710 1711 1712 1713 1714 1715 1716 1717 1718 1719 1720 1721 1722 1723 1724 1725 1726 1727 1728 1729 1730 1731 1732 1733 1734 1735 1736 1737 1738 1739 1740 1741 1742 1743 1744 1745 1746 1747 1748 1749 1750 1751 1752 1753 1754 1755 1756 1757 1758 1759 1760 1761 1762 1763 1764 1765 1766 1767 1768 1769 1770 1771 1772 1773 1774 1775 1776 1777 1778 1779 1780 1781 1782 1783 1784 1785 1786 1787 1788 1789 1790 1791 1792 1793 1794 1795 1796 1797 1798 1799 1800 1801 1802 1803 1804 1805 1806 1807 1808 1809 1810 1811 1812 1813 1814 1815 1816 1817 1818 1819 1820 1821 1822 1823 1824 1825 1826 1827 1828 1829 1830 1831 1832 1833 1834 1835 1836 1837 1838 1839 1840 1841 1842 1843 1844 1845 1846 1847 1848 1849 1850 1851 1852 1853 1854 1855 1856 1857 1858 1859 1860 1861 1862 1863 1864 1865 1866 1867 1868 1869 1870 1871 1872 1873 1874 1875 1876 1877 1878 1879 1880 1881 1882 1883 1884 1885 1886 1887 1888 1889 1890 1891 1892 1893 1894 1895 1896 1897 1898 1899 1900 1901 1902 1903 1904 1905 1906 1907 1908 1909 1910 1911 1912 1913 1914 1915 1916 1917 1918 1919 1920 1921 1922 1923 1924 1925 1926 1927 1928 1929 1930 1931 1932 1933 1934 1935 1936 1937 1938 1939 1940 1941 1942 1943 1944 1945 1946 1947 1948 1949 1950 1951 1952 1953 1954 1955 1956 1957 1958 1959 1960 1961 1962 1963 1964 1965 1966 1967 1968 1969 1970 1971 1972 1973 1974 1975 1976 1977 1978 1979 1980 1981 1982 1983 1984 1985 1986 1987 1988 1989 1990 1991 1992 1993 1994 1995 1996 1997 1998 1999 2000 2001 2002 2003 2004 2005 2006 2007 2008 2009 2010 2011 2012 2013 2014 2015 2016 2017 2018 2019 2020 2021 2022 2023 2024 2025 2026 2027 2028 2029 2030 2031 2032 2033 2034 2035 2036 2037 2038 2039 2040 2041 2042 2043 2044 2045 2046 2047 2048 2049 2050 2051 2052 2053 2054 2055 2056 2057 2058 2059 2060 2061 2062 2063 2064 2065 2066 2067 2068 2069 2070 2071 2072 2073 2074 2075 2076 2077 2078 2079 2080 2081 2082 2083 2084 2085 2086 2087 2088 2089 2090 2091 2092 2093 2094 2095 2096 2097 2098 2099 2100 2101 2102 2103 2104 2105 2106 2107 2108 2109 2110 2111 2112 2113 2114 2115 2116 2117 2118 2119 2120 2121 2122 2123 2124 2125 2126 2127 2128 2129 2130 2131 2132 2133 2134 2135 2136 2137 2138 2139 2140 2141 2142 2143 2144 2145 2146 2147 2148 2149 2150 2151 2152 2153 2154 2155 2156 2157 2158 2159 2160 2161 2162 2163 2164 2165 2166 2167 2168 2169 2170 2171 2172 2173 2174 2175 2176 2177 2178 2179 2180 2181 2182 2183 2184 2185 2186 2187 2188 2189 2190 2191 2192 2193 2194 2195 2196 2197 2198 2199 2200 2201 2202 2203 2204 2205 2206 2207 2208 2209 2210 2211 2212 2213 2214 2215 2216 2217 2218 2219 2220 2221 2222 2223 2224 2225 2226 2227 2228 2229 2230 2231 2232 2233 2234 2235 2236 2237 2238 2239 2240 2241 2242 2243 2244 2245 2246 2247 2248 2249 2250 2251 2252 2253 2254 2255 2256 2257 2258 2259 2260 2261 2262 2263 2264 2265 2266 2267 2268 2269 2270 2271 2272 2273 2274 2275 2276 2277 2278 2279 2280 2281 2282 2283 2284 2285 2286 2287 2288 2289 2290 2291 2292 2293 2294 2295 2296 2297 2298 2299 2300 2301 2302 2303 2304 2305 2306 2307 2308 2309 2310 2311 2312 2313 2314 2315 2316 2317 2318 2319 2320 2321 2322 2323 2324 2325 2326 2327 2328 2329 2330 2331 2332 2333 2334 2335 2336 2337 2338 2339 2340 2341 2342 2343 2344 2345 2346 2347 2348 2349 2350 2351 2352 2353 2354 2355 2356 2357 2358 2359 2360 2361 2362 2363 2364 2365 2366 2367 2368 2369 2370 2371 2372 2373 2374 2375 2376 2377 2378 2379 2380 2381 2382 2383 2384 2385 2386 2387 2388 2389 2390 2391 2392 2393 2394 2395 2396 2397 2398 2399 2400 2401 2402 2403 2404 2405 2406 2407 2408 2409 2410 2411 2412 2413 2414 2415 2416 2417 2418 2419 2420 2421 2422 2423 2424 2425 2426 2427 2428 2429 2430 2431 2432 2433 2434 2435 2436 2437 2438 2439 2440 2441 2442 2443 2444 2445 2446 2447 2448 2449 2450 2451 2452 2453 2454 2455 2456 2457 2458 2459 2460 2461 2462 2463 2464 2465 2466 2467 2468 2469 2470 2471 2472 2473 2474 2475 2476 2477 2478 2479 2480 2481 2482 2483 2484 2485 2486 2487 2488 2489 2490 2491 2492 2493 2494 2495 2496 2497 2498 2499 2500 2501 2502 2503 2504 2505 2506 2507 2508 2509 2510 2511 2512 2513 2514 2515 2516 2517 2518 2519 2520 2521 2522 2523 2524 2525 2526 2527 2528 2529 2530 2531 2532 2533 2534 2535 2536 2537 2538 2539 2540 2541 2542 2543 2544 2545 2546 2547 2548 2549 2550 2551 2552 2553 2554 2555 2556 2557 2558 2559 2560 2561 2562 2563 2564 2565 2566 2567 2568 2569 2570 2571 2572 2573 2574 2575 2576 2577 2578 2579 2580 2581 2582 2583 2584 2585 2586 2587 2588 2589 2590 2591 2592 2593 2594 2595 2596 2597 2598 2599 2600 2601 2602 2603 2604 2605 2606 2607 2608 2609 2610 2611 2612 2613 2614 2615 2616 2617 2618 2619 2620 2621 2622 2623 2624 2625 2626 2627 2628 2629 2630 2631 2632 2633 2634 2635 2636 2637 2638 2639 2640 2641 2642 2643 2644 2645 2646 2647 2648 2649 2650 2651 2652 2653 2654 2655 2656 2657 2658 2659 2660 2661 2662 2663 2664 2665 2666 2667 2668 2669 2670 2671 2672 2673 2674 2675 2676 2677 2678 2679 2680 2681 2682 2683 2684 2685 2686 2687 2688 2689 2690 2691 2692 2693 2694 2695 2696 2697 2698 2699 2700 2701 2702 2703 2704 2705 2706 2707 2708 2709 2710 2711 2712 2713 2714 2715 2716 2717 2718 2719 2720 2721 2722 2723 2724 2725 2726 2727 2728 2729 2730 2731 2732 2733 2734 2735 2736 2737 2738 2739 2740 2741 2742 2743 2744 2745 2746 2747 2748 2749 2750 2751 2752 2753 2754 2755 2756 2757 2758 2759 2760 2761 2762 2763 2764 2765 2766 2767 2768 2769 2770 2771 2772 2773 2774 2775 2776 2777 2778 2779 2780 2781 2782 2783 2784 2785 2786 2787 2788 2789 2790 2791 2792 2793 2794 2795 2796 2797 2798 2799 2800 2801 2802 2803 2804 2805 2806 2807 2808 2809 2810 2811 2812 2813 2814 2815 2816 2817 2818 2819 2820 2821 2822 2823 2824 2825 2826 2827 2828 2829 2830 2831 2832 2833 2834 2835 2836 2837 2838 2839 2840 2841 2842 2843 2844 2845 2846 2847 2848 2849 2850 2851 2852 2853 2854 2855 2856 2857 2858 2859 2860 2861 2862 2863 2864 2865 2866 2867 2868 2869 2870 2871 2872 2873 2874 2875 2876 2877 2878 2879 2880 2881 2882 2883 2884 2885 2886 2887 2888 2889 2890 2891 2892 2893 2894 2895 2896 2897 2898 2899 2900 2901 2902 2903 2904 2905 2906 2907 2908 2909 2910 2911 2912 2913 2914 2915 2916 2917 2918 2919 2920 2921 2922 2923 2924 2925 2926 2927 2928 2929 2930 2931 2932 2933 2934 2935 2936 2937 2938 2939 2940 2941 2942 2943 2944 2945 2946 2947 2948 2949 2950 2951 2952 2953 2954 2955 2956 2957 2958 2959 2960 2961 2962 2963 2964 2965 2966 2967 2968 2969 2970 2971 2972 2973 2974 2975 2976 2977 2978 2979 2980 2981 2982 2983 2984 2985 2986 2987 2988 2989 2990 2991 2992 2993 2994 2995 2996 2997 2998 2999 3000 3001 3002 3003 3004 3005 3006 3007 3008 3009 3010 3011 3012 3013 3014 3015 3016 3017 3018 3019 3020 3021 3022 3023 3024 3025 3026 3027 3028 3029 3030 3031 3032 3033 3034 3035 3036 3037 3038 3039 3040 3041 3042 3043 3044 3045 3046 3047 3048 3049 3050 3051 3052 3053 3054 3055 3056 3057 3058 3059 3060 3061 3062 3063 3064 3065 3066 3067 3068 3069 3070 3071 3072 3073 3074 3075 3076 3077 3078 3079 3080 3081 3082 3083 3084 3085 3086 3087 3088 3089 3090 3091 3092 3093 3094 3095 3096 3097 3098 3099 3100 3101 3102 3103 3104 3105 3106 3107 3108 3109 3110 3111 3112 3113 3114 3115 3116 3117 3118 3119 3120 3121 3122 3123 3124 3125 3126 3127 3128 3129 3130 3131 3132 3133 3134 3135 3136 3137 3138 3139 3140 3141 3142 3143 3144 3145 3146 3147 3148 3149 3150 3151 3152 3153 3154 3155 3156 3157 3158 3159 3160 3161 3162 3163 3164 3165 3166 3167 3168 3169 3170 3171 3172 3173 3174 3175 3176 3177 3178 3179 3180 3181 3182 3183 3184 3185 3186 3187 3188 3189 3190 3191 3192 3193 3194 3195 3196 3197 3198 3199 3200 3201 3202 3203 3204 3205 3206 3207 3208 3209 3210 3211 3212 3213 3214 3215 3216 3217 3218 3219 3220 3221 3222 3223 3224 3225 3226 3227 3228 3229 3230 3231 3232 3233 3234 3235 3236 3237 3238 3239 3240 3241 3242 3243 3244 3245 3246 3247 3248 3249 3250 3251 3252 3253 3254 3255 3256 3257 3258 3259 3260 3261 3262 3263 3264 3265 3266 3267 3268 3269 3270 3271 3272 3273 3274 3275 3276 3277 3278 3279 3280 3281 3282 3283 3284 3285 3286 3287 3288 3289 3290 3291 3292 3293 3294 3295 3296 3297 3298 3299 3300 3301 3302 3303 3304 3305 3306 3307 3308 3309 3310 3311 3312 3313 3314 3315 3316 3317 3318 3319 3320 3321 3322 3323 3324 3325 3326 3327 3328 3329 3330 3331 3332 3333 3334 3335 3336 3337 3338 3339 3340 3341 3342 3343 3344 3345 3346 3347 3348 3349 3350 3351 3352 3353 3354 3355 3356 3357 3358 3359 3360 3361 3362 3363 3364 3365 3366 3367 3368 3369 3370 3371 3372 3373 3374 3375 3376 3377 3378 3379 3380 3381 3382 3383 3384 3385 3386 3387 3388 3389 3390 3391 3392 3393 3394 3395 3396 3397 3398 3399 3400 3401 3402 3403 3404 3405 3406 3407 3408 3409 3410 3411 3412 3413 3414 3415 3416 3417 3418 3419 3420 3421 3422 3423 3424 3425 3426 3427 3428 3429 3430 3431 3432 3433 3434 3435 3436 3437 3438 3439 3440 3441 3442 3443 3444 3445 3446 3447 3448 3449 3450 3451 3452 3453 3454 3455 3456 3457 3458 3459 3460 3461 3462 3463 3464 3465 3466 3467 3468 3469 3470 3471 3472 3473 3474 3475 3476 3477 3478 3479 3480 3481 3482 3483 3484 3485 3486 3487 3488 3489 3490 3491 3492 3493 3494 3495 3496 3497 3498 3499 3500 3501 3502 3503 3504 3505 3506 3507 3508 3509 3510 3511 3512 3513 3514 3515 3516 3517 3518 3519 3520 3521 3522 3523 3524 3525 3526 3527 3528 3529 3530 3531 3532 3533 3534 3535 3536 3537 3538 3539 3540 3541 3542 3543 3544 3545 3546 3547 3548 3549 3550 3551 3552 3553 3554 3555 3556 3557 3558 3559 3560 3561 3562 3563 3564 3565 3566 3567 3568 3569 3570 3571 3572 3573 3574 3575 3576 3577 3578 3579 3580 3581 3582 3583 3584 3585 3586 3587 3588 3589 3590 3591 3592 3593 3594 3595 3596 3597 3598 3599 3600 3601 3602 3603 3604 3605 3606 3607 3608 3609 3610 3611 3612 3613 3614 3615 3616 3617 3618 3619 3620 3621 3622 3623 3624 3625 3626 3627 3628 3629 3630 3631 3632 3633 3634 3635 3636 3637 3638 3639 3640 3641 3642 3643 3644 3645 3646 3647 3648 3649 3650 3651 3652 3653 3654 3655 3656 3657 3658 3659 3660 3661 3662 3663 3664 3665 3666 3667 3668 3669 3670 3671 3672 3673 3674 3675 3676 3677 3678 3679 3680 3681 3682 3683 3684 3685 3686 3687 3688 3689 3690 3691 3692 3693 3694 3695 3696 3697 3698 3699 3700 3701 3702 3703 3704 3705 3706 3707 3708 3709 3710 3711 3712 3713 3714 3715 3716 3717 3718 3719 3720 3721 3722 3723 3724 3725 3726 3727 3728 3729 3730 3731 3732 3733 3734 3735 3736 3737 3738 3739 3740 3741 3742 3743 3744 3745 3746 3747 3748 3749 3750 3751 3752 3753 3754 3755 3756 3757 3758 3759 3760 3761 3762 3763 3764 3765 3766 3767 3768 3769 3770 3771 3772 3773 3774 3775 3776 3777 3778 3779 3780 3781 3782 3783 3784 3785 3786 3787 3788 3789 3790 3791 3792 3793 3794 3795 3796 3797 3798 3799 3800 3801 3802 3803 3804 3805 3806 3807 3808 3809 3810 3811 3812 3813 3814 3815 3816 3817 3818 3819 3820 3821 3822 3823 3824 3825 3826 3827 3828 3829 3830 3831 3832 3833 3834 3835 3836 3837 3838 3839 3840 3841 3842 3843 3844 3845 3846 3847 3848 3849 3850 3851 3852 3853 3854 3855 3856 3857 3858 3859 3860 3861 3862 3863 3864 3865 3866 3867 3868 3869 3870 3871 3872 3873 3874 3875 3876 3877 3878 3879 3880 3881 3882 3883 3884 3885 3886 3887 3888 3889 3890 3891 3892 3893 3894 3895 3896 3897 3898 3899 3900 3901 3902 3903 3904 3905 3906 3907 3908 3909 3910 3911 3912 3913 3914 3915 3916 3917 3918 3919 3920 3921 3922 3923 3924 3925 3926 3927 3928 3929 3930 3931 3932 3933 3934 3935 3936 3937 3938 3939 3940 3941 3942 3943 3944 3945 3946 3947 3948 3949 3950 3951 3952 3953 3954 3955 3956 3957 3958 3959 3960 3961 3962 3963 3964 3965 3966 3967 3968 3969 3970 3971 3972 3973 3974 3975 3976 3977 3978 3979 3980 3981 3982 3983 3984 3985 3986 3987 3988 3989 3990 3991 3992 3993 3994 3995 3996 3997 3998 3999 4000 4001 4002 4003 4004 4005 4006 4007 4008 4009 4010 4011 4012 4013 4014 4015 4016 4017 4018 4019 4020 4021 4022 4023 4024 4025 4026 4027 4028 4029 4030 4031 4032 4033 4034 4035 4036 4037 4038 4039 4040 4041 4042 4043 4044 4045 4046 4047 4048 4049 4050 4051 4052 4053 4054 4055 4056 4057 4058 4059 4060 4061 4062 4063 4064 4065 4066 4067 4068 4069 4070 4071 4072 4073 4074 4075 4076 4077 4078 4079 4080 4081 4082 4083 4084 4085 4086 4087 4088 4089 4090 4091 4092 4093 4094 4095 4096 4097 4098 4099 4100 4101 4102 4103 4104 4105 4106 4107 4108 4109 4110 4111 4112 4113 4114 4115 4116 4117 4118 4119 4120 4121 4122 4123 4124 4125 4126 4127 4128 4129 4130 4131 4132 4133 4134 4135 4136 4137 4138 4139 4140 4141 4142 4143 4144 4145 4146 4147 4148 4149 4150 4151 4152 4153 4154 4155 4156 4157 4158 4159 4160 4161 4162 4163 4164 4165 4166 4167 4168 4169 4170 4171 4172 4173 4174 4175 4176 4177 4178 4179 4180 4181 4182 4183 4184 4185 4186 4187 4188 4189 4190 4191 4192 4193 4194 4195 4196 4197 4198 4199 4200 4201 4202 4203 4204 4205 4206 4207 4208 4209 4210 4211 4212 4213 4214 4215 4216 4217 4218 4219 4220 4221 4222 4223 4224 4225 4226 4227 4228 4229 4230 4231 4232 4233 4234 4235 4236 4237 4238 4239 4240 4241 4242 4243 4244 4245 4246 4247 4248 4249 4250 4251 4252 4253 4254 4255 4256 4257 4258 4259 4260 4261 4262 4263 4264 4265 4266 4267 4268 4269 4270 4271 4272 4273 4274 4275 4276 4277 4278 4279 4280 4281 4282 4283 4284 4285 4286 4287 4288 4289 4290 4291 4292 4293 4294 4295 4296 4297 4298 4299 4300 4301 4302 4303 4304 4305 4306 4307 4308 4309 4310 4311 4312 4313 4314 4315 4316 4317 4318 4319 4320 4321 4322 4323 4324 4325 4326 4327 4328 4329 4330 4331 4332 4333 4334 4335 4336 4337 4338 4339 4340 4341 4342 4343 4344 4345 4346 4347 4348 4349 4350 4351 4352 4353 4354 4355 4356 4357 4358 4359 4360 4361 4362 4363 4364 4365 4366 4367 4368 4369 4370 4371 4372 4373 4374 4375 4376 4377 4378 4379 4380 4381 4382 4383 4384 4385 4386 4387 4388 4389 4390 4391 4392 4393 4394 4395 4396 4397 4398 4399 4400 4401 4402 4403 4404 4405 4406 4407 4408 4409 4410 4411 4412 4413 4414 4415 4416 4417 4418 4419 4420 4421 4422 4423 4424 4425 4426 4427 4428 4429 4430 4431 4432 4433 4434 4435 4436 4437 4438 4439 4440 4441 4442 4443 4444 4445 4446 4447 4448 4449 4450 4451 4452 4453 4454 4455 4456 4457 4458 4459 4460 4461 4462 4463 4464 4465 4466 4467 4468 4469 4470 4471 4472 4473 4474 4475 4476 4477 4478 4479 4480 4481 4482 4483 4484 4485 4486 4487 4488 4489 4490 4491 4492 4493 4494 4495 4496 4497 4498 4499 4500 4501 4502 4503 4504 4505 4506 4507 4508 4509 4510 4511 4512 4513 4514 4515 4516 4517 4518 4519 4520 4521 4522 4523 4524 4525 4526 4527 4528 4529 4530 4531 4532 4533 4534 4535 4536 4537 4538 4539 4540 4541 4542 4543 4544 4545 4546 4547 4548 4549 4550 4551 4552 4553 4554 4555 4556 4557 4558 4559 4560 4561 4562 4563 4564 4565 4566 4567 4568 4569 4570 4571 4572 4573 4574 4575 4576 4577 4578 4579 4580 4581 4582 4583 4584 4585 4586 4587 4588 4589 4590 4591 4592 4593 4594 4595 4596 4597 4598 4599 4600 4601 4602 4603 4604 4605 4606 4607 4608 4609 4610 4611 4612 4613 4614 4615 4616 4617 4618 4619 4620 4621 4622 4623 4624 4625 4626 4627 4628 4629 4630 4631 4632 4633 4634 4635 4636 4637 4638 4639 4640 4641 4642 4643 4644 4645 4646 4647 4648 4649 4650 4651 4652 4653 4654 4655 4656 4657 4658 4659 4660 4661 4662 4663 4664 4665 4666 4667 4668 4669 4670 4671 4672 4673 4674 4675 4676 4677 4678 4679 4680 4681 4682 4683 4684 4685 4686 4687 4688 4689 4690 4691 4692 4693 4694 4695 4696 4697 4698 4699 4700 4701 4702 4703 4704 4705 4706 4707 4708 4709 4710 4711 4712 4713 4714 4715 4716 4717 4718 4719 4720 4721 4722 4723 4724 4725 4726 4727 4728 4729 4730 4731 4732 4733 4734 4735 4736 4737 4738 4739 4740 4741 4742 4743 4744 4745 4746 4747 4748 4749 4750 4751 4752 4753 4754 4755 4756 4757 4758 4759 4760 4761 4762 4763 4764 4765 4766 4767 4768 4769 4770 4771 4772 4773 4774 4775 4776 4777 4778 4779 4780 4781 4782 4783 4784 4785 4786 4787 4788 4789 4790 4791 4792 4793 4794 4795 4796 4797 4798 4799 4800 4801 4802 4803 4804 4805 4806 4807 4808 4809 4810 4811 4812 4813 4814 4815 4816 4817 4818 4819 4820 4821 4822 4823 4824 4825 4826 4827 4828 4829 4830 4831 4832 4833 4834 4835 4836 4837 4838 4839 4840 4841 4842 4843 4844 4845 4846 4847 4848 4849 4850 4851 4852 4853 4854 4855 4856 4857 4858 4859 4860 4861 4862 4863 4864 4865 4866 4867 4868 4869 4870 4871 4872 4873 4874 4875 4876 4877 4878 4879 4880 4881 4882 4883 4884 4885 4886 4887 4888 4889 4890 4891 4892 4893 4894 4895 4896 4897 4898 4899 4900 4901 4902 4903 4904 4905 4906 4907 4908 4909 4910 4911 4912 4913 4914 4915 4916 4917 4918 4919 4920 4921 4922 4923 4924 4925 4926 4927 4928 4929 4930 4931 4932 4933 4934 4935 4936 4937 4938 4939 4940 4941 4942 4943 4944 4945 4946 4947 4948 4949 4950 4951 4952 4953 4954 4955 4956 4957 4958 4959 4960 4961 4962 4963 4964 4965 4966 4967 4968 4969 4970 4971 4972 4973 4974 4975 4976 4977 4978 4979 4980 4981 4982 4983 4984 4985 4986 4987 4988 4989 4990 4991 4992 4993 4994 4995 4996 4997 4998 4999 5000 5001 5002 5003 5004 5005 5006 5007 5008 5009 5010 5011 5012 5013 5014 5015 5016 5017 5018 5019 5020 5021 5022 5023 5024 5025 5026 5027 5028 5029 5030 5031 5032 5033 5034 5035 5036 5037 5038 5039 5040 5041 5042 5043 5044 5045 5046 5047 5048 5049 5050 5051 5052 5053 5054 5055 5056 5057 5058 5059 5060 5061 5062 5063 5064 5065 5066 5067 5068 5069 5070 5071 5072 5073 5074 5075 5076 5077 5078 5079 5080 5081 5082 5083 5084 5085 5086 5087 5088 5089 5090 5091 5092 5093 5094 5095 5096 5097 5098 5099 5100 5101 5102 5103 5104 5105 5106 5107 5108 5109 5110 5111 5112 5113 5114 5115 5116 5117 5118 5119 5120 5121 5122 5123 5124 5125 5126 5127 5128 5129 5130 5131 5132 5133 5134 5135 5136 5137 5138 5139 5140 5141 5142 5143 5144 5145 5146 5147 5148 5149 5150 5151 5152 5153 5154 5155 5156 5157 5158 5159 5160 5161 5162 5163 5164 5165 5166 5167 5168 5169 5170 5171 5172 5173 5174 5175 5176 5177 5178 5179 5180 5181 5182 5183 5184 5185 5186 5187 5188 5189 5190 5191 5192 5193 5194 5195 5196 5197 5198 5199 5200 5201 5202 5203 5204 5205 5206 5207 5208 5209 5210 5211 5212 5213 5214 5215 5216 5217 5218 5219 5220 5221 5222 5223 5224 5225 5226 5227 5228 5229 5230 5231 5232 5233 5234 5235 5236 5237 5238 5239 5240 5241 5242 5243 5244 5245 5246 5247 5248 5249 5250 5251 5252 5253 5254 5255 5256 5257 5258 5259 5260 5261 5262 5263 5264 5265 5266 5267 5268 5269 5270 5271 5272 5273 5274 5275 5276 5277 5278 5279 5280 5281 5282 5283 5284 5285 5286 5287 5288 5289 5290 5291 5292 5293 5294 5295 5296 5297 5298 5299 5300 5301 5302 5303 5304 5305 5306 5307 5308 5309 5310 5311 5312 5313 5314 5315 5316 5317 5318 5319 5320 5321 5322 5323 5324 5325 5326 5327 5328 5329 5330 5331 5332 5333 5334 5335 5336 5337 5338 5339 5340 5341 5342 5343 5344 5345 5346 5347 5348 5349 5350 5351 5352 5353 5354 5355 5356 5357 5358 5359 5360 5361 5362 5363 5364 5365 5366 5367 5368 5369 5370 5371 5372 5373 5374 5375 5376 5377 5378 5379 5380 5381 5382 5383 5384 5385 5386 5387 5388 5389 5390 5391 5392 5393 5394 5395 5396 5397 5398 5399 5400 5401 5402 5403 5404 5405 5406 5407 5408 5409 5410 5411 5412 5413 5414 5415 5416 5417 5418 5419 5420 5421 5422 5423 5424 5425 5426 5427 5428 5429 5430 5431 5432 5433 5434 5435 5436 5437 5438 5439 5440 5441 5442 5443 5444 5445 5446 5447 5448 5449 5450 5451 5452 5453 5454 5455 5456 5457 5458 5459 5460 5461 5462 5463 5464 5465 5466 5467 5468 5469 5470 5471 5472 5473 5474 5475 5476 5477 5478 5479 5480 5481 5482 5483 5484 5485 5486 5487 5488 5489 5490 5491 5492 5493 5494 5495 5496 5497 5498 5499 5500 5501 5502 5503 5504 5505 5506 5507 5508 5509 5510 5511 5512 5513 5514 5515 5516 5517 5518 5519 5520 5521 5522 5523 5524 5525 5526 5527 5528 5529 5530 5531 5532 5533 5534 5535 5536 5537 5538 5539 5540 5541 5542 5543 5544 5545 5546 5547 5548 5549 5550 5551 5552 5553 5554 5555 5556 5557 5558 5559 5560 5561 5562 5563 5564 5565 5566 5567 5568 5569 5570 5571 5572 5573 5574 5575 5576 5577 5578 5579 5580 5581 5582 5583 5584 5585 5586 5587 5588 5589 5590 5591 5592 5593 5594 5595 5596 5597 5598 5599 5600 5601 5602 5603 5604 5605 5606 5607 5608 5609 5610 5611 5612 5613 5614 5615 5616 5617 5618 5619 5620 5621 5622 5623 5624 5625 5626 5627 5628 5629 5630 5631 5632 5633 5634 5635 5636 5637 5638 5639 5640 5641 5642 5643 5644 5645 5646 5647 5648 5649 5650 5651 5652 5653 5654 5655 5656 5657 5658 5659 5660 5661 5662 5663 5664 5665 5666 5667 5668 5669 5670 5671 5672 5673 5674 5675 5676 5677 5678 5679 5680 5681 5682 5683 5684 5685 5686 5687 5688 5689 5690 5691 5692 5693 5694 5695 5696 5697 5698 5699 5700 5701 5702 5703 5704 5705 5706 5707 5708 5709 5710 5711 5712 5713 5714 5715 5716 5717 5718 5719 5720 5721 5722 5723 5724 5725 5726 5727 5728 5729 5730 5731 5732 5733 5734 5735 5736 5737 5738 5739 5740 5741 5742 5743 5744 5745 5746 5747 5748 5749 5750 5751 5752 5753 5754 5755 5756 5757 5758 5759 5760 5761 5762 5763 5764 5765 5766 5767 5768 5769 5770 5771 5772 5773 5774 5775 5776 5777 5778 5779 5780 5781 5782 5783 5784 5785 5786 5787 5788 5789 5790 5791 5792 5793 5794 5795 5796 5797 5798 5799 5800 5801 5802 5803 5804 5805 5806 5807 5808 5809 5810 5811 5812 5813 5814 5815 5816 5817 5818 5819 5820 5821 5822 5823 5824 5825 5826 5827 5828 5829 5830 5831 5832 5833 5834 5835 5836 5837 5838 5839 5840 5841 5842 5843 5844 5845 5846 5847 5848 5849 5850 5851 5852 5853 5854 5855 5856 5857 5858 5859 5860 5861 5862 5863 5864 5865 5866 5867 5868 5869 5870 5871 5872 5873 5874 5875 5876 5877 5878 5879 5880 5881 5882 5883 5884 5885 5886 5887 5888 5889 5890 5891 5892 5893 5894 5895 5896 5897 5898 5899 5900 5901 5902 5903 5904 5905 5906 5907 5908 5909 5910 5911 5912 5913 5914 5915 5916 5917 5918 5919 5920 5921 5922 5923 5924 5925 5926 5927 5928 5929 5930 5931 5932 5933 5934 5935 5936 5937 5938 5939 5940 5941 5942 5943 5944 5945 5946 5947 5948 5949 5950 5951 5952 5953 5954 5955 5956 5957 5958 5959 5960 5961 5962 5963 5964 5965 5966 5967 5968 5969 5970 5971 5972 5973 5974 5975 5976 5977 5978 5979 5980 5981 5982 5983 5984 5985 5986 5987 5988 5989 5990 5991 5992 5993 5994 5995 5996 5997 5998 5999 6000 6001 6002 6003 6004 6005 6006 6007 6008 6009 6010 6011 6012 6013 6014 6015 6016 6017 6018 6019 6020 6021 6022 6023 6024 6025 6026 6027 6028 6029 6030 6031 6032 6033 6034 6035 6036 6037 6038 6039 6040 6041 6042 6043 6044 6045 6046 6047 6048 6049 6050 6051 6052 6053 6054 6055 6056 6057 6058 6059 6060 6061 6062 6063 6064 6065 6066 6067 6068 6069 6070 6071 6072 6073 6074 6075 6076 6077 6078 6079 6080 6081 6082 6083 6084 6085 6086 6087 6088 6089 6090 6091 6092 6093 6094 6095 6096 6097 6098 6099 6100 6101 6102 6103 6104 6105 6106 6107 6108 6109 6110 6111 6112 6113 6114 6115 6116 6117 6118 6119 6120 6121 6122 6123 6124 6125 6126 6127 6128 6129 6130 6131 6132 6133 6134 6135 6136 6137 6138 6139 6140 6141 6142 6143 6144 6145 6146 6147 6148 6149 6150 6151 6152 6153 6154 6155 6156 6157 6158 6159 6160 6161 6162 6163 6164 6165 6166 6167 6168 6169 6170 6171 6172 6173 6174 6175 6176 6177 6178 6179 6180 6181 6182 6183 6184 6185 6186 6187 6188 6189 6190 6191 6192 6193 6194 6195 6196 6197 6198 6199 6200 6201 6202 6203 6204 6205 6206 6207 6208 6209 6210 6211 6212 6213 6214 6215 6216 6217 6218 6219 6220 6221 6222 6223 6224 6225 6226 6227 6228 6229 6230 6231 6232 6233 6234 6235 6236 6237 6238 6239 6240 6241 6242 6243 6244 6245 6246 6247 6248 6249 6250 6251 6252 6253 6254 6255 6256 6257 6258 6259 6260 6261 6262 6263 6264 6265 6266 6267 6268 6269 6270 6271 6272 6273 6274 6275 6276 6277 6278 6279 6280 6281 6282 6283 6284 6285 6286 6287 6288 6289 6290 6291 6292 6293 6294 6295 6296 6297 6298 6299 6300 6301 6302 6303 6304 6305 6306 6307 6308 6309 6310 6311 6312 6313 6314 6315 6316 6317 6318 6319 6320 6321 6322 6323 6324 6325 6326 6327 6328 6329 6330 6331 6332 6333 6334 6335 6336 6337 6338 6339 6340 6341 6342 6343 6344 6345 6346 6347 6348 6349 6350 6351 6352 6353 6354 6355 6356 6357 6358 6359 6360 6361 6362 6363 6364 6365 6366 6367 6368 6369 6370 6371 6372 6373 6374 6375 6376 6377 6378 6379 6380 6381 6382 6383 6384 6385 6386 6387 6388 6389 6390 6391 6392 6393 6394 6395 6396 6397 6398 6399 6400 6401 6402 6403 6404 6405 6406 6407 6408 6409 6410 6411 6412 6413 6414 6415 6416 6417 6418 6419 6420 6421 6422 6423 6424 6425 6426 6427 6428 6429 6430 6431 6432 6433 6434 6435 6436 6437 6438 6439 6440 6441 6442 6443 6444 6445 6446 6447 6448 6449 6450 6451 6452 6453 6454 6455 6456 6457 6458 6459 6460 6461 6462 6463 6464 6465 6466 6467 6468 6469 6470 6471 6472 6473 6474 6475 6476 6477 6478 6479 6480 6481 6482 6483 6484 6485 6486 6487 6488 6489 6490 6491 6492 6493 6494 6495 6496 6497 6498 6499 6500 6501 6502 6503 6504 6505 6506 6507 6508 6509 6510 6511 6512 6513 6514 6515 6516 6517 6518 6519 6520 6521 6522 6523 6524 6525 6526 6527 6528 6529 6530 6531 6532 6533 6534 6535 6536 6537 6538 6539 6540 6541 6542 6543 6544 6545 6546 6547 6548 6549 6550 6551 6552 6553 6554 6555 6556 6557 6558 6559 6560 6561 6562 6563 6564 6565 6566 6567 6568 6569 6570 6571 6572 6573 6574 6575 6576 6577 6578 6579 6580 6581 6582 6583 6584 6585 6586 6587 6588 6589 6590 6591 6592 6593 6594 6595 6596 6597 6598 6599 6600 6601 6602 6603 6604 6605 6606 6607 6608 6609 6610 6611 6612 6613 6614 6615 6616 6617 6618 6619 6620 6621 6622 6623 6624 6625 6626 6627 6628 6629 6630 6631 6632 6633 6634 6635 6636 6637 6638 6639 6640 6641 6642 6643 6644 6645 6646 6647 6648 6649 6650 6651 6652 6653 6654 6655 6656 6657 6658 6659 6660 6661 6662 6663 6664 6665 6666 6667 6668 6669 6670 6671 6672 6673 6674 6675 6676 6677 6678 6679 6680 6681 6682 6683 6684 6685 6686 6687 6688 6689 6690 6691 6692 6693 6694 6695 6696 6697 6698 6699 6700 6701 6702 6703 6704 6705 6706 6707 6708 6709 6710 6711 6712 6713 6714 6715 6716 6717 6718 6719 6720 6721 6722 6723 6724 6725 6726 6727 6728 6729 6730 6731 6732 6733 6734 6735 6736 6737 6738 6739 6740 6741 6742 6743 6744 6745 6746 6747 6748 6749 6750 6751 6752 6753 6754 6755 6756 6757 6758 6759 6760 6761 6762 6763 6764 6765 6766 6767 6768 6769 6770 6771 6772 6773 6774 6775 6776 6777 6778 6779 6780 6781 6782 6783 6784 6785 6786 6787 6788 6789 6790 6791 6792 6793 6794 6795 6796 6797 6798 6799 6800 6801 6802 6803 6804 6805 6806 6807 6808 6809 6810 6811 6812 6813 6814 6815 6816 6817 6818 6819 6820 6821 6822 6823 6824 6825 6826 6827 6828 6829 6830 6831 6832 6833 6834 6835 6836 6837 6838 6839 6840 6841 6842 6843 6844 6845 6846 6847 6848 6849 6850 6851 6852 6853 6854 6855 6856 6857 6858 6859 6860 6861 6862 6863 6864 6865 6866 6867 6868 6869 6870 6871 6872 6873 6874 6875 6876 6877 6878 6879 6880 6881 6882 6883 6884 6885 6886 6887 6888 6889 6890 6891 6892 6893 6894 6895 6896 6897 6898 6899 6900 6901 6902 6903 6904 6905 6906 6907 6908 6909 6910 6911 6912 6913 6914 6915 6916 6917 6918 6919 6920 6921 6922 6923 6924 6925 6926 6927 6928 6929 6930 6931 6932 6933 6934 6935 6936 6937 6938 6939 6940 6941 6942 6943 6944 6945 6946 6947 6948 6949 6950 6951 6952 6953 6954 6955 6956 6957 6958 6959 6960 6961 6962 6963 6964 6965 6966 6967 6968 6969 6970 6971 6972 6973 6974 6975 6976 6977 6978 6979 6980 6981 6982 6983 6984 6985 6986 6987 6988 6989 6990 6991 6992 6993 6994 6995 6996 6997 6998 6999 7000 7001 7002 7003 7004 7005 7006 7007 7008 7009 7010 7011 7012 7013 7014 7015 7016 7017 7018 7019 7020 7021 7022 7023 7024 7025 7026 7027 7028 7029 7030 7031 7032 7033 7034 7035 7036 7037 7038 7039 7040 7041 7042 7043 7044 7045 7046 7047 7048 7049 7050 7051 7052 7053 7054 7055 7056 7057 7058 7059 7060 7061 7062 7063 7064 7065 7066 7067 7068 7069 7070 7071 7072 7073 7074 7075 7076 7077 7078 7079 7080 7081 7082 7083 7084 7085 7086 7087 7088 7089 7090 7091 7092 7093 7094 7095 7096 7097 7098 7099 7100 7101 7102 7103 7104 7105 7106 7107 7108 7109 7110 7111 7112 7113 7114 7115 7116 7117 7118 7119 7120 7121 7122 7123 7124 7125 7126 7127 7128 7129 7130 7131 7132 7133 7134 7135 7136 7137 7138 7139 7140 7141 7142 7143 7144 7145 7146 7147 7148 7149 7150 7151 7152 7153 7154 7155 7156 7157 7158 7159 7160 7161 7162 7163 7164 7165 7166 7167 7168 7169 7170 7171 7172 7173 7174 7175 7176 7177 7178 7179 7180 7181 7182 7183 7184 7185 7186 7187 7188 7189 7190 7191 7192 7193 7194 7195 7196 7197 7198 7199 7200 7201 7202 7203 7204 7205 7206 7207 7208 7209 7210 7211 7212 7213 7214 7215 7216 7217 7218 7219 7220 7221 7222 7223 7224 7225 7226 7227 7228 7229 7230 7231 7232 7233 7234 7235 7236 7237 7238 7239 7240 7241 7242 7243 7244 7245 7246 7247 7248 7249 7250 7251 7252 7253 7254 7255 7256 7257 7258 7259 7260 7261 7262 7263 7264 7265 7266 7267 7268 7269 7270 7271 7272 7273 7274 7275 7276 7277 7278 7279 7280 7281 7282 7283 7284 7285 7286 7287 7288 7289 7290 7291 7292 7293 7294 7295 7296 7297 7298 7299 7300 7301 7302 7303 7304 7305 7306 7307 7308 7309 7310 7311 7312 7313 7314 7315 7316 7317 7318 7319 7320 7321 7322 7323 7324 7325 7326 7327 7328 7329 7330 7331 7332 7333 7334 7335 7336 7337 7338 7339 7340 7341 7342 7343 7344 7345 7346 7347 7348 7349 7350 7351 7352 7353 7354 7355 7356 7357 7358 7359 7360 7361 7362 7363 7364 7365 7366 7367 7368 7369 7370 7371 7372 7373 7374 7375 7376 7377 7378 7379 7380 7381 7382 7383 7384 7385 7386 7387 7388 7389 7390 7391 7392 7393 7394 7395 7396 7397 7398 7399 7400 7401 7402 7403 7404 7405 7406 7407 7408 7409 7410 7411 7412 7413 7414 7415 7416 7417 7418 7419 7420 7421 7422 7423 7424 7425 7426 7427 7428 7429 7430 7431 7432 7433 7434 7435 7436 7437 7438 7439 7440 7441 7442 7443 7444 7445 7446 7447 7448 7449 7450 7451 7452 7453 7454 7455 7456 7457 7458 7459 7460 7461 7462 7463 7464 7465 7466 7467 7468 7469 7470 7471 7472 7473 7474 7475 7476 7477 7478 7479 7480 7481 7482 7483 7484 7485 7486 7487 7488 7489 7490 7491 7492 7493 7494 7495 7496 7497 7498 7499 7500 7501 7502 7503 7504 7505 7506 7507 7508 7509 7510 7511 7512 7513 7514 7515 7516 7517 7518 7519 7520 7521 7522 7523 7524 7525 7526 7527 7528 7529 7530 7531 7532 7533 7534 7535 7536 7537 7538 7539 7540 7541 7542 7543 7544 7545 7546 7547 7548 7549 7550 7551 7552 7553 7554 7555 7556 7557 7558 7559 7560 7561 7562 7563 7564 7565 7566 7567 7568 7569 7570 7571 7572 7573 7574 7575 7576 7577 7578 7579 7580 7581 7582 7583 7584 7585 7586 7587 7588 7589 7590 7591 7592 7593 7594 7595 7596 7597 7598 7599 7600 7601 7602 7603 7604 7605 7606 7607 7608 7609 7610 7611 7612 7613 7614 7615 7616 7617 7618 7619 7620 7621 7622 7623 7624 7625 7626 7627 7628 7629 7630 7631 7632 7633 7634 7635 7636 7637 7638 7639 7640 7641 7642 7643 7644 7645 7646 7647 7648 7649 7650 7651 7652 7653 7654 7655 7656 7657 7658 7659 7660 7661 7662 7663 7664 7665 7666 7667 7668 7669 7670 7671 7672 7673 7674 7675 7676 7677 7678 7679 7680 7681 7682 7683 7684 7685 7686 7687 7688 7689 7690 7691 7692 7693 7694 7695 7696 7697 7698 7699 7700 7701 7702 7703 7704 7705 7706 7707 7708 7709 7710 7711 7712 7713 7714 7715 7716 7717 7718 7719 7720 7721 7722 7723 7724 7725 7726 7727 7728 7729 7730 7731 7732 7733 7734 7735 7736 7737 7738 7739 7740 7741 7742 7743 7744 7745 7746 7747 7748 7749 7750 7751 7752 7753 7754 7755 7756 7757 7758 7759 7760 7761 7762 7763 7764 7765 7766 7767 7768 7769 7770 7771 7772 7773 7774 7775 7776 7777 7778 7779 7780 7781 7782 7783 7784 7785 7786 7787 7788 7789 7790 7791 7792 7793 7794 7795 7796 7797 7798 7799 7800 7801 7802 7803 7804 7805 7806 7807 7808 7809 7810 7811 7812 7813 7814 7815 7816 7817 7818 7819 7820 7821 7822 7823 7824 7825 7826 7827 7828 7829 7830 7831 7832 7833 7834 7835 7836 7837 7838 7839 7840 7841 7842 7843 7844 7845 7846 7847 7848 7849 7850 7851 7852 7853 7854 7855 7856 7857 7858 7859 7860 7861 7862 7863 7864 7865 7866 7867 7868 7869 7870 7871 7872 7873 7874 7875 7876 7877 7878 7879 7880 7881 7882 7883 7884 7885 7886 7887 7888 7889 7890 7891 7892 7893 7894 7895 7896 7897 7898 7899 7900 7901 7902 7903 7904 7905 7906 7907 7908 7909 7910 7911 7912 7913 7914 7915 7916 7917 7918 7919 7920 7921 7922 7923 7924 7925 7926 7927 7928 7929 7930 7931 7932 7933 7934 7935 7936 7937 7938 7939 7940 7941 7942 7943 7944 7945 7946 7947 7948 7949 7950 7951 7952 7953 7954 7955 7956 7957 7958 7959 7960 7961 7962 7963 7964 7965 7966 7967 7968 7969 7970 7971 7972 7973 7974 7975 7976 7977 7978 7979 7980 7981 7982 7983 7984 7985 7986 7987 7988 7989 7990 7991 7992 7993 7994 7995 7996 7997 7998 7999 8000 8001 8002 8003 8004 8005 8006 8007 8008 8009 8010 8011 8012 8013 8014 8015 8016 8017 8018 8019 8020 8021 8022 8023 8024 8025 8026 8027 8028 8029 8030 8031 8032 8033 8034 8035 8036 8037 8038 8039 8040 8041 8042 8043 8044 8045 8046 8047 8048 8049 8050 8051 8052 8053 8054 8055 8056 8057 8058 8059 8060 8061 8062 8063 8064 8065 8066 8067 8068 8069 8070 8071 8072 8073 8074 8075 8076 8077 8078 8079 8080 8081 8082 8083 8084 8085 8086 8087 8088 8089 8090 8091 8092 8093 8094 8095 8096 8097 8098 8099 8100 8101 8102 8103 8104 8105 8106 8107 8108 8109 8110 8111 8112 8113 8114 8115 8116 8117 8118 8119 8120 8121 8122 8123 8124 8125 8126 8127 8128 8129 8130 8131 8132 8133 8134 8135 8136 8137 8138 8139 8140 8141 8142 8143 8144 8145 8146 8147 8148 8149 8150 8151 8152 8153 8154 8155 8156 8157 8158 8159 8160 8161 8162 8163 8164 8165 8166 8167 8168 8169 8170 8171 8172 8173 8174 8175 8176 8177 8178 8179 8180 8181 8182 8183 8184 8185 8186 8187 8188 8189 8190 8191 8192 8193 8194 8195 8196 8197 8198 8199 8200 8201 8202 8203 8204 8205 8206 8207 8208 8209 8210 8211 8212 8213 8214 8215 8216 8217 8218 8219 8220 8221 8222 8223 8224 8225 8226 8227 8228 8229 8230 8231 8232 8233 8234 8235 8236 8237 8238 8239 8240 8241 8242 8243 8244 8245 8246 8247 8248 8249 8250 8251 8252 8253 8254 8255 8256 8257 8258 8259 8260 8261 8262 8263 8264 8265 8266 8267 8268 8269 8270 8271 8272 8273 8274 8275 8276 8277 8278 8279 8280 8281 8282 8283 8284 8285 8286 8287 8288 8289 8290 8291 8292 8293 8294 8295 8296 8297 8298 8299 8300 8301 8302 8303 8304 8305 8306 8307 8308 8309 8310 8311 8312 8313 8314 8315 8316 8317 8318 8319 8320 8321 8322 8323 8324 8325 8326 8327 8328 8329 8330 8331 8332 8333 8334 8335 8336 8337 8338 8339 8340 8341 8342 8343 8344 8345 8346 8347 8348 8349 8350 8351 8352 8353 8354 8355 8356 8357 8358 8359 8360 8361 8362 8363 8364 8365 8366 8367 8368 8369 8370 8371 8372 8373 8374 8375 8376 8377 8378 8379 8380 8381 8382 8383 8384 8385 8386 8387 8388 8389 8390 8391 8392 8393 8394 8395 8396 8397 8398 8399 8400 8401 8402 8403 8404 8405 8406 8407 8408 8409 8410 8411 8412 8413 8414 8415 8416 8417 8418 8419 8420 8421 8422 8423 8424 8425 8426 8427 8428 8429 8430 8431 8432 8433 8434 8435 8436 8437 8438 8439 8440 8441 8442 8443 8444 8445 8446 8447 8448 8449 8450 8451 8452 8453 8454 8455 8456 8457 8458 8459 8460 8461 8462 8463 8464 8465 8466 8467 8468 8469 8470 8471 8472 8473 8474 8475 8476 8477 8478 8479 8480 8481 8482 8483 8484 8485 8486 8487 8488 8489 8490 8491 8492 8493 8494 8495 8496 8497 8498 8499 8500 8501 8502 8503 8504 8505 8506 8507 8508 8509 8510 8511 8512 8513 8514 8515 8516 8517 8518 8519 8520 8521 8522 8523 8524 8525 8526 8527 8528 8529 8530 8531 8532 8533 8534 8535 8536 8537 8538 8539 8540 8541 8542 8543 8544 8545 8546 8547 8548 8549 8550 8551 8552 8553 8554 8555 8556 8557 8558 8559 8560 8561 8562 8563 8564 8565 8566 8567 8568 8569 8570 8571 8572 8573 8574 8575 8576 8577 8578 8579 8580 8581 8582 8583 8584 8585 8586 8587 8588 8589 8590 8591 8592 8593 8594 8595 8596 8597 8598 8599 8600 8601 8602 8603 8604 8605 8606 8607 8608 8609 8610 8611 8612 8613 8614 8615 8616 8617 8618 8619 8620 8621 8622 8623 8624 8625 8626 8627 8628 8629 8630 8631 8632 8633 8634 8635 8636 8637 8638 8639 8640 8641 8642 8643 8644 8645 8646 8647 8648 8649 8650 8651 8652 8653 8654 8655 8656 8657 8658 8659 8660 8661 8662 8663 8664 8665 8666 8667 8668 8669 8670 8671 8672 8673 8674 8675 8676 8677 8678 8679 8680 8681 8682 8683 8684 8685 8686 8687 8688 8689 8690 8691 8692 8693 8694 8695 8696 8697 8698 8699 8700 8701 8702 8703 8704 8705 8706 8707 8708 8709 8710 8711 8712 8713 8714 8715 8716 8717 8718 8719 8720 8721 8722 8723 8724 8725 8726 8727 8728 8729 8730 8731 8732 8733 8734 8735 8736 8737 8738 8739 8740 8741 8742 8743 8744 8745 8746 8747 8748 8749 8750 8751 8752 8753 8754 8755 8756 8757 8758 8759 8760 8761 8762 8763 8764 8765 8766 8767 8768 8769 8770 8771 8772 8773 8774 8775 8776 8777 8778 8779 8780 8781 8782 8783 8784 8785 8786 8787 8788 8789 8790 8791 8792 8793 8794 8795 8796 8797 8798 8799 8800 8801 8802 8803 8804 8805 8806 8807 8808 8809 8810 8811 8812 8813 8814 8815 8816 8817 8818 8819 8820 8821 8822 8823 8824 8825 8826 8827 8828 8829 8830 8831 8832 8833 8834 8835 8836 8837 8838 8839 8840 8841 8842 8843 8844 8845 8846 8847 8848 8849 8850 8851 8852 8853 8854 8855 8856 8857 8858 8859 8860 8861 8862 8863 8864 8865 8866 8867 8868 8869 8870 8871 8872 8873 8874 8875 8876 8877 8878 8879 8880 8881 8882 8883 8884 8885 8886 8887 8888 8889 8890 8891 8892 8893 8894 8895 8896 8897 8898 8899 8900 8901 8902 8903 8904 8905 8906 8907 8908 8909 8910 8911 8912 8913 8914 8915 8916 8917 8918 8919 8920 8921 8922 8923 8924 8925 8926 8927 8928 8929 8930 8931 8932 8933 8934 8935 8936 8937 8938 8939 8940 8941 8942 8943 8944 8945 8946 8947 8948 8949 8950 8951 8952 8953 8954 8955 8956 8957 8958 8959 8960 8961 8962 8963 8964 8965 8966 8967 8968 8969 8970 8971 8972 8973 8974 8975 8976 8977 8978 8979 8980 8981 8982 8983 8984 8985 8986 8987 8988 8989 8990 8991 8992 8993 8994 8995 8996 8997 8998 8999 9000 9001 9002 9003 9004 9005 9006 9007 9008 9009 9010 9011 9012 9013 9014 9015 9016 9017 9018 9019 9020 9021 9022 9023 9024 9025 9026 9027 9028 9029 9030 9031 9032 9033 9034 9035 9036 9037 9038 9039 9040 9041 9042 9043 9044 9045 9046 9047 9048 9049 9050 9051 9052 9053 9054 9055 9056 9057 9058 9059 9060 9061 9062 9063 9064 9065 9066 9067 9068 9069 9070 9071 9072 9073 9074 9075 9076 9077 9078 9079 9080 9081 9082 9083 9084 9085 9086 9087 9088 9089 9090 9091 9092 9093 9094 9095 9096 9097 9098 9099 9100 9101 9102 9103 9104 9105 9106 9107 9108 9109 9110 9111 9112 9113 9114 9115 9116 9117 9118 9119 9120 9121 9122 9123 9124 9125 9126 9127 9128 9129 9130 9131 9132 9133 9134 9135 9136 9137 9138 9139 9140 9141 9142 9143 9144 9145 9146 9147 9148 9149 9150 9151 9152 9153 9154 9155 9156 9157 9158 9159 9160 9161 9162 9163 9164 9165 9166 9167 9168 9169 9170 9171 9172 9173 9174 9175 9176 9177 9178 9179 9180 9181 9182 9183 9184 9185 9186 9187 9188 9189 9190 9191 9192 9193 9194 9195 9196 9197 9198 9199 9200 9201 9202 9203 9204 9205 9206 9207 9208 9209 9210 9211 9212 9213 9214 9215 9216 9217 9218 9219 9220 9221 9222 9223 9224 9225 9226 9227 9228 9229 9230 9231 9232 9233 9234 9235 9236 9237 9238 9239 9240 9241 9242 9243 9244 9245 9246 9247 9248 9249 9250 9251 9252 9253 9254 9255 9256 9257 9258 9259 9260 9261 9262 9263 9264 9265 9266 9267 9268 9269 9270 9271 9272 9273 9274 9275 9276 9277 9278 9279 9280 9281 9282 9283 9284 9285 9286 9287 9288 9289 9290 9291 9292 9293 9294 9295 9296 9297 9298 9299 9300 9301 9302 9303 9304 9305 9306 9307 9308 9309 9310 9311 9312 9313 9314 9315 9316 9317 9318 9319 9320 9321 9322 9323 9324 9325 9326 9327 9328 9329 9330 9331 9332 9333 9334 9335 9336 9337 9338 9339 9340 9341 9342 9343 9344 9345 9346 9347 9348 9349 9350 9351 9352 9353 9354 9355 9356 9357 9358 9359 9360 9361 9362 9363 9364 9365 9366 9367 9368 9369 9370 9371 9372 9373 9374 9375 9376 9377 9378 9379 9380 9381 9382 9383 9384 9385 9386 9387 9388 9389 9390 9391 9392 9393 9394 9395 9396 9397 9398 9399 9400 9401 9402 9403 9404 9405 9406 9407 9408 9409 9410 9411 9412 9413 9414 9415 9416 9417 9418 9419 9420 9421 9422 9423 9424 9425 9426 9427 9428 9429 9430 9431 9432 9433 9434 9435 9436 9437 9438 9439 9440 9441 9442 9443 9444 9445 9446 9447 9448 9449 9450 9451 9452 9453 9454 9455 9456 9457 9458 9459 9460 9461 9462 9463 9464 9465 9466 9467 9468 9469 9470 9471 9472 9473 9474 9475 9476 9477 9478 9479 9480 9481 9482 9483 9484 9485 9486 9487 9488 9489 9490 9491 9492 9493 9494 9495 9496 9497 9498 9499 9500 9501 9502 9503 9504 9505 9506 9507 9508 9509 9510 9511 9512 9513 9514 9515 9516 9517 9518 9519 9520 9521 9522 9523 9524 9525 9526 9527 9528 9529 9530 9531 9532 9533 9534 9535 9536 9537 9538 9539 9540 9541 9542 9543 9544 9545 9546 9547 9548 9549 9550 9551 9552 9553 9554 9555 9556 9557 9558 9559 9560 9561 9562 9563 9564 9565 9566 9567 9568 9569 9570 9571 9572 9573 9574 9575 9576 9577 9578 9579 9580 9581 9582 9583 9584 9585 9586 9587 9588 9589 9590 9591 9592 9593 9594 9595 9596 9597 9598 9599 9600 9601 9602 9603 9604 9605 9606 9607 9608 9609 9610 9611 9612 9613 9614 9615 9616 9617 9618 9619 9620 9621 9622 9623 9624 9625 9626 9627 9628 9629 9630 9631 9632 9633 9634 9635 9636 9637 9638 9639 9640 9641 9642 9643 9644 9645 9646 9647 9648 9649 9650 9651 9652 9653 9654 9655 9656 9657 9658 9659 9660 9661 9662 9663 9664 9665 9666 9667 9668 9669 9670 9671 9672 9673 9674 9675 9676 9677 9678 9679 9680 9681 9682 9683 9684 9685 9686 9687 9688 9689 9690 9691 9692 9693 9694 9695 9696 9697 9698 9699 9700 9701 9702 9703 9704 9705 9706 9707 9708 9709 9710 9711 9712 9713 9714 9715 9716 9717 9718 9719 9720 9721 9722 9723 9724 9725 9726 9727 9728 9729 9730 9731 9732 9733 9734 9735 9736 9737 9738 9739 9740 9741 9742 9743 9744 9745 9746 9747 9748 9749 9750 9751 9752 9753 9754 9755 9756 9757 9758 9759 9760 9761 9762 9763 9764 9765 9766 9767 9768 9769 9770 9771 9772 9773 9774 9775 9776 9777 9778 9779 9780 9781 9782 9783 9784 9785 9786 9787 9788 9789 9790 9791 9792 9793 9794 9795 9796 9797 9798 9799 9800 9801 9802 9803 9804 9805 9806 9807 9808 9809 9810 9811 9812 9813 9814 9815 9816 9817 9818 9819 9820 9821 9822 9823 9824 9825 9826 9827 9828 9829 9830 9831 9832 9833 9834 9835 9836 9837 9838 9839 9840 9841 9842 9843 9844 9845 9846 9847 9848 9849 9850 9851 9852 9853 9854 9855 9856 9857 9858 9859 9860 9861 9862 9863 9864 9865 9866 9867 9868 9869 9870 9871 9872 9873 9874 9875 9876 9877 9878 9879 9880 9881 9882 9883 9884 9885 9886 9887 9888 9889 9890 9891 9892 9893 9894 9895 9896 9897 9898 9899 9900 9901 9902 9903 9904 9905 9906 9907 9908 9909 9910 9911 9912 9913 9914 9915 9916 9917 9918 9919 9920 9921 9922 9923 9924 9925 9926 9927 9928 9929 9930 9931 9932 9933 9934 9935 9936 9937 9938 9939 9940 9941 9942 9943 9944 9945 9946 9947 9948 9949 9950 9951 9952 9953 9954 9955 9956 9957 9958 9959 9960 9961 9962 9963 9964 9965 9966 9967 9968 9969 9970 9971 9972 9973 9974 9975 9976 9977 9978 9979 9980 9981 9982 9983 9984 9985 9986 9987 9988 9989 9990 9991 9992 9993 9994 9995 9996 9997 9998 9999 10000 10001 10002 10003 10004 10005 10006 10007 10008 10009 10010 10011 10012 10013 10014 10015 10016 10017 10018 10019 10020 10021 10022 10023 10024 10025 10026 10027 10028 10029 10030 10031 10032 10033 10034 10035 10036 10037 10038 10039 10040 10041 10042 10043 10044 10045 10046 10047 10048 10049 10050 10051 10052 10053 10054 10055 10056 10057 10058 10059 10060 10061 10062 10063 10064 10065 10066 10067 10068 10069 10070 10071 10072 10073 10074 10075 10076 10077 10078 10079 10080 10081 10082 10083 10084 10085 10086 10087 10088 10089 10090 10091 10092 10093 10094 10095 10096 10097 10098 10099 10100 10101 10102 10103 10104 10105 10106 10107 10108 10109 10110 10111 10112 10113 10114 10115 10116 10117 10118 10119 10120 10121 10122 10123 10124 10125 10126 10127 10128 10129 10130 10131 10132 10133 10134 10135 10136 10137 10138 10139 10140 10141 10142 10143 10144 10145 10146 10147 10148 10149 10150 10151 10152 10153 10154 10155 10156 10157 10158 10159 10160 10161 10162 10163 10164 10165 10166 10167 10168 10169 10170 10171 10172 10173 10174 10175 10176 10177 10178 10179 10180 10181 10182 10183 10184 10185 10186 10187 10188 10189 10190 10191 10192 10193 10194 10195 10196 10197 10198 10199 10200 10201 10202 10203 10204 10205 10206 10207 10208 10209 10210 10211 10212 10213 10214 10215 10216 10217 10218 10219 10220 10221 10222 10223 10224 10225 10226 10227 10228 10229 10230 10231 10232 10233 10234 10235 10236 10237 10238 10239 10240 10241 10242 10243 10244 10245 10246 10247 10248 10249 10250 10251 10252 10253 10254 10255 10256 10257 10258 10259 10260 10261 10262 10263 10264 10265 10266 10267 10268 10269 10270 10271 10272 10273 10274 10275 10276 10277 10278 10279 10280 10281 10282 10283 10284 10285 10286 10287 10288 10289 10290 10291 10292 10293 10294 10295 10296 10297 10298 10299 10300 10301 10302 10303 10304 10305 10306 10307 10308 10309 10310 10311 10312 10313 10314 10315 10316 10317 10318 10319 10320 10321 10322 10323 10324 10325 10326 10327 10328 10329 10330 10331 10332 10333 10334 10335 10336 10337 10338 10339 10340 10341 10342 10343 10344 10345 10346 10347 10348 10349 10350 10351 10352 10353 10354 10355 10356 10357 10358 10359 10360 10361 10362 10363 10364 10365 10366 10367 10368 10369 10370 10371 10372 10373 10374 10375 10376 10377 10378 10379 10380 10381 10382 10383 10384 10385 10386 10387 10388 10389 10390 10391 10392 10393 10394 10395 10396 10397 10398 10399 10400 10401 10402 10403 10404 10405 10406 10407 10408 10409 10410 10411 10412 10413 10414 10415 10416 10417 10418 10419 10420 10421 10422 10423 10424 10425 10426 10427 10428 10429 10430 10431 10432 10433 10434 10435 10436 10437 10438 10439 10440 10441 10442 10443 10444 10445 10446 10447 10448 10449 10450 10451 10452 10453 10454 10455 10456 10457 10458 10459 10460 10461 10462 10463 10464 10465 10466 10467 10468 10469 10470 10471 10472 10473 10474 10475 10476 10477 10478 10479 10480 10481 10482 10483 10484 10485 10486 10487 10488 10489 10490 10491 10492 10493 10494 10495 10496 10497 10498 10499 10500 10501 10502 10503 10504 10505 10506 10507 10508 10509 10510 10511 10512 10513 10514 10515 10516 10517 10518 10519 10520 10521 10522 10523 10524 10525 10526 10527 10528 10529 10530 10531 10532 10533 10534 10535 10536 10537 10538 10539 10540 10541 10542 10543 10544 10545 10546 10547 10548 10549 10550 10551 10552 10553 10554 10555 10556 10557 10558 10559 10560 10561 10562 10563 10564 10565 10566 10567 10568 10569 10570 10571 10572 10573 10574 10575 10576 10577 10578 10579 10580 10581 10582 10583 10584 10585 10586 10587 10588 10589 10590 10591 10592 10593 10594 10595 10596 10597 10598 10599 10600 10601 10602 10603 10604 10605 10606 10607 10608 10609 10610 10611 10612 10613 10614 10615 10616 10617 10618 10619 10620 10621 10622 10623 10624 10625 10626 10627 10628 10629 10630 10631 10632 10633 10634 10635 10636 10637 10638 10639 10640 10641 10642 10643 10644 10645 10646 10647 10648 10649 10650 10651 10652 10653 10654 10655 10656 10657 10658 10659 10660 10661 10662 10663 10664 10665 10666 10667 10668 10669 10670 10671 10672 10673 10674 10675 10676 10677 10678 10679 10680 10681 10682 10683 10684 10685 10686 10687 10688 10689 10690 10691 10692 10693 10694 10695 10696 10697 10698 10699 10700 10701 10702 10703 10704 10705 10706 10707 10708 10709 10710 10711 10712 10713 10714 10715 10716 10717 10718 10719 10720 10721 10722 10723 10724 10725 10726 10727 10728 10729 10730 10731 10732 10733 10734 10735 10736 10737 10738 10739 10740 10741 10742 10743 10744 10745 10746 10747 10748 10749 10750 10751 10752 10753 10754 10755 10756 10757 10758 10759 10760 10761 10762 10763 10764 10765 10766 10767 10768 10769 10770 10771 10772 10773 10774 10775 10776 10777 10778 10779 10780 10781 10782 10783 10784 10785 10786 10787 10788 10789 10790 10791 10792 10793 10794 10795 10796 10797 10798 10799 10800 10801 10802 10803 10804 10805 10806 10807 10808 10809 10810 10811 10812 10813 10814 10815 10816 10817 10818 10819 10820 10821 10822 10823 10824 10825 10826 10827 10828 10829 10830 10831 10832 10833 10834 10835 10836 10837 10838 10839 10840 10841 10842 10843 10844 10845 10846 10847 10848 10849 10850 10851 10852 10853 10854 10855 10856 10857 10858 10859 10860 10861 10862 10863 10864 10865 10866 10867 10868 10869 10870 10871 10872 10873 10874 10875 10876 10877 10878 10879 10880 10881 10882 10883 10884 10885 10886 10887 10888 10889 10890 10891 10892 10893 10894 10895 10896 10897 10898 10899 10900 10901 10902 10903 10904 10905 10906 10907 10908 10909 10910 10911 10912 10913 10914 10915 10916 10917 10918 10919 10920 10921 10922 10923 10924 10925 10926 10927 10928 10929 10930 10931 10932 10933 10934 10935 10936 10937 10938 10939 10940 10941 10942 10943 10944 10945 10946 10947 10948 10949 10950 10951 10952 10953 10954 10955 10956 10957 10958 10959 10960 10961 10962 10963 10964 10965 10966 10967 10968 10969 10970 10971 10972 10973 10974 10975 10976 10977 10978 10979 10980 10981 10982 10983 10984 10985 10986 10987 10988 10989 10990 10991 10992 10993 10994 10995 10996 10997 10998 10999 11000 11001 11002 11003 11004 11005 11006 11007 11008 11009 11010 11011 11012 11013 11014 11015 11016 11017 11018 11019 11020 11021 11022 11023 11024 11025 11026 11027 11028 11029 11030 11031 11032 11033 11034 11035 11036 11037 11038 11039 11040 11041 11042 11043 11044 11045 11046 11047 11048 11049 11050 11051 11052 11053 11054 11055 11056 11057 11058 11059 11060 11061 11062 11063 11064 11065 11066 11067 11068 11069 11070 11071 11072 11073 11074 11075 11076 11077 11078 11079 11080 11081 11082 11083 11084 11085 11086 11087 11088 11089 11090 11091 11092 11093 11094 11095 11096 11097 11098 11099 11100 11101 11102 11103 11104 11105 11106 11107 11108 11109 11110 11111 11112 11113 11114 11115 11116 11117 11118 11119 11120 11121 11122 11123 11124 11125 11126 11127 11128 11129 11130 11131 11132 11133 11134 11135 11136 11137 11138 11139 11140 11141 11142 11143 11144 11145 11146 11147 11148 11149 11150 11151 11152 11153 11154 11155 11156 11157 11158 11159 11160 11161 11162 11163 11164 11165 11166 11167 11168 11169 11170 11171 11172 11173 11174 11175 11176 11177 11178 11179 11180 11181 11182 11183 11184 11185 11186 11187 11188 11189 11190 11191 11192 11193 11194 11195 11196 11197 11198 11199 11200 11201 11202 11203 11204 11205 11206 11207 11208 11209 11210 11211 11212 11213 11214 11215 11216 11217 11218 11219 11220 11221 11222 11223 11224 11225 11226 11227 11228 11229 11230 11231 11232 11233 11234 11235 11236 11237 11238 11239 11240 11241 11242 11243 11244 11245 11246 11247 11248 11249 11250 11251 11252 11253 11254 11255 11256 11257 11258 11259 11260 11261 11262 11263 11264 11265 11266 11267 11268 11269 11270 11271 11272 11273 11274 11275 11276 11277 11278 11279 11280 11281 11282 11283 11284 11285 11286 11287 11288 11289 11290 11291 11292 11293 11294 11295 11296 11297 11298 11299 11300 11301 11302 11303 11304 11305 11306 11307 11308 11309 11310 11311 11312 11313 11314 11315 11316 11317 11318 11319 11320 11321 11322 11323 11324 11325 11326 11327 11328 11329 11330 11331 11332 11333 11334 11335 11336 11337 11338 11339 11340 11341 11342 11343 11344 11345 11346 11347 11348 11349 11350 11351 11352 11353 11354 11355 11356 11357 11358 11359 11360 11361 11362 11363 11364 11365 11366 11367 11368 11369 11370 11371 11372 11373 11374 11375 11376 11377 11378 11379 11380 11381 11382 11383 11384 11385 11386 11387 11388 11389 11390 11391 11392 11393 11394 11395 11396 11397 11398 11399 11400 11401 11402 11403 11404 11405 11406 11407 11408 11409 11410 11411 11412 11413 11414 11415 11416 11417 11418 11419 11420 11421 11422 11423 11424 11425 11426 11427 11428 11429 11430 11431 11432 11433 11434 11435 11436 11437 11438 11439 11440 11441 11442 11443 11444 11445 11446 11447 11448 11449 11450 11451 11452 11453 11454 11455 11456 11457 11458 11459 11460 11461 11462 11463 11464 11465 11466 11467 11468 11469 11470 11471 11472 11473 11474 11475 11476 11477 11478 11479 11480 11481 11482 11483 11484 11485 11486 11487 11488 11489 11490 11491 11492 11493 11494 11495 11496 11497 11498 11499 11500 11501 11502 11503 11504 11505 11506 11507 11508 11509 11510 11511 11512 11513 11514 11515 11516 11517 11518 11519 11520 11521 11522 11523 11524 11525 11526 11527 11528 11529 11530 11531 11532 11533 11534 11535 11536 11537 11538 11539 11540 11541 11542 11543 11544 11545 11546 11547 11548 11549 11550 11551 11552 11553 11554 11555 11556 11557 11558 11559 11560 11561 11562 11563 11564 11565 11566 11567 11568 11569 11570 11571 11572 11573 11574 11575 11576 11577 11578 11579 11580 11581 11582 11583 11584 11585 11586 11587 11588 11589 11590 11591 11592 11593 11594 11595 11596 11597 11598 11599 11600 11601 11602 11603 11604 11605 11606 11607 11608 11609 11610 11611 11612 11613 11614 11615 11616 11617 11618 11619 11620 11621 11622 11623 11624 11625 11626 11627 11628 11629 11630 11631 11632 11633 11634 11635 11636 11637 11638 11639 11640 11641 11642 11643 11644 11645 11646 11647 11648 11649 11650 11651 11652 11653 11654 11655 11656 11657 11658 11659 11660 11661 11662 11663 11664 11665 11666 11667 11668 11669 11670 11671 11672 11673 11674 11675 11676 11677 11678 11679 11680 11681 11682 11683 11684 11685 11686 11687 11688 11689 11690 11691 11692 11693 11694 11695 11696 11697 11698 11699 11700 11701 11702 11703 11704 11705 11706 11707 11708 11709 11710 11711 11712 11713 11714 11715 11716 11717 11718 11719 11720 11721 11722 11723 11724 11725 11726 11727 11728 11729 11730 11731 11732 11733 11734 11735 11736 11737 11738 11739 11740 11741 11742 11743 11744 11745 11746 11747 11748 11749 11750 11751 11752 11753 11754 11755 11756 11757 11758 11759 11760 11761 11762 11763 11764 11765 11766 11767 11768 11769 11770 11771 11772 11773 11774 11775 11776 11777 11778 11779 11780 11781 11782 11783 11784 11785 11786 11787 11788 11789 11790 11791 11792 11793 11794 11795 11796 11797 11798 11799 11800 11801 11802 11803 11804 11805 11806 11807 11808 11809 11810 11811 11812 11813 11814 11815 11816 11817 11818 11819 11820 11821 11822 11823 11824 11825 11826 11827 11828 11829 11830 11831 11832 11833 11834 11835 11836 11837 11838 11839 11840 11841 11842 11843 11844 11845 11846 11847 11848 11849 11850 11851 11852 11853 11854 11855 11856 11857 11858 11859 11860 11861 11862 11863 11864 11865 11866 11867 11868 11869 11870 11871 11872 11873 11874 11875 11876 11877 11878 11879 11880 11881 11882 11883 11884 11885 11886 11887 11888 11889 11890 11891 11892 11893 11894 11895 11896 11897 11898 11899 11900 11901 11902 11903 11904 11905 11906 11907 11908 11909 11910 11911 11912 11913 11914 11915 11916 11917 11918 11919 11920 11921 11922 11923 11924 11925 11926 11927 11928 11929 11930 11931 11932 11933 11934 11935 11936 11937 11938 11939 11940 11941 11942 11943 11944 11945 11946 11947 11948 11949 11950 11951 11952 11953 11954 11955 11956 11957 11958 11959 11960 11961 11962 11963 11964 11965 11966 11967 11968 11969 11970 11971 11972 11973 11974 11975 11976 11977 11978 11979 11980 11981 11982 11983 11984 11985 11986 11987 11988 11989 11990 11991 11992 11993 11994 11995 11996 11997 11998 11999 12000 12001 12002 12003 12004 12005 12006 12007 12008 12009 12010 12011 12012 12013 12014 12015 12016 12017 12018 12019 12020 12021 12022 12023 12024 12025 12026 12027 12028 12029 12030 12031 12032 12033 12034 12035 12036 12037 12038 12039 12040 12041 12042 12043 12044 12045 12046 12047 12048 12049 12050 12051 12052 12053 12054 12055 12056 12057 12058 12059 12060 12061 12062 12063 12064 12065 12066 12067 12068 12069 12070 12071 12072 12073 12074 12075 12076 12077 12078 12079 12080 12081 12082 12083 12084 12085 12086 12087 12088 12089 12090 12091 12092 12093 12094 12095 12096 12097 12098 12099 12100 12101 12102 12103 12104 12105 12106 12107 12108 12109 12110 12111 12112 12113 12114 12115 12116 12117 12118 12119 12120 12121 12122 12123 12124 12125 12126 12127 12128 12129 12130 12131 12132 12133 12134 12135 12136 12137 12138 12139 12140 12141 12142 12143 12144 12145 12146 12147 12148 12149 12150 12151 12152 12153 12154 12155 12156 12157 12158 12159 12160 12161 12162 12163 12164 12165 12166 12167 12168 12169 12170 12171 12172 12173 12174 12175 12176 12177 12178 12179 12180 12181 12182 12183 12184 12185 12186 12187 12188 12189 12190 12191 12192 12193 12194 12195 12196 12197 12198 12199 12200 12201 12202 12203 12204 12205 12206 12207 12208 12209 12210 12211 12212 12213 12214 12215 12216 12217 12218 12219 12220 12221 12222 12223 12224 12225 12226 12227 12228 12229 12230 12231 12232 12233 12234 12235 12236 12237 12238 12239 12240 12241 12242 12243 12244 12245 12246 12247 12248 12249 12250 12251 12252 12253 12254 12255 12256 12257 12258 12259 12260 12261 12262 12263 12264 12265 12266 12267 12268 12269 12270 12271 12272 12273 12274 12275 12276 12277 12278 12279 12280 12281 12282 12283 12284 12285 12286 12287 12288 12289 12290 12291 12292 12293 12294 12295 12296 12297 12298 12299 12300 12301 12302 12303 12304 12305 12306 12307 12308 12309 12310 12311 12312 12313 12314 12315 12316 12317 12318 12319 12320 12321 12322 12323 12324 12325 12326 12327 12328 12329 12330 12331 12332 12333 12334 12335 12336 12337 12338 12339 12340 12341 12342 12343 12344 12345 12346 12347 12348 12349 12350 12351 12352 12353 12354 12355 12356 12357 12358 12359 12360 12361 12362 12363 12364 12365 12366 12367 12368 12369 12370 12371 12372 12373 12374 12375 12376 12377 12378 12379 12380 12381 12382 12383 12384 12385 12386 12387 12388 12389 12390 12391 12392 12393 12394 12395 12396 12397 12398 12399 12400 12401 12402 12403 12404 12405 12406 12407 12408 12409 12410 12411 12412 12413 12414 12415 12416 12417 12418 12419 12420 12421 12422 12423 12424 12425 12426 12427 12428 12429 12430 12431 12432 12433 12434 12435 12436 12437 12438 12439 12440 12441 12442 12443 12444 12445 12446 12447 12448 12449 12450 12451 12452 12453 12454 12455 12456 12457 12458 12459 12460 12461 12462 12463 12464 12465 12466 12467 12468 12469 12470 12471 12472 12473 12474 12475 12476 12477 12478 12479 12480 12481 12482 12483 12484 12485 12486 12487 12488 12489 12490 12491 12492 12493 12494 12495 12496 12497 12498 12499 12500 12501 12502 12503 12504 12505 12506 12507 12508 12509 12510 12511 12512 12513 12514 12515 12516 12517 12518 12519 12520 12521 12522 12523 12524 12525 12526 12527 12528 12529 12530 12531 12532 12533 12534 12535 12536 12537 12538 12539 12540 12541 12542 12543 12544 12545 12546 12547 12548 12549 12550 12551 12552 12553 12554 12555 12556 12557 12558 12559 12560 12561 12562 12563 12564 12565 12566 12567 12568 12569 12570 12571 12572 12573 12574 12575 12576 12577 12578 12579 12580 12581 12582 12583 12584 12585 12586 12587 12588 12589 12590 12591 12592 12593 12594 12595 12596 12597 12598 12599 12600 12601 12602 12603 12604 12605 12606 12607 12608 12609 12610 12611 12612 12613 12614 12615 12616 12617 12618 12619 12620 12621 12622 12623 12624 12625 12626 12627 12628 12629 12630 12631 12632 12633 12634 12635 12636 12637 12638 12639 12640 12641 12642 12643 12644 12645 12646 12647 12648 12649 12650 12651 12652 12653 12654 12655 12656 12657 12658 12659 12660 12661 12662 12663 12664 12665 12666 12667 12668 12669 12670 12671 12672 12673 12674 12675 12676 12677 12678 12679 12680 12681 12682 12683 12684 12685 12686 12687 12688 12689 12690 12691 12692 12693 12694 12695 12696 12697 12698 12699 12700 12701 12702 12703 12704 12705 12706 12707 12708 12709 12710 12711 12712 12713 12714 12715 12716 12717 12718 12719 12720 12721 12722 12723 12724 12725 12726 12727 12728 12729 12730 12731 12732 12733 12734 12735 12736 12737 12738 12739 12740 12741 12742 12743 12744 12745 12746 12747 12748 12749 12750 12751 12752 12753 12754 12755 12756 12757 12758 12759 12760 12761 12762 12763 12764 12765 12766 12767 12768 12769 12770 12771 12772 12773 12774 12775 12776 12777 12778 12779 12780 12781 12782 12783 12784 12785 12786 12787 12788 12789 12790 12791 12792 12793 12794 12795 12796 12797 12798 12799 12800 12801 12802 12803 12804 12805 12806 12807 12808 12809 12810 12811 12812 12813 12814 12815 12816 12817 12818 12819 12820 12821 12822 12823 12824 12825 12826 12827 12828 12829 12830 12831 12832 12833 12834 12835 12836 12837 12838 12839 12840 12841 12842 12843 12844 12845 12846 12847 12848 12849 12850 12851 12852 12853 12854 12855 12856 12857 12858 12859 12860 12861 12862 12863 12864 12865 12866 12867 12868 12869 12870 12871 12872 12873 12874 12875 12876 12877 12878 12879 12880 12881 12882 12883 12884 12885 12886 12887 12888 12889 12890 12891 12892 12893 12894 12895 12896 12897 12898 12899 12900 12901 12902 12903 12904 12905 12906 12907 12908 12909 12910 12911 12912 12913 12914 12915 12916 12917 12918 12919 12920 12921 12922 12923 12924 12925 12926 12927 12928 12929 12930 12931 12932 12933 12934 12935 12936 12937 12938 12939 12940 12941 12942 12943 12944 12945 12946 12947 12948 12949 12950 12951 12952 12953 12954 12955 12956 12957 12958 12959 12960 12961 12962 12963 12964 12965 12966 12967 12968 12969 12970 12971 12972 12973 12974 12975 12976 12977 12978 12979 12980 12981 12982 12983 12984 12985 12986 12987 12988 12989 12990 12991 12992 12993 12994 12995 12996 12997 12998 12999 13000 13001 13002 13003 13004 13005 13006 13007 13008 13009 13010 13011 13012 13013 13014 13015 13016 13017 13018 13019 13020 13021 13022 13023 13024 13025 13026 13027 13028 13029 13030 13031 13032 13033 13034 13035 13036 13037 13038 13039 13040 13041 13042 13043 13044 13045 13046 13047 13048 13049 13050 13051 13052 13053 13054 13055 13056 13057 13058 13059 13060 13061 13062 13063 13064 13065 13066 13067 13068 13069 13070 13071 13072 13073 13074 13075 13076 13077 13078 13079 13080 13081 13082 13083 13084 13085 13086 13087 13088 13089 13090 13091 13092 13093 13094 13095 13096 13097 13098 13099 13100 13101 13102 13103 13104 13105 13106 13107 13108 13109 13110 13111 13112 13113 13114 13115 13116 13117 13118 13119 13120 13121 13122 13123 13124 13125 13126 13127 13128 13129 13130 13131 13132 13133 13134 13135 13136 13137 13138 13139 13140 13141 13142 13143 13144 13145 13146 13147 13148 13149 13150 13151 13152 13153 13154 13155 13156 13157 13158 13159 13160 13161 13162 13163 13164 13165 13166 13167 13168 13169 13170 13171 13172 13173 13174 13175 13176 13177 13178 13179 13180 13181 13182 13183 13184 13185 13186 13187 13188 13189 13190 13191 13192 13193 13194 13195 13196 13197 13198 13199 13200 13201 13202 13203 13204 13205 13206 13207 13208 13209 13210 13211 13212 13213 13214 13215 13216 13217 13218 13219 13220 13221 13222 13223 13224 13225 13226 13227 13228 13229 13230 13231 13232 13233 13234 13235 13236 13237 13238 13239 13240 13241 13242 13243 13244 13245 13246 13247 13248 13249 13250 13251 13252 13253 13254 13255 13256 13257 13258 13259 13260 13261 13262 13263 13264 13265 13266 13267 13268 13269 13270 13271 13272 13273 13274 13275 13276 13277 13278 13279 13280 13281 13282 13283 13284 13285 13286 13287 13288 13289 13290 13291 13292 13293 13294 13295 13296 13297 13298 13299 13300 13301 13302 13303 13304 13305 13306 13307 13308 13309 13310 13311 13312 13313 13314 13315 13316 13317 13318 13319 13320 13321 13322 13323 13324 13325 13326 13327 13328 13329 13330 13331 13332 13333 13334 13335 13336 13337 13338 13339 13340 13341 13342 13343 13344 13345 13346 13347 13348 13349 13350 13351 13352 13353 13354 13355 13356 13357 13358 13359 13360 13361 13362 13363 13364 13365 13366 13367 13368 13369 13370 13371 13372 13373 13374 13375 13376 13377 13378 13379 13380 13381 13382 13383 13384 13385 13386 13387 13388 13389 13390 13391 13392 13393 13394 13395 13396 13397 13398 13399 13400 13401 13402 13403 13404 13405 13406 13407 13408 13409 13410 13411 13412 13413 13414 13415 13416 13417 13418 13419 13420 13421 13422 13423 13424 13425 13426 13427 13428 13429 13430 13431 13432 13433 13434 13435 13436 13437 13438 13439 13440 13441 13442 13443 13444 13445 13446 13447 13448 13449 13450 13451 13452 13453 13454 13455 13456 13457 13458 13459 13460 13461 13462 13463 13464 13465 13466 13467 13468 13469 13470 13471 13472 13473 13474 13475 13476 13477 13478 13479 13480 13481 13482 13483 13484 13485 13486 13487 13488 13489 13490 13491 13492 13493 13494 13495 13496 13497 13498 13499 13500 13501 13502 13503 13504 13505 13506 13507 13508 13509 13510 13511 13512 13513 13514 13515 13516 13517 13518 13519 13520 13521 13522 13523 13524 13525 13526 13527 13528 13529 13530 13531 13532 13533 13534 13535 13536 13537 13538 13539 13540 13541 13542 13543 13544 13545 13546 13547 13548 13549 13550 13551 13552 13553 13554 13555 13556 13557 13558 13559 13560 13561 13562 13563 13564 13565 13566 13567 13568 13569 13570 13571 13572 13573 13574 13575 13576 13577 13578 13579 13580 13581 13582 13583 13584 13585 13586 13587 13588 13589 13590 13591 13592 13593 13594 13595 13596 13597 13598 13599 13600 13601 13602 13603 13604 13605 13606 13607 13608 13609 13610 13611 13612 13613 13614 13615 13616 13617 13618 13619 13620 13621 13622 13623 13624 13625 13626 13627 13628 13629 13630 13631 13632 13633 13634 13635 13636 13637 13638 13639 13640 13641 13642 13643 13644 13645 13646 13647 13648 13649 13650 13651 13652 13653 13654 13655 13656 13657 13658 13659 13660 13661 13662 13663 13664 13665 13666 13667 13668 13669 13670 13671 13672 13673 13674 13675 13676 13677 13678 13679 13680 13681 13682 13683 13684 13685 13686 13687 13688 13689 13690 13691 13692 13693 13694 13695 13696 13697 13698 13699 13700 13701 13702 13703 13704 13705 13706 13707 13708 13709 13710 13711 13712 13713 13714 13715 13716 13717 13718 13719 13720 13721 13722 13723 13724 13725 13726 13727 13728 13729 13730 13731 13732 13733 13734 13735 13736 13737 13738 13739 13740 13741 13742 13743 13744 13745 13746 13747 13748 13749 13750 13751 13752 13753 13754 13755 13756 13757 13758 13759 13760 13761 13762 13763 13764 13765 13766 13767 13768 13769 13770 13771 13772 13773 13774 13775 13776 13777 13778 13779 13780 13781 13782 13783 13784 13785 13786 13787 13788 13789 13790 13791 13792 13793 13794 13795 13796 13797 13798 13799 13800 13801 13802 13803 13804 13805 13806 13807 13808 13809 13810 13811 13812 13813 13814 13815 13816 13817 13818 13819 13820 13821 13822 13823 13824 13825 13826 13827 13828 13829 13830 13831 13832 13833 13834 13835 13836 13837 13838 13839 13840 13841 13842 13843 13844 13845 13846 13847 13848 13849 13850 13851 13852 13853 13854 13855 13856 13857 13858 13859 13860 13861 13862 13863 13864 13865 13866 13867 13868 13869 13870 13871 13872 13873 13874 13875 13876 13877 13878 13879 13880 13881 13882 13883 13884 13885 13886 13887 13888 13889 13890 13891 13892 13893 13894 13895 13896 13897 13898 13899 13900 13901 13902 13903 13904 13905 13906 13907 13908 13909 13910 13911 13912 13913 13914 13915 13916 13917 13918 13919 13920 13921 13922 13923 13924 13925 13926 13927 13928 13929 13930 13931 13932 13933 13934 13935 13936 13937 13938 13939 13940 13941 13942 13943 13944 13945 13946 13947 13948 13949 13950 13951 13952 13953 13954 13955 13956 13957 13958 13959 13960 13961 13962 13963 13964 13965 13966 13967 13968 13969 13970 13971 13972 13973 13974 13975 13976 13977 13978 13979 13980 13981 13982 13983 13984 13985 13986 13987 13988 13989 13990 13991 13992 13993 13994 13995 13996 13997 13998 13999 14000 14001 14002 14003 14004 14005 14006 14007 14008 14009 14010 14011 14012 14013 14014 14015 14016 14017 14018 14019 14020 14021 14022 14023 14024 14025 14026 14027 14028 14029 14030 14031 14032 14033 14034 14035 14036 14037 14038 14039 14040 14041 14042 14043 14044 14045 14046 14047 14048 14049 14050 14051 14052 14053 14054 14055 14056 14057 14058 14059 14060 14061 14062 14063 14064 14065 14066 14067 14068 14069 14070 14071 14072 14073 14074 14075 14076 14077 14078 14079 14080 14081 14082 14083 14084 14085 14086 14087 14088 14089 14090 14091 14092 14093 14094 14095 14096 14097 14098 14099 14100 14101 14102 14103 14104 14105 14106 14107 14108 14109 14110 14111 14112 14113 14114 14115 14116 14117 14118 14119 14120 14121 14122 14123 14124 14125 14126 14127 14128 14129 14130 14131 14132 14133 14134 14135 14136 14137 14138 14139 14140 14141 14142 14143 14144 14145 14146 14147 14148 14149 14150 14151 14152 14153 14154 14155 14156 14157 14158 14159 14160 14161 14162 14163 14164 14165 14166 14167 14168 14169 14170 14171 14172 14173 14174 14175 14176 14177 14178 14179 14180 14181 14182 14183 14184 14185 14186 14187 14188 14189 14190 14191 14192 14193 14194 14195 14196 14197 14198 14199 14200 14201 14202 14203 14204 14205 14206 14207 14208 14209 14210 14211 14212 14213 14214 14215 14216 14217 14218 14219 14220 14221 14222 14223 14224 14225 14226 14227 14228 14229 14230 14231 14232 14233 14234 14235 14236 14237 14238 14239 14240 14241 14242 14243 14244 14245 14246 14247 14248 14249 14250 14251 14252 14253 14254 14255 14256 14257 14258 14259 14260 14261 14262 14263 14264 14265 14266 14267 14268 14269 14270 14271 14272 14273 14274 14275 14276 14277 14278 14279 14280 14281 14282 14283 14284 14285 14286 14287 14288 14289 14290 14291 14292 14293 14294 14295 14296 14297 14298 14299 14300 14301 14302 14303 14304 14305 14306 14307 14308 14309 14310 14311 14312 14313 14314 14315 14316 14317 14318 14319 14320 14321 14322 14323 14324 14325 14326 14327 14328 14329 14330 14331 14332 14333 14334 14335 14336 14337 14338 14339 14340 14341 14342 14343 14344 14345 14346 14347 14348 14349 14350 14351 14352 14353 14354 14355 14356 14357 14358 14359 14360 14361 14362 14363 14364 14365 14366 14367 14368 14369 14370 14371 14372 14373 14374 14375 14376 14377 14378 14379 14380 14381 14382 14383 14384 14385 14386 14387 14388 14389 14390 14391 14392 14393 14394 14395 14396 14397 14398 14399 14400 14401 14402 14403 14404 14405 14406 14407 14408 14409 14410 14411 14412 14413 14414 14415 14416 14417 14418 14419 14420 14421 14422 14423 14424 14425 14426 14427 14428 14429 14430 14431 14432 14433 14434 14435 14436 14437 14438 14439 14440 14441 14442 14443 14444 14445 14446 14447 14448 14449 14450 14451 14452 14453 14454 14455 14456 14457 14458 14459 14460 14461 14462 14463 14464 14465 14466 14467 14468 14469 14470 14471 14472 14473 14474 14475 14476 14477 14478 14479 14480 14481 14482 14483 14484 14485 14486 14487 14488 14489 14490 14491 14492 14493 14494 14495 14496 14497 14498 14499 14500 14501 14502 14503 14504 14505 14506 14507 14508 14509 14510 14511 14512 14513 14514 14515 14516 14517 14518 14519 14520 14521 14522 14523 14524 14525 14526 14527 14528 14529 14530 14531 14532 14533 14534 14535 14536 14537 14538 14539 14540 14541 14542 14543 14544 14545 14546 14547 14548 14549 14550 14551 14552 14553 14554 14555 14556 14557 14558 14559 14560 14561 14562 14563 14564 14565 14566 14567 14568 14569 14570 14571 14572 14573 14574 14575 14576 14577 14578 14579 14580 14581 14582 14583 14584 14585 14586 14587 14588 14589 14590 14591 14592 14593 14594 14595 14596 14597 14598 14599 14600 14601 14602 14603 14604 14605 14606 14607 14608 14609 14610 14611 14612 14613 14614 14615 14616 14617 14618 14619 14620 14621 14622 14623 14624 14625 14626 14627 14628 14629 14630 14631 14632 14633 14634 14635 14636 14637 14638 14639 14640 14641 14642 14643 14644 14645 14646 14647 14648 14649 14650 14651 14652 14653 14654 14655 14656 14657 14658 14659 14660 14661 14662 14663 14664 14665 14666 14667 14668 14669 14670 14671 14672 14673 14674 14675 14676 14677 14678 14679 14680 14681 14682 14683 14684 14685 14686 14687 14688 14689 14690 14691 14692 14693 14694 14695 14696 14697 14698 14699 14700 14701 14702 14703 14704 14705 14706 14707 14708 14709 14710 14711 14712 14713 14714 14715 14716 14717 14718 14719 14720 14721 14722 14723 14724 14725 14726 14727 14728 14729 14730 14731 14732 14733 14734 14735 14736 14737 14738 14739 14740 14741 14742 14743 14744 14745 14746 14747 14748 14749 14750 14751 14752 14753 14754 14755 14756 14757 14758 14759 14760 14761 14762 14763 14764 14765 14766 14767 14768 14769 14770 14771 14772 14773 14774 14775 14776 14777 14778 14779 14780 14781 14782 14783 14784 14785 14786 14787 14788 14789 14790 14791 14792 14793 14794 14795 14796 14797 14798 14799 14800 14801 14802 14803 14804 14805 14806 14807 14808 14809 14810 14811 14812 14813 14814 14815 14816 14817 14818 14819 14820 14821 14822 14823 14824 14825 14826 14827 14828 14829 14830 14831 14832 14833 14834 14835 14836 14837 14838 14839 14840 14841 14842 14843 14844 14845 14846 14847 14848 14849 14850 14851 14852 14853 14854 14855 14856 14857 14858 14859 14860 14861 14862 14863 14864 14865 14866 14867 14868 14869 14870 14871 14872 14873 14874 14875 14876 14877 14878 14879 14880 14881 14882 14883 14884 14885 14886 14887 14888 14889 14890 14891 14892 14893 14894 14895 14896 14897 14898 14899 14900 14901 14902 14903 14904 14905 14906 14907 14908 14909 14910 14911 14912 14913 14914 14915 14916 14917 14918 14919 14920 14921 14922 14923 14924 14925 14926 14927 14928 14929 14930 14931 14932 14933 14934 14935 14936 14937 14938 14939 14940 14941 14942 14943 14944 14945 14946 14947 14948 14949 14950 14951 14952 14953 14954 14955 14956 14957 14958 14959 14960 14961 14962 14963 14964 14965 14966 14967 14968 14969 14970 14971 14972 14973 14974 14975 14976 14977 14978 14979 14980 14981 14982 14983 14984 14985 14986 14987 14988 14989 14990 14991 14992 14993 14994 14995 14996 14997 14998 14999 15000 15001 15002 15003 15004 15005 15006 15007 15008 15009 15010 15011 15012 15013 15014 15015 15016 15017 15018 15019 15020 15021 15022 15023 15024 15025 15026 15027 15028 15029 15030 15031 15032 15033 15034 15035 15036 15037 15038 15039 15040 15041 15042 15043 15044 15045 15046 15047 15048 15049 15050 15051 15052 15053 15054 15055 15056 15057 15058 15059 15060 15061 15062 15063 15064 15065 15066 15067 15068 15069 15070 15071 15072 15073 15074 15075 15076 15077 15078 15079 15080 15081 15082 15083 15084 15085 15086 15087 15088 15089 15090 15091 15092 15093 15094 15095 15096 15097 15098 15099 15100 15101 15102 15103 15104 15105 15106 15107 15108 15109 15110 15111 15112 15113 15114 15115 15116 15117 15118 15119 15120 15121 15122 15123 15124 15125 15126 15127 15128 15129 15130 15131 15132 15133 15134 15135 15136 15137 15138 15139 15140 15141 15142 15143 15144 15145 15146 15147 15148 15149 15150 15151 15152 15153 15154 15155 15156 15157 15158 15159 15160 15161 15162 15163 15164 15165 15166 15167 15168 15169 15170 15171 15172 15173 15174 15175 15176 15177 15178 15179 15180 15181 15182 15183 15184 15185 15186 15187 15188 15189 15190 15191 15192 15193 15194 15195 15196 15197 15198 15199 15200 15201 15202 15203 15204 15205 15206 15207 15208 15209 15210 15211 15212 15213 15214 15215 15216 15217 15218 15219 15220 15221 15222 15223 15224 15225 15226 15227 15228 15229 15230 15231 15232 15233 15234 15235 15236 15237 15238 15239 15240 15241 15242 15243 15244 15245 15246 15247 15248 15249 15250 15251 15252 15253 15254 15255 15256 15257 15258 15259 15260 15261 15262 15263 15264 15265 15266 15267 15268 15269 15270 15271 15272 15273 15274 15275 15276 15277 15278 15279 15280 15281 15282 15283 15284 15285 15286 15287 15288 15289 15290 15291 15292 15293 15294 15295 15296 15297 15298 15299 15300 15301 15302 15303 15304 15305 15306 15307 15308 15309 15310 15311 15312 15313 15314 15315 15316 15317 15318 15319 15320 15321 15322 15323 15324 15325 15326 15327 15328 15329 15330 15331 15332 15333 15334 15335 15336 15337 15338 15339 15340 15341 15342 15343 15344 15345 15346 15347 15348 15349 15350 15351 15352 15353 15354 15355 15356 15357 15358 15359 15360 15361 15362 15363 15364 15365 15366 15367 15368 15369 15370 15371 15372 15373 15374 15375 15376 15377 15378 15379 15380 15381 15382 15383 15384 15385 15386 15387 15388 15389 15390 15391 15392 15393 15394 15395 15396 15397 15398 15399 15400 15401 15402 15403 15404 15405 15406 15407 15408 15409 15410 15411 15412 15413 15414 15415 15416 15417 15418 15419 15420 15421 15422 15423 15424 15425 15426 15427 15428 15429 15430 15431 15432 15433 15434 15435 15436 15437 15438 15439 15440 15441 15442 15443 15444 15445 15446 15447 15448 15449 15450 15451 15452 15453 15454 15455 15456 15457 15458 15459 15460 15461 15462 15463 15464 15465 15466 15467 15468 15469 15470 15471 15472 15473 15474 15475 15476 15477 15478 15479 15480 15481 15482 15483 15484 15485 15486 15487 15488 15489 15490 15491 15492 15493 15494 15495 15496 15497 15498 15499 15500 15501 15502 15503 15504 15505 15506 15507 15508 15509 15510 15511 15512 15513 15514 15515 15516 15517 15518 15519 15520 15521 15522 15523 15524 15525 15526 15527 15528 15529 15530 15531 15532 15533 15534 15535 15536 15537 15538 15539 15540 15541 15542 15543 15544 15545 15546 15547 15548 15549 15550 15551 15552 15553 15554 15555 15556 15557 15558 15559 15560 15561 15562 15563 15564 15565 15566 15567 15568 15569 15570 15571 15572 15573 15574 15575 15576 15577 15578 15579 15580 15581 15582 15583 15584 15585 15586 15587 15588 15589 15590 15591 15592 15593 15594 15595 15596 15597 15598 15599 15600 15601 15602 15603 15604 15605 15606 15607 15608 15609 15610 15611 15612 15613 15614 15615 15616 15617 15618 15619 15620 15621 15622 15623 15624 15625 15626 15627 15628 15629 15630 15631 15632 15633 15634 15635 15636 15637 15638 15639 15640 15641 15642 15643 15644 15645 15646 15647 15648 15649 15650 15651 15652 15653 15654 15655 15656 15657 15658 15659 15660 15661 15662 15663 15664 15665 15666 15667 15668 15669 15670 15671 15672 15673 15674 15675 15676 15677 15678 15679 15680 15681 15682 15683 15684 15685 15686 15687 15688 15689 15690 15691 15692 15693 15694 15695 15696 15697 15698 15699 15700 15701 15702 15703 15704 15705 15706 15707 15708 15709 15710 15711 15712 15713 15714 15715 15716 15717 15718 15719 15720 15721 15722 15723 15724 15725 15726 15727 15728 15729 15730 15731 15732 15733 15734 15735 15736 15737 15738 15739 15740 15741 15742 15743 15744 15745 15746 15747 15748 15749 15750 15751 15752 15753 15754 15755 15756 15757 15758 15759 15760 15761 15762 15763 15764 15765 15766 15767 15768 15769 15770 15771 15772 15773 15774 15775 15776 15777 15778 15779 15780 15781 15782 15783 15784 15785 15786 15787 15788 15789 15790 15791 15792 15793 15794 15795 15796 15797 15798 15799 15800 15801 15802 15803 15804 15805 15806 15807 15808 15809 15810 15811 15812 15813 15814 15815 15816 15817 15818 15819 15820 15821 15822 15823 15824 15825 15826 15827 15828 15829 15830 15831 15832 15833 15834 15835 15836 15837 15838 15839 15840 15841 15842 15843 15844 15845 15846 15847 15848 15849 15850 15851 15852 15853 15854 15855 15856 15857 15858 15859 15860 15861 15862 15863 15864 15865 15866 15867 15868 15869 15870 15871 15872 15873 15874 15875 15876 15877 15878 15879 15880 15881 15882 15883 15884 15885 15886 15887 15888 15889 15890 15891 15892 15893 15894 15895 15896 15897 15898 15899 15900 15901 15902 15903 15904 15905 15906 15907 15908 15909 15910 15911 15912 15913 15914 15915 15916 15917 15918 15919 15920 15921 15922 15923 15924 15925 15926 15927 15928 15929 15930 15931 15932 15933 15934 15935 15936 15937 15938 15939 15940 15941 15942 15943 15944 15945 15946 15947 15948 15949 15950 15951 15952 15953 15954 15955 15956 15957 15958 15959 15960 15961 15962 15963 15964 15965 15966 15967 15968 15969 15970 15971 15972 15973 15974 15975 15976 15977 15978 15979 15980 15981 15982 15983 15984 15985 15986 15987 15988 15989 15990 15991 15992 15993 15994 15995 15996 15997 15998 15999 16000 16001 16002 16003 16004 16005 16006 16007 16008 16009 16010 16011 16012 16013 16014 16015 16016 16017 16018 16019 16020 16021 16022 16023 16024 16025 16026 16027 16028 16029 16030 16031 16032 16033 16034 16035 16036 16037 16038 16039 16040 16041 16042 16043 16044 16045 16046 16047 16048 16049 16050 16051 16052 16053 16054 16055 16056 16057 16058 16059 16060 16061 16062 16063 16064 16065 16066 16067 16068 16069 16070 16071 16072 16073 16074 16075 16076 16077 16078 16079 16080 16081 16082 16083 16084 16085 16086 16087 16088 16089 16090 16091 16092 16093 16094 16095 16096 16097 16098 16099 16100 16101 16102 16103 16104 16105 16106 16107 16108 16109 16110 16111 16112 16113 16114 16115 16116 16117 16118 16119 16120 16121 16122 16123 16124 16125 16126 16127 16128 16129 16130 16131 16132 16133 16134 16135 16136 16137 16138 16139 16140 16141 16142 16143 16144 16145 16146 16147 16148 16149 16150 16151 16152 16153 16154 16155 16156 16157 16158 16159 16160 16161 16162 16163 16164 16165 16166 16167 16168 16169 16170 16171 16172 16173 16174 16175 16176 16177 16178 16179 16180 16181 16182 16183 16184 16185 16186 16187 16188 16189 16190 16191 16192 16193 16194 16195 16196 16197 16198 16199 16200 16201 16202 16203 16204 16205 16206 16207 16208 16209 16210 16211 16212 16213 16214 16215 16216 16217 16218 16219 16220 16221 16222 16223 16224 16225 16226 16227 16228 16229 16230 16231 16232 16233 16234 16235 16236 16237 16238 16239 16240 16241 16242 16243 16244 16245 16246 16247 16248 16249 16250 16251 16252 16253 16254 16255 16256 16257 16258 16259 16260 16261 16262 16263 16264 16265 16266 16267 16268 16269 16270 16271 16272 16273 16274 16275 16276 16277 16278 16279 16280 16281 16282 16283 16284 16285 16286 16287 16288 16289 16290 16291 16292 16293 16294 16295 16296 16297 16298 16299 16300 16301 16302 16303 16304 16305 16306 16307 16308 16309 16310 16311 16312 16313 16314 16315 16316 16317 16318 16319 16320 16321 16322 16323 16324 16325 16326 16327 16328 16329 16330 16331 16332 16333 16334 16335 16336 16337 16338 16339 16340 16341 16342 16343 16344 16345 16346 16347 16348 16349 16350 16351 16352 16353 16354 16355 16356 16357 16358 16359 16360 16361 16362 16363 16364 16365 16366 16367 16368 16369 16370 16371 16372 16373 16374 16375 16376 16377 16378 16379 16380 16381 16382 16383 16384 16385 16386 16387 16388 16389 16390 16391 16392 16393 16394 16395 16396 16397 16398 16399 16400 16401 16402 16403 16404 16405 16406 16407 16408 16409 16410 16411 16412 16413 16414 16415 16416 16417 16418 16419 16420 16421 16422 16423 16424 16425 16426 16427 16428 16429 16430 16431 16432 16433 16434 16435 16436 16437 16438 16439 16440 16441 16442 16443 16444 16445 16446 16447 16448 16449 16450 16451 16452 16453 16454 16455 16456 16457 16458 16459 16460 16461 16462 16463 16464 16465 16466 16467 16468 16469 16470 16471 16472 16473 16474 16475 16476 16477 16478 16479 16480 16481 16482 16483 16484 16485 16486 16487 16488 16489 16490 16491 16492 16493 16494 16495 16496 16497 16498 16499 16500 16501 16502 16503 16504 16505 16506 16507 16508 16509 16510 16511 16512 16513 16514 16515 16516 16517 16518 16519 16520 16521 16522 16523 16524 16525 16526 16527 16528 16529 16530 16531 16532 16533 16534 16535 16536 16537 16538 16539 16540 16541 16542 16543 16544 16545 16546 16547 16548 16549 16550 16551 16552 16553 16554 16555 16556 16557 16558 16559 16560 16561 16562 16563 16564 16565 16566 16567 16568 16569 16570 16571 16572 16573 16574 16575 16576 16577 16578 16579 16580 16581 16582 16583 16584 16585 16586 16587 16588 16589 16590 16591 16592 16593 16594 16595 16596 16597 16598 16599 16600 16601 16602 16603 16604 16605 16606 16607 16608 16609 16610 16611 16612 16613 16614 16615 16616 16617 16618 16619 16620 16621 16622 16623 16624 16625 16626 16627 16628 16629 16630 16631 16632 16633 16634 16635 16636 16637 16638 16639 16640 16641 16642 16643 16644 16645 16646 16647 16648 16649 16650 16651 16652 16653 16654 16655 16656 16657 16658 16659 16660 16661 16662 16663 16664 16665 16666 16667 16668 16669 16670 16671 16672 16673 16674 16675 16676 16677 16678 16679 16680 16681 16682 16683 16684 16685 16686 16687 16688 16689 16690 16691 16692 16693 16694 16695 16696 16697 16698 16699 16700 16701 16702 16703 16704 16705 16706 16707 16708 16709 16710 16711 16712 16713 16714 16715 16716 16717 16718 16719 16720 16721 16722 16723 16724 16725 16726 16727 16728 16729 16730 16731 16732 16733 16734 16735 16736 16737 16738 16739 16740 16741 16742 16743 16744 16745 16746 16747 16748 16749 16750 16751 16752 16753 16754 16755 16756 16757 16758 16759 16760 16761 16762 16763 16764 16765 16766 16767 16768 16769 16770 16771 16772 16773 16774 16775 16776 16777 16778 16779 16780 16781 16782 16783 16784 16785 16786 16787 16788 16789 16790 16791 16792 16793 16794 16795 16796 16797 16798 16799 16800 16801 16802 16803 16804 16805 16806 16807 16808 16809 16810 16811 16812 16813 16814 16815 16816 16817 16818 16819 16820 16821 16822 16823 16824 16825 16826 16827 16828 16829 16830 16831 16832 16833 16834 16835 16836 16837 16838 16839 16840 16841 16842 16843 16844 16845 16846 16847 16848 16849 16850 16851 16852 16853 16854 16855 16856 16857 16858 16859 16860 16861 16862 16863 16864 16865 16866 16867 16868 16869 16870 16871 16872 16873 16874 16875 16876 16877 16878 16879 16880 16881 16882 16883 16884 16885 16886 16887 16888 16889 16890 16891 16892 16893 16894 16895 16896 16897 16898 16899 16900 16901 16902 16903 16904 16905 16906 16907 16908 16909 16910 16911 16912 16913 16914 16915 16916 16917 16918 16919 16920 16921 16922 16923 16924 16925 16926 16927 16928 16929 16930 16931 16932 16933 16934 16935 16936 16937 16938 16939 16940 16941 16942 16943 16944 16945 16946 16947 16948 16949 16950 16951 16952 16953 16954 16955 16956 16957 16958 16959 16960 16961 16962 16963 16964 16965 16966 16967 16968 16969 16970 16971 16972 16973 16974 16975 16976 16977 16978 16979 16980 16981 16982 16983 16984 16985 16986 16987 16988 16989 16990 16991 16992 16993 16994 16995 16996 16997 16998 16999 17000 17001 17002 17003 17004 17005 17006 17007 17008 17009 17010 17011 17012 17013 17014 17015 17016 17017 17018 17019 17020 17021 17022 17023 17024 17025 17026 17027 17028 17029 17030 17031 17032 17033 17034 17035 17036 17037 17038 17039 17040 17041 17042 17043 17044 17045 17046 17047 17048 17049 17050 17051 17052 17053 17054 17055 17056 17057 17058 17059 17060 17061 17062 17063 17064 17065 17066 17067 17068 17069 17070 17071 17072 17073 17074 17075 17076 17077 17078 17079 17080 17081 17082 17083 17084 17085 17086 17087 17088 17089 17090 17091 17092 17093 17094 17095 17096 17097 17098 17099 17100 17101 17102 17103 17104 17105 17106 17107 17108 17109 17110 17111 17112 17113 17114 17115 17116 17117 17118 17119 17120 17121 17122 17123 17124 17125 17126 17127 17128 17129 17130 17131 17132 17133 17134 17135 17136 17137 17138 17139 17140 17141 17142 17143 17144 17145 17146 17147 17148 17149 17150 17151 17152 17153 17154 17155 17156 17157 17158 17159 17160 17161 17162 17163 17164 17165 17166 17167 17168 17169 17170 17171 17172 17173 17174 17175 17176 17177 17178 17179 17180 17181 17182 17183 17184 17185 17186 17187 17188 17189 17190 17191 17192 17193 17194 17195 17196 17197 17198 17199 17200 17201 17202 17203 17204 17205 17206 17207 17208 17209 17210 17211 17212 17213 17214 17215 17216 17217 17218 17219 17220 17221 17222 17223 17224 17225 17226 17227 17228 17229 17230 17231 17232 17233 17234 17235 17236 17237 17238 17239 17240 17241 17242 17243 17244 17245 17246 17247 17248 17249 17250 17251 17252 17253 17254 17255 17256 17257 17258 17259 17260 17261 17262 17263 17264 17265 17266 17267 17268 17269 17270 17271 17272 17273 17274 17275 17276 17277 17278 17279 17280 17281 17282 17283 17284 17285 17286 17287 17288 17289 17290 17291 17292 17293 17294 17295 17296 17297 17298 17299 17300 17301 17302 17303 17304 17305 17306 17307 17308 17309 17310 17311 17312 17313 17314 17315 17316 17317 17318 17319 17320 17321 17322 17323 17324 17325 17326 17327 17328 17329 17330 17331 17332 17333 17334 17335 17336 17337 17338 17339 17340 17341 17342 17343 17344 17345 17346 17347 17348 17349 17350 17351 17352 17353 17354 17355 17356 17357 17358 17359 17360 17361 17362 17363 17364 17365 17366 17367 17368 17369 17370 17371 17372 17373 17374 17375 17376 17377 17378 17379 17380 17381 17382 17383 17384 17385 17386 17387 17388 17389 17390 17391 17392 17393 17394 17395 17396 17397 17398 17399 17400 17401 17402 17403 17404 17405 17406 17407 17408 17409 17410 17411 17412 17413 17414 17415 17416 17417 17418 17419 17420 17421 17422 17423 17424 17425 17426 17427 17428 17429 17430 17431 17432 17433 17434 17435 17436 17437 17438 17439 17440 17441 17442 17443 17444 17445 17446 17447 17448 17449 17450 17451 17452 17453 17454 17455 17456 17457 17458 17459 17460 17461 17462 17463 17464 17465 17466 17467 17468 17469 17470 17471 17472 17473 17474 17475 17476 17477 17478 17479 17480 17481 17482 17483 17484 17485 17486 17487 17488 17489 17490 17491 17492 17493 17494 17495 17496 17497 17498 17499 17500 17501 17502 17503 17504 17505 17506 17507 17508 17509 17510 17511 17512 17513 17514 17515 17516 17517 17518 17519 17520 17521 17522 17523 17524 17525 17526 17527 17528 17529 17530 17531 17532 17533 17534 17535 17536 17537 17538 17539 17540 17541 17542 17543 17544 17545 17546 17547 17548 17549 17550 17551 17552 17553 17554 17555 17556 17557 17558 17559 17560 17561 17562 17563 17564 17565 17566 17567 17568 17569 17570 17571 17572 17573 17574 17575 17576 17577 17578 17579 17580 17581 17582 17583 17584 17585 17586 17587 17588 17589 17590 17591 17592 17593 17594 17595 17596 17597 17598 17599 17600 17601 17602 17603 17604 17605 17606 17607 17608 17609 17610 17611 17612 17613 17614 17615 17616 17617 17618 17619 17620 17621 17622 17623 17624 17625 17626 17627 17628 17629 17630 17631 17632 17633 17634 17635 17636 17637 17638 17639 17640 17641 17642 17643 17644 17645 17646 17647 17648 17649 17650 17651 17652 17653 17654 17655 17656 17657 17658 17659 17660 17661 17662 17663 17664 17665 17666 17667 17668 17669 17670 17671 17672 17673 17674 17675 17676 17677 17678 17679 17680 17681 17682 17683 17684 17685 17686 17687 17688 17689 17690 17691 17692 17693 17694 17695 17696 17697 17698 17699 17700 17701 17702 17703 17704 17705 17706 17707 17708 17709 17710 17711 17712 17713 17714 17715 17716 17717 17718 17719 17720 17721 17722 17723 17724 17725 17726 17727 17728 17729 17730 17731 17732 17733 17734 17735 17736 17737 17738 17739 17740 17741 17742 17743 17744 17745 17746 17747 17748 17749 17750 17751 17752 17753 17754 17755 17756 17757 17758 17759 17760 17761 17762 17763 17764 17765 17766 17767 17768 17769 17770 17771 17772 17773 17774 17775 17776 17777 17778 17779 17780 17781 17782 17783 17784 17785 17786 17787 17788 17789 17790 17791 17792 17793 17794 17795 17796 17797 17798 17799 17800 17801 17802 17803 17804 17805 17806 17807 17808 17809 17810 17811 17812 17813 17814 17815 17816 17817 17818 17819 17820 17821 17822 17823 17824 17825 17826 17827 17828 17829 17830 17831 17832 17833 17834 17835 17836 17837 17838 17839 17840 17841 17842 17843 17844 17845 17846 17847 17848 17849 17850 17851 17852 17853 17854 17855 17856 17857 17858 17859 17860 17861 17862 17863 17864 17865 17866 17867 17868 17869 17870 17871 17872 17873 17874 17875 17876 17877 17878 17879 17880 17881 17882 17883 17884 17885 17886 17887 17888 17889 17890 17891 17892 17893 17894 17895 17896 17897 17898 17899 17900 17901 17902 17903 17904 17905 17906 17907 17908 17909 17910 17911 17912 17913 17914 17915 17916 17917 17918 17919 17920 17921 17922 17923 17924 17925 17926 17927 17928 17929 17930 17931 17932 17933 17934 17935 17936 17937 17938 17939 17940 17941 17942 17943 17944 17945 17946 17947 17948 17949 17950 17951 17952 17953 17954 17955 17956 17957 17958 17959 17960 17961 17962 17963 17964 17965 17966 17967 17968 17969 17970 17971 17972 17973 17974 17975 17976 17977 17978 17979 17980 17981 17982 17983 17984 17985 17986 17987 17988 17989 17990 17991 17992 17993 17994 17995 17996 17997 17998 17999 18000 18001 18002 18003 18004 18005 18006 18007 18008 18009 18010 18011 18012 18013 18014 18015 18016 18017 18018 18019 18020 18021 18022 18023 18024 18025 18026 18027 18028 18029 18030 18031 18032 18033 18034 18035 18036 18037 18038 18039 18040 18041 18042 18043 18044 18045 18046 18047 18048 18049 18050 18051 18052 18053 18054 18055 18056 18057 18058 18059 18060 18061 18062 18063 18064 18065 18066 18067 18068 18069 18070 18071 18072 18073 18074 18075 18076 18077 18078 18079 18080 18081 18082 18083 18084 18085 18086 18087 18088 18089 18090 18091 18092 18093 18094 18095 18096 18097 18098 18099 18100 18101 18102 18103 18104 18105 18106 18107 18108 18109 18110 18111 18112 18113 18114 18115 18116 18117 18118 18119 18120 18121 18122 18123 18124 18125 18126 18127 18128 18129 18130 18131 18132 18133 18134 18135 18136 18137 18138 18139 18140 18141 18142 18143 18144 18145 18146 18147 18148 18149 18150 18151 18152 18153 18154 18155 18156 18157 18158 18159 18160 18161 18162 18163 18164 18165 18166 18167 18168 18169 18170 18171 18172 18173 18174 18175 18176 18177 18178 18179 18180 18181 18182 18183 18184 18185 18186 18187 18188 18189 18190 18191 18192 18193 18194 18195 18196 18197 18198 18199 18200 18201 18202 18203 18204 18205 18206 18207 18208 18209 18210 18211 18212 18213 18214 18215 18216 18217 18218 18219 18220 18221 18222 18223 18224 18225 18226 18227 18228 18229 18230 18231 18232 18233 18234 18235 18236 18237 18238 18239 18240 18241 18242 18243 18244 18245 18246 18247 18248 18249 18250 18251 18252 18253 18254 18255 18256 18257 18258 18259 18260 18261 18262 18263 18264 18265 18266 18267 18268 18269 18270 18271 18272 18273 18274 18275 18276 18277 18278 18279 18280 18281 18282 18283 18284 18285 18286 18287 18288 18289 18290 18291 18292 18293 18294 18295 18296 18297 18298 18299 18300 18301 18302 18303 18304 18305 18306 18307 18308 18309 18310 18311 18312 18313 18314 18315 18316 18317 18318 18319 18320 18321 18322 18323 18324 18325 18326 18327 18328 18329 18330 18331 18332 18333 18334 18335 18336 18337 18338 18339 18340 18341 18342 18343 18344 18345 18346 18347 18348 18349 18350 18351 18352 18353 18354 18355 18356 18357 18358 18359 18360 18361 18362 18363 18364 18365 18366 18367 18368 18369 18370 18371 18372 18373 18374 18375 18376 18377 18378 18379 18380 18381 18382 18383 18384 18385 18386 18387 18388 18389 18390 18391 18392 18393 18394 18395 18396 18397 18398 18399 18400 18401 18402 18403 18404 18405 18406 18407 18408 18409 18410 18411 18412 18413 18414 18415 18416 18417 18418 18419 18420 18421 18422 18423 18424 18425 18426 18427 18428 18429 18430 18431 18432 18433 18434 18435 18436 18437 18438 18439 18440 18441 18442 18443 18444 18445 18446 18447 18448 18449 18450 18451 18452 18453 18454 18455 18456 18457 18458 18459 18460 18461 18462 18463 18464 18465 18466 18467 18468 18469 18470 18471 18472 18473 18474 18475 18476 18477 18478 18479 18480 18481 18482 18483 18484 18485 18486 18487 18488 18489 18490 18491 18492 18493 18494 18495 18496 18497 18498 18499 18500 18501 18502 18503 18504 18505 18506 18507 18508 18509 18510 18511 18512 18513 18514 18515 18516 18517 18518 18519 18520 18521 18522 18523 18524 18525 18526 18527 18528 18529 18530 18531 18532 18533 18534 18535 18536 18537 18538 18539 18540 18541 18542 18543 18544 18545 18546 18547 18548 18549 18550 18551 18552 18553 18554 18555 18556 18557 18558 18559 18560 18561 18562 18563 18564 18565 18566 18567 18568 18569 18570 18571 18572 18573 18574 18575 18576 18577 18578 18579 18580 18581 18582 18583 18584 18585 18586 18587 18588 18589 18590 18591 18592 18593 18594 18595 18596 18597 18598 18599 18600 18601 18602 18603 18604 18605 18606 18607 18608 18609 18610 18611 18612 18613 18614 18615 18616 18617 18618 18619 18620 18621 18622 18623 18624 18625 18626 18627 18628 18629 18630 18631 18632 18633 18634 18635 18636 18637 18638 18639 18640 18641 18642 18643 18644 18645 18646 18647 18648 18649 18650 18651 18652 18653 18654 18655 18656 18657 18658 18659 18660 18661 18662 18663 18664 18665 18666 18667 18668 18669 18670 18671 18672 18673 18674 18675 18676 18677 18678 18679 18680 18681 18682 18683 18684 18685 18686 18687 18688 18689 18690 18691 18692 18693 18694 18695 18696 18697 18698 18699 18700 18701 18702 18703 18704 18705 18706 18707 18708 18709 18710 18711 18712 18713 18714 18715 18716 18717 18718 18719 18720 18721 18722 18723 18724 18725 18726 18727 18728 18729 18730 18731 18732 18733 18734 18735 18736 18737 18738 18739 18740 18741 18742 18743 18744 18745 18746 18747 18748 18749 18750 18751 18752 18753 18754 18755 18756 18757 18758 18759 18760 18761 18762 18763 18764 18765 18766 18767 18768 18769 18770 18771 18772 18773 18774 18775 18776 18777 18778 18779 18780 18781 18782 18783 18784 18785 18786 18787 18788 18789 18790 18791 18792 18793 18794 18795 18796 18797 18798 18799 18800 18801 18802 18803 18804 18805 18806 18807 18808 18809 18810 18811 18812 18813 18814 18815 18816 18817 18818 18819 18820 18821 18822 18823 18824 18825 18826 18827 18828 18829 18830 18831 18832 18833 18834 18835 18836 18837 18838 18839 18840 18841 18842 18843 18844 18845 18846 18847 18848 18849 18850 18851 18852 18853 18854 18855 18856 18857 18858 18859 18860 18861 18862 18863 18864 18865 18866 18867 18868 18869 18870 18871 18872 18873 18874 18875 18876 18877 18878 18879 18880 18881 18882 18883 18884 18885 18886 18887 18888 18889 18890 18891 18892 18893 18894 18895 18896 18897 18898 18899 18900 18901 18902 18903 18904 18905 18906 18907 18908 18909 18910 18911 18912 18913 18914 18915 18916 18917 18918 18919 18920 18921 18922 18923 18924 18925 18926 18927 18928 18929 18930 18931 18932 18933 18934 18935 18936 18937 18938 18939 18940 18941 18942 18943 18944 18945 18946 18947 18948 18949 18950 18951 18952 18953 18954 18955 18956 18957 18958 18959 18960 18961 18962 18963 18964 18965 18966 18967 18968 18969 18970 18971 18972 18973 18974 18975 18976 18977 18978 18979 18980 18981 18982 18983 18984 18985 18986 18987 18988 18989 18990 18991 18992 18993 18994 18995 18996 18997 18998 18999 19000 19001 19002 19003 19004 19005 19006 19007 19008 19009 19010 19011 19012 19013 19014 19015 19016 19017 19018 19019 19020 19021 19022 19023 19024 19025 19026 19027 19028 19029 19030 19031 19032 19033 19034 19035 19036 19037 19038 19039 19040 19041 19042 19043 19044 19045 19046 19047 19048 19049 19050 19051 19052 19053 19054 19055 19056 19057 19058 19059 19060 19061 19062 19063 19064 19065 19066 19067 19068 19069 19070 19071 19072 19073 19074 19075 19076 19077 19078 19079 19080 19081 19082 19083 19084 19085 19086 19087 19088 19089 19090 19091 19092 19093 19094 19095 19096 19097 19098 19099 19100 19101 19102 19103 19104 19105 19106 19107 19108 19109 19110 19111 19112 19113 19114 19115 19116 19117 19118 19119 19120 19121 19122 19123 19124 19125 19126 19127 19128 19129 19130 19131 19132 19133 19134 19135 19136 19137 19138 19139 19140 19141 19142 19143 19144 19145 19146 19147 19148 19149 19150 19151 19152 19153 19154 19155 19156 19157 19158 19159 19160 19161 19162 19163 19164 19165 19166 19167 19168 19169 19170 19171 19172 19173 19174 19175 19176 19177 19178 19179 19180 19181 19182 19183 19184 19185 19186 19187 19188 19189 19190 19191 19192 19193 19194 19195 19196 19197 19198 19199 19200 19201 19202 19203 19204 19205 19206 19207 19208 19209 19210 19211 19212 19213 19214 19215 19216 19217 19218 19219 19220 19221 19222 19223 19224 19225 19226 19227 19228 19229 19230 19231 19232 19233 19234 19235 19236 19237 19238 19239 19240 19241 19242 19243 19244 19245 19246 19247 19248 19249 19250 19251 19252 19253 19254 19255 19256 19257 19258 19259 19260 19261 19262 19263 19264 19265 19266 19267 19268 19269 19270 19271 19272 19273 19274 19275 19276 19277 19278 19279 19280 19281 19282 19283 19284 19285 19286 19287 19288 19289 19290 19291 19292 19293 19294 19295 19296 19297 19298 19299 19300 19301 19302 19303 19304 19305 19306 19307 19308 19309 19310 19311 19312 19313 19314 19315 19316 19317 19318 19319 19320 19321 19322 19323 19324 19325 19326 19327 19328 19329 19330 19331 19332 19333 19334 19335 19336 19337 19338 19339 19340 19341 19342 19343 19344 19345 19346 19347 19348 19349 19350 19351 19352 19353 19354 19355 19356 19357 19358 19359 19360 19361 19362 19363 19364 19365 19366 19367 19368 19369 19370 19371 19372 19373 19374 19375 19376 19377 19378 19379 19380 19381 19382 19383 19384 19385 19386 19387 19388 19389 19390 19391 19392 19393 19394 19395 19396 19397 19398 19399 19400 19401 19402 19403 19404 19405 19406 19407 19408 19409 19410 19411 19412 19413 19414 19415 19416 19417 19418 19419 19420 19421 19422 19423 19424 19425 19426 19427 19428 19429 19430 19431 19432 19433 19434 19435 19436 19437 19438 19439 19440 19441 19442 19443 19444 19445 19446 19447 19448 19449 19450 19451 19452 19453 19454 19455 19456 19457 19458 19459 19460 19461 19462 19463 19464 19465 19466 19467 19468 19469 19470 19471 19472 19473 19474 19475 19476 19477 19478 19479 19480 19481 19482 19483 19484 19485 19486 19487 19488 19489 19490 19491 19492 19493 19494 19495 19496 19497 19498 19499 19500 19501 19502 19503 19504 19505 19506 19507 19508 19509 19510 19511 19512 19513 19514 19515 19516 19517 19518 19519 19520 19521 19522 19523 19524 19525 19526 19527 19528 19529 19530 19531 19532 19533 19534 19535 19536 19537 19538 19539 19540 19541 19542 19543 19544 19545 19546 19547 19548 19549 19550 19551 19552 19553 19554 19555 19556 19557 19558 19559 19560 19561 19562 19563 19564 19565 19566 19567 19568 19569 19570 19571 19572 19573 19574 19575 19576 19577 19578 19579 19580 19581 19582 19583 19584 19585 19586 19587 19588 19589 19590 19591 19592 19593 19594 19595 19596 19597 19598 19599 19600 19601 19602 19603 19604 19605 19606 19607 19608 19609 19610 19611 19612 19613 19614 19615 19616 19617 19618 19619 19620 19621 19622 19623 19624 19625 19626 19627 19628 19629 19630 19631 19632 19633 19634 19635 19636 19637 19638 19639 19640 19641 19642 19643 19644 19645 19646 19647 19648 19649 19650 19651 19652 19653 19654 19655 19656 19657 19658 19659 19660 19661 19662 19663 19664 19665 19666 19667 19668 19669 19670 19671 19672 19673 19674 19675 19676 19677 19678 19679 19680 19681 19682 19683 19684 19685 19686 19687 19688 19689 19690 19691 19692 19693 19694 19695 19696 19697 19698 19699 19700 19701 19702 19703 19704 19705 19706 19707 19708 19709 19710 19711 19712 19713 19714 19715 19716 19717 19718 19719 19720 19721 19722 19723 19724 19725 19726 19727 19728 19729 19730 19731 19732 19733 19734 19735 19736 19737 19738 19739 19740 19741 19742 19743 19744 19745 19746 19747 19748 19749 19750 19751 19752 19753 19754 19755 19756 19757 19758 19759 19760 19761 19762 19763 19764 19765 19766 19767 19768 19769 19770 19771 19772 19773 19774 19775 19776 19777 19778 19779 19780 19781 19782 19783 19784 19785 19786 19787 19788 19789 19790 19791 19792 19793 19794 19795 19796 19797 19798 19799 19800 19801 19802 19803 19804 19805 19806 19807 19808 19809 19810 19811 19812 19813 19814 19815 19816 19817 19818 19819 19820 19821 19822 19823 19824 19825 19826 19827 19828 19829 19830 19831 19832 19833 19834 19835 19836 19837 19838 19839 19840 19841 19842 19843 19844 19845 19846 19847 19848 19849 19850 19851 19852 19853 19854 19855 19856 19857 19858 19859 19860 19861 19862 19863 19864 19865 19866 19867 19868 19869 19870 19871 19872 19873 19874 19875 19876 19877 19878 19879 19880 19881 19882 19883 19884 19885 19886 19887 19888 19889 19890 19891 19892 19893 19894 19895 19896 19897 19898 19899 19900 19901 19902 19903 19904 19905 19906 19907 19908 19909 19910 19911 19912 19913 19914 19915 19916 19917 19918 19919 19920 19921 19922 19923 19924 19925 19926 19927 19928 19929 19930 19931 19932 19933 19934 19935 19936 19937 19938 19939 19940 19941 19942 19943 19944 19945 19946 19947 19948 19949 19950 19951 19952 19953 19954 19955 19956 19957 19958 19959 19960 19961 19962 19963 19964 19965 19966 19967 19968 19969 19970 19971 19972 19973 19974 19975 19976 19977 19978 19979 19980 19981 19982 19983 19984 19985 19986 19987 19988 19989 19990 19991 19992 19993 19994 19995 19996 19997 19998 19999 20000 20001 20002 20003 20004 20005 20006 20007 20008 20009 20010 20011 20012 20013 20014 20015 20016 20017 20018 20019 20020 20021 20022 20023 20024 20025 20026 20027 20028 20029 20030 20031 20032 20033 20034 20035 20036 20037 20038 20039 20040 20041 20042 20043 20044 20045 20046 20047 20048 20049 20050 20051 20052 20053 20054 20055 20056 20057 20058 20059 20060 20061 20062 20063 20064 20065 20066 20067 20068 20069 20070 20071 20072 20073 20074 20075 20076 20077 20078 20079 20080 20081 20082 20083 20084 20085 20086 20087 20088 20089 20090 20091 20092 20093 20094 20095 20096 20097 20098 20099 20100 20101 20102 20103 20104 20105 20106 20107 20108 20109 20110 20111 20112 20113 20114 20115 20116 20117 20118 20119 20120 20121 20122 20123 20124 20125 20126 20127 20128 20129 20130 20131 20132 20133 20134 20135 20136 20137 20138 20139 20140 20141 20142 20143 20144 20145 20146 20147 20148 20149 20150 20151 20152 20153 20154 20155 20156 20157 20158 20159 20160 20161 20162 20163 20164 20165 20166 20167 20168 20169 20170 20171 20172 20173 20174 20175 20176 20177 20178 20179 20180 20181 20182 20183 20184 20185 20186 20187 20188 20189 20190 20191 20192 20193 20194 20195 20196 20197 20198 20199 20200 20201 20202 20203 20204 20205 20206 20207 20208 20209 20210 20211 20212 20213 20214 20215 20216 20217 20218 20219 20220 20221 20222 20223 20224 20225 20226 20227 20228 20229 20230 20231 20232 20233 20234 20235 20236 20237 20238 20239 20240 20241 20242 20243 20244 20245 20246 20247 20248 20249 20250 20251 20252 20253 20254 20255 20256 20257 20258 20259 20260 20261 20262 20263 20264 20265 20266 20267 20268 20269 20270 20271 20272 20273 20274 20275 20276 20277 20278 20279 20280 20281 20282 20283 20284 20285 20286 20287 20288 20289 20290 20291 20292 20293 20294 20295 20296 20297 20298 20299 20300 20301 20302 20303 20304 20305 20306 20307 20308 20309 20310 20311 20312 20313 20314 20315 20316 20317 20318 20319 20320 20321 20322 20323 20324 20325 20326 20327 20328 20329 20330 20331 20332 20333 20334 20335 20336 20337 20338 20339 20340 20341 20342 20343 20344 20345 20346 20347 20348 20349 20350 20351 20352 20353 20354 20355 20356 20357 20358 20359 20360 20361 20362 20363 20364 20365 20366 20367 20368 20369 20370 20371 20372 20373 20374 20375 20376 20377 20378 20379 20380 20381 20382 20383 20384 20385 20386 20387 20388 20389 20390 20391 20392 20393 20394 20395 20396 20397 20398 20399 20400 20401 20402 20403 20404 20405 20406 20407 20408 20409 20410 20411 20412 20413 20414 20415 20416 20417 20418 20419 20420 20421 20422 20423 20424 20425 20426 20427 20428 20429 20430 20431 20432 20433 20434 20435 20436 20437 20438 20439 20440 20441 20442 20443 20444 20445 20446 20447 20448 20449 20450 20451 20452 20453 20454 20455 20456 20457 20458 20459 20460 20461 20462 20463 20464 20465 20466 20467 20468 20469 20470 20471 20472 20473 20474 20475 20476 20477 20478 20479 20480 20481 20482 20483 20484 20485 20486 20487 20488 20489 20490 20491 20492 20493 20494 20495 20496 20497 20498 20499 20500 20501 20502 20503 20504 20505 20506 20507 20508 20509 20510 20511 20512 20513 20514 20515 20516 20517 20518 20519 20520 20521 20522 20523 20524 20525 20526 20527 20528 20529 20530 20531 20532 20533 20534 20535 20536 20537 20538 20539 20540 20541 20542 20543 20544 20545 20546 20547 20548 20549 20550 20551 20552 20553 20554 20555 20556 20557 20558 20559 20560 20561 20562 20563 20564 20565 20566 20567 20568 20569 20570 20571 20572 20573 20574 20575 20576 20577 20578 20579 20580 20581 20582 20583 20584 20585 20586 20587 20588 20589 20590 20591 20592 20593 20594 20595 20596 20597 20598 20599 20600 20601 20602 20603 20604 20605 20606 20607 20608 20609 20610 20611 20612 20613 20614 20615 20616 20617 20618 20619 20620 20621 20622 20623 20624 20625 20626 20627 20628 20629 20630 20631 20632 20633 20634 20635 20636 20637 20638 20639 20640 20641 20642 20643 20644 20645 20646 20647 20648 20649 20650 20651 20652 20653 20654 20655 20656 20657 20658 20659 20660 20661 20662 20663 20664 20665 20666 20667 20668 20669 20670 20671 20672 20673 20674 20675 20676 20677 20678 20679 20680 20681 20682 20683 20684 20685 20686 20687 20688 20689 20690 20691 20692 20693 20694 20695 20696 20697 20698 20699 20700 20701 20702 20703 20704 20705 20706 20707 20708 20709 20710 20711 20712 20713 20714 20715 20716 20717 20718 20719 20720 20721 20722 20723 20724 20725 20726 20727 20728 20729 20730 20731 20732 20733 20734 20735 20736 20737 20738 20739 20740 20741 20742 20743 20744 20745 20746 20747 20748 20749 20750 20751 20752 20753 20754 20755 20756 20757 20758 20759 20760 20761 20762 20763 20764 20765 20766 20767 20768 20769 20770 20771 20772 20773 20774 20775 20776 20777 20778 20779 20780 20781 20782 20783 20784 20785 20786 20787 20788 20789 20790 20791 20792 20793 20794 20795 20796 20797 20798 20799 20800 20801 20802 20803 20804 20805 20806 20807 20808 20809 20810 20811 20812 20813 20814 20815 20816 20817 20818 20819 20820 20821 20822 20823 20824 20825 20826 20827 20828 20829 20830 20831 20832 20833 20834 20835 20836 20837 20838 20839 20840 20841 20842 20843 20844 20845 20846 20847 20848 20849 20850 20851 20852 20853 20854 20855 20856 20857 20858 20859 20860 20861 20862 20863 20864 20865 20866 20867 20868 20869 20870 20871 20872 20873 20874 20875 20876 20877 20878 20879 20880 20881 20882 20883 20884 20885 20886 20887 20888 20889 20890 20891 20892 20893 20894 20895 20896 20897 20898 20899 20900 20901 20902 20903 20904 20905 20906 20907 20908 20909 20910 20911 20912 20913 20914 20915 20916 20917 20918 20919 20920 20921 20922 20923 20924 20925 20926 20927 20928 20929 20930 20931 20932 20933 20934 20935 20936 20937 20938 20939 20940 20941 20942 20943 20944 20945 20946 20947 20948 20949 20950 20951 20952 20953 20954 20955 20956 20957 20958 20959 20960 20961 20962 20963 20964 20965 20966 20967 20968 20969 20970 20971 20972 20973 20974 20975 20976 20977 20978 20979 20980 20981 20982 20983 20984 20985 20986 20987 20988 20989 20990 20991 20992 20993 20994 20995 20996 20997 20998 20999 21000 21001 21002 21003 21004 21005 21006 21007 21008 21009 21010 21011 21012 21013 21014 21015 21016 21017 21018 21019 21020 21021 21022 21023 21024 21025 21026 21027 21028 21029 21030 21031 21032 21033 21034 21035 21036 21037 21038 21039 21040 21041 21042 21043 21044 21045 21046 21047 21048 21049 21050 21051 21052 21053 21054 21055 21056 21057 21058 21059 21060 21061 21062 21063 21064 21065 21066 21067 21068 21069 21070 21071 21072 21073 21074 21075 21076 21077 21078 21079 21080 21081 21082 21083 21084 21085 21086 21087 21088 21089 21090 21091 21092 21093 21094 21095 21096 21097 21098 21099 21100 21101 21102 21103 21104 21105 21106 21107 21108 21109 21110 21111 21112 21113 21114 21115 21116 21117 21118 21119 21120 21121 21122 21123 21124 21125 21126 21127 21128 21129 21130 21131 21132 21133 21134 21135 21136 21137 21138 21139 21140 21141 21142 21143 21144 21145 21146 21147 21148 21149 21150 21151 21152 21153 21154 21155 21156 21157 21158 21159 21160 21161 21162 21163 21164 21165 21166 21167 21168 21169 21170 21171 21172 21173 21174 21175 21176 21177 21178 21179 21180 21181 21182 21183 21184 21185 21186 21187 21188 21189 21190 21191 21192 21193 21194 21195 21196 21197 21198 21199 21200 21201 21202 21203 21204 21205 21206 21207 21208 21209 21210 21211 21212 21213 21214 21215 21216 21217 21218 21219 21220 21221 21222 21223 21224 21225 21226 21227 21228 21229 21230 21231 21232 21233 21234 21235 21236 21237 21238 21239 21240 21241 21242 21243 21244 21245 21246 21247 21248 21249 21250 21251 21252 21253 21254 21255 21256 21257 21258 21259 21260 21261 21262 21263 21264 21265 21266 21267 21268 21269 21270 21271 21272 21273 21274 21275 21276 21277 21278 21279 21280 21281 21282 21283 21284 21285 21286 21287 21288 21289 21290 21291 21292 21293 21294 21295 21296 21297 21298 21299 21300 21301 21302 21303 21304 21305 21306 21307 21308 21309 21310 21311 21312 21313 21314 21315 21316 21317 21318 21319 21320 21321 21322 21323 21324 21325 21326 21327 21328 21329 21330 21331 21332 21333 21334 21335 21336 21337 21338 21339 21340 21341 21342 21343 21344 21345 21346 21347 21348 21349 21350 21351 21352 21353 21354 21355 21356 21357 21358 21359 21360 21361 21362 21363 21364 21365 21366 21367 21368 21369 21370 21371 21372 21373 21374 21375 21376 21377 21378 21379 21380 21381 21382 21383 21384 21385 21386 21387 21388 21389 21390 21391 21392 21393 21394 21395 21396 21397 21398 21399 21400 21401 21402 21403 21404 21405 21406 21407 21408 21409 21410 21411 21412 21413 21414 21415 21416 21417 21418 21419 21420 21421 21422 21423 21424 21425 21426 21427 21428 21429 21430 21431 21432 21433 21434 21435 21436 21437 21438 21439 21440 21441 21442 21443 21444 21445 21446 21447 21448 21449 21450 21451 21452 21453 21454 21455 21456 21457 21458 21459 21460 21461 21462 21463 21464 21465 21466 21467 21468 21469 21470 21471 21472 21473 21474 21475 21476 21477 21478 21479 21480 21481 21482 21483 21484 21485 21486 21487 21488 21489 21490 21491 21492 21493 21494 21495 21496 21497 21498 21499 21500 21501 21502 21503 21504 21505 21506 21507 21508 21509 21510 21511 21512 21513 21514 21515 21516 21517 21518 21519 21520 21521 21522 21523 21524 21525 21526 21527 21528 21529 21530 21531 21532 21533 21534 21535 21536 21537 21538 21539 21540 21541 21542 21543 21544 21545 21546 21547 21548 21549 21550 21551 21552 21553 21554 21555 21556 21557 21558 21559 21560 21561 21562 21563 21564 21565 21566 21567 21568 21569 21570 21571 21572 21573 21574 21575 21576 21577 21578 21579 21580 21581 21582 21583 21584 21585 21586 21587 21588 21589 21590 21591 21592 21593 21594 21595 21596 21597 21598 21599 21600 21601 21602 21603 21604 21605 21606 21607 21608 21609 21610 21611 21612 21613 21614 21615 21616 21617 21618 21619 21620 21621 21622 21623 21624 21625 21626 21627 21628 21629 21630 21631 21632 21633 21634 21635 21636 21637 21638 21639 21640 21641 21642 21643 21644 21645 21646 21647 21648 21649 21650 21651 21652 21653 21654 21655 21656 21657 21658 21659 21660 21661 21662 21663 21664 21665 21666 21667 21668 21669 21670 21671 21672 21673 21674 21675 21676 21677 21678 21679 21680 21681 21682 21683 21684 21685 21686 21687 21688 21689 21690 21691 21692 21693 21694 21695 21696 21697 21698 21699 21700 21701 21702 21703 21704 21705 21706 21707 21708 21709 21710 21711 21712 21713 21714 21715 21716 21717 21718 21719 21720 21721 21722 21723 21724 21725 21726 21727 21728 21729 21730 21731 21732 21733 21734 21735 21736 21737 21738 21739 21740 21741 21742 21743 21744 21745 21746 21747 21748 21749 21750 21751 21752 21753 21754 21755 21756 21757 21758 21759 21760 21761 21762 21763 21764 21765 21766 21767 21768 21769 21770 21771 21772 21773 21774 21775 21776 21777 21778 21779 21780 21781 21782 21783 21784 21785 21786 21787 21788 21789 21790 21791 21792 21793 21794 21795 21796 21797 21798 21799 21800 21801 21802 21803 21804 21805 21806 21807 21808 21809 21810 21811 21812 21813 21814 21815 21816 21817 21818 21819 21820 21821 21822 21823 21824 21825 21826 21827 21828 21829 21830 21831 21832 21833 21834 21835 21836 21837 21838 21839 21840 21841 21842 21843 21844 21845 21846 21847 21848 21849 21850 21851 21852 21853 21854 21855 21856 21857 21858 21859 21860 21861 21862 21863 21864 21865 21866 21867 21868 21869 21870 21871 21872 21873 21874 21875 21876 21877 21878 21879 21880 21881 21882 21883 21884 21885 21886 21887 21888 21889 21890 21891 21892 21893 21894 21895 21896 21897 21898 21899 21900 21901 21902 21903 21904 21905 21906 21907 21908 21909 21910 21911 21912 21913 21914 21915 21916 21917 21918 21919 21920 21921 21922 21923 21924 21925 21926 21927 21928 21929 21930 21931 21932 21933 21934 21935 21936 21937 21938 21939 21940 21941 21942 21943 21944 21945 21946 21947 21948 21949 21950 21951 21952 21953 21954 21955 21956 21957 21958 21959 21960 21961 21962 21963 21964 21965 21966 21967 21968 21969 21970 21971 21972 21973 21974 21975 21976 21977 21978 21979 21980 21981 21982 21983 21984 21985 21986 21987 21988 21989 21990 21991 21992 21993 21994 21995 21996 21997 21998 21999 22000 22001 22002 22003 22004 22005 22006 22007 22008 22009 22010 22011 22012 22013 22014 22015 22016 22017 22018 22019 22020 22021 22022 22023 22024 22025 22026 22027 22028 22029 22030 22031 22032 22033 22034 22035 22036 22037 22038 22039 22040 22041 22042 22043 22044 22045 22046 22047 22048 22049 22050 22051 22052 22053 22054 22055 22056 22057 22058 22059 22060 22061 22062 22063 22064 22065 22066 22067 22068 22069 22070 22071 22072 22073 22074 22075 22076 22077 22078 22079 22080 22081 22082 22083 22084 22085 22086 22087 22088 22089 22090 22091 22092 22093 22094 22095 22096 22097 22098 22099 22100 22101 22102 22103 22104 22105 22106 22107 22108 22109 22110 22111 22112 22113 22114 22115 22116 22117 22118 22119 22120 22121 22122 22123 22124 22125 22126 22127 22128 22129 22130 22131 22132 22133 22134 22135 22136 22137 22138 22139 22140 22141 22142 22143 22144 22145 22146 22147 22148 22149 22150 22151 22152 22153 22154 22155 22156 22157 22158 22159 22160 22161 22162 22163 22164 22165 22166 22167 22168 22169 22170 22171 22172 22173 22174 22175 22176 22177 22178 22179 22180 22181 22182 22183 22184 22185 22186 22187 22188 22189 22190 22191 22192 22193 22194 22195 22196 22197 22198 22199 22200 22201 22202 22203 22204 22205 22206 22207 22208 22209 22210 22211 22212 22213 22214 22215 22216 22217 22218 22219 22220 22221 22222 22223 22224 22225 22226 22227 22228 22229 22230 22231 22232 22233 22234 22235 22236 22237 22238 22239 22240 22241 22242 22243 22244 22245 22246 22247 22248 22249 22250 22251 22252 22253 22254 22255 22256 22257 22258 22259 22260 22261 22262 22263 22264 22265 22266 22267 22268 22269 22270 22271 22272 22273 22274 22275 22276 22277 22278 22279 22280 22281 22282 22283 22284 22285 22286 22287 22288 22289 22290 22291 22292 22293 22294 22295 22296 22297 22298 22299 22300 22301 22302 22303 22304 22305 22306 22307 22308 22309 22310 22311 22312 22313 22314 22315 22316 22317 22318 22319 22320 22321 22322 22323 22324 22325 22326 22327 22328 22329 22330 22331 22332 22333 22334 22335 22336 22337 22338 22339 22340 22341 22342 22343 22344 22345 22346 22347 22348 22349 22350 22351 22352 22353 22354 22355 22356 22357 22358 22359 22360 22361 22362 22363 22364 22365 22366 22367 22368 22369 22370 22371 22372 22373 22374 22375 22376 22377 22378 22379 22380 22381 22382 22383 22384 22385 22386 22387 22388 22389 22390 22391 22392 22393 22394 22395 22396 22397 22398 22399 22400 22401 22402 22403 22404 22405 22406 22407 22408 22409 22410 22411 22412 22413 22414 22415 22416 22417 22418 22419 22420 22421 22422 22423 22424 22425 22426 22427 22428 22429 22430 22431 22432 22433 22434 22435 22436 22437 22438 22439 22440 22441 22442 22443 22444 22445 22446 22447 22448 22449 22450 22451 22452 22453 22454 22455 22456 22457 22458 22459 22460 22461 22462 22463 22464 22465 22466 22467 22468 22469 22470 22471 22472 22473 22474 22475 22476 22477 22478 22479 22480 22481 22482 22483 22484 22485 22486 22487 22488 22489 22490 22491 22492 22493 22494 22495 22496 22497 22498 22499 22500 22501 22502 22503 22504 22505 22506 22507 22508 22509 22510 22511 22512 22513 22514 22515 22516 22517 22518 22519 22520 22521 22522 22523 22524 22525 22526 22527 22528 22529 22530 22531 22532 22533 22534 22535 22536 22537 22538 22539 22540 22541 22542 22543 22544 22545 22546 22547 22548 22549 22550 22551 22552 22553 22554 22555 22556 22557 22558 22559 22560 22561 22562 22563 22564 22565 22566 22567 22568 22569 22570 22571 22572 22573 22574 22575 22576 22577 22578 22579 22580 22581 22582 22583 22584 22585 22586 22587 22588 22589 22590 22591 22592 22593 22594 22595 22596 22597 22598 22599 22600 22601 22602 22603 22604 22605 22606 22607 22608 22609 22610 22611 22612 22613 22614 22615 22616 22617 22618 22619 22620 22621 22622 22623 22624 22625 22626 22627 22628 22629 22630 22631 22632 22633 22634 22635 22636 22637 22638 22639 22640 22641 22642 22643 22644 22645 22646 22647 22648 22649 22650 22651 22652 22653 22654 22655 22656 22657 22658 22659 22660 22661 22662 22663 22664 22665 22666 22667 22668 22669 22670 22671 22672 22673 22674 22675 22676 22677 22678 22679 22680 22681 22682 22683 22684 22685 22686 22687 22688 22689 22690 22691 22692 22693 22694 22695 22696 22697 22698 22699 22700 22701 22702 22703 22704 22705 22706 22707 22708 22709 22710 22711 22712 22713 22714 22715 22716 22717 22718 22719 22720 22721 22722 22723 22724 22725 22726 22727 22728 22729 22730 22731 22732 22733 22734 22735 22736 22737 22738 22739 22740 22741 22742 22743 22744 22745 22746 22747 22748 22749 22750 22751 22752 22753 22754 22755 22756 22757 22758 22759 22760 22761 22762 22763 22764 22765 22766 22767 22768 22769 22770 22771 22772 22773 22774 22775 22776 22777 22778 22779 22780 22781 22782 22783 22784 22785 22786 22787 22788 22789 22790 22791 22792 22793 22794 22795 22796 22797 22798 22799 22800 22801 22802 22803 22804 22805 22806 22807 22808 22809 22810 22811 22812 22813 22814 22815 22816 22817 22818 22819 22820 22821 22822 22823 22824 22825 22826 22827 22828 22829 22830 22831 22832 22833 22834 22835 22836 22837 22838 22839 22840 22841 22842 22843 22844 22845 22846 22847 22848 22849 22850 22851 22852 22853 22854 22855 22856 22857 22858 22859 22860 22861 22862 22863 22864 22865 22866 22867 22868 22869 22870 22871 22872 22873 22874 22875 22876 22877 22878 22879 22880 22881 22882 22883 22884 22885 22886 22887 22888 22889 22890 22891 22892 22893 22894 22895 22896 22897 22898 22899 22900 22901 22902 22903 22904 22905 22906 22907 22908 22909 22910 22911 22912 22913 22914 22915 22916 22917 22918 22919 22920 22921 22922 22923 22924 22925 22926 22927 22928 22929 22930 22931 22932 22933 22934 22935 22936 22937 22938 22939 22940 22941 22942 22943 22944 22945 22946 22947 22948 22949 22950 22951 22952 22953 22954 22955 22956 22957 22958 22959 22960 22961 22962 22963 22964 22965 22966 22967 22968 22969 22970 22971 22972 22973 22974 22975 22976 22977 22978 22979 22980 22981 22982 22983 22984 22985 22986 22987 22988 22989 22990 22991 22992 22993 22994 22995 22996 22997 22998 22999 23000 23001 23002 23003 23004 23005 23006 23007 23008 23009 23010 23011 23012 23013 23014 23015 23016 23017 23018 23019 23020 23021 23022 23023 23024 23025 23026 23027 23028 23029 23030 23031 23032 23033 23034 23035 23036 23037 23038 23039 23040 23041 23042 23043 23044 23045 23046 23047 23048 23049 23050 23051 23052 23053 23054 23055 23056 23057 23058 23059 23060 23061 23062 23063 23064 23065 23066 23067 23068 23069 23070 23071 23072 23073 23074 23075 23076 23077 23078 23079 23080 23081 23082 23083 23084 23085 23086 23087 23088 23089 23090 23091 23092 23093 23094 23095 23096 23097 23098 23099 23100 23101 23102 23103 23104 23105 23106 23107 23108 23109 23110 23111 23112 23113 23114 23115 23116 23117 23118 23119 23120 23121 23122 23123 23124 23125 23126 23127 23128 23129 23130 23131 23132 23133 23134 23135 23136 23137 23138 23139 23140 23141 23142 23143 23144 23145 23146 23147 23148 23149 23150 23151 23152 23153 23154 23155 23156 23157 23158 23159 23160 23161 23162 23163 23164 23165 23166 23167 23168 23169 23170 23171 23172 23173 23174 23175 23176 23177 23178 23179 23180 23181 23182 23183 23184 23185 23186 23187 23188 23189 23190 23191 23192 23193 23194 23195 23196 23197 23198 23199 23200 23201 23202 23203 23204 23205 23206 23207 23208 23209 23210 23211 23212 23213 23214 23215 23216 23217 23218 23219 23220 23221 23222 23223 23224 23225 23226 23227 23228 23229 23230 23231 23232 23233 23234 23235 23236 23237 23238 23239 23240 23241 23242 23243 23244 23245 23246 23247 23248 23249 23250 23251 23252 23253 23254 23255 23256 23257 23258 23259 23260 23261 23262 23263 23264 23265 23266 23267 23268 23269 23270 23271 23272 23273 23274 23275 23276 23277 23278 23279 23280 23281 23282 23283 23284 23285 23286 23287 23288 23289 23290 23291 23292 23293 23294 23295 23296 23297 23298 23299 23300 23301 23302 23303 23304 23305 23306 23307 23308 23309 23310 23311 23312 23313 23314 23315 23316 23317 23318 23319 23320 23321 23322 23323 23324 23325 23326 23327 23328 23329 23330 23331 23332 23333 23334 23335 23336 23337 23338 23339 23340 23341 23342 23343 23344 23345 23346 23347 23348 23349 23350 23351 23352 23353 23354 23355 23356 23357 23358 23359 23360 23361 23362 23363 23364 23365 23366 23367 23368 23369 23370 23371 23372 23373 23374 23375 23376 23377 23378 23379 23380 23381 23382 23383 23384 23385 23386 23387 23388 23389 23390 23391 23392 23393 23394 23395 23396 23397 23398 23399 23400 23401 23402 23403 23404 23405 23406 23407 23408 23409 23410 23411 23412 23413 23414 23415 23416 23417 23418 23419 23420 23421 23422 23423 23424 23425 23426 23427 23428 23429 23430 23431 23432 23433 23434 23435 23436 23437 23438 23439 23440 23441 23442 23443 23444 23445 23446 23447 23448 23449 23450 23451 23452 23453 23454 23455 23456 23457 23458 23459 23460 23461 23462 23463 23464 23465 23466 23467 23468 23469 23470 23471 23472 23473 23474 23475 23476 23477 23478 23479 23480 23481 23482 23483 23484 23485 23486 23487 23488 23489 23490 23491 23492 23493 23494 23495 23496 23497 23498 23499 23500 23501 23502 23503 23504 23505 23506 23507 23508 23509 23510 23511 23512 23513 23514 23515 23516 23517 23518 23519 23520 23521 23522 23523 23524 23525 23526 23527 23528 23529 23530 23531 23532 23533 23534 23535 23536 23537 23538 23539 23540 23541 23542 23543 23544 23545 23546 23547 23548 23549 23550 23551 23552 23553 23554 23555 23556 23557 23558 23559 23560 23561 23562 23563 23564 23565 23566 23567 23568 23569 23570 23571 23572 23573 23574 23575 23576 23577 23578 23579 23580 23581 23582 23583 23584 23585 23586 23587 23588 23589 23590 23591 23592 23593 23594 23595 23596 23597 23598 23599 23600 23601 23602 23603 23604 23605 23606 23607 23608 23609 23610 23611 23612 23613 23614 23615 23616 23617 23618 23619 23620 23621 23622 23623 23624 23625 23626 23627 23628 23629 23630 23631 23632 23633 23634 23635 23636 23637 23638 23639 23640 23641 23642 23643 23644 23645 23646 23647 23648 23649 23650 23651 23652 23653 23654 23655 23656 23657 23658 23659 23660 23661 23662 23663 23664 23665 23666 23667 23668 23669 23670 23671 23672 23673 23674 23675 23676 23677 23678 23679 23680 23681 23682 23683 23684 23685 23686 23687 23688 23689 23690 23691 23692 23693 23694 23695 23696 23697 23698 23699 23700 23701 23702 23703 23704 23705 23706 23707 23708 23709 23710 23711 23712 23713 23714 23715 23716 23717 23718 23719 23720 23721 23722 23723 23724 23725 23726 23727 23728 23729 23730 23731 23732 23733 23734 23735 23736 23737 23738 23739 23740 23741 23742 23743 23744 23745 23746 23747 23748 23749 23750 23751 23752 23753 23754 23755 23756 23757 23758 23759 23760 23761 23762 23763 23764 23765 23766 23767 23768 23769 23770 23771 23772 23773 23774 23775 23776 23777 23778 23779 23780 23781 23782 23783 23784 23785 23786 23787 23788 23789 23790 23791 23792 23793 23794 23795 23796 23797 23798 23799 23800 23801 23802 23803 23804 23805 23806 23807 23808 23809 23810 23811 23812 23813 23814 23815 23816 23817 23818 23819 23820 23821 23822 23823 23824 23825 23826 23827 23828 23829 23830 23831 23832 23833 23834 23835 23836 23837 23838 23839 23840 23841 23842 23843 23844 23845 23846 23847 23848 23849 23850 23851 23852 23853 23854 23855 23856 23857 23858 23859 23860 23861 23862 23863 23864 23865 23866 23867 23868 23869 23870 23871 23872 23873 23874 23875 23876 23877 23878 23879 23880 23881 23882 23883 23884 23885 23886 23887 23888 23889 23890 23891 23892 23893 23894 23895 23896 23897 23898 23899 23900 23901 23902 23903 23904 23905 23906 23907 23908 23909 23910 23911 23912 23913 23914 23915 23916 23917 23918 23919 23920 23921 23922 23923 23924 23925 23926 23927 23928 23929 23930 23931 23932 23933 23934 23935 23936 23937 23938 23939 23940 23941 23942 23943 23944 23945 23946 23947 23948 23949 23950 23951 23952 23953 23954 23955 23956 23957 23958 23959 23960 23961 23962 23963 23964 23965 23966 23967 23968 23969 23970 23971 23972 23973 23974 23975 23976 23977 23978 23979 23980 23981 23982 23983 23984 23985 23986 23987 23988 23989 23990 23991 23992 23993 23994 23995 23996 23997 23998 23999 24000 24001 24002 24003 24004 24005 24006 24007 24008 24009 24010 24011 24012 24013 24014 24015 24016 24017 24018 24019 24020 24021 24022 24023 24024 24025 24026 24027 24028 24029 24030 24031 24032 24033 24034 24035 24036 24037 24038 24039 24040 24041 24042 24043 24044 24045 24046 24047 24048 24049 24050 24051 24052 24053 24054 24055 24056 24057 24058 24059 24060 24061 24062 24063 24064 24065 24066 24067 24068 24069 24070 24071 24072 24073 24074 24075 24076 24077 24078 24079 24080 24081 24082 24083 24084 24085 24086 24087 24088 24089 24090 24091 24092 24093 24094 24095 24096 24097 24098 24099 24100 24101 24102 24103 24104 24105 24106 24107 24108 24109 24110 24111 24112 24113 24114 24115 24116 24117 24118 24119 24120 24121 24122 24123 24124 24125 24126 24127 24128 24129 24130 24131 24132 24133 24134 24135 24136 24137 24138 24139 24140 24141 24142 24143 24144 24145 24146 24147 24148 24149 24150 24151 24152 24153 24154 24155 24156 24157 24158 24159 24160 24161 24162 24163 24164 24165 24166 24167 24168 24169 24170 24171 24172 24173 24174 24175 24176 24177 24178 24179 24180 24181 24182 24183 24184 24185 24186 24187 24188 24189 24190 24191 24192 24193 24194 24195 24196 24197 24198 24199 24200 24201 24202 24203 24204 24205 24206 24207 24208 24209 24210 24211 24212 24213 24214 24215 24216 24217 24218 24219 24220 24221 24222 24223 24224 24225 24226 24227 24228 24229 24230 24231 24232 24233 24234 24235 24236 24237 24238 24239 24240 24241 24242 24243 24244 24245 24246 24247 24248 24249 24250 24251 24252 24253 24254 24255 24256 24257 24258 24259 24260 24261 24262 24263 24264 24265 24266 24267 24268 24269 24270 24271 24272 24273 24274 24275 24276 24277 24278 24279 24280 24281 24282 24283 24284 24285 24286 24287 24288 24289 24290 24291 24292 24293 24294 24295 24296 24297 24298 24299 24300 24301 24302 24303 24304 24305 24306 24307 24308 24309 24310 24311 24312 24313 24314 24315 24316 24317 24318 24319 24320 24321 24322 24323 24324 24325 24326 24327 24328 24329 24330 24331 24332 24333 24334 24335 24336 24337 24338 24339 24340 24341 24342 24343 24344 24345 24346 24347 24348 24349 24350 24351 24352 24353 24354 24355 24356 24357 24358 24359 24360 24361 24362 24363 24364 24365 24366 24367 24368 24369 24370 24371 24372 24373 24374 24375 24376 24377 24378 24379 24380 24381 24382 24383 24384 24385 24386 24387 24388 24389 24390 24391 24392 24393 24394 24395 24396 24397 24398 24399 24400 24401 24402 24403 24404 24405 24406 24407 24408 24409 24410 24411 24412 24413 24414 24415 24416 24417 24418 24419 24420 24421 24422 24423 24424 24425 24426 24427 24428 24429 24430 24431 24432 24433 24434 24435 24436 24437 24438 24439 24440 24441 24442 24443 24444 24445 24446 24447 24448 24449 24450 24451 24452 24453 24454 24455 24456 24457 24458 24459 24460 24461 24462 24463 24464 24465 24466 24467 24468 24469 24470 24471 24472 24473 24474 24475 24476 24477 24478 24479 24480 24481 24482 24483 24484 24485 24486 24487 24488 24489 24490 24491 24492 24493 24494 24495 24496 24497 24498 24499 24500 24501 24502 24503 24504 24505 24506 24507 24508 24509 24510 24511 24512 24513 24514 24515 24516 24517 24518 24519 24520 24521 24522 24523 24524 24525 24526 24527 24528 24529 24530 24531 24532 24533 24534 24535 24536 24537 24538 24539 24540 24541 24542 24543 24544 24545 24546 24547 24548 24549 24550 24551 24552 24553 24554 24555 24556 24557 24558 24559 24560 24561 24562 24563 24564 24565 24566 24567 24568 24569 24570 24571 24572 24573 24574 24575 24576 24577 24578 24579 24580 24581 24582 24583 24584 24585 24586 24587 24588 24589 24590 24591 24592 24593 24594 24595 24596 24597 24598 24599 24600 24601 24602 24603 24604 24605 24606 24607 24608 24609 24610 24611 24612 24613 24614 24615 24616 24617 24618 24619 24620 24621 24622 24623 24624 24625 24626 24627 24628 24629 24630 24631 24632 24633 24634 24635 24636 24637 24638 24639 24640 24641 24642 24643 24644 24645 24646 24647 24648 24649 24650 24651 24652 24653 24654 24655 24656 24657 24658 24659 24660 24661 24662 24663 24664 24665 24666 24667 24668 24669 24670 24671 24672 24673 24674 24675 24676 24677 24678 24679 24680 24681 24682 24683 24684 24685 24686 24687 24688 24689 24690 24691 24692 24693 24694 24695 24696 24697 24698 24699 24700 24701 24702 24703 24704 24705 24706 24707 24708 24709 24710 24711 24712 24713 24714 24715 24716 24717 24718 24719 24720 24721 24722 24723 24724 24725 24726 24727 24728 24729 24730 24731 24732 24733 24734 24735 24736 24737 24738 24739 24740 24741 24742 24743 24744 24745 24746 24747 24748 24749 24750 24751 24752 24753 24754 24755 24756 24757 24758 24759 24760 24761 24762 24763 24764 24765 24766 24767 24768 24769 24770 24771 24772 24773 24774 24775 24776 24777 24778 24779 24780 24781 24782 24783 24784 24785 24786 24787 24788 24789 24790 24791 24792 24793 24794 24795 24796 24797 24798 24799 24800 24801 24802 24803 24804 24805 24806 24807 24808 24809 24810 24811 24812 24813 24814 24815 24816 24817 24818 24819 24820 24821 24822 24823 24824 24825 24826 24827 24828 24829 24830 24831 24832 24833 24834 24835 24836 24837 24838 24839 24840 24841 24842 24843 24844 24845 24846 24847 24848 24849 24850 24851 24852 24853 24854 24855 24856 24857 24858 24859 24860 24861 24862 24863 24864 24865 24866 24867 24868 24869 24870 24871 24872 24873 24874 24875 24876 24877 24878 24879 24880 24881 24882 24883 24884 24885 24886 24887 24888 24889 24890 24891 24892 24893 24894 24895 24896 24897 24898 24899 24900 24901 24902 24903 24904 24905 24906 24907 24908 24909 24910 24911 24912 24913 24914 24915 24916 24917 24918 24919 24920 24921 24922 24923 24924 24925 24926 24927 24928 24929 24930 24931 24932 24933 24934 24935 24936 24937 24938 24939 24940 24941 24942 24943 24944 24945 24946 24947 24948 24949 24950 24951 24952 24953 24954 24955 24956 24957 24958 24959 24960 24961 24962 24963 24964 24965 24966 24967 24968 24969 24970 24971 24972 24973 24974 24975 24976 24977 24978 24979 24980 24981 24982 24983 24984 24985 24986 24987 24988 24989 24990 24991 24992 24993 24994 24995 24996 24997 24998 24999 25000 25001 25002 25003 25004 25005 25006 25007 25008 25009 25010 25011 25012 25013 25014 25015 25016 25017 25018 25019 25020 25021 25022 25023 25024 25025 25026 25027 25028 25029 25030 25031 25032 25033 25034 25035 25036 25037 25038 25039 25040 25041 25042 25043 25044 25045 25046 25047 25048 25049 25050 25051 25052 25053 25054 25055 25056 25057 25058 25059 25060 25061 25062 25063 25064 25065 25066 25067 25068 25069 25070 25071 25072 25073 25074 25075 25076 25077 25078 25079 25080 25081 25082 25083 25084 25085 25086 25087 25088 25089 25090 25091 25092 25093 25094 25095 25096 25097 25098 25099 25100 25101 25102 25103 25104 25105 25106 25107 25108 25109 25110 25111 25112 25113 25114 25115 25116 25117 25118 25119 25120 25121 25122 25123 25124 25125 25126 25127 25128 25129 25130 25131 25132 25133 25134 25135 25136 25137 25138 25139 25140 25141 25142 25143 25144 25145 25146 25147 25148 25149 25150 25151 25152 25153 25154 25155 25156 25157 25158 25159 25160 25161 25162 25163 25164 25165 25166 25167 25168 25169 25170 25171 25172 25173 25174 25175 25176 25177 25178 25179 25180 25181 25182 25183 25184 25185 25186 25187 25188 25189 25190 25191 25192 25193 25194 25195 25196 25197 25198 25199 25200 25201 25202 25203 25204 25205 25206 25207 25208 25209 25210 25211 25212 25213 25214 25215 25216 25217 25218 25219 25220 25221 25222 25223 25224 25225 25226 25227 25228 25229 25230 25231 25232 25233 25234 25235 25236 25237 25238 25239 25240 25241 25242 25243 25244 25245 25246 25247 25248 25249 25250 25251 25252 25253 25254 25255 25256 25257 25258 25259 25260 25261 25262 25263 25264 25265 25266 25267 25268 25269 25270 25271 25272 25273 25274 25275 25276 25277 25278 25279 25280 25281 25282 25283 25284 25285 25286 25287 25288 25289 25290 25291 25292 25293 25294 25295 25296 25297 25298 25299 25300 25301 25302 25303 25304 25305 25306 25307 25308 25309 25310 25311 25312 25313 25314 25315 25316 25317 25318 25319 25320 25321 25322 25323 25324 25325 25326 25327 25328 25329 25330 25331 25332 25333 25334 25335 25336 25337 25338 25339 25340 25341 25342 25343 25344 25345 25346 25347 25348 25349 25350 25351 25352 25353 25354 25355 25356 25357 25358 25359 25360 25361 25362 25363 25364 25365 25366 25367 25368 25369 25370 25371 25372 25373 25374 25375 25376 25377 25378 25379 25380 25381 25382 25383 25384 25385 25386 25387 25388 25389 25390 25391 25392 25393 25394 25395 25396 25397 25398 25399 25400 25401 25402 25403 25404 25405 25406 25407 25408 25409 25410 25411 25412 25413 25414 25415 25416 25417 25418 25419 25420 25421 25422 25423 25424 25425 25426 25427 25428 25429 25430 25431 25432 25433 25434 25435 25436 25437 25438 25439 25440 25441 25442 25443 25444 25445 25446 25447 25448 25449 25450 25451 25452 25453 25454 25455 25456 25457 25458 25459 25460 25461 25462 25463 25464 25465 25466 25467 25468 25469 25470 25471 25472 25473 25474 25475 25476 25477 25478 25479 25480 25481 25482 25483 25484 25485 25486 25487 25488 25489 25490 25491 25492 25493 25494 25495 25496 25497 25498 25499 25500 25501 25502 25503 25504 25505 25506 25507 25508 25509 25510 25511 25512 25513 25514 25515 25516 25517 25518 25519 25520 25521 25522 25523 25524 25525 25526 25527 25528 25529 25530 25531 25532 25533 25534 25535 25536 25537 25538 25539 25540 25541 25542 25543 25544 25545 25546 25547 25548 25549 25550 25551 25552 25553 25554 25555 25556 25557 25558 25559 25560 25561 25562 25563 25564 25565 25566 25567 25568 25569 25570 25571 25572 25573 25574 25575 25576 25577 25578 25579 25580 25581 25582 25583 25584 25585 25586 25587 25588 25589 25590 25591 25592 25593 25594 25595 25596 25597 25598 25599 25600 25601 25602 25603 25604 25605 25606 25607 25608 25609 25610 25611 25612 25613 25614 25615 25616 25617 25618 25619 25620 25621 25622 25623 25624 25625 25626 25627 25628 25629 25630 25631 25632 25633 25634 25635 25636 25637 25638 25639 25640 25641 25642 25643 25644 25645 25646 25647 25648 25649 25650 25651 25652 25653 25654 25655 25656 25657 25658 25659 25660 25661 25662 25663 25664 25665 25666 25667 25668 25669 25670 25671 25672 25673 25674 25675 25676 25677 25678 25679 25680 25681 25682 25683 25684 25685 25686 25687 25688 25689 25690 25691 25692 25693 25694 25695 25696 25697 25698 25699 25700 25701 25702 25703 25704 25705 25706 25707 25708 25709 25710 25711 25712 25713 25714 25715 25716 25717 25718 25719 25720 25721 25722 25723 25724 25725 25726 25727 25728 25729 25730 25731 25732 25733 25734 25735 25736 25737 25738 25739 25740 25741 25742 25743 25744 25745 25746 25747 25748 25749 25750 25751 25752 25753 25754 25755 25756 25757 25758 25759 25760 25761 25762 25763 25764 25765 25766 25767 25768 25769 25770 25771 25772 25773 25774 25775 25776 25777 25778 25779 25780 25781 25782 25783 25784 25785 25786 25787 25788 25789 25790 25791 25792 25793 25794 25795 25796 25797 25798 25799 25800 25801 25802 25803 25804 25805 25806 25807 25808 25809 25810 25811 25812 25813 25814 25815 25816 25817 25818 25819 25820 25821 25822 25823 25824 25825 25826 25827 25828 25829 25830 25831 25832 25833 25834 25835 25836 25837 25838 25839 25840 25841 25842 25843 25844 25845 25846 25847 25848 25849 25850 25851 25852 25853 25854 25855 25856 25857 25858 25859 25860 25861 25862 25863 25864 25865 25866 25867 25868 25869 25870 25871 25872 25873 25874 25875 25876 25877 25878 25879 25880 25881 25882 25883 25884 25885 25886 25887 25888 25889 25890 25891 25892 25893 25894 25895 25896 25897 25898 25899 25900 25901 25902 25903 25904 25905 25906 25907 25908 25909 25910 25911 25912 25913 25914 25915 25916 25917 25918 25919 25920 25921 25922 25923 25924 25925 25926 25927 25928 25929 25930 25931 25932 25933 25934 25935 25936 25937 25938 25939 25940 25941 25942 25943 25944 25945 25946 25947 25948 25949 25950 25951 25952 25953 25954 25955 25956 25957 25958 25959 25960 25961 25962 25963 25964 25965 25966 25967 25968 25969 25970 25971 25972 25973 25974 25975 25976 25977 25978 25979 25980 25981 25982 25983 25984 25985 25986 25987 25988 25989 25990 25991 25992 25993 25994 25995 25996 25997 25998 25999 26000 26001 26002 26003 26004 26005 26006 26007 26008 26009 26010 26011 26012 26013 26014 26015 26016 26017 26018 26019 26020 26021 26022 26023 26024 26025 26026 26027 26028 26029 26030 26031 26032 26033 26034 26035 26036 26037 26038 26039 26040 26041 26042 26043 26044 26045 26046 26047 26048 26049 26050 26051 26052 26053 26054 26055 26056 26057 26058 26059 26060 26061 26062 26063 26064 26065 26066 26067 26068 26069 26070 26071 26072 26073 26074 26075 26076 26077 26078 26079 26080 26081 26082 26083 26084 26085 26086 26087 26088 26089 26090 26091 26092 26093 26094 26095 26096 26097 26098 26099 26100 26101 26102 26103 26104 26105 26106 26107 26108 26109 26110 26111 26112 26113 26114 26115 26116 26117 26118 26119 26120 26121 26122 26123 26124 26125 26126 26127 26128 26129 26130 26131 26132 26133 26134 26135 26136 26137 26138 26139 26140 26141 26142 26143 26144 26145 26146 26147 26148 26149 26150 26151 26152 26153 26154 26155 26156 26157 26158 26159 26160 26161 26162 26163 26164 26165 26166 26167 26168 26169 26170 26171 26172 26173 26174 26175 26176 26177 26178 26179 26180 26181 26182 26183 26184 26185 26186 26187 26188 26189 26190 26191 26192 26193 26194 26195 26196 26197 26198 26199 26200 26201 26202 26203 26204 26205 26206 26207 26208 26209 26210 26211 26212 26213 26214 26215 26216 26217 26218 26219 26220 26221 26222 26223 26224 26225 26226 26227 26228 26229 26230 26231 26232 26233 26234 26235 26236 26237 26238 26239 26240 26241 26242 26243 26244 26245 26246 26247 26248 26249 26250 26251 26252 26253 26254 26255 26256 26257 26258 26259 26260 26261 26262 26263 26264 26265 26266 26267 26268 26269 26270 26271 26272 26273 26274 26275 26276 26277 26278 26279 26280 26281 26282 26283 26284 26285 26286 26287 26288 26289 26290 26291 26292 26293 26294 26295 26296 26297 26298 26299 26300 26301 26302 26303 26304 26305 26306 26307 26308 26309 26310 26311 26312 26313 26314 26315 26316 26317 26318 26319 26320 26321 26322 26323 26324 26325 26326 26327 26328 26329 26330 26331 26332 26333 26334 26335 26336 26337 26338 26339 26340 26341 26342 26343 26344 26345 26346 26347 26348 26349 26350 26351 26352 26353 26354 26355 26356 26357 26358 26359 26360 26361 26362 26363 26364 26365 26366 26367 26368 26369 26370 26371 26372 26373 26374 26375 26376 26377 26378 26379 26380 26381 26382 26383 26384 26385 26386 26387 26388 26389 26390 26391 26392 26393 26394 26395 26396 26397 26398 26399 26400 26401 26402 26403 26404 26405 26406 26407 26408 26409 26410 26411 26412 26413 26414 26415 26416 26417 26418 26419 26420 26421 26422 26423 26424 26425 26426 26427 26428 26429 26430 26431 26432 26433 26434 26435 26436 26437 26438 26439 26440 26441 26442 26443 26444 26445 26446 26447 26448 26449 26450 26451 26452 26453 26454 26455 26456 26457 26458 26459 26460 26461 26462 26463 26464 26465 26466 26467 26468 26469 26470 26471 26472 26473 26474 26475 26476 26477 26478 26479 26480 26481 26482 26483 26484 26485 26486 26487 26488 26489 26490 26491 26492 26493 26494 26495 26496 26497 26498 26499 26500 26501 26502 26503 26504 26505 26506 26507 26508 26509 26510 26511 26512 26513 26514 26515 26516 26517 26518 26519 26520 26521 26522 26523 26524 26525 26526 26527 26528 26529 26530 26531 26532 26533 26534 26535 26536 26537 26538 26539 26540 26541 26542 26543 26544 26545 26546 26547 26548 26549 26550 26551 26552 26553 26554 26555 26556 26557 26558 26559 26560 26561 26562 26563 26564 26565 26566 26567 26568 26569 26570 26571 26572 26573 26574 26575 26576 26577 26578 26579 26580 26581 26582 26583 26584 26585 26586 26587 26588 26589 26590 26591 26592 26593 26594 26595 26596 26597 26598 26599 26600 26601 26602 26603 26604 26605 26606 26607 26608 26609 26610 26611 26612 26613 26614 26615 26616 26617 26618 26619 26620 26621 26622 26623 26624 26625 26626 26627 26628 26629 26630 26631 26632 26633 26634 26635 26636 26637 26638 26639 26640 26641 26642 26643 26644 26645 26646 26647 26648 26649 26650 26651 26652 26653 26654 26655 26656 26657 26658 26659 26660 26661 26662 26663 26664 26665 26666 26667 26668 26669 26670 26671 26672 26673 26674 26675 26676 26677 26678 26679 26680 26681 26682 26683 26684 26685 26686 26687 26688 26689 26690 26691 26692 26693 26694 26695 26696 26697 26698 26699 26700 26701 26702 26703 26704 26705 26706 26707 26708 26709 26710 26711 26712 26713 26714 26715 26716 26717 26718 26719 26720 26721 26722 26723 26724 26725 26726 26727 26728 26729 26730 26731 26732 26733 26734 26735 26736 26737 26738 26739 26740 26741 26742 26743 26744 26745 26746 26747 26748 26749 26750 26751 26752 26753 26754 26755 26756 26757 26758 26759 26760 26761 26762 26763 26764 26765 26766 26767 26768 26769 26770 26771 26772 26773 26774 26775 26776 26777 26778 26779 26780 26781 26782 26783 26784 26785 26786 26787 26788 26789 26790 26791 26792 26793 26794 26795 26796 26797 26798 26799 26800 26801 26802 26803 26804 26805 26806 26807 26808 26809 26810 26811 26812 26813 26814 26815 26816 26817 26818 26819 26820 26821 26822 26823 26824 26825 26826 26827 26828 26829 26830 26831 26832 26833 26834 26835 26836 26837 26838 26839 26840 26841 26842 26843 26844 26845 26846 26847 26848 26849 26850 26851 26852 26853 26854 26855 26856 26857 26858 26859 26860 26861 26862 26863 26864 26865 26866 26867 26868 26869 26870 26871 26872 26873 26874 26875 26876 26877 26878 26879 26880 26881 26882 26883 26884 26885 26886 26887 26888 26889 26890 26891 26892 26893 26894 26895 26896 26897 26898 26899 26900 26901 26902 26903 26904 26905 26906 26907 26908 26909 26910 26911 26912 26913 26914 26915 26916 26917 26918 26919 26920 26921 26922 26923 26924 26925 26926 26927 26928 26929 26930 26931 26932 26933 26934 26935 26936 26937 26938 26939 26940 26941 26942 26943 26944 26945 26946 26947 26948 26949 26950 26951 26952 26953 26954 26955 26956 26957 26958 26959 26960 26961 26962 26963 26964 26965 26966 26967 26968 26969 26970 26971 26972 26973 26974 26975 26976 26977 26978 26979 26980 26981 26982 26983 26984 26985 26986 26987 26988 26989 26990 26991 26992 26993 26994 26995 26996 26997 26998 26999 27000 27001 27002 27003 27004 27005 27006 27007 27008 27009 27010 27011 27012 27013 27014 27015 27016 27017 27018 27019 27020 27021 27022 27023 27024 27025 27026 27027 27028 27029 27030 27031 27032 27033 27034 27035 27036 27037 27038 27039 27040 27041 27042 27043 27044 27045 27046 27047 27048 27049 27050 27051 27052 27053 27054 27055 27056 27057 27058 27059 27060 27061 27062 27063 27064 27065 27066 27067 27068 27069 27070 27071 27072 27073 27074 27075 27076 27077 27078 27079 27080 27081 27082 27083 27084 27085 27086 27087 27088 27089 27090 27091 27092 27093 27094 27095 27096 27097 27098 27099 27100 27101 27102 27103 27104 27105 27106 27107 27108 27109 27110 27111 27112 27113 27114 27115 27116 27117 27118 27119 27120 27121 27122 27123 27124 27125 27126 27127 27128 27129 27130 27131 27132 27133 27134 27135 27136 27137 27138 27139 27140 27141 27142 27143 27144 27145 27146 27147 27148 27149 27150 27151 27152 27153 27154 27155 27156 27157 27158 27159 27160 27161 27162 27163 27164 27165 27166 27167 27168 27169 27170 27171 27172 27173 27174 27175 27176 27177 27178 27179 27180 27181 27182 27183 27184 27185 27186 27187 27188 27189 27190 27191 27192 27193 27194 27195 27196 27197 27198 27199 27200 27201 27202 27203 27204 27205 27206 27207 27208 27209 27210 27211 27212 27213 27214 27215 27216 27217 27218 27219 27220 27221 27222 27223 27224 27225 27226 27227 27228 27229 27230 27231 27232 27233 27234 27235 27236 27237 27238 27239 27240 27241 27242 27243 27244 27245 27246 27247 27248 27249 27250 27251 27252 27253 27254 27255 27256 27257 27258 27259 27260 27261 27262 27263 27264 27265 27266 27267 27268 27269 27270 27271 27272 27273 27274 27275 27276 27277 27278 27279 27280 27281 27282 27283 27284 27285 27286 27287 27288 27289 27290 27291 27292 27293 27294 27295 27296 27297 27298 27299 27300 27301 27302 27303 27304 27305 27306 27307 27308 27309 27310 27311 27312 27313 27314 27315 27316 27317 27318 27319 27320 27321 27322 27323 27324 27325 27326 27327 27328 27329 27330 27331 27332 27333 27334 27335 27336 27337 27338 27339 27340 27341 27342 27343 27344 27345 27346 27347 27348 27349 27350 27351 27352 27353 27354 27355 27356 27357 27358 27359 27360 27361 27362 27363 27364 27365 27366 27367 27368 27369 27370 27371 27372 27373 27374 27375 27376 27377 27378 27379 27380 27381 27382 27383 27384 27385 27386 27387 27388 27389 27390 27391 27392 27393 27394 27395 27396 27397 27398 27399 27400 27401 27402 27403 27404 27405 27406 27407 27408 27409 27410 27411 27412 27413 27414 27415 27416 27417 27418 27419 27420 27421 27422 27423 27424 27425 27426 27427 27428 27429 27430 27431 27432 27433 27434 27435 27436 27437 27438 27439 27440 27441 27442 27443 27444 27445 27446 27447 27448 27449 27450 27451 27452 27453 27454 27455 27456 27457 27458 27459 27460 27461 27462 27463 27464 27465 27466 27467 27468 27469 27470 27471 27472 27473 27474 27475 27476 27477 27478 27479 27480 27481 27482 27483 27484 27485 27486 27487 27488 27489 27490 27491 27492 27493 27494 27495 27496 27497 27498 27499 27500 27501 27502 27503 27504 27505 27506 27507 27508 27509 27510 27511 27512 27513 27514 27515 27516 27517 27518 27519 27520 27521 27522 27523 27524 27525 27526 27527 27528 27529 27530 27531 27532 27533 27534 27535 27536 27537 27538 27539 27540 27541 27542 27543 27544 27545 27546 27547 27548 27549 27550 27551 27552 27553 27554 27555 27556 27557 27558 27559 27560 27561 27562 27563 27564 27565 27566 27567 27568 27569 27570 27571 27572 27573 27574 27575 27576 27577 27578 27579 27580 27581 27582 27583 27584 27585 27586 27587 27588 27589 27590 27591 27592 27593 27594 27595 27596 27597 27598 27599 27600 27601 27602 27603 27604 27605 27606 27607 27608 27609 27610 27611 27612 27613 27614 27615 27616 27617 27618 27619 27620 27621 27622 27623 27624 27625 27626 27627 27628 27629 27630 27631 27632 27633 27634 27635 27636 27637 27638 27639 27640 27641 27642 27643 27644 27645 27646 27647 27648 27649 27650 27651 27652 27653 27654 27655 27656 27657 27658 27659 27660 27661 27662 27663 27664 27665 27666 27667 27668 27669 27670 27671 27672 27673 27674 27675 27676 27677 27678 27679 27680 27681 27682 27683 27684 27685 27686 27687 27688 27689 27690 27691 27692 27693 27694 27695 27696 27697 27698 27699 27700 27701 27702 27703 27704 27705 27706 27707 27708 27709 27710 27711 27712 27713 27714 27715 27716 27717 27718 27719 27720 27721 27722 27723 27724 27725 27726 27727 27728 27729 27730 27731 27732 27733 27734 27735 27736 27737 27738 27739 27740 27741 27742 27743 27744 27745 27746 27747 27748 27749 27750 27751 27752 27753 27754 27755 27756 27757 27758 27759 27760 27761 27762 27763 27764 27765 27766 27767 27768 27769 27770 27771 27772 27773 27774 27775 27776 27777 27778 27779 27780 27781 27782 27783 27784 27785 27786 27787 27788 27789 27790 27791 27792 27793 27794 27795 27796 27797 27798 27799 27800 27801 27802 27803 27804 27805 27806 27807 27808 27809 27810 27811 27812 27813 27814 27815 27816 27817 27818 27819 27820 27821 27822 27823 27824 27825 27826 27827 27828 27829 27830 27831 27832 27833 27834 27835 27836 27837 27838 27839 27840 27841 27842 27843 27844 27845 27846 27847 27848 27849 27850 27851 27852 27853 27854 27855 27856 27857 27858 27859 27860 27861 27862 27863 27864 27865 27866 27867 27868 27869 27870 27871 27872 27873 27874 27875 27876 27877 27878 27879 27880 27881 27882 27883 27884 27885 27886 27887 27888 27889 27890 27891 27892 27893 27894 27895 27896 27897 27898 27899 27900 27901 27902 27903 27904 27905 27906 27907 27908 27909 27910 27911 27912 27913 27914 27915 27916 27917 27918 27919 27920 27921 27922 27923 27924 27925 27926 27927 27928 27929 27930 27931 27932 27933 27934 27935 27936 27937 27938 27939 27940 27941 27942 27943 27944 27945 27946 27947 27948 27949 27950 27951 27952 27953 27954 27955 27956 27957 27958 27959 27960 27961 27962 27963 27964 27965 27966 27967 27968 27969 27970 27971 27972 27973 27974 27975 27976 27977 27978 27979 27980 27981 27982 27983 27984 27985 27986 27987 27988 27989 27990 27991 27992 27993 27994 27995 27996 27997 27998 27999 28000 28001 28002 28003 28004 28005 28006 28007 28008 28009 28010 28011 28012 28013 28014 28015 28016 28017 28018 28019 28020 28021 28022 28023 28024 28025 28026 28027 28028 28029 28030 28031 28032 28033 28034 28035 28036 28037 28038 28039 28040 28041 28042 28043 28044 28045 28046 28047 28048 28049 28050 28051 28052 28053 28054 28055 28056 28057 28058 28059 28060 28061 28062 28063 28064 28065 28066 28067 28068 28069 28070 28071 28072 28073 28074 28075 28076 28077 28078 28079 28080 28081 28082 28083 28084 28085 28086 28087 28088 28089 28090 28091 28092 28093 28094 28095 28096 28097 28098 28099 28100 28101 28102 28103 28104 28105 28106 28107 28108 28109 28110 28111 28112 28113 28114 28115 28116 28117 28118 28119 28120 28121 28122 28123 28124 28125 28126 28127 28128 28129 28130 28131 28132 28133 28134 28135 28136 28137 28138 28139 28140 28141 28142 28143 28144 28145 28146 28147 28148 28149 28150 28151 28152 28153 28154 28155 28156 28157 28158 28159 28160 28161 28162 28163 28164 28165 28166 28167 28168 28169 28170 28171 28172 28173 28174 28175 28176 28177 28178 28179 28180 28181 28182 28183 28184 28185 28186 28187 28188 28189 28190 28191 28192 28193 28194 28195 28196 28197 28198 28199 28200 28201 28202 28203 28204 28205 28206 28207 28208 28209 28210 28211 28212 28213 28214 28215 28216 28217 28218 28219 28220 28221 28222 28223 28224 28225 28226 28227 28228 28229 28230 28231 28232 28233 28234 28235 28236 28237 28238 28239 28240 28241 28242 28243 28244 28245 28246 28247 28248 28249 28250 28251 28252 28253 28254 28255 28256 28257 28258 28259 28260 28261 28262 28263 28264 28265 28266 28267 28268 28269 28270 28271 28272 28273 28274 28275 28276 28277 28278 28279 28280 28281 28282 28283 28284 28285 28286 28287 28288 28289 28290 28291 28292 28293 28294 28295 28296 28297 28298 28299 28300 28301 28302 28303 28304 28305 28306 28307 28308 28309 28310 28311 28312 28313 28314 28315 28316 28317 28318 28319 28320 28321 28322 28323 28324 28325 28326 28327 28328 28329 28330 28331 28332 28333 28334 28335 28336 28337 28338 28339 28340 28341 28342 28343 28344 28345 28346 28347 28348 28349 28350 28351 28352 28353 28354 28355 28356 28357 28358 28359 28360 28361 28362 28363 28364 28365 28366 28367 28368 28369 28370 28371 28372 28373 28374 28375 28376 28377 28378 28379 28380 28381 28382 28383 28384 28385 28386 28387 28388 28389 28390 28391 28392 28393 28394 28395 28396 28397 28398 28399 28400 28401 28402 28403 28404 28405 28406 28407 28408 28409 28410 28411 28412 28413 28414 28415 28416 28417 28418 28419 28420 28421 28422 28423 28424 28425 28426 28427 28428 28429 28430 28431 28432 28433 28434 28435 28436 28437 28438 28439 28440 28441 28442 28443 28444 28445 28446 28447 28448 28449 28450 28451 28452 28453 28454 28455 28456 28457 28458 28459 28460 28461 28462 28463 28464 28465 28466 28467 28468 28469 28470 28471 28472 28473 28474 28475 28476 28477 28478 28479 28480 28481 28482 28483 28484 28485 28486 28487 28488 28489 28490 28491 28492 28493 28494 28495 28496 28497 28498 28499 28500 28501 28502 28503 28504 28505 28506 28507 28508 28509 28510 28511 28512 28513 28514 28515 28516 28517 28518 28519 28520 28521 28522 28523 28524 28525 28526 28527 28528 28529 28530 28531 28532 28533 28534 28535 28536 28537 28538 28539 28540 28541 28542 28543 28544 28545 28546 28547 28548 28549 28550 28551 28552 28553 28554 28555 28556 28557 28558 28559 28560 28561 28562 28563 28564 28565 28566 28567 28568 28569 28570 28571 28572 28573 28574 28575 28576 28577 28578 28579 28580 28581 28582 28583 28584 28585 28586 28587 28588 28589 28590 28591 28592 28593 28594 28595 28596 28597 28598 28599 28600 28601 28602 28603 28604 28605 28606 28607 28608 28609 28610 28611 28612 28613 28614 28615 28616 28617 28618 28619 28620 28621 28622 28623 28624 28625 28626 28627 28628 28629 28630 28631 28632 28633 28634 28635 28636 28637 28638 28639 28640 28641 28642 28643 28644 28645 28646 28647 28648 28649 28650 28651 28652 28653 28654 28655 28656 28657 28658 28659 28660 28661 28662 28663 28664 28665 28666 28667 28668 28669 28670 28671 28672 28673 28674 28675 28676 28677 28678 28679 28680 28681 28682 28683 28684 28685 28686 28687 28688 28689 28690 28691 28692 28693 28694 28695 28696 28697 28698 28699 28700 28701 28702 28703 28704 28705 28706 28707 28708 28709 28710 28711 28712 28713 28714 28715 28716 28717 28718 28719 28720 28721 28722 28723 28724 28725 28726 28727 28728 28729 28730 28731 28732 28733 28734 28735 28736 28737 28738 28739 28740 28741 28742 28743 28744 28745 28746 28747 28748 28749 28750 28751 28752 28753 28754 28755 28756 28757 28758 28759 28760 28761 28762 28763 28764 28765 28766 28767 28768 28769 28770 28771 28772 28773 28774 28775 28776 28777 28778 28779 28780 28781 28782 28783 28784 28785 28786 28787 28788 28789 28790 28791 28792 28793 28794 28795 28796 28797 28798 28799 28800 28801 28802 28803 28804 28805 28806 28807 28808 28809 28810 28811 28812 28813 28814 28815 28816 28817 28818 28819 28820 28821 28822 28823 28824 28825 28826 28827 28828 28829 28830 28831 28832 28833 28834 28835 28836 28837 28838 28839 28840 28841 28842 28843 28844 28845 28846 28847 28848 28849 28850 28851 28852 28853 28854 28855 28856 28857 28858 28859 28860 28861 28862 28863 28864 28865 28866 28867 28868 28869 28870 28871 28872 28873 28874 28875 28876 28877 28878 28879 28880 28881 28882 28883 28884 28885 28886 28887 28888 28889 28890 28891 28892 28893 28894 28895 28896 28897 28898 28899 28900 28901 28902 28903 28904 28905 28906 28907 28908 28909 28910 28911 28912 28913 28914 28915 28916 28917 28918 28919 28920 28921 28922 28923 28924 28925 28926 28927 28928 28929 28930 28931 28932 28933 28934 28935 28936 28937 28938 28939 28940 28941 28942 28943 28944 28945 28946 28947 28948 28949 28950 28951 28952 28953 28954 28955 28956 28957 28958 28959 28960 28961 28962 28963 28964 28965 28966 28967 28968 28969 28970 28971 28972 28973 28974 28975 28976 28977 28978 28979 28980 28981 28982 28983 28984 28985 28986 28987 28988 28989 28990 28991 28992 28993 28994 28995 28996 28997 28998 28999 29000 29001 29002 29003 29004 29005 29006 29007 29008 29009 29010 29011 29012 29013 29014 29015 29016 29017 29018 29019 29020 29021 29022 29023 29024 29025 29026 29027 29028 29029 29030 29031 29032 29033 29034 29035 29036 29037 29038 29039 29040 29041 29042 29043 29044 29045 29046 29047 29048 29049 29050 29051 29052 29053 29054 29055 29056 29057 29058 29059 29060 29061 29062 29063 29064 29065 29066 29067 29068 29069 29070 29071 29072 29073 29074 29075 29076 29077 29078 29079 29080 29081 29082 29083 29084 29085 29086 29087 29088 29089 29090 29091 29092 29093 29094 29095 29096 29097 29098 29099 29100 29101 29102 29103 29104 29105 29106 29107 29108 29109 29110 29111 29112 29113 29114 29115 29116 29117 29118 29119 29120 29121 29122 29123 29124 29125 29126 29127 29128 29129 29130 29131 29132 29133 29134 29135 29136 29137 29138 29139 29140 29141 29142 29143 29144 29145 29146 29147 29148 29149 29150 29151 29152 29153 29154 29155 29156 29157 29158 29159 29160 29161 29162 29163 29164 29165 29166 29167 29168 29169 29170 29171 29172 29173 29174 29175 29176 29177 29178 29179 29180 29181 29182 29183 29184 29185 29186 29187 29188 29189 29190 29191 29192 29193 29194 29195 29196 29197 29198 29199 29200 29201 29202 29203 29204 29205 29206 29207 29208 29209 29210 29211 29212 29213 29214 29215 29216 29217 29218 29219 29220 29221 29222 29223 29224 29225 29226 29227 29228 29229 29230 29231 29232 29233 29234 29235 29236 29237 29238 29239 29240 29241 29242 29243 29244 29245 29246 29247 29248 29249 29250 29251 29252 29253 29254 29255 29256 29257 29258 29259 29260 29261 29262 29263 29264 29265 29266 29267 29268 29269 29270 29271 29272 29273 29274 29275 29276 29277 29278 29279 29280 29281 29282 29283 29284 29285 29286 29287 29288 29289 29290 29291 29292 29293 29294 29295 29296 29297 29298 29299 29300 29301 29302 29303 29304 29305 29306 29307 29308 29309 29310 29311 29312 29313 29314 29315 29316 29317 29318 29319 29320 29321 29322 29323 29324 29325 29326 29327 29328 29329 29330 29331 29332 29333 29334 29335 29336 29337 29338 29339 29340 29341 29342 29343 29344 29345 29346 29347 29348 29349 29350 29351 29352 29353 29354 29355 29356 29357 29358 29359 29360 29361 29362 29363 29364 29365 29366 29367 29368 29369 29370 29371 29372 29373 29374 29375 29376 29377 29378 29379 29380 29381 29382 29383 29384 29385 29386 29387 29388 29389 29390 29391 29392 29393 29394 29395 29396 29397 29398 29399 29400 29401 29402 29403 29404 29405 29406 29407 29408 29409 29410 29411 29412 29413 29414 29415 29416 29417 29418 29419 29420 29421 29422 29423 29424 29425 29426 29427 29428 29429 29430 29431 29432 29433 29434 29435 29436 29437 29438 29439 29440 29441 29442 29443 29444 29445 29446 29447 29448 29449 29450 29451 29452 29453 29454 29455 29456 29457 29458 29459 29460 29461 29462 29463 29464 29465 29466 29467 29468 29469 29470 29471 29472 29473 29474 29475 29476 29477 29478 29479 29480 29481 29482 29483 29484 29485 29486 29487 29488 29489 29490 29491 29492 29493 29494 29495 29496 29497 29498 29499 29500 29501 29502 29503 29504 29505 29506 29507 29508 29509 29510 29511 29512 29513 29514 29515 29516 29517 29518 29519 29520 29521 29522 29523 29524 29525 29526 29527 29528 29529 29530 29531 29532 29533 29534 29535 29536 29537 29538 29539 29540 29541 29542 29543 29544 29545 29546 29547 29548 29549 29550 29551 29552 29553 29554 29555 29556 29557 29558 29559 29560 29561 29562 29563 29564 29565 29566 29567 29568 29569 29570 29571 29572 29573 29574 29575 29576 29577 29578 29579 29580 29581 29582 29583 29584 29585 29586 29587 29588 29589 29590 29591 29592 29593 29594 29595 29596 29597 29598 29599 29600 29601 29602 29603 29604 29605 29606 29607 29608 29609 29610 29611 29612 29613 29614 29615 29616 29617 29618 29619 29620 29621 29622 29623 29624 29625 29626 29627 29628 29629 29630 29631 29632 29633 29634 29635 29636 29637 29638 29639 29640 29641 29642 29643 29644 29645 29646 29647 29648 29649 29650 29651 29652 29653 29654 29655 29656 29657 29658 29659 29660 29661 29662 29663 29664 29665 29666 29667 29668 29669 29670 29671 29672 29673 29674 29675 29676 29677 29678 29679 29680 29681 29682 29683 29684 29685 29686 29687 29688 29689 29690 29691 29692 29693 29694 29695 29696 29697 29698 29699 29700 29701 29702 29703 29704 29705 29706 29707 29708 29709 29710 29711 29712 29713 29714 29715 29716 29717 29718 29719 29720 29721 29722 29723 29724 29725 29726 29727 29728 29729 29730 29731 29732 29733 29734 29735 29736 29737 29738 29739 29740 29741 29742 29743 29744 29745 29746 29747 29748 29749 29750 29751 29752 29753 29754 29755 29756 29757 29758 29759 29760 29761 29762 29763 29764 29765 29766 29767 29768 29769 29770 29771 29772 29773 29774 29775 29776 29777 29778 29779 29780 29781 29782 29783 29784 29785 29786 29787 29788 29789 29790 29791 29792 29793 29794 29795 29796 29797 29798 29799 29800 29801 29802 29803 29804 29805 29806 29807 29808 29809 29810 29811 29812 29813 29814 29815 29816 29817 29818 29819 29820 29821 29822 29823 29824 29825 29826 29827 29828 29829 29830 29831 29832 29833 29834 29835 29836 29837 29838 29839 29840 29841 29842 29843 29844 29845 29846 29847 29848 29849 29850 29851 29852 29853 29854 29855 29856 29857 29858 29859 29860 29861 29862 29863 29864 29865 29866 29867 29868 29869 29870 29871 29872 29873 29874 29875 29876 29877 29878 29879 29880 29881 29882 29883 29884 29885 29886 29887 29888 29889 29890 29891 29892 29893 29894 29895 29896 29897 29898 29899 29900 29901 29902 29903 29904 29905 29906 29907 29908 29909 29910 29911 29912 29913 29914 29915 29916 29917 29918 29919 29920 29921 29922 29923 29924 29925 29926 29927 29928 29929 29930 29931 29932 29933 29934 29935 29936 29937 29938 29939 29940 29941 29942 29943 29944 29945 29946 29947 29948 29949 29950 29951 29952 29953 29954 29955 29956 29957 29958 29959 29960 29961 29962 29963 29964 29965 29966 29967 29968 29969 29970 29971 29972 29973 29974 29975 29976 29977 29978 29979 29980 29981 29982 29983 29984 29985 29986 29987 29988 29989 29990 29991 29992 29993 29994 29995 29996 29997 29998 29999 30000 30001 30002 30003 30004 30005 30006 30007 30008 30009 30010 30011 30012 30013 30014 30015 30016 30017 30018 30019 30020 30021 30022 30023 30024 30025 30026 30027 30028 30029 30030 30031 30032 30033 30034 30035 30036 30037 30038 30039 30040 30041 30042 30043 30044 30045 30046 30047 30048 30049 30050 30051 30052 30053 30054 30055 30056 30057 30058 30059 30060 30061 30062 30063 30064 30065 30066 30067 30068 30069 30070 30071 30072 30073 30074 30075 30076 30077 30078 30079 30080 30081 30082 30083 30084 30085 30086 30087 30088 30089 30090 30091 30092 30093 30094 30095 30096 30097 30098 30099 30100 30101 30102 30103 30104 30105 30106 30107 30108 30109 30110 30111 30112 30113 30114 30115 30116 30117 30118 30119 30120 30121 30122 30123 30124 30125 30126 30127 30128 30129 30130 30131 30132 30133 30134 30135 30136 30137 30138 30139 30140 30141 30142 30143 30144 30145 30146 30147 30148 30149 30150 30151 30152 30153 30154 30155 30156 30157 30158 30159 30160 30161 30162 30163 30164 30165 30166 30167 30168 30169 30170 30171 30172 30173 30174 30175 30176 30177 30178 30179 30180 30181 30182 30183 30184 30185 30186 30187 30188 30189 30190 30191 30192 30193 30194 30195 30196 30197 30198 30199 30200 30201 30202 30203 30204 30205 30206 30207 30208 30209 30210 30211 30212 30213 30214 30215 30216 30217 30218 30219 30220 30221 30222 30223 30224 30225 30226 30227 30228 30229 30230 30231 30232 30233 30234 30235 30236 30237 30238 30239 30240 30241 30242 30243 30244 30245 30246 30247 30248 30249 30250 30251 30252 30253 30254 30255 30256 30257 30258 30259 30260 30261 30262 30263 30264 30265 30266 30267 30268 30269 30270 30271 30272 30273 30274 30275 30276 30277 30278 30279 30280 30281 30282 30283 30284 30285 30286 30287 30288 30289 30290 30291 30292 30293 30294 30295 30296 30297 30298 30299 30300 30301 30302 30303 30304 30305 30306 30307 30308 30309 30310 30311 30312 30313 30314 30315 30316 30317 30318 30319 30320 30321 30322 30323 30324 30325 30326 30327 30328 30329 30330 30331 30332 30333 30334 30335 30336 30337 30338 30339 30340 30341 30342 30343 30344 30345 30346 30347 30348 30349 30350 30351 30352 30353 30354 30355 30356 30357 30358 30359 30360 30361 30362 30363 30364 30365 30366 30367 30368 30369 30370 30371 30372 30373 30374 30375 30376 30377 30378 30379 30380 30381 30382 30383 30384 30385 30386 30387 30388 30389 30390 30391 30392 30393 30394 30395 30396 30397 30398 30399 30400 30401 30402 30403 30404 30405 30406 30407 30408 30409 30410 30411 30412 30413 30414 30415 30416 30417 30418 30419 30420 30421 30422 30423 30424 30425 30426 30427 30428 30429 30430 30431 30432 30433 30434 30435 30436 30437 30438 30439 30440 30441 30442 30443 30444 30445 30446 30447 30448 30449 30450 30451 30452 30453 30454 30455 30456 30457 30458 30459 30460 30461 30462 30463 30464 30465 30466 30467 30468 30469 30470 30471 30472 30473 30474 30475 30476 30477 30478 30479 30480 30481 30482 30483 30484 30485 30486 30487 30488 30489 30490 30491 30492 30493 30494 30495 30496 30497 30498 30499 30500 30501 30502 30503 30504 30505 30506 30507 30508 30509 30510 30511 30512 30513 30514 30515 30516 30517 30518 30519 30520 30521 30522 30523 30524 30525 30526 30527 30528 30529 30530 30531 30532 30533 30534 30535 30536 30537 30538 30539 30540 30541 30542 30543 30544 30545 30546 30547 30548 30549 30550 30551 30552 30553 30554 30555 30556 30557 30558 30559 30560 30561 30562 30563 30564 30565 30566 30567 30568 30569 30570 30571 30572 30573 30574 30575 30576 30577 30578 30579 30580 30581 30582 30583 30584 30585 30586 30587 30588 30589 30590 30591 30592 30593 30594 30595 30596 30597 30598 30599 30600 30601 30602 30603 30604 30605 30606 30607 30608 30609 30610 30611 30612 30613 30614 30615 30616 30617 30618 30619 30620 30621 30622 30623 30624 30625 30626 30627 30628 30629 30630 30631 30632 30633 30634 30635 30636 30637 30638 30639 30640 30641 30642 30643 30644 30645 30646 30647 30648 30649 30650 30651 30652 30653 30654 30655 30656 30657 30658 30659 30660 30661 30662 30663 30664 30665 30666 30667 30668 30669 30670 30671 30672 30673 30674 30675 30676 30677 30678 30679 30680 30681 30682 30683 30684 30685 30686 30687 30688 30689 30690 30691 30692 30693 30694 30695 30696 30697 30698 30699 30700 30701 30702 30703 30704 30705 30706 30707 30708 30709 30710 30711 30712 30713 30714 30715 30716 30717 30718 30719 30720 30721 30722 30723 30724 30725 30726 30727 30728 30729 30730 30731 30732 30733 30734 30735 30736 30737 30738 30739 30740 30741 30742 30743 30744 30745 30746 30747 30748 30749 30750 30751 30752 30753 30754 30755 30756 30757 30758 30759 30760 30761 30762 30763 30764 30765 30766 30767 30768 30769 30770 30771 30772 30773 30774 30775 30776 30777 30778 30779 30780 30781 30782 30783 30784 30785 30786 30787 30788 30789 30790 30791 30792 30793 30794 30795 30796 30797 30798 30799 30800 30801 30802 30803 30804 30805 30806 30807 30808 30809 30810 30811 30812 30813 30814 30815 30816 30817 30818 30819 30820 30821 30822 30823 30824 30825 30826 30827 30828 30829 30830 30831 30832 30833 30834 30835 30836 30837 30838 30839 30840 30841 30842 30843 30844 30845 30846 30847 30848 30849 30850 30851 30852 30853 30854 30855 30856 30857 30858 30859 30860 30861 30862 30863 30864 30865 30866 30867 30868 30869 30870 30871 30872 30873 30874 30875 30876 30877 30878 30879 30880 
</DataArray>
<DataArray type="UInt32" Name="offsets" format="ascii">
3 6 8 11 14 17 20 22 25 28 31 34 37 40 43 46 49 52 55 58 60 63 66 69 72 74 77 80 83 86 89 92 95 97 100 103 106 109 112 115 118 121 123 126 129 132 135 138 141 144 147 150 153 156 158 160 163 166 169 172 175 178 181 184 186 189 192 195 198 201 204 207 210 213 216 219 222 225 228 231 234 237 240 243 246 249 252 254 257 260 263 266 269 272 275 278 281 284 287 289 292 295 298 300 303 306 309 312 315 318 321 324 327 330 333 336 339 342 345 348 351 354 357 360 363 366 369 372 375 378 381 384 387 390 393 396 399 402 405 408 411 414 417 420 423 426 429 432 435 437 440 442 445 448 451 454 457 460 463 466 469 472 475 478 481 484 487 490 493 496 499 502 505 508 511 514 517 520 522 525 528 530 533 535 538 541 544 547 550 553 556 559 562 565 568 571 574 577 579 582 584 587 590 593 596 599 602 605 607 610 612 615 618 621 624 627 630 632 635 638 640 643 646 649 652 655 658 660 662 665 668 670 673 675 678 680 682 685 688 691 693 696 699 702 705 708 711 714 717 720 723 726 729 732 734 737 740 743 746 749 752 755 757 760 763 766 769 772 775 778 780 783 786 789 792 794 797 800 803 806 809 812 814 817 820 823 825 828 831 834 837 840 843 846 848 851 854 857 860 863 866 868 871 874 877 880 883 886 888 891 894 897 900 903 906 909 911 914 917 920 923 926 929 932 935 938 941 944 947 950 953 956 959 962 965 968 971 974 976 978 981 984 987 990 993 995 998 1001 1004 1007 1010 1013 1016 1018 1021 1023 1026 1029 1032 1034 1037 1040 1043 1045 1048 1050 1053 1056 1059 1062 1065 1068 1071 1073 1076 1079 1082 1085 1088 1091 1094 1096 1099 1102 1105 1107 1110 1113 1116 1119 1122 1125 1128 1131 1134 1137 1140 1143 1146 1149 1152 1155 1158 1161 1164 1167 1170 1173 1176 1179 1182 1185 1188 1191 1194 1197 1200 1203 1205 1208 1211 1214 1217 1220 1223 1226 1229 1232 1235 1238 1241 1244 1247 1250 1253 1256 1259 1262 1265 1268 1271 1274 1277 1280 1283 1286 1289 1292 1295 1298 1301 1303 1306 1309 1312 1315 1318 1321 1324 1327 1330 1333 1336 1339 1342 1345 1348 1351 1354 1357 1360 1363 1365 1368 1371 1374 1377 1380 1383 1386 1388 1391 1394 1397 1400 1403 1405 1408 1411 1413 1416 1418 1421 1424 1427 1430 1432 1435 1438 1440 1443 1446 1449 1452 1455 1458 1460 1463 1466 1469 1472 1475 1478 1481 1484 1487 1490 1493 1496 1499 1502 1505 1508 1511 1514 1517 1519 1522 1525 1528 1531 1534 1537 1540 1543 1546 1549 1552 1554 1556 1559 1562 1565 1568 1571 1574 1577 1580 1583 1586 1589 1592 1595 1598 1601 1604 1607 1610 1613 1616 1619 1621 1624 1626 1628 1631 1634 1636 1639 1642 1645 1648 1651 1654 1657 1660 1663 1666 1669 1672 1675 1677 1680 1683 1686 1689 1692 1695 1698 1700 1702 1705 1708 1711 1714 1717 1720 1723 1726 1728 1730 1733 1736 1739 1741 1744 1747 1750 1753 1756 1759 1762 1765 1768 1771 1774 1777 1780 1783 1786 1789 1792 1795 1798 1801 1804 1807 1810 1813 1816 1819 1822 1825 1828 1831 1834 1837 1840 1843 1846 1848 1851 1854 1856 1859 1862 1865 1868 1870 1873 1876 1879 1881 1884 1887 1890 1892 1895 1898 1900 1903 1906 1909 1912 1915 1918 1921 1924 1927 1930 1933 1936 1939 1942 1945 1948 1951 1954 1957 1960 1963 1965 1968 1971 1974 1976 1979 1982 1985 1988 1991 1993 1996 1999 2002 2005 2008 2011 2013 2016 2019 2022 2025 2028 2031 2034 2037 2040 2043 2046 2049 2052 2055 2058 2061 2064 2067 2069 2072 2075 2078 2081 2084 2087 2090 2093 2096 2099 2102 2105 2108 2111 2114 2117 2120 2123 2126 2129 2132 2134 2137 2140 2143 2146 2149 2152 2155 2158 2161 2164 2167 2170 2173 2176 2179 2181 2184 2187 2190 2193 2196 2199 2202 2205 2208 2211 2214 2217 2220 2223 2226 2229 2232 2235 2237 2240 2243 2246 2249 2252 2255 2258 2260 2263 2266 2269 2272 2275 2278 2281 2284 2287 2290 2293 2296 2299 2302 2305 2308 2311 2314 2317 2320 2323 2325 2328 2331 2334 2337 2340 2343 2346 2349 2352 2354 2357 2360 2363 2366 2369 2372 2375 2378 2380 2383 2386 2389 2392 2395 2398 2401 2404 2407 2410 2413 2416 2419 2422 2425 2428 2431 2434 2437 2439 2442 2445 2448 2451 2454 2456 2459 2462 2465 2467 2470 2473 2476 2479 2482 2485 2487 2490 2493 2496 2499 2502 2505 2508 2511 2514 2517 2519 2522 2525 2528 2531 2534 2537 2540 2543 2546 2549 2552 2555 2557 2560 2562 2565 2568 2571 2574 2577 2580 2583 2585 2588 2590 2593 2596 2599 2602 2605 2608 2611 2614 2617 2620 2623 2626 2629 2632 2635 2638 2641 2644 2647 2650 2653 2656 2659 2662 2665 2668 2671 2674 2677 2680 2683 2686 2689 2692 2695 2698 2701 2704 2707 2710 2713 2716 2719 2722 2725 2727 2729 2732 2735 2737 2740 2743 2746 2749 2752 2755 2758 2761 2764 2767 2770 2773 2776 2779 2782 2785 2787 2790 2793 2796 2799 2801 2804 2807 2809 2812 2815 2818 2821 2824 2827 2829 2832 2834 2837 2840 2842 2845 2848 2851 2854 2857 2860 2863 2866 2869 2872 2874 2877 2880 2883 2886 2889 2891 2893 2896 2899 2902 2905 2907 2910 2913 2915 2918 2920 2923 2926 2929 2932 2935 2937 2940 2943 2945 2948 2951 2954 2957 2960 2963 2966 2969 2972 2975 2978 2981 2983 2986 2989 2992 2995 2998 3001 3004 3007 3010 3013 3016 3019 3022 3025 3028 3030 3033 3035 3038 3040 3042 3045 3047 3050 3053 3055 3058 3061 3064 3067 3070 3073 3075 3078 3080 3083 3086 3088 3091 3094 3097 3099 3102 3105 3107 3110 3113 3116 3119 3122 3124 3127 3130 3132 3135 3138 3141 3144 3147 3149 3152 3154 3157 3160 3162 3165 3168 3170 3173 3176 3179 3182 3185 3188 3191 3194 3196 3199 3202 3205 3208 3211 3214 3217 3220 3223 3226 3228 3231 3234 3237 3240 3242 3245 3248 3250 3253 3256 3259 3262 3265 3267 3270 3273 3276 3279 3282 3284 3287 3289 3292 3295 3298 3301 3304 3307 3309 3312 3315 3318 3321 3324 3327 3330 3333 3335 3337 3339 3342 3345 3348 3351 3353 3356 3358 3361 3364 3367 3369 3371 3374 3377 3380 3382 3385 3388 3391 3393 3396 3398 3401 3403 3405 3408 3410 3413 3416 3419 3422 3424 3427 3430 3433 3435 3438 3440 3443 3445 3448 3451 3454 3457 3460 3463 3466 3468 3471 3474 3477 3480 3482 3485 3488 3491 3494 3497 3500 3503 3506 3508 3511 3513 3515 3518 3521 3524 3526 3529 3532 3535 3538 3540 3542 3545 3548 3550 3552 3555 3558 3561 3564 3567 3569 3572 3575 3578 3581 3584 3587 3590 3593 3595 3598 3600 3603 3606 3609 3612 3615 3618 3621 3624 3627 3630 3633 3636 3639 3642 3645 3648 3651 3653 3656 3659 3662 3665 3668 3671 3674 3677 3680 3683 3686 3689 3692 3695 3698 3701 3704 3707 3710 3713 3716 3719 3722 3725 3728 3730 3733 3735 3738 3741 3744 3747 3750 3752 3754 3757 3760 3763 3766 3768 3770 3773 3775 3778 3781 3783 3786 3789 3791 3794 3797 3800 3803 3805 3807 3810 3813 3816 3819 3822 3825 3828 3831 3833 3836 3839 3841 3844 3847 3850 3852 3855 3858 3860 3863 3866 3869 3872 3875 3878 3880 3883 3886 3889 3892 3895 3898 3900 3903 3906 3909 3912 3915 3917 3920 3923 3925 3927 3930 3933 3935 3938 3941 3943 3946 3949 3952 3955 3958 3961 3964 3967 3970 3973 3976 3979 3981 3984 3986 3989 3992 3994 3997 4000 4003 4006 4009 4012 4014 4017 4020 4023 4025 4027 4029 4032 4035 4038 4040 4042 4045 4047 4049 4052 4055 4057 4060 4063 4065 4068 4070 4073 4075 4078 4081 4084 4086 4088 4091 4094 4096 4098 4100 4102 4105 4108 4111 4113 4115 4118 4121 4123 4125 4127 4130 4132 4134 4137 4140 4142 4145 4147 4149 4152 4154 4157 4160 4162 4165 4167 4169 4172 4175 4178 4181 4183 4185 4188 4191 4193 4196 4199 4202 4204 4207 4210 4213 4216 4219 4222 4225 4228 4231 4234 4237 4240 4243 4246 4249 4252 4255 4258 4261 4264 4267 4270 4273 4276 4279 4282 4285 4288 4291 4294 4297 4300 4303 4306 4309 4312 4315 4318 4321 4324 4327 4330 4333 4336 4339 4342 4345 4348 4351 4354 4357 4360 4363 4366 4369 4372 4375 4378 4380 4383 4385 4388 4391 4394 4397 4400 4403 4406 4409 4412 4415 4418 4421 4424 4427 4429 4432 4435 4438 4441 4444 4447 4450 4453 4456 4459 4461 4464 4467 4470 4473 4476 4479 4482 4485 4488 4491 4494 4497 4500 4503 4506 4509 4512 4515 4518 4521 4524 4527 4530 4533 4536 4539 4542 4545 4548 4551 4554 4557 4560 4563 4566 4569 4572 4575 4578 4581 4584 4587 4590 4593 4596 4599 4601 4604 4607 4610 4612 4615 4617 4620 4623 4626 4629 4632 4634 4637 4639 4642 4645 4648 4651 4654 4657 4660 4663 4666 4669 4672 4675 4678 4681 4684 4687 4690 4693 4696 4699 4702 4705 4708 4711 4714 4716 4719 4722 4725 4728 4731 4734 4736 4739 4741 4744 4747 4750 4752 4755 4758 4760 4763 4766 4769 4772 4775 4778 4781 4784 4787 4790 4793 4796 4799 4802 4805 4808 4811 4814 4817 4820 4823 4826 4829 4832 4835 4838 4841 4844 4847 4850 4853 4856 4859 4862 4865 4868 4871 4873 4876 4878 4881 4884 4887 4890 4893 4896 4899 4902 4905 4908 4910 4913 4916 4919 4922 4925 4928 4931 4934 4937 4940 4943 4946 4949 4952 4955 4958 4961 4963 4966 4969 4972 4974 4976 4979 4981 4984 4987 4990 4993 4996 4999 5002 5005 5007 5010 5013 5016 5019 5021 5024 5027 5030 5033 5036 5039 5042 5044 5047 5050 5052 5055 5057 5060 5063 5065 5068 5071 5073 5075 5078 5081 5084 5087 5090 5093 5096 5099 5102 5105 5108 5111 5114 5117 5120 5122 5125 5127 5130 5133 5136 5138 5141 5143 5146 5149 5152 5155 5158 5161 5164 5167 5170 5173 5176 5179 5181 5184 5186 5189 5192 5195 5198 5201 5204 5207 5210 5212 5215 5218 5220 5223 5226 5229 5231 5233 5236 5239 5242 5245 5248 5251 5254 5257 5260 5263 5266 5269 5272 5275 5278 5281 5284 5287 5290 5293 5296 5298 5301 5304 5307 5310 5313 5315 5318 5320 5323 5326 5329 5332 5334 5337 5340 5342 5345 5348 5351 5354 5357 5359 5362 5365 5368 5371 5373 5376 5379 5382 5385 5388 5391 5394 5396 5399 5402 5405 5407 5410 5413 5416 5419 5422 5425 5428 5431 5434 5437 5440 5442 5445 5448 5451 5454 5457 5460 5463 5466 5468 5471 5474 5477 5480 5483 5486 5488 5491 5494 5497 5500 5503 5506 5508 5511 5514 5517 5520 5523 5526 5529 5532 5535 5538 5541 5543 5546 5549 5552 5554 5557 5560 5563 5565 5568 5570 5573 5576 5579 5582 5585 5588 5590 5593 5596 5599 5602 5605 5608 5611 5614 5617 5620 5623 5626 5629 5632 5635 5637 5640 5643 5646 5649 5652 5654 5657 5660 5663 5666 5669 5672 5675 5678 5680 5683 5686 5689 5692 5695 5698 5701 5704 5707 5710 5713 5716 5719 5722 5725 5728 5730 5733 5736 5739 5742 5744 5747 5750 5753 5756 5759 5762 5765 5768 5771 5774 5777 5780 5783 5786 5789 5792 5795 5798 5801 5804 5807 5810 5813 5816 5819 5822 5824 5827 5830 5833 5835 5838 5840 5843 5846 5849 5852 5854 5857 5859 5862 5865 5868 5871 5874 5876 5879 5882 5885 5888 5891 5894 5897 5900 5903 5905 5908 5911 5914 5917 5920 5923 5926 5929 5932 5935 5938 5941 5944 5947 5950 5953 5956 5959 5962 5965 5968 5971 5974 5977 5979 5981 5984 5987 5990 5993 5996 5998 6001 6004 6007 6009 6012 6015 6018 6020 6023 6026 6028 6031 6033 6036 6039 6042 6045 6047 6050 6053 6056 6059 6061 6063 6066 6069 6072 6075 6078 6081 6084 6087 6090 6093 6096 6099 6101 6104 6107 6110 6113 6115 6118 6121 6124 6127 6130 6132 6135 6138 6140 6143 6146 6149 6152 6155 6158 6161 6164 6167 6170 6173 6176 6179 6182 6185 6188 6190 6193 6196 6198 6201 6204 6207 6209 6212 6215 6218 6221 6224 6227 6230 6233 6236 6239 6242 6244 6247 6250 6253 6256 6259 6262 6265 6268 6271 6274 6277 6280 6283 6286 6289 6292 6294 6297 6300 6302 6305 6307 6310 6313 6315 6318 6320 6323 6325 6328 6331 6334 6337 6340 6343 6346 6349 6352 6355 6358 6361 6364 6366 6369 6371 6373 6376 6379 6381 6383 6386 6389 6391 6393 6396 6399 6402 6404 6407 6409 6412 6415 6417 6420 6423 6426 6429 6431 6433 6436 6438 6441 6444 6446 6448 6451 6454 6456 6459 6462 6465 6467 6470 6473 6476 6478 6480 6482 6485 6488 6490 6493 6495 6497 6500 6503 6506 6509 6512 6515 6518 6521 6524 6527 6530 6532 6534 6537 6539 6542 6544 6547 6549 6552 6555 6558 6560 6563 6566 6569 6572 6575 6577 6580 6583 6586 6589 6592 6595 6598 6601 6604 6607 6610 6613 6616 6619 6622 6625 6628 6631 6634 6637 6640 6643 6646 6649 6651 6654 6657 6660 6663 6666 6669 6672 6675 6678 6681 6684 6687 6690 6693 6696 6699 6702 6705 6707 6710 6713 6716 6719 6722 6725 6728 6731 6734 6737 6740 6742 6745 6748 6751 6754 6757 6759 6762 6765 6768 6771 6774 6777 6780 6783 6786 6789 6792 6795 6798 6801 6803 6806 6809 6812 6815 6818 6821 6824 6827 6830 6833 6836 6839 6842 6845 6847 6850 6852 6855 6858 6861 6864 6866 6869 6872 6875 6878 6881 6884 6887 6890 6893 6896 6899 6902 6904 6907 6909 6912 6915 6918 6921 6923 6926 6929 6932 6935 6938 6941 6944 6946 6949 6952 6955 6958 6961 6964 6967 6969 6972 6975 6978 6980 6983 6985 6988 6991 6994 6997 7000 7003 7006 7009 7012 7014 7017 7020 7023 7026 7029 7032 7035 7038 7041 7044 7047 7050 7053 7056 7059 7062 7065 7068 7071 7074 7077 7080 7083 7086 7089 7092 7095 7098 7101 7104 7107 7110 7113 7116 7119 7122 7125 7128 7131 7134 7137 7140 7143 7145 7148 7151 7153 7156 7159 7162 7165 7168 7171 7174 7177 7180 7183 7185 7188 7191 7194 7197 7200 7202 7205 7208 7210 7213 7216 7219 7222 7225 7228 7230 7233 7236 7239 7242 7244 7247 7250 7252 7255 7257 7260 7263 7266 7269 7272 7275 7278 7281 7284 7287 7290 7292 7295 7297 7300 7303 7306 7309 7311 7314 7317 7320 7323 7326 7329 7332 7335 7338 7341 7344 7347 7350 7353 7356 7359 7362 7365 7368 7371 7374 7376 7379 7382 7385 7388 7390 7393 7396 7399 7402 7405 7408 7411 7413 7416 7419 7422 7425 7428 7430 7433 7436 7439 7441 7444 7447 7450 7452 7455 7458 7460 7463 7466 7469 7471 7474 7477 7479 7482 7485 7488 7491 7494 7497 7500 7503 7506 7509 7512 7515 7518 7521 7524 7527 7530 7533 7536 7539 7542 7545 7548 7551 7554 7557 7560 7563 7566 7569 7572 7574 7577 7580 7583 7586 7589 7592 7595 7598 7601 7604 7607 7609 7612 7615 7618 7621 7624 7627 7630 7633 7636 7639 7642 7645 7648 7651 7654 7656 7658 7661 7664 7667 7669 7672 7675 7678 7681 7683 7686 7689 7691 7694 7697 7700 7703 7706 7709 7712 7715 7718 7721 7724 7727 7730 7732 7734 7737 7740 7743 7746 7749 7752 7755 7758 7761 7764 7767 7769 7772 7775 7777 7780 7783 7786 7789 7792 7795 7798 7801 7804 7807 7810 7813 7816 7819 7822 7825 7828 7831 7834 7836 7839 7842 7845 7847 7850 7853 7856 7859 7862 7864 7867 7870 7873 7876 7879 7882 7885 7888 7891 7894 7897 7900 7903 7906 7909 7912 7915 7918 7921 7924 7926 7929 7932 7934 7937 7940 7943 7946 7949 7952 7955 7958 7961 7964 7967 7970 7973 7976 7979 7982 7985 7988 7991 7993 7996 7999 8002 8005 8008 8011 8014 8017 8020 8023 8026 8029 8032 8035 8038 8041 8044 8047 8050 8053 8056 8059 8062 8065 8068 8071 8074 8077 8080 8083 8086 8089 8091 8094 8097 8100 8103 8106 8109 8111 8114 8117 8120 8123 8126 8128 8131 8134 8137 8140 8142 8145 8148 8151 8154 8157 8160 8163 8166 8169 8172 8175 8178 8181 8184 8187 8190 8193 8196 8199 8202 8205 8208 8210 8213 8216 8219 8222 8225 8228 8231 8233 8236 8239 8241 8244 8247 8249 8252 8255 8258 8261 8264 8267 8269 8272 8275 8278 8281 8284 8287 8290 8293 8296 8299 8301 8304 8306 8309 8312 8315 8318 8321 8324 8327 8330 8332 8335 8338 8340 8343 8346 8349 8351 8354 8357 8360 8362 8365 8368 8371 8373 8375 8378 8381 8383 8386 8389 8391 8394 8397 8399 8402 8405 8408 8411 8414 8417 8420 8423 8426 8428 8431 8434 8437 8439 8442 8445 8448 8450 8453 8456 8459 8461 8464 8466 8469 8472 8474 8477 8480 8483 8486 8489 8492 8495 8498 8500 8503 8506 8508 8511 8514 8517 8520 8523 8526 8529 8532 8535 8538 8541 8544 8547 8549 8552 8554 8557 8560 8563 8565 8567 8570 8572 8575 8578 8581 8584 8586 8589 8591 8594 8597 8600 8603 8606 8609 8612 8615 8618 8620 8623 8626 8629 8632 8635 8638 8641 8644 8647 8650 8653 8656 8659 8662 8665 8668 8671 8674 8677 8680 8683 8686 8689 8692 8695 8698 8701 8704 8706 8709 8712 8715 8718 8721 8724 8726 8729 8732 8735 8738 8741 8744 8746 8749 8752 8755 8758 8761 8764 8766 8769 8772 8775 8777 8780 8783 8786 8788 8791 8794 8796 8799 8802 8805 8808 8811 8814 8816 8819 8822 8825 8827 8829 8832 8835 8838 8841 8844 8847 8850 8853 8856 8859 8862 8865 8868 8871 8874 8877 8880 8882 8885 8888 8891 8894 8897 8900 8903 8905 8908 8911 8914 8917 8920 8922 8925 8928 8931 8934 8937 8939 8942 8945 8947 8950 8953 8956 8959 8961 8964 8967 8970 8973 8976 8979 8981 8984 8986 8989 8991 8993 8996 8998 9001 9004 9007 9009 9012 9015 9018 9021 9024 9026 9029 9032 9035 9037 9040 9043 9046 9049 9051 9053 9055 9058 9061 9064 9067 9069 9071 9074 9076 9079 9082 9085 9088 9091 9094 9096 9099 9101 9104 9107 9109 9112 9115 9118 9120 9123 9126 9128 9131 9134 9137 9140 9143 9146 9149 9152 9155 9158 9161 9164 9166 9169 9172 9175 9178 9180 9183 9186 9189 9192 9194 9197 9200 9203 9206 9209 9212 9215 9218 9221 9223 9225 9227 9230 9233 9236 9238 9240 9243 9246 9248 9251 9253 9256 9259 9262 9265 9268 9271 9274 9276 9279 9282 9285 9288 9291 9294 9297 9300 9303 9306 9309 9312 9315 9318 9321 9324 9326 9329 9332 9335 9338 9341 9344 9347 9350 9353 9355 9358 9361 9363 9366 9368 9371 9373 9376 9379 9381 9384 9387 9390 9392 9394 9397 9400 9402 9405 9408 9411 9413 9416 9419 9422 9425 9427 9430 9433 9436 9439 9442 9445 9448 9451 9454 9457 9460 9462 9464 9467 9470 9473 9476 9479 9482 9485 9488 9491 9494 9497 9500 9503 9506 9509 9512 9515 9518 9521 9524 9527 9530 9533 9536 9539 9542 9545 9548 9551 9554 9557 9560 9562 9565 9568 9571 9574 9577 9580 9583 9586 9589 9592 9595 9598 9601 9604 9607 9610 9613 9616 9619 9621 9624 9627 9630 9633 9636 9639 9641 9643 9646 9649 9651 9653 9656 9659 9662 9664 9667 9670 9673 9676 9679 9682 9685 9688 9691 9694 9697 9700 9703 9706 9709 9712 9715 9718 9721 9724 9727 9730 9733 9735 9738 9740 9743 9745 9748 9751 9754 9757 9760 9763 9765 9768 9770 9772 9775 9778 9780 9783 9786 9789 9792 9795 9798 9800 9802 9805 9808 9810 9812 9815 9818 9820 9822 9825 9828 9831 9834 9837 9840 9843 9846 9848 9851 9854 9857 9860 9863 9865 9868 9871 9873 9876 9879 9882 9884 9887 9890 9893 9896 9899 9902 9905 9908 9911 9914 9917 9920 9923 9926 9929 9932 9935 9938 9941 9944 9947 9950 9953 9956 9959 9962 9965 9968 9971 9974 9977 9980 9983 9986 9988 9991 9994 9996 9999 10001 10003 10006 10009 10012 10015 10018 10021 10024 10027 10030 10032 10035 10038 10041 10044 10047 10049 10052 10055 10058 10061 10064 10067 10070 10072 10075 10078 10081 10084 10087 10090 10093 10096 10098 10101 10104 10107 10110 10113 10115 10118 10121 10124 10127 10130 10133 10136 10139 10142 10145 10148 10151 10154 10157 10160 10163 10166 10169 10172 10175 10178 10181 10184 10187 10190 10193 10196 10199 10202 10205 10207 10209 10212 10215 10218 10221 10224 10227 10230 10232 10235 10238 10241 10243 10246 10248 10251 10254 10257 10260 10263 10266 10269 10272 10275 10278 10281 10284 10287 10290 10293 10296 10299 10302 10305 10308 10311 10313 10316 10319 10322 10325 10328 10331 10333 10336 10339 10342 10345 10348 10351 10354 10356 10359 10362 10364 10367 10370 10373 10376 10379 10382 10384 10387 10390 10393 10395 10398 10401 10403 10405 10408 10411 10414 10417 10420 10423 10426 10429 10432 10435 10438 10441 10444 10447 10450 10453 10456 10459 10462 10465 10468 10471 10474 10477 10480 10483 10486 10489 10491 10494 10497 10500 10503 10506 10509 10512 10515 10518 10521 10524 10527 10530 10533 10536 10539 10542 10545 10548 10550 10553 10556 10559 10561 10563 10566 10569 10572 10575 10578 10580 10583 10586 10589 10591 10594 10597 10600 10603 10606 10608 10611 10614 10617 10620 10623 10626 10629 10632 10635 10638 10641 10644 10647 10650 10653 10656 10659 10662 10665 10668 10671 10673 10676 10679 10682 10685 10688 10691 10693 10696 10699 10702 10705 10708 10711 10714 10717 10720 10723 10726 10729 10731 10734 10737 10740 10743 10745 10748 10750 10753 10756 10759 10762 10765 10768 10771 10774 10777 10780 10783 10786 10789 10791 10794 10797 10800 10803 10806 10808 10811 10814 10817 10820 10823 10826 10828 10831 10834 10837 10840 10843 10846 10849 10852 10855 10858 10861 10864 10866 10869 10872 10874 10877 10880 10882 10885 10888 10890 10893 10896 10899 10902 10905 10908 10911 10914 10917 10920 10922 10925 10928 10931 10934 10937 10940 10943 10946 10948 10951 10954 10957 10959 10962 10965 10968 10970 10973 10976 10978 10981 10984 10987 10989 10992 10995 10998 11001 11004 11006 11009 11011 11014 11017 11020 11023 11025 11027 11030 11033 11036 11038 11041 11044 11047 11050 11052 11055 11058 11061 11064 11067 11070 11073 11076 11079 11082 11085 11088 11091 11094 11097 11099 11102 11105 11107 11109 11112 11115 11118 11121 11123 11126 11129 11132 11135 11138 11141 11143 11146 11149 11152 11155 11158 11161 11163 11166 11169 11172 11175 11178 11181 11184 11187 11189 11192 11195 11198 11201 11204 11207 11210 11213 11216 11219 11221 11224 11227 11229 11232 11235 11237 11240 11243 11246 11249 11252 11254 11256 11259 11262 11264 11266 11269 11271 11274 11276 11279 11281 11283 11286 11289 11291 11294 11296 11299 11301 11304 11306 11309 11311 11314 11317 11319 11322 11324 11327 11329 11332 11335 11338 11341 11344 11347 11349 11352 11355 11358 11360 11363 11366 11369 11372 11375 11378 11381 11384 11387 11389 11392 11395 11397 11400 11402 11405 11407 11410 11413 11416 11418 11420 11423 11426 11429 11432 11435 11438 11441 11444 11447 11450 11453 11455 11458 11461 11464 11467 11470 11472 11475 11478 11481 11484 11487 11490 11493 11496 11499 11502 11505 11508 11511 11514 11517 11520 11523 11525 11528 11531 11534 11537 11540 11543 11545 11548 11551 11554 11556 11559 11562 11564 11567 11570 11573 11575 11578 11580 11582 11585 11588 11591 11594 11597 11600 11603 11606 11609 11611 11614 11617 11620 11623 11626 11629 11632 11634 11637 11639 11642 11644 11647 11650 11653 11656 11659 11662 11665 11668 11671 11674 11677 11680 11683 11686 11689 11692 11695 11698 11701 11704 11707 11710 11713 11716 11719 11722 11725 11728 11731 11734 11737 11740 11743 11746 11749 11752 11755 11757 11760 11763 11765 11767 11770 11773 11776 11779 11781 11784 11787 11790 11793 11796 11798 11801 11804 11806 11808 11811 11814 11817 11820 11823 11826 11828 11831 11833 11836 11839 11841 11843 11846 11848 11851 11854 11857 11859 11862 11865 11868 11871 11873 11876 11879 11882 11884 11887 11890 11892 11894 11897 11900 11903 11905 11908 11911 11914 11917 11919 11922 11925 11927 11930 11933 11936 11938 11941 11944 11946 11949 11952 11955 11957 11960 11962 11965 11968 11970 11973 11976 11978 11980 11983 11986 11988 11991 11993 11995 11998 12001 12004 12007 12009 12012 12015 12018 12021 12023 12026 12029 12032 12035 12038 12041 12044 12047 12050 12053 12056 12059 12061 12064 12067 12070 12073 12075 12078 12080 12083 12086 12089 12092 12095 12097 12099 12101 12104 12107 12110 12113 12116 12119 12122 12125 12127 12130 12133 12136 12139 12142 12145 12147 12150 12153 12156 12159 12161 12164 12167 12170 12173 12176 12179 12182 12185 12188 12191 12194 12197 12200 12203 12206 12209 12212 12215 12217 12220 12222 12225 12228 12230 12232 12235 12237 12240 12243 12245 12248 12250 12253 12255 12258 12260 12263 12266 12269 12272 12274 12277 12280 12283 12285 12288 12291 12294 12297 12300 12303 12306 12309 12312 12315 12318 12321 12324 12327 12330 12333 12336 12339 12342 12345 12348 12351 12354 12357 12360 12362 12365 12368 12371 12374 12377 12379 12382 12385 12388 12391 12394 12397 12400 12403 12406 12409 12412 12414 12417 12420 12423 12426 12429 12431 12434 12437 12439 12441 12444 12447 12450 12452 12455 12458 12460 12462 12465 12467 12470 12473 12476 12479 12482 12485 12488 12491 12494 12497 12500 12503 12506 12509 12512 12515 12517 12520 12523 12526 12529 12531 12534 12537 12540 12543 12546 12549 12552 12555 12557 12559 12562 12565 12567 12570 12573 12576 12579 12582 12585 12588 12591 12594 12596 12598 12601 12604 12606 12609 12612 12615 12617 12620 12623 12626 12629 12632 12635 12638 12641 12644 12647 12650 12653 12656 12659 12662 12665 12668 12671 12674 12677 12680 12683 12686 12689 12692 12695 12697 12700 12703 12706 12709 12712 12715 12718 12721 12724 12727 12730 12733 12736 12739 12742 12745 12748 12751 12754 12757 12759 12762 12765 12768 12770 12772 12775 12778 12781 12783 12786 12789 12791 12794 12797 12800 12803 12806 12808 12811 12813 12816 12819 12822 12825 12828 12831 12834 12837 12839 12842 12845 12848 12850 12853 12856 12858 12861 12863 12866 12869 12872 12874 12877 12880 12883 12885 12888 12891 12894 12897 12900 12903 12906 12909 12912 12915 12918 12921 12924 12927 12930 12933 12936 12938 12941 12944 12947 12950 12953 12956 12959 12962 12965 12967 12970 12973 12976 12979 12982 12985 12988 12991 12993 12996 12999 13002 13005 13008 13011 13014 13017 13020 13023 13026 13029 13032 13034 13037 13040 13043 13045 13048 13051 13054 13057 13060 13063 13066 13069 13072 13075 13078 13081 13084 13087 13090 13093 13096 13099 13102 13104 13107 13110 13113 13115 13118 13120 13123 13126 13129 13131 13134 13137 13140 13142 13144 13147 13150 13153 13156 13159 13162 13165 13168 13171 13174 13177 13180 13183 13186 13189 13192 13195 13198 13201 13204 13207 13210 13212 13215 13218 13221 13224 13226 13229 13232 13235 13238 13240 13243 13246 13249 13252 13255 13258 13261 13263 13266 13269 13272 13275 13277 13280 13283 13286 13289 13292 13295 13297 13300 13303 13306 13309 13312 13315 13317 13320 13323 13326 13328 13331 13334 13337 13340 13343 13346 13349 13352 13355 13357 13360 13363 13366 13369 13372 13375 13377 13380 13383 13386 13389 13392 13395 13398 13401 13404 13407 13410 13412 13415 13418 13420 13423 13426 13429 13432 13435 13437 13440 13443 13445 13448 13451 13454 13457 13460 13463 13466 13468 13470 13473 13476 13479 13482 13484 13487 13490 13493 13496 13499 13502 13504 13507 13510 13513 13516 13519 13522 13525 13528 13531 13534 13536 13539 13542 13545 13548 13551 13554 13557 13560 13563 13566 13569 13572 13574 13577 13579 13582 13585 13588 13590 13593 13596 13598 13601 13604 13607 13610 13612 13615 13618 13621 13624 13627 13629 13632 13635 13638 13641 13644 13647 13650 13653 13655 13658 13661 13664 13667 13669 13672 13675 13678 13681 13684 13687 13690 13692 13695 13698 13701 13704 13707 13710 13713 13716 13719 13722 13724 13727 13730 13733 13735 13738 13740 13743 13746 13749 13752 13755 13758 13760 13763 13765 13768 13770 13773 13776 13779 13782 13784 13787 13790 13793 13796 13799 13802 13805 13808 13811 13814 13817 13820 13823 13826 13828 13831 13833 13836 13839 13842 13845 13848 13851 13854 13856 13859 13862 13865 13868 13871 13874 13877 13880 13883 13886 13889 13892 13895 13897 13900 13903 13906 13909 13911 13914 13917 13920 13923 13926 13929 13932 13935 13938 13941 13944 13947 13950 13953 13956 13959 13962 13965 13968 13971 13974 13977 13980 13983 13985 13988 13991 13994 13997 13999 14002 14005 14008 14010 14013 14016 14018 14021 14024 14026 14029 14032 14035 14038 14041 14044 14047 14050 14053 14056 14059 14062 14065 14068 14071 14073 14076 14079 14081 14084 14087 14090 14093 14096 14099 14102 14104 14107 14110 14113 14116 14119 14121 14124 14127 14130 14132 14135 14138 14141 14143 14146 14149 14152 14155 14158 14161 14164 14166 14169 14172 14175 14177 14180 14182 14184 14187 14190 14193 14196 14199 14201 14204 14207 14210 14213 14216 14219 14222 14225 14228 14231 14233 14236 14239 14242 14245 14248 14251 14254 14257 14260 14263 14266 14269 14272 14275 14278 14281 14284 14287 14290 14293 14296 14299 14302 14305 14308 14311 14314 14317 14320 14323 14326 14329 14332 14335 14338 14341 14344 14346 14349 14352 14355 14358 14361 14364 14367 14370 14373 14376 14379 14382 14385 14388 14391 14394 14396 14399 14402 14405 14408 14411 14414 14417 14420 14423 14425 14428 14431 14434 14437 14440 14443 14446 14448 14451 14454 14457 14460 14463 14466 14469 14472 14475 14478 14481 14484 14487 14490 14493 14496 14499 14502 14505 14508 14511 14513 14516 14519 14522 14525 14528 14531 14534 14537 14540 14543 14546 14549 14552 14555 14558 14561 14564 14566 14569 14572 14575 14578 14581 14584 14587 14590 14593 14596 14599 14602 14605 14608 14611 14614 14617 14620 14623 14626 14629 14632 14635 14638 14641 14644 14647 14650 14653 14656 14659 14662 14665 14668 14671 14674 14677 14680 14683 14686 14689 14692 14695 14698 14701 14704 14706 14709 14712 14715 14718 14721 14724 14727 14730 14733 14736 14739 14742 14745 14747 14750 14752 14755 14758 14761 14764 14767 14769 14772 14775 14778 14781 14784 14786 14788 14791 14794 14797 14800 14803 14806 14809 14812 14815 14818 14821 14824 14827 14830 14833 14836 14839 14841 14843 14846 14849 14852 14855 14858 14861 14863 14866 14868 14871 14874 14877 14880 14883 14886 14889 14892 14895 14897 14900 14903 14906 14909 14912 14915 14918 14921 14924 14927 14930 14933 14936 14939 14942 14945 14948 14951 14954 14956 14959 14962 14965 14968 14971 14973 14976 14978 14981 14984 14987 14990 14993 14996 14999 15001 15004 15007 15010 15012 15015 15018 15021 15023 15026 15029 15031 15034 15037 15040 15042 15045 15048 15050 15053 15055 15058 15060 15063 15066 15068 15071 15074 15077 15080 15083 15086 15089 15092 15095 15098 15101 15104 15107 15110 15113 15116 15119 15122 15125 15128 15131 15133 15136 15138 15141 15144 15147 15150 15153 15156 15159 15161 15164 15167 15170 15173 15176 15179 15182 15185 15188 15191 15194 15197 15200 15203 15206 15209 15212 15215 15218 15220 15223 15226 15229 15231 15234 15237 15240 15243 15246 15249 15252 15255 15258 15261 15263 15266 15269 15272 15275 15277 15280 15283 15285 15288 15291 15294 15297 15300 15302 15305 15308 15311 15314 15316 15319 15321 15324 15327 15329 15332 15335 15338 15341 15344 15347 15350 15352 15355 15358 15360 15363 15365 15368 15371 15374 15377 15380 15383 15386 15389 15392 15395 15398 15401 15404 15407 15410 15413 15416 15419 15421 15424 15427 15430 15433 15436 15439 15442 15444 15447 15450 15453 15456 15458 15461 15464 15467 15470 15473 15476 15479 15482 15485 15487 15490 15493 15496 15499 15501 15504 15507 15510 15513 15516 15519 15522 15525 15528 15531 15534 15537 15539 15542 15545 15548 15551 15554 15557 15560 15563 15566 15568 15571 15574 15577 15580 15583 15586 15589 15592 15595 15598 15601 15604 15606 15609 15612 15614 15617 15620 15623 15626 15629 15632 15635 15638 15641 15643 15645 15647 15650 15653 15656 15658 15661 15664 15667 15670 15673 15676 15678 15681 15684 15687 15689 15691 15694 15697 15700 15703 15706 15709 15712 15715 15718 15721 15724 15727 15729 15732 15735 15738 15740 15742 15745 15748 15751 15754 15757 15759 15762 15765 15768 15771 15773 15776 15779 15782 15785 15787 15790 15793 15796 15799 15802 15804 15806 15808 15811 15814 15817 15819 15821 15824 15827 15830 15833 15836 15839 15842 15845 15848 15850 15852 15855 15858 15861 15863 15865 15868 15871 15874 15877 15880 15883 15886 15889 15892 15895 15898 15901 15904 15907 15910 15913 15916 15918 15921 15923 15926 15929 15932 15935 15937 15940 15943 15946 15949 15952 15955 15958 15960 15963 15966 15969 15972 15975 15978 15981 15983 15986 15989 15991 15994 15996 15998 16001 16004 16007 16009 16011 16014 16017 16020 16022 16024 16027 16030 16033 16036 16039 16042 16045 16048 16051 16054 16056 16059 16062 16065 16068 16071 16074 16077 16079 16082 16085 16088 16091 16093 16096 16099 16102 16105 16108 16111 16113 16116 16119 16122 16125 16127 16130 16132 16135 16138 16141 16144 16147 16150 16153 16156 16159 16162 16165 16168 16171 16174 16176 16179 16182 16185 16188 16191 16194 16197 16199 16202 16205 16208 16211 16213 16216 16219 16222 16224 16227 16230 16233 16236 16239 16242 16245 16248 16251 16254 16257 16260 16263 16266 16269 16272 16275 16278 16281 16284 16287 16290 16292 16295 16297 16300 16303 16305 16308 16311 16314 16316 16319 16322 16324 16327 16330 16333 16336 16339 16342 16345 16348 16351 16354 16357 16360 16363 16366 16369 16372 16375 16378 16381 16384 16386 16388 16390 16393 16396 16399 16402 16405 16408 16411 16414 16417 16420 16423 16426 16429 16431 16434 16437 16440 16442 16445 16448 16450 16453 16456 16459 16462 16464 16467 16470 16472 16474 16477 16480 16483 16486 16488 16491 16494 16496 16499 16501 16504 16507 16510 16513 16516 16519 16522 16525 16528 16531 16534 16537 16539 16542 16545 16548 16551 16554 16557 16560 16562 16565 16567 16570 16573 16576 16579 16581 16584 16587 16590 16593 16596 16599 16602 16605 16608 16611 16614 16617 16620 16623 16626 16629 16632 16635 16638 16641 16644 16647 16650 16652 16655 16658 16661 16663 16666 16668 16671 16674 16677 16679 16682 16685 16688 16691 16694 16696 16699 16702 16704 16707 16710 16713 16716 16719 16722 16725 16728 16730 16733 16736 16739 16742 16745 16747 16750 16753 16756 16759 16762 16765 16768 16771 16774 16777 16780 16783 16786 16789 16791 16794 16797 16800 16803 16805 16808 16811 16814 16817 16820 16823 16826 16829 16832 16835 16838 16841 16843 16846 16849 16852 16855 16857 16860 16863 16866 16869 16872 16875 16878 16881 16884 16887 16890 16893 16896 16898 16901 16904 16906 16909 16912 16915 16917 16920 16923 16926 16929 16932 16935 16938 16941 16944 16947 16950 16953 16956 16958 16960 16963 16965 16967 16970 16973 16976 16978 16980 16983 16985 16988 16990 16993 16995 16998 17001 17004 17006 17009 17011 17014 17017 17020 17023 17025 17028 17031 17034 17037 17040 17043 17045 17048 17051 17054 17057 17060 17062 17065 17068 17070 17073 17076 17078 17081 17084 17086 17089 17092 17095 17098 17101 17103 17106 17108 17111 17114 17117 17120 17123 17126 17129 17132 17135 17138 17141 17144 17147 17149 17152 17155 17157 17160 17163 17166 17169 17172 17175 17178 17181 17184 17186 17189 17192 17195 17198 17201 17204 17207 17210 17213 17215 17218 17221 17223 17226 17228 17231 17234 17237 17240 17243 17246 17249 17251 17254 17257 17260 17263 17266 17269 17272 17274 17277 17279 17282 17285 17287 17290 17293 17296 17298 17301 17304 17307 17310 17312 17315 17318 17321 17324 17327 17329 17332 17335 17338 17341 17344 17347 17350 17353 17356 17359 17362 17365 17368 17371 17374 17377 17380 17383 17386 17389 17392 17394 17397 17400 17402 17405 17408 17411 17413 17416 17419 17422 17425 17427 17430 17433 17436 17439 17442 17445 17448 17451 17454 17457 17460 17463 17466 17469 17472 17475 17478 17481 17484 17487 17490 17493 17496 17498 17501 17504 17507 17510 17513 17516 17518 17521 17524 17527 17530 17533 17536 17539 17542 17545 17548 17551 17554 17557 17559 17562 17564 17567 17570 17572 17575 17578 17581 17584 17586 17588 17591 17593 17596 17598 17601 17604 17607 17610 17613 17615 17618 17621 17623 17625 17628 17631 17634 17637 17640 17642 17645 17648 17650 17653 17656 17659 17662 17665 17668 17671 17674 17676 17678 17681 17684 17687 17689 17692 17694 17697 17700 17703 17706 17709 17711 17714 17716 17719 17722 17725 17728 17731 17733 17735 17738 17741 17744 17747 17749 17752 17755 17758 17761 17763 17766 17769 17772 17775 17778 17781 17784 17787 17790 17793 17796 17799 17802 17805 17808 17811 17814 17816 17819 17822 17824 17827 17830 17833 17835 17838 17841 17844 17847 17850 17853 17856 17859 17862 17865 17868 17871 17874 17877 17880 17883 17886 17889 17892 17894 17897 17900 17903 17906 17909 17912 17915 17918 17921 17924 17927 17930 17933 17936 17938 17940 17943 17946 17949 17951 17954 17957 17960 17963 17966 17968 17971 17974 17977 17980 17983 17986 17989 17992 17995 17998 18001 18003 18006 18009 18011 18014 18017 18020 18023 18026 18029 18032 18035 18038 18041 18043 18046 18049 18052 18054 18057 18059 18062 18064 18067 18070 18073 18075 18077 18080 18082 18085 18088 18090 18093 18096 18098 18100 18103 18106 18109 18111 18114 18117 18119 18122 18124 18127 18130 18133 18135 18138 18141 18143 18145 18148 18150 18153 18156 18158 18161 18163 18166 18169 18172 18175 18178 18181 18184 18187 18190 18192 18195 18198 18201 18204 18207 18209 18212 18215 18218 18221 18224 18227 18230 18233 18236 18239 18241 18244 18247 18250 18253 18255 18257 18260 18263 18265 18268 18270 18273 18276 18279 18282 18285 18287 18290 18293 18295 18298 18300 18303 18306 18309 18312 18315 18318 18321 18323 18326 18329 18332 18335 18338 18341 18344 18347 18350 18352 18355 18357 18360 18362 18365 18367 18370 18373 18376 18379 18381 18384 18387 18390 18393 18396 18398 18400 18403 18406 18409 18412 18415 18418 18420 18423 18426 18429 18432 18435 18437 18440 18443 18446 18449 18451 18454 18457 18459 18462 18464 18467 18470 18473 18475 18478 18480 18483 18486 18488 18490 18492 18495 18498 18501 18504 18507 18510 18512 18514 18516 18519 18522 18525 18528 18530 18533 18535 18538 18540 18543 18546 18549 18552 18555 18558 18560 18563 18566 18569 18572 18575 18578 18581 18584 18587 18590 18593 18596 18599 18602 18605 18608 18611 18614 18617 18620 18623 18626 18629 18632 18635 18638 18641 18644 18647 18650 18653 18656 18659 18662 18665 18668 18671 18674 18677 18680 18683 18686 18689 18692 18695 18698 18701 18704 18707 18709 18712 18715 18718 18720 18722 18725 18728 18731 18734 18737 18740 18743 18746 18749 18752 18755 18758 18761 18764 18767 18770 18773 18776 18779 18781 18784 18787 18790 18793 18796 18799 18802 18804 18807 18810 18812 18815 18818 18820 18823 18826 18828 18831 18833 18836 18839 18841 18844 18847 18850 18852 18855 18857 18860 18862 18864 18867 18870 18873 18875 18877 18880 18883 18885 18888 18891 18893 18896 18899 18902 18905 18908 18911 18914 18917 18920 18923 18926 18929 18931 18934 18937 18940 18943 18945 18948 18951 18954 18957 18959 18962 18965 18968 18971 18974 18977 18980 18983 18986 18988 18991 18993 18996 18999 19002 19005 19007 19010 19013 19016 19018 19021 19024 19027 19030 19033 19036 19038 19041 19044 19046 19049 19052 19055 19057 19060 19063 19066 19069 19072 19075 19078 19080 19083 19086 19089 19092 19095 19097 19100 19103 19106 19109 19112 19115 19118 19121 19124 19127 19130 19133 19136 19139 19142 19144 19147 19150 19153 19156 19159 19161 19164 19167 19169 19172 19174 19177 19180 19183 19186 19188 19190 19193 19196 19198 19201 19204 19207 19210 19213 19216 19219 19222 19225 19228 19231 19233 19236 19238 19241 19244 19247 19250 19253 19255 19258 19261 19264 19266 19269 19272 19275 19277 19280 19283 19286 19289 19292 19295 19298 19301 19304 19307 19310 19313 19316 19318 19321 19324 19327 19330 19333 19336 19339 19341 19344 19346 19349 19352 19355 19358 19361 19364 19367 19369 19371 19374 19377 19380 19383 19386 19389 19392 19395 19398 19400 19403 19406 19409 19412 19415 19418 19420 19422 19424 19427 19429 19432 19435 19438 19441 19444 19447 19449 19452 19454 19457 19459 19462 19464 19467 19470 19473 19476 19479 19482 19484 19487 19490 19492 19495 19498 19501 19504 19506 19509 19512 19515 19518 19521 19524 19527 19530 19533 19536 19539 19542 19545 19548 19551 19554 19557 19560 19563 19566 19569 19571 19574 19576 19579 19582 19585 19588 19591 19594 19597 19600 19603 19606 19609 19612 19615 19618 19621 19624 19627 19630 19633 19636 19639 19642 19645 19648 19651 19654 19657 19660 19663 19666 19669 19672 19675 19678 19681 19684 19687 19690 19693 19696 19699 19702 19705 19708 19711 19714 19717 19720 19723 19726 19729 19732 19735 19738 19741 19744 19747 19750 19752 19755 19758 19761 19764 19767 19770 19773 19776 19779 19782 19785 19788 19791 19794 19797 19800 19803 19806 19809 19812 19815 19818 19821 19823 19826 19829 19832 19834 19837 19839 19842 19845 19848 19851 19854 19857 19860 19863 19866 19869 19872 19875 19878 19881 19884 19887 19890 19893 19896 19899 19902 19905 19908 19911 19914 19917 19920 19923 19926 19929 19932 19935 19938 19941 19944 19947 19950 19953 19956 19958 19961 19963 19966 19969 19972 19975 19978 19981 19984 19987 19990 19993 19996 19999 20002 20005 20008 20011 20014 20017 20020 20023 20026 20029 20032 20035 20038 20040 20043 20046 20049 20052 20055 20058 20061 20064 20067 20070 20073 20076 20079 20082 20085 20088 20091 20094 20097 20100 20103 20106 20109 20112 20115 20118 20121 20124 20127 20130 20133 20136 20139 20142 20145 20148 20151 20154 20157 20160 20163 20166 20169 20172 20175 20178 20181 20184 20187 20190 20193 20196 20199 20202 20205 20208 20211 20214 20217 20220 20223 20226 20229 20232 20235 20238 20241 20244 20247 20249 20252 20255 20258 20261 20264 20267 20270 20272 20275 20278 20280 20283 20286 20289 20292 20295 20298 20301 20304 20307 20310 20313 20316 20319 20322 20325 20328 20331 20334 20337 20340 20342 20345 20348 20351 20354 20357 20360 20363 20366 20369 20372 20375 20378 20381 20384 20387 20390 20393 20396 20399 20402 20405 20408 20411 20414 20417 20420 20423 20426 20429 20432 20435 20438 20440 20443 20446 20449 20452 20454 20457 20459 20462 20465 20468 20471 20474 20477 20479 20482 20485 20487 20490 20493 20495 20497 20500 20502 20505 20508 20511 20513 20516 20519 20522 20525 20528 20531 20534 20537 20540 20543 20546 20549 20552 20555 20558 20560 20563 20566 20569 20572 20575 20578 20581 20584 20586 20589 20592 20595 20598 20601 20604 20607 20610 20613 20616 20619 20622 20625 20628 20631 20634 20637 20640 20643 20646 20649 20652 20655 20658 20661 20664 20667 20670 20673 20676 20679 20682 20685 20688 20691 20694 20696 20699 20702 20705 20708 20711 20714 20717 20719 20722 20725 20727 20730 20732 20735 20738 20741 20744 20747 20750 20753 20756 20759 20762 20765 20767 20769 20772 20775 20777 20780 20783 20785 20787 20790 20793 20796 20799 20801 20804 20806 20809 20812 20814 20817 20819 20821 20824 20826 20829 20831 20834 20837 20840 20843 20846 20849 20852 20854 20857 20859 20862 20865 20868 20871 20874 20876 20879 20882 20885 20887 20890 20893 20895 20898 20900 20903 20905 20907 20910 20913 20915 20918 20921 20924 20927 20930 20933 20935 20938 20941 20944 20947 20950 20953 20956 20959 20961 20963 20966 20969 20972 20974 20977 20980 20983 20986 20988 20990 20993 20995 20998 21001 21004 21006 21009 21012 21015 21018 21021 21024 21027 21030 21033 21036 21039 21042 21045 21048 21051 21054 21056 21059 21062 21065 21068 21071 21074 21076 21079 21081 21084 21087 21090 21092 21094 21097 21100 21102 21105 21107 21110 21113 21116 21119 21122 21125 21128 21131 21134 21137 21140 21143 21145 21147 21150 21153 21156 21159 21162 21164 21167 21170 21173 21176 21179 21182 21185 21187 21190 21193 21196 21198 21201 21203 21206 21209 21211 21214 21217 21220 21223 21226 21229 21232 21235 21238 21240 21243 21246 21248 21251 21254 21257 21260 21263 21266 21269 21272 21275 21278 21281 21283 21286 21289 21292 21295 21298 21301 21304 21307 21310 21313 21316 21319 21322 21325 21328 21331 21334 21337 21340 21343 21346 21349 21351 21354 21357 21360 21363 21366 21369 21372 21375 21378 21381 21384 21386 21389 21392 21395 21398 21400 21403 21406 21409 21412 21415 21418 21421 21424 21427 21430 21433 21435 21438 21441 21444 21447 21450 21452 21455 21457 21460 21463 21466 21469 21472 21475 21478 21481 21484 21486 21489 21492 21494 21497 21500 21502 21505 21508 21511 21514 21516 21519 21522 21525 21528 21531 21534 21537 21540 21543 21546 21549 21552 21555 21558 21561 21564 21567 21570 21573 21576 21579 21581 21584 21587 21589 21592 21594 21597 21600 21603 21606 21609 21612 21615 21618 21621 21623 21626 21629 21631 21633 21635 21638 21641 21644 21646 21649 21652 21655 21658 21661 21664 21666 21668 21671 21673 21676 21679 21681 21684 21687 21689 21692 21695 21698 21701 21703 21706 21709 21712 21715 21717 21720 21723 21726 21729 21732 21735 21738 21741 21744 21747 21750 21752 21755 21758 21760 21763 21765 21767 21770 21773 21775 21777 21779 21782 21785 21788 21791 21794 21797 21800 21803 21806 21809 21811 21814 21817 21820 21823 21826 21829 21832 21835 21838 21840 21843 21846 21849 21852 21855 21857 21860 21863 21866 21869 21872 21875 21878 21881 21884 21887 21889 21892 21895 21898 21901 21904 21907 21910 21913 21916 21919 21922 21925 21928 21931 21934 21937 21940 21943 21946 21949 21952 21955 21958 21961 21963 21965 21968 21971 21974 21977 21980 21983 21986 21989 21991 21994 21997 22000 22003 22006 22009 22012 22015 22018 22021 22024 22027 22030 22033 22036 22039 22041 22044 22047 22050 22053 22055 22058 22061 22064 22066 22068 22071 22074 22077 22080 22083 22086 22088 22091 22093 22096 22099 22102 22104 22107 22110 22113 22116 22119 22122 22125 22128 22130 22133 22135 22137 22140 22143 22146 22149 22152 22155 22158 22161 22164 22167 22170 22173 22175 22178 22181 22183 22186 22188 22191 22194 22197 22200 22203 22206 22209 22212 22215 22218 22221 22224 22227 22230 22233 22236 22239 22242 22245 22248 22251 22254 22257 22259 22262 22265 22268 22271 22274 22276 22279 22282 22285 22288 22291 22294 22297 22300 22303 22306 22308 22311 22314 22317 22319 22322 22325 22328 22331 22334 22337 22340 22343 22346 22349 22352 22354 22356 22359 22362 22365 22368 22371 22373 22376 22379 22382 22384 22387 22390 22393 22396 22399 22402 22405 22408 22411 22414 22416 22419 22422 22425 22428 22431 22434 22437 22439 22441 22444 22446 22449 22452 22455 22458 22460 22463 22466 22469 22472 22475 22477 22480 22483 22486 22489 22492 22495 22498 22501 22504 22507 22509 22512 22515 22518 22521 22524 22527 22530 22533 22536 22539 22541 22544 22547 22550 22553 22556 22559 22562 22564 22567 22570 22573 22576 22579 22582 22585 22588 22591 22594 22597 22600 22603 22606 22609 22612 22615 22618 22621 22624 22626 22629 22632 22635 22637 22640 22643 22646 22649 22652 22655 22658 22661 22664 22667 22670 22673 22676 22678 22681 22683 22685 22688 22690 22692 22695 22698 22701 22704 22707 22709 22712 22715 22718 22721 22724 22727 22730 22732 22735 22738 22740 22743 22746 22748 22751 22754 22756 22759 22762 22764 22766 22768 22770 22773 22776 22778 22780 22783 22786 22788 22791 22794 22796 22799 22802 22805 22808 22810 22812 22814 22816 22819 22822 22825 22827 22830 22832 22835 22837 22840 22842 22844 22847 22850 22853 22856 22859 22862 22865 22867 22870 22873 22875 22878 22880 22883 22886 22888 22890 22893 22896 22899 22902 22905 22908 22911 22914 22917 22920 22923 22926 22929 22932 22935 22938 22941 22943 22946 22949 22952 22955 22958 22961 22964 22967 22970 22973 22976 22979 22982 22985 22988 22991 22994 22996 22999 23002 23005 23008 23011 23014 23017 23020 23023 23026 23029 23032 23035 23038 23040 23042 23045 23048 23051 23054 23056 23059 23061 23064 23067 23070 23072 23074 23077 23079 23082 23085 23088 23091 23094 23097 23100 23103 23106 23109 23112 23115 23118 23121 23124 23127 23130 23133 23136 23138 23141 23143 23146 23149 23152 23155 23157 23160 23163 23166 23169 23172 23175 23178 23181 23184 23187 23190 23193 23196 23199 23202 23205 23208 23211 23214 23217 23219 23222 23225 23228 23231 23234 23237 23240 23243 23246 23249 23252 23255 23258 23261 23263 23266 23269 23272 23275 23278 23281 23284 23287 23290 23293 23296 23299 23302 23305 23308 23311 23314 23317 23320 23323 23326 23329 23332 23335 23338 23341 23344 23347 23350 23353 23356 23359 23362 23365 23368 23371 23374 23377 23380 23383 23386 23389 23392 23395 23398 23401 23404 23407 23410 23413 23416 23419 23422 23425 23428 23431 23434 23437 23440 23443 23446 23449 23451 23454 23457 23460 23462 23465 23468 23470 23473 23476 23479 23482 23485 23488 23491 23494 23497 23500 23503 23505 23508 23511 23514 23517 23519 23522 23525 23528 23531 23534 23537 23540 23543 23546 23549 23552 23555 23558 23561 23564 23567 23570 23573 23576 23579 23582 23585 23588 23591 23594 23597 23600 23603 23606 23608 23611 23614 23617 23620 23622 23625 23628 23631 23634 23637 23640 23643 23646 23649 23652 23654 23657 23660 23662 23665 23668 23671 23674 23677 23680 23683 23686 23689 23692 23695 23698 23700 23703 23706 23709 23712 23715 23718 23721 23724 23726 23729 23732 23735 23738 23741 23744 23747 23750 23753 23756 23758 23761 23763 23766 23769 23772 23774 23777 23780 23783 23785 23788 23790 23793 23795 23797 23800 23803 23806 23809 23812 23814 23817 23820 23823 23826 23829 23832 23835 23838 23841 23844 23847 23850 23853 23856 23859 23862 23865 23868 23871 23874 23877 23880 23883 23885 23888 23891 23893 23896 23899 23902 23904 23907 23909 23912 23915 23918 23921 23924 23927 23930 23933 23936 23939 23942 23945 23947 23950 23953 23956 23959 23962 23965 23968 23971 23974 23977 23980 23983 23986 23989 23992 23995 23998 24001 24004 24006 24009 24012 24015 24018 24021 24024 24027 24030 24033 24036 24039 24042 24045 24048 24051 24054 24057 24060 24063 24066 24069 24072 24075 24078 24081 24084 24087 24089 24092 24095 24098 24101 24104 24107 24110 24113 24116 24119 24122 24125 24128 24131 24134 24137 24140 24143 24145 24148 24151 24154 24156 24159 24162 24165 24167 24169 24172 24175 24178 24181 24184 24186 24189 24192 24195 24198 24201 24204 24207 24209 24211 24214 24217 24220 24222 24225 24227 24230 24233 24236 24239 24242 24245 24247 24249 24252 24255 24257 24259 24262 24265 24268 24271 24274 24277 24280 24283 24286 24289 24291 24294 24297 24300 24303 24306 24309 24311 24314 24317 24320 24323 24326 24329 24332 24335 24338 24341 24344 24347 24350 24353 24356 24359 24362 24364 24367 24370 24373 24376 24378 24381 24384 24386 24389 24392 24395 24398 24401 24404 24407 24410 24413 24416 24419 24421 24424 24426 24429 24431 24434 24437 24440 24443 24446 24449 24452 24455 24458 24461 24464 24467 24470 24473 24476 24479 24482 24485 24488 24490 24493 24496 24498 24501 24504 24507 24509 24512 24515 24517 24520 24523 24526 24529 24531 24534 24537 24540 24543 24546 24549 24552 24554 24557 24560 24563 24566 24569 24572 24575 24578 24581 24584 24587 24590 24593 24596 24599 24602 24605 24608 24611 24614 24617 24620 24623 24626 24629 24632 24635 24638 24641 24643 24646 24649 24652 24655 24658 24661 24664 24667 24670 24673 24676 24679 24682 24685 24688 24691 24694 24697 24700 24703 24706 24709 24712 24715 24718 24721 24724 24727 24730 24733 24736 24739 24742 24745 24748 24751 24754 24756 24758 24760 24763 24766 24768 24771 24774 24777 24779 24782 24784 24787 24790 24793 24796 24799 24801 24804 24807 24810 24813 24816 24819 24822 24824 24827 24830 24833 24836 24839 24842 24845 24848 24851 24854 24857 24860 24863 24866 24868 24871 24874 24877 24879 24882 24884 24887 24890 24893 24896 24899 24902 24905 24908 24910 24913 24916 24919 24922 24925 24928 24931 24933 24936 24938 24941 24943 24946 24949 24952 24955 24958 24961 24964 24967 24969 24972 24975 24977 24979 24981 24984 24986 24989 24991 24994 24997 25000 25003 25006 25009 25012 25015 25018 25021 25024 25027 25030 25033 25036 25039 25042 25045 25048 25051 25054 25056 25059 25062 25064 25066 25069 25072 25075 25077 25080 25083 25086 25089 25092 25095 25098 25100 25103 25105 25108 25111 25114 25117 25119 25122 25125 25127 25130 25133 25136 25139 25142 25145 25148 25150 25153 25156 25158 25161 25164 25167 25169 25172 25175 25178 25181 25184 25187 25190 25193 25196 25198 25201 25204 25207 25210 25213 25216 25218 25221 25224 25226 25229 25232 25235 25238 25240 25243 25246 25249 25252 25255 25258 25260 25262 25264 25267 25270 25273 25275 25278 25280 25283 25285 25288 25291 25294 25297 25300 25303 25305 25308 25311 25314 25316 25319 25322 25325 25327 25330 25333 25336 25339 25342 25345 25348 25351 25354 25357 25360 25363 25365 25368 25371 25374 25376 25379 25382 25385 25388 25391 25393 25395 25398 25401 25403 25406 25408 25410 25412 25415 25418 25421 25423 25426 25429 25432 25435 25438 25440 25443 25446 25449 25452 25455 25458 25461 25464 25467 25470 25473 25476 25478 25481 25484 25487 25490 25493 25496 25498 25501 25504 25506 25509 25512 25514 25517 25520 25523 25526 25529 25531 25534 25537 25539 25542 25544 25547 25549 25552 25555 25558 25561 25564 25567 25569 25572 25575 25578 25581 25583 25586 25589 25592 25595 25598 25601 25604 25607 25610 25613 25615 25618 25621 25624 25627 25630 25632 25635 25638 25641 25644 25647 25650 25653 25656 25659 25662 25665 25668 25671 25674 25677 25679 25682 25685 25688 25691 25694 25696 25699 25701 25704 25707 25710 25713 25716 25718 25721 25724 25727 25730 25733 25735 25738 25741 25744 25747 25750 25752 25755 25758 25761 25764 25767 25770 25773 25776 25779 25782 25784 25787 25789 25792 25794 25797 25800 25802 25805 25808 25811 25814 25817 25820 25823 25826 25828 25831 25833 25836 25839 25842 25845 25848 25851 25854 25857 25860 25863 25865 25868 25871 25874 25877 25880 25883 25886 25889 25892 25895 25897 25900 25903 25906 25908 25911 25913 25915 25918 25921 25924 25926 25929 25932 25935 25937 25939 25942 25945 25948 25951 25954 25957 25960 25963 25966 25969 25971 25973 25976 25979 25982 25985 25988 25990 25993 25996 25999 26002 26005 26008 26011 26014 26017 26020 26022 26025 26027 26029 26031 26034 26037 26040 26043 26046 26049 26052 26055 26057 26060 26063 26066 26069 26072 26075 26078 26081 26084 26087 26090 26093 26096 26099 26102 26105 26108 26111 26114 26117 26120 26123 26126 26129 26132 26135 26138 26141 26144 26146 26149 26152 26155 26158 26160 26163 26166 26169 26172 26175 26178 26181 26184 26186 26189 26192 26195 26198 26201 26204 26207 26210 26212 26215 26218 26221 26224 26227 26230 26233 26236 26239 26242 26245 26248 26251 26254 26257 26260 26263 26266 26269 26272 26275 26278 26281 26284 26287 26290 26292 26295 26298 26301 26304 26307 26310 26312 26315 26317 26320 26323 26325 26328 26331 26334 26336 26339 26341 26344 26347 26350 26352 26355 26358 26361 26363 26366 26369 26372 26375 26378 26381 26383 26386 26389 26392 26395 26398 26401 26404 26407 26410 26413 26416 26419 26422 26425 26428 26431 26434 26437 26440 26443 26446 26449 26452 26455 26458 26461 26464 26466 26469 26471 26474 26477 26480 26483 26485 26488 26491 26494 26497 26500 26503 26506 26509 26512 26515 26518 26521 26524 26526 26529 26532 26534 26537 26540 26542 26545 26548 26551 26554 26557 26559 26562 26565 26568 26571 26574 26577 26580 26583 26585 26588 26590 26593 26596 26599 26602 26605 26607 26609 26612 26615 26617 26620 26623 26626 26628 26631 26634 26637 26640 26643 26646 26649 26651 26654 26657 26660 26663 26666 26669 26672 26675 26678 26681 26684 26687 26690 26693 26696 26699 26701 26704 26707 26710 26713 26716 26718 26721 26723 26726 26729 26732 26735 26738 26741 26744 26747 26750 26753 26756 26759 26761 26764 26766 26769 26772 26775 26778 26781 26784 26786 26788 26791 26794 26797 26800 26803 26806 26809 26812 26815 26818 26821 26824 26827 26830 26833 26836 26839 26842 26845 26848 26851 26853 26856 26859 26861 26864 26867 26870 26873 26876 26878 26881 26884 26887 26890 26893 26896 26898 26901 26904 26907 26910 26913 26916 26919 26922 26925 26928 26931 26934 26937 26940 26943 26946 26948 26951 26954 26956 26959 26962 26965 26968 26970 26973 26976 26979 26982 26985 26988 26991 26994 26997 27000 27003 27005 27008 27011 27014 27017 27020 27023 27026 27029 27032 27035 27038 27041 27044 27047 27050 27053 27056 27059 27062 27064 27067 27070 27073 27076 27079 27082 27085 27088 27091 27094 27097 27100 27102 27105 27108 27111 27114 27117 27120 27123 27126 27129 27132 27135 27138 27141 27143 27145 27148 27151 27154 27157 27160 27163 27165 27168 27171 27174 27177 27180 27183 27186 27189 27192 27195 27198 27201 27204 27207 27210 27213 27216 27219 27222 27225 27228 27231 27234 27237 27240 27243 27246 27249 27252 27255 27258 27261 27264 27267 27270 27272 27275 27278 27281 27284 27287 27290 27293 27296 27298 27301 27304 27307 27310 27313 27316 27319 27322 27325 27328 27331 27334 27336 27339 27342 27345 27348 27350 27353 27355 27358 27361 27364 27367 27370 27373 27376 27379 27381 27384 27387 27390 27393 27396 27399 27402 27405 27408 27411 27413 27416 27419 27422 27424 27427 27430 27432 27435 27438 27441 27444 27446 27449 27452 27454 27457 27460 27463 27466 27469 27472 27475 27478 27480 27483 27486 27489 27491 27494 27497 27500 27503 27506 27509 27512 27514 27517 27519 27522 27524 27527 27529 27531 27534 27537 27540 27542 27544 27546 27549 27552 27554 27557 27560 27563 27565 27568 27571 27574 27577 27579 27582 27585 27588 27591 27594 27597 27600 27603 27606 27609 27612 27615 27618 27621 27624 27627 27630 27633 27636 27639 27642 27645 27648 27651 27654 27657 27660 27663 27666 27669 27672 27675 27678 27681 27684 27687 27690 27693 27695 27698 27701 27704 27707 27710 27713 27716 27719 27721 27724 27727 27730 27733 27735 27738 27741 27743 27746 27749 27751 27754 27757 27760 27763 27765 27768 27771 27774 27777 27780 27782 27785 27788 27791 27794 27797 27800 27803 27806 27809 27812 27815 27818 27821 27823 27825 27828 27831 27834 27836 27839 27842 27845 27848 27851 27854 27857 27860 27863 27866 27869 27872 27875 27878 27880 27883 27886 27889 27892 27895 27898 27900 27903 27906 27908 27911 27914 27917 27920 27923 27926 27929 27932 27935 27938 27940 27943 27946 27949 27952 27955 27957 27960 27963 27966 27969 27972 27975 27978 27981 27984 27987 27989 27992 27995 27998 28001 28004 28007 28010 28013 28016 28019 28022 28025 28028 28031 28034 28036 28039 28042 28045 28048 28051 28054 28057 28060 28063 28066 28069 28072 28075 28078 28081 28084 28087 28090 28093 28096 28099 28102 28105 28107 28110 28112 28115 28118 28121 28123 28126 28129 28132 28135 28138 28141 28144 28147 28150 28152 28155 28158 28161 28163 28166 28169 28172 28175 28178 28181 28184 28187 28190 28193 28196 28199 28202 28205 28208 28211 28213 28216 28219 28222 28225 28228 28230 28233 28236 28239 28241 28244 28246 28249 28252 28255 28258 28261 28264 28266 28269 28272 28275 28278 28281 28284 28287 28290 28293 28296 28299 28302 28305 28308 28311 28314 28317 28320 28323 28326 28329 28332 28335 28338 28341 28344 28347 28349 28352 28355 28357 28360 28363 28366 28369 28372 28375 28378 28380 28383 28386 28389 28392 28394 28397 28400 28402 28405 28408 28411 28414 28417 28420 28422 28425 28428 28431 28433 28436 28439 28442 28444 28447 28450 28453 28456 28459 28461 28464 28467 28470 28473 28476 28478 28481 28484 28487 28490 28493 28496 28499 28502 28504 28507 28510 28512 28515 28518 28521 28524 28526 28529 28532 28535 28538 28540 28543 28546 28549 28552 28554 28557 28560 28563 28565 28568 28570 28573 28576 28579 28582 28585 28588 28591 28594 28597 28600 28602 28605 28608 28611 28614 28617 28620 28623 28625 28627 28630 28633 28636 28639 28642 28644 28647 28650 28653 28656 28659 28661 28664 28667 28670 28672 28675 28678 28680 28683 28686 28688 28691 28694 28697 28699 28702 28705 28708 28711 28714 28717 28719 28722 28725 28728 28731 28734 28736 28739 28742 28745 28748 28751 28753 28756 28759 28762 28765 28768 28771 28773 28776 28779 28782 28785 28787 28790 28793 28796 28799 28802 28804 28807 28810 28813 28816 28819 28822 28825 28828 28831 28834 28836 28839 28842 28845 28848 28851 28854 28857 28859 28862 28865 28868 28871 28873 28875 28878 28881 28883 28886 28889 28892 28895 28898 28901 28904 28906 28909 28912 28915 28918 28921 28924 28927 28929 28932 28934 28937 28940 28942 28945 28948 28951 28954 28956 28959 28961 28964 28967 28970 28973 28976 28979 28982 28985 28988 28991 28993 28996 28999 29002 29005 29008 29010 29013 29016 29019 29021 29024 29027 29030 29033 29035 29038 29041 29043 29046 29049 29052 29055 29058 29060 29063 29065 29068 29070 29072 29075 29078 29081 29084 29086 29088 29091 29094 29097 29100 29103 29106 29109 29112 29115 29118 29121 29124 29127 29129 29132 29135 29138 29141 29144 29147 29149 29151 29154 29157 29160 29163 29166 29169 29172 29175 29178 29181 29184 29187 29190 29192 29195 29198 29201 29204 29207 29210 29213 29216 29219 29222 29225 29228 29231 29234 29237 29240 29243 29246 29249 29252 29255 29258 29261 29264 29267 29270 29273 29276 29279 29282 29285 29288 29291 29293 29296 29299 29301 29304 29307 29310 29313 29316 29319 29322 29324 29327 29330 29333 29335 29338 29341 29343 29346 29349 29352 29354 29356 29359 29362 29365 29368 29370 29372 29375 29378 29381 29384 29387 29390 29393 29396 29399 29402 29405 29408 29411 29414 29416 29419 29422 29424 29427 29430 29433 29435 29438 29441 29444 29447 29449 29452 29455 29457 29460 29463 29466 29469 29472 29475 29478 29481 29484 29487 29490 29492 29495 29498 29501 29504 29507 29510 29513 29515 29518 29521 29524 29527 29530 29533 29536 29539 29542 29545 29548 29551 29554 29557 29560 29563 29566 29569 29571 29574 29577 29580 29583 29586 29589 29591 29594 29596 29599 29602 29605 29608 29611 29613 29616 29619 29621 29624 29627 29630 29632 29635 29638 29641 29643 29646 29649 29652 29655 29658 29661 29664 29667 29670 29673 29676 29679 29682 29685 29687 29690 29693 29696 29699 29701 29703 29706 29709 29712 29715 29718 29721 29724 29727 29730 29733 29736 29739 29742 29745 29748 29751 29754 29757 29760 29762 29765 29768 29771 29774 29777 29780 29783 29786 29788 29791 29793 29796 29799 29802 29805 29808 29811 29814 29816 29819 29821 29824 29827 29830 29833 29836 29838 29841 29844 29847 29850 29853 29856 29858 29861 29864 29867 29870 29873 29875 29877 29880 29883 29886 29888 29890 29892 29895 29898 29901 29904 29907 29909 29912 29915 29918 29921 29924 29926 29929 29932 29935 29938 29940 29943 29945 29947 29950 29952 29954 29957 29960 29963 29965 29968 29971 29974 29976 29979 29982 29985 29987 29990 29993 29996 29998 30001 30004 30007 30010 30013 30016 30019 30022 30024 30027 30030 30033 30035 30038 30041 30044 30047 30050 30053 30055 30058 30061 30064 30067 30070 30073 30075 30078 30081 30084 30087 30090 30093 30096 30099 30102 30105 30108 30111 30114 30117 30119 30122 30124 30127 30130 30133 30135 30138 30141 30143 30146 30148 30151 30153 30156 30159 30161 30164 30167 30170 30173 30176 30179 30181 30184 30187 30190 30193 30195 30198 30201 30204 30207 30210 30213 30215 30218 30221 30224 30227 30230 30233 30236 30239 30242 30245 30247 30250 30253 30256 30259 30262 30265 30268 30271 30274 30277 30280 30283 30286 30289 30292 30295 30298 30301 30304 30306 30308 30311 30314 30317 30319 30322 30325 30327 30330 30333 30335 30338 30341 30343 30346 30349 30351 30353 30356 30359 30362 30365 30367 30370 30373 30376 30379 30382 30385 30388 30391 30394 30397 30400 30402 30404 30407 30410 30413 30415 30418 30420 30423 30425 30428 30431 30434 30437 30440 30442 30445 30448 30450 30453 30455 30458 30461 30463 30465 30467 30470 30473 30476 30479 30481 30484 30487 30489 30492 30494 30497 30500 30502 30505 30508 30511 30514 30517 30520 30523 30526 30528 30531 30533 30535 30538 30541 30544 30547 30550 30552 30554 30557 30560 30563 30565 30567 30570 30573 30576 30579 30582 30585 30588 30591 30593 30596 30598 30601 30604 30607 30610 30613 30616 30619 30622 30625 30628 30631 30634 30637 30640 30643 30646 30649 30652 30655 30658 30661 30664 30667 30670 30673 30676 30679 30682 30685 30687 30690 30693 30696 30699 30702 30705 30708 30711 30714 30717 30720 30723 30726 30729 30732 30734 30737 30740 30742 30745 30748 30751 30754 30757 30759 30762 30765 30768 30771 30774 30777 30780 30783 30786 30789 30792 30795 30798 30800 30803 30806 30809 30812 30815 30818 30821 30824 30827 30829 30832 30835 30837 30840 30843 30846 30849 30851 30853 30855 30858 30861 30864 30867 30870 30872 30875 30878 30881 
</DataArray>
<DataArray type="UInt32" Name="types" format="ascii">
5 5 3 5 5 5 5 3 5 5 5 5 5 5 5 5 5 5 5 5 3 5 5 5 5 3 5 5 5 5 5 5 5 3 5 5 5 5 5 5 5 5 3 5 5 5 5 5 5 5 5 5 5 5 3 3 5 5 5 5 5 5 5 5 3 5 5 5 5 5 5 5 5 5 5 5 5 5 5 5 5 5 5 5 5 5 5 3 5 5 5 5 5 5 5 5 5 5 5 3 5 5 5 3 5 5 5 5 5 5 5 5 5 5 5 5 5 5 5 5 5 5 5 5 5 5 5 5 5 5 5 5 5 5 5 5 5 5 5 5 5 5 5 5 5 5 5 5 5 3 5 3 5 5 5 5 5 5 5 5 5 5 5 5 5 5 5 5 5 5 5 5 5 5 5 5 5 5 3 5 5 3 5 3 5 5 5 5 5 5 5 5 5 5 5 5 5 5 3 5 3 5 5 5 5 5 5 5 3 5 3 5 5 5 5 5 5 3 5 5 3 5 5 5 5 5 5 3 3 5 5 3 5 3 5 3 3 5 5 5 3 5 5 5 5 5 5 5 5 5 5 5 5 5 3 5 5 5 5 5 5 5 3 5 5 5 5 5 5 5 3 5 5 5 5 3 5 5 5 5 5 5 3 5 5 5 3 5 5 5 5 5 5 5 3 5 5 5 5 5 5 3 5 5 5 5 5 5 3 5 5 5 5 5 5 5 3 5 5 5 5 5 5 5 5 5 5 5 5 5 5 5 5 5 5 5 5 5 3 3 5 5 5 5 5 3 5 5 5 5 5 5 5 3 5 3 5 5 5 3 5 5 5 3 5 3 5 5 5 5 5 5 5 3 5 5 5 5 5 5 5 3 5 5 5 3 5 5 5 5 5 5 5 5 5 5 5 5 5 5 5 5 5 5 5 5 5 5 5 5 5 5 5 5 5 5 5 5 3 5 5 5 5 5 5 5 5 5 5 5 5 5 5 5 5 5 5 5 5 5 5 5 5 5 5 5 5 5 5 5 5 3 5 5 5 5 5 5 5 5 5 5 5 5 5 5 5 5 5 5 5 5 3 5 5 5 5 5 5 5 3 5 5 5 5 5 3 5 5 3 5 3 5 5 5 5 3 5 5 3 5 5 5 5 5 5 3 5 5 5 5 5 5 5 5 5 5 5 5 5 5 5 5 5 5 5 3 5 5 5 5 5 5 5 5 5 5 5 3 3 5 5 5 5 5 5 5 5 5 5 5 5 5 5 5 5 5 5 5 5 5 3 5 3 3 5 5 3 5 5 5 5 5 5 5 5 5 5 5 5 5 3 5 5 5 5 5 5 5 3 3 5 5 5 5 5 5 5 5 3 3 5 5 5 3 5 5 5 5 5 5 5 5 5 5 5 5 5 5 5 5 5 5 5 5 5 5 5 5 5 5 5 5 5 5 5 5 5 5 5 3 5 5 3 5 5 5 5 3 5 5 5 3 5 5 5 3 5 5 3 5 5 5 5 5 5 5 5 5 5 5 5 5 5 5 5 5 5 5 5 5 3 5 5 5 3 5 5 5 5 5 3 5 5 5 5 5 5 3 5 5 5 5 5 5 5 5 5 5 5 5 5 5 5 5 5 5 3 5 5 5 5 5 5 5 5 5 5 5 5 5 5 5 5 5 5 5 5 5 3 5 5 5 5 5 5 5 5 5 5 5 5 5 5 5 3 5 5 5 5 5 5 5 5 5 5 5 5 5 5 5 5 5 5 3 5 5 5 5 5 5 5 3 5 5 5 5 5 5 5 5 5 5 5 5 5 5 5 5 5 5 5 5 5 3 5 5 5 5 5 5 5 5 5 3 5 5 5 5 5 5 5 5 3 5 5 5 5 5 5 5 5 5 5 5 5 5 5 5 5 5 5 5 3 5 5 5 5 5 3 5 5 5 3 5 5 5 5 5 5 3 5 5 5 5 5 5 5 5 5 5 3 5 5 5 5 5 5 5 5 5 5 5 5 3 5 3 5 5 5 5 5 5 5 3 5 3 5 5 5 5 5 5 5 5 5 5 5 5 5 5 5 5 5 5 5 5 5 5 5 5 5 5 5 5 5 5 5 5 5 5 5 5 5 5 5 5 5 5 5 5 5 3 3 5 5 3 5 5 5 5 5 5 5 5 5 5 5 5 5 5 5 5 3 5 5 5 5 3 5 5 3 5 5 5 5 5 5 3 5 3 5 5 3 5 5 5 5 5 5 5 5 5 5 3 5 5 5 5 5 3 3 5 5 5 5 3 5 5 3 5 3 5 5 5 5 5 3 5 5 3 5 5 5 5 5 5 5 5 5 5 5 5 3 5 5 5 5 5 5 5 5 5 5 5 5 5 5 5 3 5 3 5 3 3 5 3 5 5 3 5 5 5 5 5 5 3 5 3 5 5 3 5 5 5 3 5 5 3 5 5 5 5 5 3 5 5 3 5 5 5 5 5 3 5 3 5 5 3 5 5 3 5 5 5 5 5 5 5 5 3 5 5 5 5 5 5 5 5 5 5 3 5 5 5 5 3 5 5 3 5 5 5 5 5 3 5 5 5 5 5 3 5 3 5 5 5 5 5 5 3 5 5 5 5 5 5 5 5 3 3 3 5 5 5 5 3 5 3 5 5 5 3 3 5 5 5 3 5 5 5 3 5 3 5 3 3 5 3 5 5 5 5 3 5 5 5 3 5 3 5 3 5 5 5 5 5 5 5 3 5 5 5 5 3 5 5 5 5 5 5 5 5 3 5 3 3 5 5 5 3 5 5 5 5 3 3 5 5 3 3 5 5 5 5 5 3 5 5 5 5 5 5 5 5 3 5 3 5 5 5 5 5 5 5 5 5 5 5 5 5 5 5 5 5 3 5 5 5 5 5 5 5 5 5 5 5 5 5 5 5 5 5 5 5 5 5 5 5 5 5 3 5 3 5 5 5 5 5 3 3 5 5 5 5 3 3 5 3 5 5 3 5 5 3 5 5 5 5 3 3 5 5 5 5 5 5 5 5 3 5 5 3 5 5 5 3 5 5 3 5 5 5 5 5 5 3 5 5 5 5 5 5 3 5 5 5 5 5 3 5 5 3 3 5 5 3 5 5 3 5 5 5 5 5 5 5 5 5 5 5 5 3 5 3 5 5 3 5 5 5 5 5 5 3 5 5 5 3 3 3 5 5 5 3 3 5 3 3 5 5 3 5 5 3 5 3 5 3 5 5 5 3 3 5 5 3 3 3 3 5 5 5 3 3 5 5 3 3 3 5 3 3 5 5 3 5 3 3 5 3 5 5 3 5 3 3 5 5 5 5 3 3 5 5 3 5 5 5 3 5 5 5 5 5 5 5 5 5 5 5 5 5 5 5 5 5 5 5 5 5 5 5 5 5 5 5 5 5 5 5 5 5 5 5 5 5 5 5 5 5 5 5 5 5 5 5 5 5 5 5 5 5 5 5 5 5 5 3 5 3 5 5 5 5 5 5 5 5 5 5 5 5 5 5 3 5 5 5 5 5 5 5 5 5 5 3 5 5 5 5 5 5 5 5 5 5 5 5 5 5 5 5 5 5 5 5 5 5 5 5 5 5 5 5 5 5 5 5 5 5 5 5 5 5 5 5 5 5 5 5 5 5 3 5 5 5 3 5 3 5 5 5 5 5 3 5 3 5 5 5 5 5 5 5 5 5 5 5 5 5 5 5 5 5 5 5 5 5 5 5 5 5 3 5 5 5 5 5 5 3 5 3 5 5 5 3 5 5 3 5 5 5 5 5 5 5 5 5 5 5 5 5 5 5 5 5 5 5 5 5 5 5 5 5 5 5 5 5 5 5 5 5 5 5 5 5 3 5 3 5 5 5 5 5 5 5 5 5 5 3 5 5 5 5 5 5 5 5 5 5 5 5 5 5 5 5 5 3 5 5 5 3 3 5 3 5 5 5 5 5 5 5 5 3 5 5 5 5 3 5 5 5 5 5 5 5 3 5 5 3 5 3 5 5 3 5 5 3 3 5 5 5 5 5 5 5 5 5 5 5 5 5 5 5 3 5 3 5 5 5 3 5 3 5 5 5 5 5 5 5 5 5 5 5 5 3 5 3 5 5 5 5 5 5 5 5 3 5 5 3 5 5 5 3 3 5 5 5 5 5 5 5 5 5 5 5 5 5 5 5 5 5 5 5 5 5 3 5 5 5 5 5 3 5 3 5 5 5 5 3 5 5 3 5 5 5 5 5 3 5 5 5 5 3 5 5 5 5 5 5 5 3 5 5 5 3 5 5 5 5 5 5 5 5 5 5 5 3 5 5 5 5 5 5 5 5 3 5 5 5 5 5 5 3 5 5 5 5 5 5 3 5 5 5 5 5 5 5 5 5 5 5 3 5 5 5 3 5 5 5 3 5 3 5 5 5 5 5 5 3 5 5 5 5 5 5 5 5 5 5 5 5 5 5 5 3 5 5 5 5 5 3 5 5 5 5 5 5 5 5 3 5 5 5 5 5 5 5 5 5 5 5 5 5 5 5 5 3 5 5 5 5 3 5 5 5 5 5 5 5 5 5 5 5 5 5 5 5 5 5 5 5 5 5 5 5 5 5 5 3 5 5 5 3 5 3 5 5 5 5 3 5 3 5 5 5 5 5 3 5 5 5 5 5 5 5 5 5 3 5 5 5 5 5 5 5 5 5 5 5 5 5 5 5 5 5 5 5 5 5 5 5 5 3 3 5 5 5 5 5 3 5 5 5 3 5 5 5 3 5 5 3 5 3 5 5 5 5 3 5 5 5 5 3 3 5 5 5 5 5 5 5 5 5 5 5 5 3 5 5 5 5 3 5 5 5 5 5 3 5 5 3 5 5 5 5 5 5 5 5 5 5 5 5 5 5 5 5 3 5 5 3 5 5 5 3 5 5 5 5 5 5 5 5 5 5 5 3 5 5 5 5 5 5 5 5 5 5 5 5 5 5 5 5 3 5 5 3 5 3 5 5 3 5 3 5 3 5 5 5 5 5 5 5 5 5 5 5 5 5 3 5 3 3 5 5 3 3 5 5 3 3 5 5 5 3 5 3 5 5 3 5 5 5 5 3 3 5 3 5 5 3 3 5 5 3 5 5 5 3 5 5 5 3 3 3 5 5 3 5 3 3 5 5 5 5 5 5 5 5 5 5 5 3 3 5 3 5 3 5 3 5 5 5 3 5 5 5 5 5 3 5 5 5 5 5 5 5 5 5 5 5 5 5 5 5 5 5 5 5 5 5 5 5 5 3 5 5 5 5 5 5 5 5 5 5 5 5 5 5 5 5 5 5 3 5 5 5 5 5 5 5 5 5 5 5 3 5 5 5 5 5 3 5 5 5 5 5 5 5 5 5 5 5 5 5 5 3 5 5 5 5 5 5 5 5 5 5 5 5 5 5 3 5 3 5 5 5 5 3 5 5 5 5 5 5 5 5 5 5 5 5 3 5 3 5 5 5 5 3 5 5 5 5 5 5 5 3 5 5 5 5 5 5 5 3 5 5 5 3 5 3 5 5 5 5 5 5 5 5 5 3 5 5 5 5 5 5 5 5 5 5 5 5 5 5 5 5 5 5 5 5 5 5 5 5 5 5 5 5 5 5 5 5 5 5 5 5 5 5 5 5 5 5 5 3 5 5 3 5 5 5 5 5 5 5 5 5 5 3 5 5 5 5 5 3 5 5 3 5 5 5 5 5 5 3 5 5 5 5 3 5 5 3 5 3 5 5 5 5 5 5 5 5 5 5 5 3 5 3 5 5 5 5 3 5 5 5 5 5 5 5 5 5 5 5 5 5 5 5 5 5 5 5 5 5 3 5 5 5 5 3 5 5 5 5 5 5 5 3 5 5 5 5 5 3 5 5 5 3 5 5 5 3 5 5 3 5 5 5 3 5 5 3 5 5 5 5 5 5 5 5 5 5 5 5 5 5 5 5 5 5 5 5 5 5 5 5 5 5 5 5 5 5 5 3 5 5 5 5 5 5 5 5 5 5 5 3 5 5 5 5 5 5 5 5 5 5 5 5 5 5 5 3 3 5 5 5 3 5 5 5 5 3 5 5 3 5 5 5 5 5 5 5 5 5 5 5 5 5 3 3 5 5 5 5 5 5 5 5 5 5 5 3 5 5 3 5 5 5 5 5 5 5 5 5 5 5 5 5 5 5 5 5 5 5 3 5 5 5 3 5 5 5 5 5 3 5 5 5 5 5 5 5 5 5 5 5 5 5 5 5 5 5 5 5 5 3 5 5 3 5 5 5 5 5 5 5 5 5 5 5 5 5 5 5 5 5 5 5 3 5 5 5 5 5 5 5 5 5 5 5 5 5 5 5 5 5 5 5 5 5 5 5 5 5 5 5 5 5 5 5 5 3 5 5 5 5 5 5 3 5 5 5 5 5 3 5 5 5 5 3 5 5 5 5 5 5 5 5 5 5 5 5 5 5 5 5 5 5 5 5 5 5 3 5 5 5 5 5 5 5 3 5 5 3 5 5 3 5 5 5 5 5 5 3 5 5 5 5 5 5 5 5 5 5 3 5 3 5 5 5 5 5 5 5 5 3 5 5 3 5 5 5 3 5 5 5 3 5 5 5 3 3 5 5 3 5 5 3 5 5 3 5 5 5 5 5 5 5 5 5 3 5 5 5 3 5 5 5 3 5 5 5 3 5 3 5 5 3 5 5 5 5 5 5 5 5 3 5 5 3 5 5 5 5 5 5 5 5 5 5 5 5 5 3 5 3 5 5 5 3 3 5 3 5 5 5 5 3 5 3 5 5 5 5 5 5 5 5 5 3 5 5 5 5 5 5 5 5 5 5 5 5 5 5 5 5 5 5 5 5 5 5 5 5 5 5 5 5 3 5 5 5 5 5 5 3 5 5 5 5 5 5 3 5 5 5 5 5 5 3 5 5 5 3 5 5 5 3 5 5 3 5 5 5 5 5 5 3 5 5 5 3 3 5 5 5 5 5 5 5 5 5 5 5 5 5 5 5 5 5 3 5 5 5 5 5 5 5 3 5 5 5 5 5 3 5 5 5 5 5 3 5 5 3 5 5 5 5 3 5 5 5 5 5 5 3 5 3 5 3 3 5 3 5 5 5 3 5 5 5 5 5 3 5 5 5 3 5 5 5 5 3 3 3 5 5 5 5 3 3 5 3 5 5 5 5 5 5 3 5 3 5 5 3 5 5 5 3 5 5 3 5 5 5 5 5 5 5 5 5 5 5 5 3 5 5 5 5 3 5 5 5 5 3 5 5 5 5 5 5 5 5 5 3 3 3 5 5 5 3 3 5 5 3 5 3 5 5 5 5 5 5 5 3 5 5 5 5 5 5 5 5 5 5 5 5 5 5 5 5 3 5 5 5 5 5 5 5 5 5 3 5 5 3 5 3 5 3 5 5 3 5 5 5 3 3 5 5 3 5 5 5 3 5 5 5 5 3 5 5 5 5 5 5 5 5 5 5 5 3 3 5 5 5 5 5 5 5 5 5 5 5 5 5 5 5 5 5 5 5 5 5 5 5 5 5 5 5 5 5 5 5 5 3 5 5 5 5 5 5 5 5 5 5 5 5 5 5 5 5 5 5 5 3 5 5 5 5 5 5 3 3 5 5 3 3 5 5 5 3 5 5 5 5 5 5 5 5 5 5 5 5 5 5 5 5 5 5 5 5 5 5 5 3 5 3 5 3 5 5 5 5 5 5 3 5 3 3 5 5 3 5 5 5 5 5 5 3 3 5 5 3 3 5 5 3 3 5 5 5 5 5 5 5 5 3 5 5 5 5 5 3 5 5 3 5 5 5 3 5 5 5 5 5 5 5 5 5 5 5 5 5 5 5 5 5 5 5 5 5 5 5 5 5 5 5 5 5 5 5 5 5 5 3 5 5 3 5 3 3 5 5 5 5 5 5 5 5 5 3 5 5 5 5 5 3 5 5 5 5 5 5 5 3 5 5 5 5 5 5 5 5 3 5 5 5 5 5 3 5 5 5 5 5 5 5 5 5 5 5 5 5 5 5 5 5 5 5 5 5 5 5 5 5 5 5 5 5 5 3 3 5 5 5 5 5 5 5 3 5 5 5 3 5 3 5 5 5 5 5 5 5 5 5 5 5 5 5 5 5 5 5 5 5 5 5 3 5 5 5 5 5 5 3 5 5 5 5 5 5 5 3 5 5 3 5 5 5 5 5 5 3 5 5 5 3 5 5 3 3 5 5 5 5 5 5 5 5 5 5 5 5 5 5 5 5 5 5 5 5 5 5 5 5 5 5 5 5 3 5 5 5 5 5 5 5 5 5 5 5 5 5 5 5 5 5 5 5 3 5 5 5 3 3 5 5 5 5 5 3 5 5 5 3 5 5 5 5 5 3 5 5 5 5 5 5 5 5 5 5 5 5 5 5 5 5 5 5 5 5 5 3 5 5 5 5 5 5 3 5 5 5 5 5 5 5 5 5 5 5 5 3 5 5 5 5 3 5 3 5 5 5 5 5 5 5 5 5 5 5 5 5 3 5 5 5 5 5 3 5 5 5 5 5 5 3 5 5 5 5 5 5 5 5 5 5 5 5 3 5 5 3 5 5 3 5 5 3 5 5 5 5 5 5 5 5 5 5 3 5 5 5 5 5 5 5 5 3 5 5 5 3 5 5 5 3 5 5 3 5 5 5 3 5 5 5 5 5 3 5 3 5 5 5 5 3 3 5 5 5 3 5 5 5 5 3 5 5 5 5 5 5 5 5 5 5 5 5 5 5 5 3 5 5 3 3 5 5 5 5 3 5 5 5 5 5 5 3 5 5 5 5 5 5 3 5 5 5 5 5 5 5 5 3 5 5 5 5 5 5 5 5 5 5 3 5 5 3 5 5 3 5 5 5 5 5 3 3 5 5 3 3 5 3 5 3 5 3 3 5 5 3 5 3 5 3 5 3 5 3 5 5 3 5 3 5 3 5 5 5 5 5 5 3 5 5 5 3 5 5 5 5 5 5 5 5 5 3 5 5 3 5 3 5 3 5 5 5 3 3 5 5 5 5 5 5 5 5 5 5 5 3 5 5 5 5 5 3 5 5 5 5 5 5 5 5 5 5 5 5 5 5 5 5 5 3 5 5 5 5 5 5 3 5 5 5 3 5 5 3 5 5 5 3 5 3 3 5 5 5 5 5 5 5 5 5 3 5 5 5 5 5 5 5 3 5 3 5 3 5 5 5 5 5 5 5 5 5 5 5 5 5 5 5 5 5 5 5 5 5 5 5 5 5 5 5 5 5 5 5 5 5 5 5 5 5 3 5 5 3 3 5 5 5 5 3 5 5 5 5 5 3 5 5 3 3 5 5 5 5 5 5 3 5 3 5 5 3 3 5 3 5 5 5 3 5 5 5 5 3 5 5 5 3 5 5 3 3 5 5 5 3 5 5 5 5 3 5 5 3 5 5 5 3 5 5 3 5 5 5 3 5 3 5 5 3 5 5 3 3 5 5 3 5 3 3 5 5 5 5 3 5 5 5 5 3 5 5 5 5 5 5 5 5 5 5 5 5 3 5 5 5 5 3 5 3 5 5 5 5 5 3 3 3 5 5 5 5 5 5 5 5 3 5 5 5 5 5 5 3 5 5 5 5 3 5 5 5 5 5 5 5 5 5 5 5 5 5 5 5 5 5 5 3 5 3 5 5 3 3 5 3 5 5 3 5 3 5 3 5 3 5 5 5 5 3 5 5 5 3 5 5 5 5 5 5 5 5 5 5 5 5 5 5 5 5 5 5 5 5 5 5 5 5 5 3 5 5 5 5 5 3 5 5 5 5 5 5 5 5 5 5 5 3 5 5 5 5 5 3 5 5 3 3 5 5 5 3 5 5 3 3 5 3 5 5 5 5 5 5 5 5 5 5 5 5 5 5 5 5 3 5 5 5 5 3 5 5 5 5 5 5 5 5 3 3 5 5 3 5 5 5 5 5 5 5 5 5 3 3 5 5 3 5 5 5 3 5 5 5 5 5 5 5 5 5 5 5 5 5 5 5 5 5 5 5 5 5 5 5 5 5 5 3 5 5 5 5 5 5 5 5 5 5 5 5 5 5 5 5 5 5 5 5 3 5 5 5 3 3 5 5 5 3 5 5 3 5 5 5 5 5 3 5 3 5 5 5 5 5 5 5 5 3 5 5 5 3 5 5 3 5 3 5 5 5 3 5 5 5 3 5 5 5 5 5 5 5 5 5 5 5 5 5 5 5 5 5 3 5 5 5 5 5 5 5 5 5 3 5 5 5 5 5 5 5 5 3 5 5 5 5 5 5 5 5 5 5 5 5 5 3 5 5 5 3 5 5 5 5 5 5 5 5 5 5 5 5 5 5 5 5 5 5 5 3 5 5 5 3 5 3 5 5 5 3 5 5 5 3 3 5 5 5 5 5 5 5 5 5 5 5 5 5 5 5 5 5 5 5 5 5 5 3 5 5 5 5 3 5 5 5 5 3 5 5 5 5 5 5 5 3 5 5 5 5 3 5 5 5 5 5 5 3 5 5 5 5 5 5 3 5 5 5 3 5 5 5 5 5 5 5 5 5 3 5 5 5 5 5 5 3 5 5 5 5 5 5 5 5 5 5 5 3 5 5 3 5 5 5 5 5 3 5 5 3 5 5 5 5 5 5 5 3 3 5 5 5 5 3 5 5 5 5 5 5 3 5 5 5 5 5 5 5 5 5 5 3 5 5 5 5 5 5 5 5 5 5 5 5 3 5 3 5 5 5 3 5 5 3 5 5 5 5 3 5 5 5 5 5 3 5 5 5 5 5 5 5 5 3 5 5 5 5 3 5 5 5 5 5 5 5 3 5 5 5 5 5 5 5 5 5 5 3 5 5 5 3 5 3 5 5 5 5 5 5 3 5 3 5 3 5 5 5 5 3 5 5 5 5 5 5 5 5 5 5 5 5 5 5 3 5 3 5 5 5 5 5 5 5 3 5 5 5 5 5 5 5 5 5 5 5 5 5 3 5 5 5 5 3 5 5 5 5 5 5 5 5 5 5 5 5 5 5 5 5 5 5 5 5 5 5 5 5 3 5 5 5 5 3 5 5 5 3 5 5 3 5 5 3 5 5 5 5 5 5 5 5 5 5 5 5 5 5 5 3 5 5 3 5 5 5 5 5 5 5 3 5 5 5 5 5 3 5 5 5 3 5 5 5 3 5 5 5 5 5 5 5 3 5 5 5 3 5 3 3 5 5 5 5 5 3 5 5 5 5 5 5 5 5 5 5 3 5 5 5 5 5 5 5 5 5 5 5 5 5 5 5 5 5 5 5 5 5 5 5 5 5 5 5 5 5 5 5 5 5 5 5 5 5 3 5 5 5 5 5 5 5 5 5 5 5 5 5 5 5 5 3 5 5 5 5 5 5 5 5 5 3 5 5 5 5 5 5 5 3 5 5 5 5 5 5 5 5 5 5 5 5 5 5 5 5 5 5 5 5 5 3 5 5 5 5 5 5 5 5 5 5 5 5 5 5 5 5 5 3 5 5 5 5 5 5 5 5 5 5 5 5 5 5 5 5 5 5 5 5 5 5 5 5 5 5 5 5 5 5 5 5 5 5 5 5 5 5 5 5 5 5 5 5 5 5 3 5 5 5 5 5 5 5 5 5 5 5 5 5 3 5 3 5 5 5 5 5 3 5 5 5 5 5 3 3 5 5 5 5 5 5 5 5 5 5 5 5 5 5 5 5 5 3 3 5 5 5 5 5 5 3 5 3 5 5 5 5 5 5 5 5 5 3 5 5 5 5 5 5 5 5 5 5 5 5 5 5 5 5 5 5 5 3 5 5 5 5 5 3 5 3 5 5 5 5 5 5 5 3 5 5 5 3 5 5 5 3 5 5 3 5 5 5 3 5 5 3 5 3 5 3 5 5 3 5 5 5 5 5 5 5 5 5 5 5 5 5 5 5 5 5 5 5 5 5 3 5 3 5 5 5 5 5 5 5 3 5 5 5 5 5 5 5 5 5 5 5 5 5 5 5 5 5 5 5 3 5 5 5 3 5 5 5 5 5 5 5 5 5 5 3 5 5 5 5 3 5 5 3 5 5 5 5 5 3 5 5 5 5 3 5 3 5 5 3 5 5 5 5 5 5 5 3 5 5 3 5 3 5 5 5 5 5 5 5 5 5 5 5 5 5 5 5 5 5 5 3 5 5 5 5 5 5 5 3 5 5 5 5 3 5 5 5 5 5 5 5 5 5 3 5 5 5 5 3 5 5 5 5 5 5 5 5 5 5 5 5 3 5 5 5 5 5 5 5 5 5 3 5 5 5 5 5 5 5 5 5 5 5 5 3 5 5 3 5 5 5 5 5 5 5 5 5 3 3 3 5 5 5 3 5 5 5 5 5 5 3 5 5 5 3 3 5 5 5 5 5 5 5 5 5 5 5 5 3 5 5 5 3 3 5 5 5 5 5 3 5 5 5 5 3 5 5 5 5 3 5 5 5 5 5 3 3 3 5 5 5 3 3 5 5 5 5 5 5 5 5 5 3 3 5 5 5 3 3 5 5 5 5 5 5 5 5 5 5 5 5 5 5 5 5 5 3 5 3 5 5 5 5 3 5 5 5 5 5 5 5 3 5 5 5 5 5 5 5 3 5 5 3 5 3 3 5 5 5 3 3 5 5 5 3 3 5 5 5 5 5 5 5 5 5 5 3 5 5 5 5 5 5 5 3 5 5 5 5 3 5 5 5 5 5 5 3 5 5 5 5 3 5 3 5 5 5 5 5 5 5 5 5 5 5 5 5 5 3 5 5 5 5 5 5 5 3 5 5 5 5 3 5 5 5 3 5 5 5 5 5 5 5 5 5 5 5 5 5 5 5 5 5 5 5 5 5 5 3 5 3 5 5 3 5 5 5 3 5 5 3 5 5 5 5 5 5 5 5 5 5 5 5 5 5 5 5 5 5 5 5 3 3 3 5 5 5 5 5 5 5 5 5 5 5 5 5 3 5 5 5 3 5 5 3 5 5 5 5 3 5 5 3 3 5 5 5 5 3 5 5 3 5 3 5 5 5 5 5 5 5 5 5 5 5 5 3 5 5 5 5 5 5 5 3 5 3 5 5 5 5 3 5 5 5 5 5 5 5 5 5 5 5 5 5 5 5 5 5 5 5 5 5 5 5 3 5 5 5 3 5 3 5 5 5 3 5 5 5 5 5 3 5 5 3 5 5 5 5 5 5 5 5 3 5 5 5 5 5 3 5 5 5 5 5 5 5 5 5 5 5 5 5 5 3 5 5 5 5 3 5 5 5 5 5 5 5 5 5 5 5 5 3 5 5 5 5 3 5 5 5 5 5 5 5 5 5 5 5 5 5 3 5 5 3 5 5 5 3 5 5 5 5 5 5 5 5 5 5 5 5 5 3 3 5 3 3 5 5 5 3 3 5 3 5 3 5 3 5 5 5 3 5 3 5 5 5 5 3 5 5 5 5 5 5 3 5 5 5 5 5 3 5 5 3 5 5 3 5 5 3 5 5 5 5 5 3 5 3 5 5 5 5 5 5 5 5 5 5 5 5 5 3 5 5 3 5 5 5 5 5 5 5 5 5 3 5 5 5 5 5 5 5 5 5 3 5 5 3 5 3 5 5 5 5 5 5 5 3 5 5 5 5 5 5 5 3 5 3 5 5 3 5 5 5 3 5 5 5 5 3 5 5 5 5 5 3 5 5 5 5 5 5 5 5 5 5 5 5 5 5 5 5 5 5 5 5 5 3 5 5 3 5 5 5 3 5 5 5 5 3 5 5 5 5 5 5 5 5 5 5 5 5 5 5 5 5 5 5 5 5 5 5 5 3 5 5 5 5 5 5 3 5 5 5 5 5 5 5 5 5 5 5 5 5 3 5 3 5 5 3 5 5 5 5 3 3 5 3 5 3 5 5 5 5 5 3 5 5 3 3 5 5 5 5 5 3 5 5 3 5 5 5 5 5 5 5 5 3 3 5 5 5 3 5 3 5 5 5 5 5 3 5 3 5 5 5 5 5 3 3 5 5 5 5 3 5 5 5 5 3 5 5 5 5 5 5 5 5 5 5 5 5 5 5 5 5 5 3 5 5 3 5 5 5 3 5 5 5 5 5 5 5 5 5 5 5 5 5 5 5 5 5 5 5 3 5 5 5 5 5 5 5 5 5 5 5 5 5 5 3 3 5 5 5 3 5 5 5 5 5 3 5 5 5 5 5 5 5 5 5 5 5 3 5 5 3 5 5 5 5 5 5 5 5 5 5 3 5 5 5 3 5 3 5 3 5 5 5 3 3 5 3 5 5 3 5 5 3 3 5 5 5 3 5 5 3 5 3 5 5 5 3 5 5 3 3 5 3 5 5 3 5 3 5 5 5 5 5 5 5 5 5 3 5 5 5 5 5 3 5 5 5 5 5 5 5 5 5 5 3 5 5 5 5 3 3 5 5 3 5 3 5 5 5 5 5 3 5 5 3 5 3 5 5 5 5 5 5 5 3 5 5 5 5 5 5 5 5 5 3 5 3 5 3 5 3 5 5 5 5 3 5 5 5 5 5 3 3 5 5 5 5 5 5 3 5 5 5 5 5 3 5 5 5 5 3 5 5 3 5 3 5 5 5 3 5 3 5 5 3 3 3 5 5 5 5 5 5 3 3 3 5 5 5 5 3 5 3 5 3 5 5 5 5 5 5 3 5 5 5 5 5 5 5 5 5 5 5 5 5 5 5 5 5 5 5 5 5 5 5 5 5 5 5 5 5 5 5 5 5 5 5 5 5 5 5 5 5 5 5 5 5 5 5 5 5 3 5 5 5 3 3 5 5 5 5 5 5 5 5 5 5 5 5 5 5 5 5 5 5 5 3 5 5 5 5 5 5 5 3 5 5 3 5 5 3 5 5 3 5 3 5 5 3 5 5 5 3 5 3 5 3 3 5 5 5 3 3 5 5 3 5 5 3 5 5 5 5 5 5 5 5 5 5 5 5 3 5 5 5 5 3 5 5 5 5 3 5 5 5 5 5 5 5 5 5 3 5 3 5 5 5 5 3 5 5 5 3 5 5 5 5 5 5 3 5 5 3 5 5 5 3 5 5 5 5 5 5 5 3 5 5 5 5 5 3 5 5 5 5 5 5 5 5 5 5 5 5 5 5 5 3 5 5 5 5 5 3 5 5 3 5 3 5 5 5 5 3 3 5 5 3 5 5 5 5 5 5 5 5 5 5 5 3 5 3 5 5 5 5 5 3 5 5 5 3 5 5 5 3 5 5 5 5 5 5 5 5 5 5 5 5 5 3 5 5 5 5 5 5 5 3 5 3 5 5 5 5 5 5 5 3 3 5 5 5 5 5 5 5 5 5 3 5 5 5 5 5 5 3 3 3 5 3 5 5 5 5 5 5 3 5 3 5 3 5 3 5 5 5 5 5 5 3 5 5 3 5 5 5 5 3 5 5 5 5 5 5 5 5 5 5 5 5 5 5 5 5 5 5 5 5 5 3 5 3 5 5 5 5 5 5 5 5 5 5 5 5 5 5 5 5 5 5 5 5 5 5 5 5 5 5 5 5 5 5 5 5 5 5 5 5 5 5 5 5 5 5 5 5 5 5 5 5 5 5 5 5 5 5 5 5 5 5 3 5 5 5 5 5 5 5 5 5 5 5 5 5 5 5 5 5 5 5 5 5 5 5 3 5 5 5 3 5 3 5 5 5 5 5 5 5 5 5 5 5 5 5 5 5 5 5 5 5 5 5 5 5 5 5 5 5 5 5 5 5 5 5 5 5 5 5 5 5 3 5 3 5 5 5 5 5 5 5 5 5 5 5 5 5 5 5 5 5 5 5 5 5 5 5 5 5 3 5 5 5 5 5 5 5 5 5 5 5 5 5 5 5 5 5 5 5 5 5 5 5 5 5 5 5 5 5 5 5 5 5 5 5 5 5 5 5 5 5 5 5 5 5 5 5 5 5 5 5 5 5 5 5 5 5 5 5 5 5 5 5 5 5 5 5 5 5 3 5 5 5 5 5 5 5 3 5 5 3 5 5 5 5 5 5 5 5 5 5 5 5 5 5 5 5 5 5 5 5 3 5 5 5 5 5 5 5 5 5 5 5 5 5 5 5 5 5 5 5 5 5 5 5 5 5 5 5 5 5 5 5 5 3 5 5 5 5 3 5 3 5 5 5 5 5 5 3 5 5 3 5 5 3 3 5 3 5 5 5 3 5 5 5 5 5 5 5 5 5 5 5 5 5 5 5 3 5 5 5 5 5 5 5 5 3 5 5 5 5 5 5 5 5 5 5 5 5 5 5 5 5 5 5 5 5 5 5 5 5 5 5 5 5 5 5 5 5 5 5 5 5 3 5 5 5 5 5 5 5 3 5 5 3 5 3 5 5 5 5 5 5 5 5 5 5 5 3 3 5 5 3 5 5 3 3 5 5 5 5 3 5 3 5 5 3 5 3 3 5 3 5 3 5 5 5 5 5 5 5 3 5 3 5 5 5 5 5 3 5 5 5 3 5 5 3 5 3 5 3 3 5 5 3 5 5 5 5 5 5 3 5 5 5 5 5 5 5 5 3 3 5 5 5 3 5 5 5 5 3 3 5 3 5 5 5 3 5 5 5 5 5 5 5 5 5 5 5 5 5 5 5 5 3 5 5 5 5 5 5 3 5 3 5 5 5 3 3 5 5 3 5 3 5 5 5 5 5 5 5 5 5 5 5 5 3 3 5 5 5 5 5 3 5 5 5 5 5 5 5 3 5 5 5 3 5 3 5 5 3 5 5 5 5 5 5 5 5 5 3 5 5 3 5 5 5 5 5 5 5 5 5 5 5 3 5 5 5 5 5 5 5 5 5 5 5 5 5 5 5 5 5 5 5 5 5 5 3 5 5 5 5 5 5 5 5 5 5 5 3 5 5 5 5 3 5 5 5 5 5 5 5 5 5 5 5 3 5 5 5 5 5 3 5 3 5 5 5 5 5 5 5 5 5 3 5 5 3 5 5 3 5 5 5 5 3 5 5 5 5 5 5 5 5 5 5 5 5 5 5 5 5 5 5 5 5 5 3 5 5 3 5 3 5 5 5 5 5 5 5 5 5 3 5 5 3 3 3 5 5 5 3 5 5 5 5 5 5 3 3 5 3 5 5 3 5 5 3 5 5 5 5 3 5 5 5 5 3 5 5 5 5 5 5 5 5 5 5 5 3 5 5 3 5 3 3 5 5 3 3 3 5 5 5 5 5 5 5 5 5 5 3 5 5 5 5 5 5 5 5 5 3 5 5 5 5 5 3 5 5 5 5 5 5 5 5 5 5 3 5 5 5 5 5 5 5 5 5 5 5 5 5 5 5 5 5 5 5 5 5 5 5 5 3 3 5 5 5 5 5 5 5 5 3 5 5 5 5 5 5 5 5 5 5 5 5 5 5 5 5 3 5 5 5 5 3 5 5 5 3 3 5 5 5 5 5 5 3 5 3 5 5 5 3 5 5 5 5 5 5 5 5 3 5 3 3 5 5 5 5 5 5 5 5 5 5 5 5 3 5 5 3 5 3 5 5 5 5 5 5 5 5 5 5 5 5 5 5 5 5 5 5 5 5 5 5 5 3 5 5 5 5 5 3 5 5 5 5 5 5 5 5 5 5 3 5 5 5 3 5 5 5 5 5 5 5 5 5 5 5 3 3 5 5 5 5 5 3 5 5 5 3 5 5 5 5 5 5 5 5 5 5 3 5 5 5 5 5 5 5 3 3 5 3 5 5 5 5 3 5 5 5 5 5 3 5 5 5 5 5 5 5 5 5 5 3 5 5 5 5 5 5 5 5 5 5 3 5 5 5 5 5 5 5 3 5 5 5 5 5 5 5 5 5 5 5 5 5 5 5 5 5 5 5 5 3 5 5 5 3 5 5 5 5 5 5 5 5 5 5 5 5 5 3 5 3 3 5 3 3 5 5 5 5 5 3 5 5 5 5 5 5 5 3 5 5 3 5 5 3 5 5 3 5 5 3 3 3 3 5 5 3 3 5 5 3 5 5 3 5 5 5 5 3 3 3 3 5 5 5 3 5 3 5 3 5 3 3 5 5 5 5 5 5 5 3 5 5 3 5 3 5 5 3 3 5 5 5 5 5 5 5 5 5 5 5 5 5 5 5 5 5 3 5 5 5 5 5 5 5 5 5 5 5 5 5 5 5 5 5 3 5 5 5 5 5 5 5 5 5 5 5 5 5 5 3 3 5 5 5 5 3 5 3 5 5 5 3 3 5 3 5 5 5 5 5 5 5 5 5 5 5 5 5 5 5 5 5 5 5 3 5 3 5 5 5 5 3 5 5 5 5 5 5 5 5 5 5 5 5 5 5 5 5 5 5 5 5 3 5 5 5 5 5 5 5 5 5 5 5 5 5 5 3 5 5 5 5 5 5 5 5 5 5 5 5 5 5 5 5 5 5 5 5 5 5 5 5 5 5 5 5 5 5 5 5 5 5 5 5 5 5 5 5 5 5 5 5 5 5 5 5 5 5 5 5 5 5 5 5 5 5 5 5 5 5 3 5 5 5 3 5 5 3 5 5 5 5 5 5 5 5 5 5 5 3 5 5 5 5 3 5 5 5 5 5 5 5 5 5 5 5 5 5 5 5 5 5 5 5 5 5 5 5 5 5 5 5 5 5 3 5 5 5 5 3 5 5 5 5 5 5 5 5 5 5 3 5 5 3 5 5 5 5 5 5 5 5 5 5 5 5 3 5 5 5 5 5 5 5 5 3 5 5 5 5 5 5 5 5 5 5 3 5 3 5 5 5 3 5 5 5 3 5 3 5 3 3 5 5 5 5 5 3 5 5 5 5 5 5 5 5 5 5 5 5 5 5 5 5 5 5 5 5 5 5 5 3 5 5 3 5 5 5 3 5 3 5 5 5 5 5 5 5 5 5 5 5 5 3 5 5 5 5 5 5 5 5 5 5 5 5 5 5 5 5 5 5 5 3 5 5 5 5 5 5 5 5 5 5 5 5 5 5 5 5 5 5 5 5 5 5 5 5 5 5 5 3 5 5 5 5 5 5 5 5 5 5 5 5 5 5 5 5 5 5 3 5 5 5 3 5 5 5 3 3 5 5 5 5 5 3 5 5 5 5 5 5 5 3 3 5 5 5 3 5 3 5 5 5 5 5 5 3 3 5 5 3 3 5 5 5 5 5 5 5 5 5 5 3 5 5 5 5 5 5 3 5 5 5 5 5 5 5 5 5 5 5 5 5 5 5 5 5 3 5 5 5 5 3 5 5 3 5 5 5 5 5 5 5 5 5 5 5 3 5 3 5 3 5 5 5 5 5 5 5 5 5 5 5 5 5 5 5 5 5 5 5 3 5 5 3 5 5 5 3 5 5 3 5 5 5 5 3 5 5 5 5 5 5 5 3 5 5 5 5 5 5 5 5 5 5 5 5 5 5 5 5 5 5 5 5 5 5 5 5 5 5 5 5 5 3 5 5 5 5 5 5 5 5 5 5 5 5 5 5 5 5 5 5 5 5 5 5 5 5 5 5 5 5 5 5 5 5 5 5 5 5 5 3 3 3 5 5 3 5 5 5 3 5 3 5 5 5 5 5 3 5 5 5 5 5 5 5 3 5 5 5 5 5 5 5 5 5 5 5 5 5 5 3 5 5 5 3 5 3 5 5 5 5 5 5 5 5 3 5 5 5 5 5 5 5 3 5 3 5 3 5 5 5 5 5 5 5 5 3 5 5 3 3 3 5 3 5 3 5 5 5 5 5 5 5 5 5 5 5 5 5 5 5 5 5 5 5 5 5 3 5 5 3 3 5 5 5 3 5 5 5 5 5 5 5 3 5 3 5 5 5 5 3 5 5 3 5 5 5 5 5 5 5 3 5 5 3 5 5 5 3 5 5 5 5 5 5 5 5 5 3 5 5 5 5 5 5 3 5 5 3 5 5 5 5 3 5 5 5 5 5 5 3 3 3 5 5 5 3 5 3 5 3 5 5 5 5 5 5 3 5 5 5 3 5 5 5 3 5 5 5 5 5 5 5 5 5 5 5 5 3 5 5 5 3 5 5 5 5 5 3 3 5 5 3 5 3 3 3 5 5 5 3 5 5 5 5 5 3 5 5 5 5 5 5 5 5 5 5 5 5 3 5 5 5 5 5 5 3 5 5 3 5 5 3 5 5 5 5 5 3 5 5 3 5 3 5 3 5 5 5 5 5 5 3 5 5 5 5 3 5 5 5 5 5 5 5 5 5 5 3 5 5 5 5 5 3 5 5 5 5 5 5 5 5 5 5 5 5 5 5 5 3 5 5 5 5 5 3 5 3 5 5 5 5 5 3 5 5 5 5 5 3 5 5 5 5 5 3 5 5 5 5 5 5 5 5 5 5 3 5 3 5 3 5 5 3 5 5 5 5 5 5 5 5 3 5 3 5 5 5 5 5 5 5 5 5 5 3 5 5 5 5 5 5 5 5 5 5 3 5 5 5 3 5 3 3 5 5 5 3 5 5 5 3 3 5 5 5 5 5 5 5 5 5 5 3 3 5 5 5 5 5 3 5 5 5 5 5 5 5 5 5 5 3 5 3 3 3 5 5 5 5 5 5 5 5 3 5 5 5 5 5 5 5 5 5 5 5 5 5 5 5 5 5 5 5 5 5 5 5 5 5 5 5 5 5 3 5 5 5 5 3 5 5 5 5 5 5 5 5 3 5 5 5 5 5 5 5 5 3 5 5 5 5 5 5 5 5 5 5 5 5 5 5 5 5 5 5 5 5 5 5 5 5 5 5 3 5 5 5 5 5 5 3 5 3 5 5 3 5 5 5 3 5 3 5 5 5 3 5 5 5 3 5 5 5 5 5 5 3 5 5 5 5 5 5 5 5 5 5 5 5 5 5 5 5 5 5 5 5 5 5 5 5 5 5 5 3 5 3 5 5 5 5 3 5 5 5 5 5 5 5 5 5 5 5 5 5 3 5 5 3 5 5 3 5 5 5 5 5 3 5 5 5 5 5 5 5 5 3 5 3 5 5 5 5 5 3 3 5 5 3 5 5 5 3 5 5 5 5 5 5 5 3 5 5 5 5 5 5 5 5 5 5 5 5 5 5 5 5 3 5 5 5 5 5 3 5 3 5 5 5 5 5 5 5 5 5 5 5 5 3 5 3 5 5 5 5 5 5 3 3 5 5 5 5 5 5 5 5 5 5 5 5 5 5 5 5 5 5 5 5 5 3 5 5 3 5 5 5 5 5 3 5 5 5 5 5 5 3 5 5 5 5 5 5 5 5 5 5 5 5 5 5 5 5 3 5 5 3 5 5 5 5 3 5 5 5 5 5 5 5 5 5 5 5 3 5 5 5 5 5 5 5 5 5 5 5 5 5 5 5 5 5 5 5 3 5 5 5 5 5 5 5 5 5 5 5 5 3 5 5 5 5 5 5 5 5 5 5 5 5 5 3 3 5 5 5 5 5 5 3 5 5 5 5 5 5 5 5 5 5 5 5 5 5 5 5 5 5 5 5 5 5 5 5 5 5 5 5 5 5 5 5 5 5 5 3 5 5 5 5 5 5 5 5 3 5 5 5 5 5 5 5 5 5 5 5 5 3 5 5 5 5 3 5 3 5 5 5 5 5 5 5 5 3 5 5 5 5 5 5 5 5 5 5 3 5 5 5 3 5 5 3 5 5 5 5 3 5 5 3 5 5 5 5 5 5 5 5 3 5 5 5 3 5 5 5 5 5 5 5 3 5 3 5 3 5 3 3 5 5 5 3 3 3 5 5 3 5 5 5 3 5 5 5 5 3 5 5 5 5 5 5 5 5 5 5 5 5 5 5 5 5 5 5 5 5 5 5 5 5 5 5 5 5 5 5 5 5 5 5 5 5 5 5 3 5 5 5 5 5 5 5 5 3 5 5 5 5 3 5 5 3 5 5 3 5 5 5 5 3 5 5 5 5 5 3 5 5 5 5 5 5 5 5 5 5 5 5 5 3 3 5 5 5 3 5 5 5 5 5 5 5 5 5 5 5 5 5 5 3 5 5 5 5 5 5 3 5 5 3 5 5 5 5 5 5 5 5 5 5 3 5 5 5 5 5 3 5 5 5 5 5 5 5 5 5 5 3 5 5 5 5 5 5 5 5 5 5 5 5 5 5 5 3 5 5 5 5 5 5 5 5 5 5 5 5 5 5 5 5 5 5 5 5 5 5 5 3 5 3 5 5 5 3 5 5 5 5 5 5 5 5 5 3 5 5 5 3 5 5 5 5 5 5 5 5 5 5 5 5 5 5 5 5 3 5 5 5 5 5 3 5 5 5 3 5 3 5 5 5 5 5 5 3 5 5 5 5 5 5 5 5 5 5 5 5 5 5 5 5 5 5 5 5 5 5 5 5 5 5 5 3 5 5 3 5 5 5 5 5 5 5 3 5 5 5 5 3 5 5 3 5 5 5 5 5 5 3 5 5 5 3 5 5 5 3 5 5 5 5 5 3 5 5 5 5 5 3 5 5 5 5 5 5 5 5 3 5 5 3 5 5 5 5 3 5 5 5 5 3 5 5 5 5 3 5 5 5 3 5 3 5 5 5 5 5 5 5 5 5 5 3 5 5 5 5 5 5 5 3 3 5 5 5 5 5 3 5 5 5 5 5 3 5 5 5 3 5 5 3 5 5 3 5 5 5 3 5 5 5 5 5 5 3 5 5 5 5 5 3 5 5 5 5 5 3 5 5 5 5 5 5 3 5 5 5 5 3 5 5 5 5 5 3 5 5 5 5 5 5 5 5 5 5 3 5 5 5 5 5 5 5 3 5 5 5 5 3 3 5 5 3 5 5 5 5 5 5 5 3 5 5 5 5 5 5 5 3 5 3 5 5 3 5 5 5 5 3 5 3 5 5 5 5 5 5 5 5 5 5 3 5 5 5 5 5 3 5 5 5 3 5 5 5 5 3 5 5 3 5 5 5 5 5 3 5 3 5 3 3 5 5 5 5 3 3 5 5 5 5 5 5 5 5 5 5 5 5 5 3 5 5 5 5 5 5 3 3 5 5 5 5 5 5 5 5 5 5 5 5 5 3 5 5 5 5 5 5 5 5 5 5 5 5 5 5 5 5 5 5 5 5 5 5 5 5 5 5 5 5 5 5 5 5 5 3 5 5 3 5 5 5 5 5 5 5 3 5 5 5 3 5 5 3 5 5 5 3 3 5 5 5 5 3 3 5 5 5 5 5 5 5 5 5 5 5 5 5 5 3 5 5 3 5 5 5 3 5 5 5 5 3 5 5 3 5 5 5 5 5 5 5 5 5 5 5 3 5 5 5 5 5 5 5 3 5 5 5 5 5 5 5 5 5 5 5 5 5 5 5 5 5 5 3 5 5 5 5 5 5 3 5 3 5 5 5 5 5 3 5 5 3 5 5 5 3 5 5 5 3 5 5 5 5 5 5 5 5 5 5 5 5 5 5 3 5 5 5 5 3 3 5 5 5 5 5 5 5 5 5 5 5 5 5 5 5 5 5 5 5 3 5 5 5 5 5 5 5 5 3 5 3 5 5 5 5 5 5 5 3 5 3 5 5 5 5 5 3 5 5 5 5 5 5 3 5 5 5 5 5 3 3 5 5 5 3 3 3 5 5 5 5 5 3 5 5 5 5 5 3 5 5 5 5 3 5 3 3 5 3 3 5 5 5 3 5 5 5 3 5 5 5 3 5 5 5 3 5 5 5 5 5 5 5 5 3 5 5 5 3 5 5 5 5 5 5 3 5 5 5 5 5 5 3 5 5 5 5 5 5 5 5 5 5 5 5 5 5 3 5 3 5 5 5 3 5 5 3 5 3 5 3 5 5 3 5 5 5 5 5 5 3 5 5 5 5 3 5 5 5 5 5 5 3 5 5 5 5 5 5 5 5 5 5 3 5 5 5 5 5 5 5 5 5 5 5 5 5 5 5 5 5 5 5 3 3 5 5 5 3 5 5 3 5 5 3 5 5 3 5 5 3 3 5 5 5 5 3 5 5 5 5 5 5 5 5 5 5 5 3 3 5 5 5 3 5 3 5 3 5 5 5 5 5 3 5 5 3 5 3 5 5 3 3 3 5 5 5 5 3 5 5 3 5 3 5 5 3 5 5 5 5 5 5 5 5 3 5 3 3 5 5 5 5 5 3 3 5 5 5 3 3 5 5 5 5 5 5 5 5 3 5 3 5 5 5 5 5 5 5 5 5 5 5 5 5 5 5 5 5 5 5 5 5 5 5 5 5 5 5 5 5 3 5 5 5 5 5 5 5 5 5 5 5 5 5 5 5 3 5 5 3 5 5 5 5 5 3 5 5 5 5 5 5 5 5 5 5 5 5 5 3 5 5 5 5 5 5 5 5 5 3 5 5 3 5 5 5 5 3 3 3 5 5 5 5 5 3 5 5 5 
</DataArray>
</Cells>
<PointData Scalars="" Vectors="displacement," Tensors="">
<DataArray type="Float64" Name="displacement" NumberOfComponents="3" format="ascii">
-0.0049999700257966585 1.3805873678296706e-08 0 -0.0049999010081764415 -2.789071032308142e-08 0 -0.0048503242633748901 4.6871787611590486e-09 0 -0.0049999010081764415 -2.789071032308142e-08 0 -0.0048503242633748901 4.6871787611590486e-09 0 -0.0046260839645109525 4.1889596392207711e-08 0 -0.0049995576469310304 -7.2217608718024945e-08 0 -0.0048158991351765924 -6.6926224873916257e-06 0 -0.0049997152533625472 -8.7410340566171767e-08 0 -0.0048767882561224166 -3.5913567955998224e-05 0 -0.0048033134896790708 -4.249438169999857e-05 0 -0.0049997152533625472 -8.7410340566171767e-08 0 -0.0048767882561224166 -3.5913567955998224e-05 0 -0.0049999260640318953 -6.3799654693829648e-09 0 -0.0048767882561224166 -3.5913567955998224e-05 0 -0.0047497147321339372 -3.0270166965851579e-05 0 -0.0047905744691936559 -4.1356226494000172e-05 0 -0.0048767882561224166 -3.5913567955998224e-05 0 -0.0048033134896790708 -4.249438169999857e-05 0 -0.0047497147321339372 -3.0270166965851579e-05 0 -0.0048158991351765924 -6.6926224873916257e-06 0 -0.0046263118784623351 4.763647503690465e-08 0 -0.0048033134896790708 -4.249438169999857e-05 0 -0.0046257901469179902 -1.5974826845138288e-07 0 -0.0047497147321339372 -3.0270166965851579e-05 0 -0.0046257901469179902 -1.5974826845138288e-07 0 -0.0047497147321339372 -3.0270166965851579e-05 0 -0.0046270430296032955 -2.6903664777681504e-05 0 -0.0047497147321339372 -3.0270166965851579e-05 0 -0.0046270430296032955 -2.6903664777681504e-05 0 -0.0047905744691936559 -4.1356226494000172e-05 0 -0.0046749783369089181 -2.2798414876800551e-05 0 -0.0046270430296032955 -2.6903664777681504e-05 0 -0.0047905744691936559 -4.1356226494000172e-05 0 -0.0046749783369089181 -2.2798414876800551e-05 0 -0.0046270430296032955 -2.6903664777681504e-05 0 -0.0045330691785280099 -9.2723961587038659e-06 0 -0.0046270430296032955 -2.6903664777681504e-05 0 -0.0043277559790909628 -3.3563188785832846e-08 0 -0.0045330691785280099 -9.2723961587038659e-06 0 -0.0046257901469179902 -1.5974826845138288e-07 0 -0.0046270430296032955 -2.6903664777681504e-05 0 -0.0043277559790909628 -3.3563188785832846e-08 0 -0.0047564717210694472 -2.0031080310575442e-05 0 -0.0048253745038277047 3.2830344644911231e-06 0 -0.0047514990485150246 1.9010047989547509e-05 0 -0.0046749783369089181 -2.2798414876800551e-05 0 -0.0047564717210694472 -2.0031080310575442e-05 0 -0.0047905744691936559 -4.1356226494000172e-05 0 -0.0046749783369089181 -2.2798414876800551e-05 0 -0.0047564717210694472 -2.0031080310575442e-05 0 -0.0046661588061166779 1.4664531939493048e-05 0 -0.0047564717210694472 -2.0031080310575442e-05 0 -0.0047905744691936559 -4.1356226494000172e-05 0 -0.0048540756119198119 -4.8637189450709727e-05 0 -0.0047564717210694472 -2.0031080310575442e-05 0 -0.0048540756119198119 -4.8637189450709727e-05 0 -0.0048253745038277047 3.2830344644911231e-06 0 -0.0049414338559965196 -1.8546597928299018e-05 0 -0.0049176251972992387 -5.2288861487182672e-06 0 -0.0047905744691936559 -4.1356226494000172e-05 0 -0.0048540756119198119 -4.8637189450709727e-05 0 -0.004906529964261979 -3.0218358082704917e-05 0 -0.0048767882561224166 -3.5913567955998224e-05 0 -0.0047905744691936559 -4.1356226494000172e-05 0 -0.004906529964261979 -3.0218358082704917e-05 0 -0.0048767882561224166 -3.5913567955998224e-05 0 -0.004906529964261979 -3.0218358082704917e-05 0 -0.0049999260640318953 -6.3799654693829648e-09 0 -0.004906529964261979 -3.0218358082704917e-05 0 -0.0049999260640318953 -6.3799654693829648e-09 0 -0.0049997887298788343 -4.1721208114069841e-08 0 -0.0049414338559965196 -1.8546597928299018e-05 0 -0.004999891692905897 -3.421852735923856e-08 0 -0.0049432357515329537 -1.1948182146888938e-05 0 -0.004999964236378965 -5.0980433941524875e-09 0 -0.0049763083784445253 -6.4813092592753652e-06 0 -0.0048540756119198119 -4.8637189450709727e-05 0 -0.004906529964261979 -3.0218358082704917e-05 0 -0.0049997887298788343 -4.1721208114069841e-08 0 -0.004999964236378965 -5.0980433941524875e-09 0 -0.0049763083784445253 -6.4813092592753652e-06 0 -0.0049999544860239997 -1.2573738499034849e-08 0 -0.0049763083784445253 -6.4813092592753652e-06 0 -0.0049999544860239997 -1.2573738499034849e-08 0 -0.0049618645035451213 -1.1025168251790474e-05 0 -0.0049999544860239997 -1.2573738499034849e-08 0 -0.0049618645035451213 -1.1025168251790474e-05 0 -0.0049878409451392085 -7.418937582911457e-06 0 -0.0049432357515329537 -1.1948182146888938e-05 0 -0.0049763083784445253 -6.4813092592753652e-06 0 -0.0049618645035451213 -1.1025168251790474e-05 0 -0.0049999569490085435 -9.932635441607825e-09 0 -0.0049883149611373518 -8.4701294855033812e-06 0 -0.004980592108690768 -6.5482871511744296e-06 0 -0.0048892445909114743 2.6404434342654396e-05 0 -0.0049097438689952892 1.3328392290834884e-05 0 -0.0049999569490085435 -9.932635441607825e-09 0 -0.0049878409451392085 -7.418937582911457e-06 0 -0.0049883149611373518 -8.4701294855033812e-06 0 -0.0049999544860239997 -1.2573738499034849e-08 0 -0.0049999569490085435 -9.932635441607825e-09 0 -0.0049878409451392085 -7.418937582911457e-06 0 -0.0049618645035451213 -1.1025168251790474e-05 0 -0.0049878409451392085 -7.418937582911457e-06 0 -0.0049883149611373518 -8.4701294855033812e-06 0 -0.0049618645035451213 -1.1025168251790474e-05 0 -0.0049883149611373518 -8.4701294855033812e-06 0 -0.00494994565689264 2.0746328264136191e-07 0 -0.0048146237565162677 2.1726192185150154e-05 0 -0.0049265261176934735 1.5754113646751551e-05 0 -0.0048770909070031867 5.6397465259342631e-05 0 -0.0048146237565162677 2.1726192185150154e-05 0 -0.004980592108690768 -6.5482871511744296e-06 0 -0.0049265261176934735 1.5754113646751551e-05 0 -0.004797378927259832 0.00011248423595958723 0 -0.0048770909070031867 5.6397465259342631e-05 0 -0.0048563639000464365 0.00010725695817607236 0 -0.0048146237565162677 2.1726192185150154e-05 0 -0.004797378927259832 0.00011248423595958723 0 -0.0048770909070031867 5.6397465259342631e-05 0 -0.0048892445909114743 2.6404434342654396e-05 0 -0.0048519616413976122 5.7384991190898657e-05 0 -0.0048146237565162677 2.1726192185150154e-05 0 -0.004797378927259832 0.00011248423595958723 0 -0.0047185848873744982 0.00010390930233903517 0 -0.0047347119754148443 0.00015301497918681747 0 -0.0046931653543130208 0.00014602506132744834 0 -0.0047355897544912595 0.00019553215807846538 0 -0.004797378927259832 0.00011248423595958723 0 -0.0047347119754148443 0.00015301497918681747 0 -0.0047564102080558139 0.00017826142223237667 0 -0.004797378927259832 0.00011248423595958723 0 -0.0047347119754148443 0.00015301497918681747 0 -0.0047185848873744982 0.00010390930233903517 0 -0.004797378927259832 0.00011248423595958723 0 -0.004793298300969989 0.00017591946257932467 0 -0.0047564102080558139 0.00017826142223237667 0 -0.004797378927259832 0.00011248423595958723 0 -0.004793298300969989 0.00017591946257932467 0 -0.0048563639000464365 0.00010725695817607236 0 -0.0049432357515329537 -1.1948182146888938e-05 0 -0.0049050726228241394 -7.7124763336574474e-06 0 -0.0048253745038277047 3.2830344644911231e-06 0 -0.0049432357515329537 -1.1948182146888938e-05 0 -0.0049618645035451213 -1.1025168251790474e-05 0 -0.0049050726228241394 -7.7124763336574474e-06 0 -0.0049050726228241394 -7.7124763336574474e-06 0 -0.00494994565689264 2.0746328264136191e-07 0 -0.0049097917531457768 1.2105512084229777e-05 0 -0.0049618645035451213 -1.1025168251790474e-05 0 -0.0049050726228241394 -7.7124763336574474e-06 0 -0.00494994565689264 2.0746328264136191e-07 0 -0.0047347119754148443 0.00015301497918681747 0 -0.0047185848873744982 0.00010390930233903517 0 -0.0046931653543130208 0.00014602506132744834 0 -0.0048519616413976122 5.7384991190898657e-05 0 -0.0048326637757855435 7.7961448818744629e-05 0 -0.0048326637757855435 7.7961448818744629e-05 0 -0.0048426823741234432 6.4962321914481717e-05 0 -0.0049050726228241394 -7.7124763336574474e-06 0 -0.0048429989940062812 2.3395209518323415e-05 0 -0.0048253745038277047 3.2830344644911231e-06 0 -0.0049050726228241394 -7.7124763336574474e-06 0 -0.0049097917531457768 1.2105512084229777e-05 0 -0.0048429989940062812 2.3395209518323415e-05 0 -0.0048429989940062812 2.3395209518323415e-05 0 -0.0048253745038277047 3.2830344644911231e-06 0 -0.0048018359628761581 3.1210586586513731e-05 0 -0.0048018359628761581 3.1210586586513731e-05 0 -0.0048192261335934282 4.5108985452966044e-05 0 -0.0047625494578477159 5.7519970580000636e-05 0 -0.0048429989940062812 2.3395209518323415e-05 0 -0.0048018359628761581 3.1210586586513731e-05 0 -0.0048192261335934282 4.5108985452966044e-05 0 -0.0046931653543130208 0.00014602506132744834 0 -0.004723035562993836 0.00021781408306497912 0 -0.0047355897544912595 0.00019553215807846538 0 -0.004856516713602892 7.8083104455300215e-06 0 -0.0048429989940062812 2.3395209518323415e-05 0 -0.0048192261335934282 4.5108985452966044e-05 0 -0.004856516713602892 7.8083104455300215e-06 0 -0.0048192261335934282 4.5108985452966044e-05 0 -0.0048221037376851008 6.5791303669564694e-05 0 -0.0048326637757855435 7.7961448818744629e-05 0 -0.0047939383209904827 0.00011232748259593973 0 -0.0048192261335934282 4.5108985452966044e-05 0 -0.0048221037376851008 6.5791303669564694e-05 0 -0.004788307484969485 7.4558306303194926e-05 0 -0.0048221037376851008 6.5791303669564694e-05 0 -0.004788307484969485 7.4558306303194926e-05 0 -0.0047629234175618528 0.00011121594069491984 0 -0.004788307484969485 7.4558306303194926e-05 0 -0.0047629234175618528 0.00011121594069491984 0 -0.0047625494578477159 5.7519970580000636e-05 0 -0.0048192261335934282 4.5108985452966044e-05 0 -0.004788307484969485 7.4558306303194926e-05 0 -0.0047625494578477159 5.7519970580000636e-05 0 -0.004793298300969989 0.00017591946257932467 0 -0.0047474644223546017 0.00020523820296735397 0 -0.0047401295691605555 0.0002295310989188394 0 -0.004793298300969989 0.00017591946257932467 0 -0.0047474644223546017 0.00020523820296735397 0 -0.0047564102080558139 0.00017826142223237667 0 -0.0047474644223546017 0.00020523820296735397 0 -0.0047564102080558139 0.00017826142223237667 0 -0.0047355897544912595 0.00019553215807846538 0 -0.0047347119754148443 0.00015301497918681747 0 -0.0047564102080558139 0.00017826142223237667 0 -0.0047355897544912595 0.00019553215807846538 0 -0.004723035562993836 0.00021781408306497912 0 -0.0047263776485999181 0.00022274086211026493 0 -0.0047234470142911242 0.00020037063702087055 0 -0.0047474644223546017 0.00020523820296735397 0 -0.0047355897544912595 0.00019553215807846538 0 -0.0047263776485999181 0.00022274086211026493 0 -0.004723035562993836 0.00021781408306497912 0 -0.0047355897544912595 0.00019553215807846538 0 -0.0047263776485999181 0.00022274086211026493 0 -0.0047474644223546017 0.00020523820296735397 0 -0.0047263776485999181 0.00022274086211026493 0 -0.0047401295691605555 0.0002295310989188394 0 -0.0047263776485999181 0.00022274086211026493 0 -0.0047401295691605555 0.0002295310989188394 0 -0.0047046868914294307 0.00023018179767461338 0 -0.0046882841702796064 0.00020235064801191541 0 -0.0047046868914294307 0.00023018179767461338 0 -0.0046584872129394909 0.00021492719803481685 0 -0.0047263776485999181 0.00022274086211026493 0 -0.0046882841702796064 0.00020235064801191541 0 -0.0047046868914294307 0.00023018179767461338 0 -0.0047263776485999181 0.00022274086211026493 0 -0.0046882841702796064 0.00020235064801191541 0 -0.0047234470142911242 0.00020037063702087055 0 -0.0047234470142911242 0.00020037063702087055 0 -0.0047467118944763574 0.00017977567715127867 0 -0.0047138599011064273 0.00013789103927835808 0 -0.0047234470142911242 0.00020037063702087055 0 -0.0046563072213886506 0.00013141620812049621 0 -0.0047138599011064273 0.00013789103927835808 0 -0.0046882841702796064 0.00020235064801191541 0 -0.0047234470142911242 0.00020037063702087055 0 -0.0046563072213886506 0.00013141620812049621 0 -0.0046882841702796064 0.00020235064801191541 0 -0.0046563072213886506 0.00013141620812049621 0 -0.0046276599618412777 0.00016801946516212376 0 -0.0048221037376851008 6.5791303669564694e-05 0 -0.0047629234175618528 0.00011121594069491984 0 -0.0047751176249879318 0.00013567786893685572 0 -0.004723035562993836 0.00021781408306497912 0 -0.0047234470142911242 0.00020037063702087055 0 -0.0047467118944763574 0.00017977567715127867 0 -0.0047939383209904827 0.00011232748259593973 0 -0.0047744163594608691 0.00012699715136455818 0 -0.0047751176249879318 0.00013567786893685572 0 -0.0047520685639978258 0.00013981852171847395 0 -0.0047489191344613239 0.00012851480582027635 0 -0.0047520685639978258 0.00013981852171847395 0 -0.0047078778275740744 0.0001502194762493979 0 -0.0047350507323286771 0.00015044530374780957 0 -0.0047629234175618528 0.00011121594069491984 0 -0.0047520685639978258 0.00013981852171847395 0 -0.0047078778275740744 0.0001502194762493979 0 -0.0047629234175618528 0.00011121594069491984 0 -0.0047751176249879318 0.00013567786893685572 0 -0.0047520685639978258 0.00013981852171847395 0 -0.0047078778275740744 0.0001502194762493979 0 -0.0046932266105836817 0.00010136953792472596 0 -0.0046175534181445771 0.00015376567879014122 0 -0.0047629234175618528 0.00011121594069491984 0 -0.0047078778275740744 0.0001502194762493979 0 -0.0046932266105836817 0.00010136953792472596 0 -0.0046932266105836817 0.00010136953792472596 0 -0.0046175534181445771 0.00015376567879014122 0 -0.0045726043105126929 0.00011345296043731832 0 -0.0047078778275740744 0.0001502194762493979 0 -0.0046175534181445771 0.00015376567879014122 0 -0.0046403200203102308 0.00018575870956324213 0 -0.0046175534181445771 0.00015376567879014122 0 -0.004541830252171755 0.00019210780979081875 0 -0.0046403200203102308 0.00018575870956324213 0 -0.004541830252171755 0.00019210780979081875 0 -0.004436015313967456 0.00017105762916228364 0 -0.0045245075455834019 0.0001533805753012729 0 -0.0046175534181445771 0.00015376567879014122 0 -0.004541830252171755 0.00019210780979081875 0 -0.0045245075455834019 0.0001533805753012729 0 -0.0039135498955622456 -1.4805979942281358e-05 0 -0.0037448907894021884 7.8588397268764177e-05 0 -0.0039263647382325609 1.6765307347063944e-06 0 -0.0040293084166834834 1.3986525824297497e-07 0 -0.0037309617596841056 -3.1922477156343266e-08 0 -0.0039263647382325609 1.6765307347063944e-06 0 -0.0037459675739861583 6.871928674464943e-06 0 -0.0037309617596841056 -3.1922477156343266e-08 0 -0.004541830252171755 0.00019210780979081875 0 -0.004436015313967456 0.00017105762916228364 0 -0.0044685595558434038 0.00023231865288588581 0 -0.0039135498955622456 -1.4805979942281358e-05 0 -0.0039713441895267735 -6.5410420145794036e-05 0 -0.004436015313967456 0.00017105762916228364 0 -0.0045245075455834019 0.0001533805753012729 0 -0.0044621048954582672 0.00011355159359294369 0 -0.0039263647382325609 1.6765307347063944e-06 0 -0.0040293084166834834 1.3986525824297497e-07 0 -0.0042789488602917418 2.468420373676681e-05 0 -0.004436015313967456 0.00017105762916228364 0 -0.0044621048954582672 0.00011355159359294369 0 -0.0042789488602917418 2.468420373676681e-05 0 -0.0046175534181445771 0.00015376567879014122 0 -0.0045245075455834019 0.0001533805753012729 0 -0.0045726043105126929 0.00011345296043731832 0 -0.0045245075455834019 0.0001533805753012729 0 -0.0044621048954582672 0.00011355159359294369 0 -0.0045726043105126929 0.00011345296043731832 0 -0.0045726043105126929 0.00011345296043731832 0 -0.004534600584138444 3.8148401398961732e-05 0 -0.0046412437627429033 6.274486587607373e-05 0 -0.0044621048954582672 0.00011355159359294369 0 -0.004534600584138444 3.8148401398961732e-05 0 -0.0042789488602917418 2.468420373676681e-05 0 -0.0044621048954582672 0.00011355159359294369 0 -0.0045726043105126929 0.00011345296043731832 0 -0.004534600584138444 3.8148401398961732e-05 0 -0.004534600584138444 3.8148401398961732e-05 0 -0.0042789488602917418 2.468420373676681e-05 0 -0.0044115054001404681 9.4946523489211376e-06 0 -0.0040293084166834834 1.3986525824297497e-07 0 -0.0042789488602917418 2.468420373676681e-05 0 -0.0043277559790909628 -3.3563188785832846e-08 0 -0.0042789488602917418 2.468420373676681e-05 0 -0.0044115054001404681 9.4946523489211376e-06 0 -0.0043277559790909628 -3.3563188785832846e-08 0 -0.0044115054001404681 9.4946523489211376e-06 0 -0.0043277559790909628 -3.3563188785832846e-08 0 -0.0045330691785280099 -9.2723961587038659e-06 0 -0.0046749783369089181 -2.2798414876800551e-05 0 -0.0045330691785280099 -9.2723961587038659e-06 0 -0.0046661588061166779 1.4664531939493048e-05 0 -0.004534600584138444 3.8148401398961732e-05 0 -0.0045330691785280099 -9.2723961587038659e-06 0 -0.0046661588061166779 1.4664531939493048e-05 0 -0.004534600584138444 3.8148401398961732e-05 0 -0.0044115054001404681 9.4946523489211376e-06 0 -0.0045330691785280099 -9.2723961587038659e-06 0 -0.0047564717210694472 -2.0031080310575442e-05 0 -0.0046661588061166779 1.4664531939493048e-05 0 -0.0047514990485150246 1.9010047989547509e-05 0 -0.0046661588061166779 1.4664531939493048e-05 0 -0.0047078246159867245 5.0313446057218693e-05 0 -0.0046412437627429033 6.274486587607373e-05 0 -0.0046661588061166779 1.4664531939493048e-05 0 -0.0047514990485150246 1.9010047989547509e-05 0 -0.0047078246159867245 5.0313446057218693e-05 0 -0.0048253745038277047 3.2830344644911231e-06 0 -0.0048018359628761581 3.1210586586513731e-05 0 -0.0047514990485150246 1.9010047989547509e-05 0 -0.0048018359628761581 3.1210586586513731e-05 0 -0.0047514990485150246 1.9010047989547509e-05 0 -0.0047625494578477159 5.7519970580000636e-05 0 -0.0047514990485150246 1.9010047989547509e-05 0 -0.0047078246159867245 5.0313446057218693e-05 0 -0.0047625494578477159 5.7519970580000636e-05 0 -0.0047629234175618528 0.00011121594069491984 0 -0.0046932266105836817 0.00010136953792472596 0 -0.0047625494578477159 5.7519970580000636e-05 0 -0.0046932266105836817 0.00010136953792472596 0 -0.0047078246159867245 5.0313446057218693e-05 0 -0.0047625494578477159 5.7519970580000636e-05 0 -0.0046932266105836817 0.00010136953792472596 0 -0.0047078246159867245 5.0313446057218693e-05 0 -0.0046412437627429033 6.274486587607373e-05 0 -0.0046932266105836817 0.00010136953792472596 0 -0.0045726043105126929 0.00011345296043731832 0 -0.0046412437627429033 6.274486587607373e-05 0 -0.004534600584138444 3.8148401398961732e-05 0 -0.0046661588061166779 1.4664531939493048e-05 0 -0.0046412437627429033 6.274486587607373e-05 0 -0.0049841962222553727 -4.5588118044314899e-06 0 -0.0049851367351926475 -9.722367540717635e-07 0 -0.0049838659535250676 -3.4040655397699442e-06 0 -0.0049841962222553727 -4.5588118044314899e-06 0 -0.0049877972551906451 1.3885300022241056e-06 0 -0.0049851367351926475 -9.722367540717635e-07 0 -0.0049841962222553727 -4.5588118044314899e-06 0 -0.0049838659535250676 -3.4040655397699442e-06 0 -0.0049804805464675099 -8.1059886316904792e-06 0 -0.0049841962222553727 -4.5588118044314899e-06 0 -0.0049877972551906451 1.3885300022241056e-06 0 -0.0049917771744755037 1.574965089500786e-06 0 -0.0049877972551906451 1.3885300022241056e-06 0 -0.0049917771744755037 1.574965089500786e-06 0 -0.0049923772943711725 8.3947548059137384e-06 0 -0.0049917771744755037 1.574965089500786e-06 0 -0.0049898330943064532 3.1003878779696172e-06 0 -0.0049809762310085697 -6.439853139726968e-06 0 -0.0049841962222553727 -4.5588118044314899e-06 0 -0.0049917771744755037 1.574965089500786e-06 0 -0.0049809762310085697 -6.439853139726968e-06 0 -0.0049841962222553727 -4.5588118044314899e-06 0 -0.0049809762310085697 -6.439853139726968e-06 0 -0.0049804805464675099 -8.1059886316904792e-06 0 -0.0049898330943064532 3.1003878779696172e-06 0 -0.00499999986490116 -2.0037206865023968e-09 0 -0.0049999504477744759 2.9560204905852159e-08 0 -0.0049898330943064532 3.1003878779696172e-06 0 -0.00499999986490116 -2.0037206865023968e-09 0 -0.0049973126167510221 3.7250844157589847e-06 0 -0.0049917771744755037 1.574965089500786e-06 0 -0.0049898330943064532 3.1003878779696172e-06 0 -0.0049973126167510221 3.7250844157589847e-06 0 -0.0049917771744755037 1.574965089500786e-06 0 -0.0049973126167510221 3.7250844157589847e-06 0 -0.0049964714002371999 8.6470384096747789e-06 0 -0.0049973126167510221 3.7250844157589847e-06 0 -0.0049999957285702243 5.5552962643162788e-09 0 -0.0049964714002371999 8.6470384096747789e-06 0 -0.00499999986490116 -2.0037206865023968e-09 0 -0.0049973126167510221 3.7250844157589847e-06 0 -0.0049999957285702243 5.5552962643162788e-09 0 -0.0049999957285702243 5.5552962643162788e-09 0 -0.0049964714002371999 8.6470384096747789e-06 0 -0.0049959400047465963 1.2020513594446035e-05 0 -0.0049964714002371999 8.6470384096747789e-06 0 -0.0049923772943711725 8.3947548059137384e-06 0 -0.0049904770011248469 2.4828432738689161e-05 0 -0.0049917771744755037 1.574965089500786e-06 0 -0.0049964714002371999 8.6470384096747789e-06 0 -0.0049923772943711725 8.3947548059137384e-06 0 -0.0049877972551906451 1.3885300022241056e-06 0 -0.0049923772943711725 8.3947548059137384e-06 0 -0.0049903853853375509 3.9983523492546642e-06 0 -0.0049923772943711725 8.3947548059137384e-06 0 -0.0049904770011248469 2.4828432738689161e-05 0 -0.0049925421667398537 6.8367048299129886e-06 0 -0.0048482788596177851 0.00013995811638753308 0 -0.0048050095951070538 0.00016872239071800713 0 -0.0049904770011248469 2.4828432738689161e-05 0 -0.00497860544976795 3.7546561576559373e-05 0 -0.0049842560898783932 3.0781737851655645e-05 0 -0.0048546675385697435 7.6816953438627085e-05 0 -0.0048181864285298803 0.00010017408477095656 0 -0.0049904770011248469 2.4828432738689161e-05 0 -0.00497860544976795 3.7546561576559373e-05 0 -0.0049959400047465963 1.2020513594446035e-05 0 -0.0049964714002371999 8.6470384096747789e-06 0 -0.0049904770011248469 2.4828432738689161e-05 0 -0.0049959400047465963 1.2020513594446035e-05 0 -0.0049999957285702243 5.5552962643162788e-09 0 -0.0049959400047465963 1.2020513594446035e-05 0 -0.0050000032003319128 6.4821505045670426e-09 0 -0.0049959400047465963 1.2020513594446035e-05 0 -0.0050000032003319128 6.4821505045670426e-09 0 -0.0049869491993330267 5.1098696995117623e-06 0 -0.0050000032003319128 6.4821505045670426e-09 0 -0.0049999113536575704 -1.2069188554754791e-08 0 -0.0049869491993330267 5.1098696995117623e-06 0 -0.00497860544976795 3.7546561576559373e-05 0 -0.0049959400047465963 1.2020513594446035e-05 0 -0.0049869491993330267 5.1098696995117623e-06 0 -0.00497860544976795 3.7546561576559373e-05 0 -0.0049506618915000217 2.1184141197608397e-05 0 -0.0049869491993330267 5.1098696995117623e-06 0 -0.0049506618915000217 2.1184141197608397e-05 0 -0.0049869491993330267 5.1098696995117623e-06 0 -0.0049706773528747396 3.4446013105301104e-06 0 -0.0049999113536575704 -1.2069188554754791e-08 0 -0.0049869491993330267 5.1098696995117623e-06 0 -0.0049706773528747396 3.4446013105301104e-06 0 -0.0049999113536575704 -1.2069188554754791e-08 0 -0.004980592108690768 -6.5482871511744296e-06 0 -0.0049706773528747396 3.4446013105301104e-06 0 -0.0049999569490085435 -9.932635441607825e-09 0 -0.0049999113536575704 -1.2069188554754791e-08 0 -0.004980592108690768 -6.5482871511744296e-06 0 -0.004980592108690768 -6.5482871511744296e-06 0 -0.0049706773528747396 3.4446013105301104e-06 0 -0.0049265261176934735 1.5754113646751551e-05 0 -0.0049506618915000217 2.1184141197608397e-05 0 -0.0049265261176934735 1.5754113646751551e-05 0 -0.0048770909070031867 5.6397465259342631e-05 0 -0.0049506618915000217 2.1184141197608397e-05 0 -0.0049706773528747396 3.4446013105301104e-06 0 -0.0049265261176934735 1.5754113646751551e-05 0 -0.0048770909070031867 5.6397465259342631e-05 0 -0.0049146024995268814 6.541291679349609e-05 0 -0.0048563639000464365 0.00010725695817607236 0 -0.0049506618915000217 2.1184141197608397e-05 0 -0.0048770909070031867 5.6397465259342631e-05 0 -0.0049146024995268814 6.541291679349609e-05 0 -0.00497860544976795 3.7546561576559373e-05 0 -0.0049506618915000217 2.1184141197608397e-05 0 -0.0049146024995268814 6.541291679349609e-05 0 -0.00497860544976795 3.7546561576559373e-05 0 -0.0049146024995268814 6.541291679349609e-05 0 -0.0048879725540722984 0.00013664245922299611 0 -0.00497860544976795 3.7546561576559373e-05 0 -0.0048879725540722984 0.00013664245922299611 0 -0.0049734264239202049 0.0001618213944178126 0 -0.004793298300969989 0.00017591946257932467 0 -0.0048879725540722984 0.00013664245922299611 0 -0.0048563639000464365 0.00010725695817607236 0 -0.0049146024995268814 6.541291679349609e-05 0 -0.0048879725540722984 0.00013664245922299611 0 -0.0048563639000464365 0.00010725695817607236 0 -0.004793298300969989 0.00017591946257932467 0 -0.0047401295691605555 0.0002295310989188394 0 -0.0048004906674422683 0.00022226235056797776 0 -0.004793298300969989 0.00017591946257932467 0 -0.0048879725540722984 0.00013664245922299611 0 -0.0048004906674422683 0.00022226235056797776 0 -0.0048879725540722984 0.00013664245922299611 0 -0.0048004906674422683 0.00022226235056797776 0 -0.0049078533734750567 0.0002383897263553418 0 -0.0048879725540722984 0.00013664245922299611 0 -0.0049078533734750567 0.0002383897263553418 0 -0.0049734264239202049 0.0001618213944178126 0 -0.0048004906674422683 0.00022226235056797776 0 -0.0049078533734750567 0.0002383897263553418 0 -0.0048429656679814604 0.00032837786772945928 0 -0.0046915105382032921 8.8304689644245709e-05 0 -0.0046744359320970074 7.6362106834016404e-05 0 -0.0049078533734750567 0.0002383897263553418 0 -0.0048429656679814604 0.00032837786772945928 0 -0.0049918653780685182 0.00030952360485421508 0 -0.0048004906674422683 0.00022226235056797776 0 -0.004730338744375129 0.00025324317967314838 0 -0.0046968168099484958 0.00025348785486163444 0 -0.0046915105382032921 8.8304689644245709e-05 0 -0.0046896090967950103 9.2434547541704295e-05 0 -0.0047401295691605555 0.0002295310989188394 0 -0.0048004906674422683 0.00022226235056797776 0 -0.0046968168099484958 0.00025348785486163444 0 -0.0047117313498047366 0.00013316372620572083 0 -0.0046915105382032921 8.8304689644245709e-05 0 -0.0047401295691605555 0.0002295310989188394 0 -0.0047046868914294307 0.00023018179767461338 0 -0.0046968168099484958 0.00025348785486163444 0 -0.0047046868914294307 0.00023018179767461338 0 -0.0046968168099484958 0.00025348785486163444 0 -0.0046584872129394909 0.00021492719803481685 0 -0.0046106203397347067 0.00027237002982833031 0 -0.004640194495771896 0.00023040844226786267 0 -0.0045842066184920991 0.00018841494811131881 0 -0.0046968168099484958 0.00025348785486163444 0 -0.004640194495771896 0.00023040844226786267 0 -0.0046584872129394909 0.00021492719803481685 0 -0.0046106203397347067 0.00027237002982833031 0 -0.0046968168099484958 0.00025348785486163444 0 -0.004640194495771896 0.00023040844226786267 0 -0.0045842066184920991 0.00018841494811131881 0 -0.0046584872129394909 0.00021492719803481685 0 -0.0046276599618412777 0.00016801946516212376 0 -0.004640194495771896 0.00023040844226786267 0 -0.0045842066184920991 0.00018841494811131881 0 -0.0046584872129394909 0.00021492719803481685 0 -0.0046882841702796064 0.00020235064801191541 0 -0.0046584872129394909 0.00021492719803481685 0 -0.0046276599618412777 0.00016801946516212376 0 -0.0045842066184920991 0.00018841494811131881 0 -0.0046276599618412777 0.00016801946516212376 0 -0.0045673957416028955 0.00011583624238676915 0 -0.0046563072213886506 0.00013141620812049621 0 -0.0046276599618412777 0.00016801946516212376 0 -0.0045673957416028955 0.00011583624238676915 0 -0.0045842066184920991 0.00018841494811131881 0 -0.0045673957416028955 0.00011583624238676915 0 -0.0044604207774676064 0.00013276785847311204 0 -0.0046106203397347067 0.00027237002982833031 0 -0.0045842066184920991 0.00018841494811131881 0 -0.0044604207774676064 0.00013276785847311204 0 -0.0044045585836632317 -0.00024859962398483549 0 -0.0044167235234568395 -0.0002045236545242145 0 -0.0044283424928281533 -0.00022994621579273416 0 -0.0044045585836632317 -0.00024859962398483549 0 -0.0044283424928281533 -0.00022994621579273416 0 -0.0044432357294904848 -0.0002520868770848049 0 -0.0046915105382032921 8.8304689644245709e-05 0 -0.0045293556439125497 -4.8396130503030564e-05 0 -0.0044283424928281533 -0.00022994621579273416 0 -0.0044495930322108164 -0.00021331801321513509 0 -0.0044432357294904848 -0.0002520868770848049 0 -0.0045829333757701355 -3.3367961979437759e-05 0 -0.0046744359320970074 7.6362106834016404e-05 0 -0.0044167235234568395 -0.0002045236545242145 0 -0.0044283424928281533 -0.00022994621579273416 0 -0.0044495930322108164 -0.00021331801321513509 0 -0.0044167235234568395 -0.0002045236545242145 0 -0.0044495930322108164 -0.00021331801321513509 0 -0.0044392470907041797 -0.00018243422495917771 0 -0.0045431341056345036 7.2518660654260884e-05 0 -0.0045391640300843795 6.9668475457899151e-05 0 -0.0045384721957663372 7.510374563202615e-05 0 -0.0045391640300843795 6.9668475457899151e-05 0 -0.0045384721957663372 7.510374563202615e-05 0 -0.0045363516099898998 7.0183287246259184e-05 0 -0.0045431341056345036 7.2518660654260884e-05 0 -0.0045384721957663372 7.510374563202615e-05 0 -0.0045445584890782672 7.9891111769988946e-05 0 -0.0045384721957663372 7.510374563202615e-05 0 -0.0045445584890782672 7.9891111769988946e-05 0 -0.0045376553047628511 8.065751966259938e-05 0 -0.0049845599300943058 3.8208042871077169e-05 0 -0.0049885430464187315 3.3556389690941695e-05 0 -0.0049908507080349187 3.7382078063308458e-05 0 -0.0046744359320970074 7.6362106834016404e-05 0 -0.004718497273203971 0.00014256279069579383 0 -0.0049078533734750567 0.0002383897263553418 0 -0.0049918653780685182 0.00030952360485421508 0 -0.0049734264239202049 0.0001618213944178126 0 -0.0046744359320970074 7.6362106834016404e-05 0 -0.0048181864285298803 0.00010017408477095656 0 -0.0049845599300943058 3.8208042871077169e-05 0 -0.0049842560898783932 3.0781737851655645e-05 0 -0.0049885430464187315 3.3556389690941695e-05 0 -0.0049885430464187315 3.3556389690941695e-05 0 -0.0049929293900497296 3.2132939515584231e-05 0 -0.0049908507080349187 3.7382078063308458e-05 0 -0.0049904770011248469 2.4828432738689161e-05 0 -0.0049842560898783932 3.0781737851655645e-05 0 -0.0049885430464187315 3.3556389690941695e-05 0 -0.0049904770011248469 2.4828432738689161e-05 0 -0.0049885430464187315 3.3556389690941695e-05 0 -0.0049929293900497296 3.2132939515584231e-05 0 -0.0049923772943711725 8.3947548059137384e-06 0 -0.0049925421667398537 6.8367048299129886e-06 0 -0.0049903853853375509 3.9983523492546642e-06 0 -0.0049925421667398537 6.8367048299129886e-06 0 -0.0049903853853375509 3.9983523492546642e-06 0 -0.0049887813145253826 2.5253928620297404e-07 0 -0.0048050095951070538 0.00016872239071800713 0 -0.0046364011108831881 0.00025697953279011889 0 -0.0049877972551906451 1.3885300022241056e-06 0 -0.0049903853853375509 3.9983523492546642e-06 0 -0.0049887813145253826 2.5253928620297404e-07 0 -0.0049929293900497296 3.2132939515584231e-05 0 -0.0049954132192477534 3.7106531729515352e-05 0 -0.0049908507080349187 3.7382078063308458e-05 0 -0.0046364011108831881 0.00025697953279011889 0 -0.004718497273203971 0.00014256279069579383 0 -0.0045308851852909155 8.1828759034760897e-05 0 -0.0045376553047628511 8.065751966259938e-05 0 -0.0045326837556042433 7.54778819314711e-05 0 -0.0045384721957663372 7.510374563202615e-05 0 -0.0045376553047628511 8.065751966259938e-05 0 -0.0045326837556042433 7.54778819314711e-05 0 -0.0045384721957663372 7.510374563202615e-05 0 -0.0045363516099898998 7.0183287246259184e-05 0 -0.0045326837556042433 7.54778819314711e-05 0 -0.0045326837556042433 7.54778819314711e-05 0 -0.0045251629752800955 7.6451174672588707e-05 0 -0.004529281042493543 6.9340356279851416e-05 0 -0.0045363516099898998 7.0183287246259184e-05 0 -0.0045326837556042433 7.54778819314711e-05 0 -0.004529281042493543 6.9340356279851416e-05 0 -0.0045308851852909155 8.1828759034760897e-05 0 -0.0045326837556042433 7.54778819314711e-05 0 -0.0045251629752800955 7.6451174672588707e-05 0 -0.0046364011108831881 0.00025697953279011889 0 -0.0043306724571393687 0.00052089635829402777 0 -0.0043306724571393687 0.00052089635829402777 0 -0.0042405185929929598 0.00057135026854252967 0 -0.0039024578171506109 0.0011359331254163203 0 -0.0038890974850657551 0.0011228435352427331 0 -0.003911598899024967 0.0011224880915712361 0 -0.0038460894221303494 0.0011206614383483351 0 -0.0038890974850657551 0.0011228435352427331 0 -0.0039578100808930188 0.0010933074000904171 0 -0.0043306724571393687 0.00052089635829402777 0 -0.0042777002225078678 0.00067396120042242512 0 -0.0038460894221303494 0.0011206614383483351 0 -0.0039578100808930188 0.0010933074000904171 0 -0.0039373461045109828 0.00085725310005129243 0 -0.0043306724571393687 0.00052089635829402777 0 -0.004474679578773213 0.00039126338014505377 0 -0.0039578100808930188 0.0010933074000904171 0 -0.0039373461045109828 0.00085725310005129243 0 -0.0041828058611452596 0.00081419460132772033 0 -0.004474679578773213 0.00039126338014505377 0 -0.004404683160822152 0.00041780209956651876 0 -0.0046364011108831881 0.00025697953279011889 0 -0.004474679578773213 0.00039126338014505377 0 -0.0049887813145253826 2.5253928620297404e-07 0 -0.0049846222020504547 -9.424451866117636e-07 0 -0.0049851367351926475 -9.722367540717635e-07 0 -0.0044796140249844787 0.00035728430207999608 0 -0.0044548209260797866 0.0003305628777535142 0 -0.0044389328509840268 0.00036072350659678695 0 -0.0049877972551906451 1.3885300022241056e-06 0 -0.0049887813145253826 2.5253928620297404e-07 0 -0.0049851367351926475 -9.722367540717635e-07 0 -0.004474679578773213 0.00039126338014505377 0 -0.0045864897112510407 0.0002733534824355184 0 -0.0049846222020504547 -9.424451866117636e-07 0 -0.0049851367351926475 -9.722367540717635e-07 0 -0.0049838659535250676 -3.4040655397699442e-06 0 -0.0040006984431355253 0.0008287889537726364 0 -0.0042423014015736671 0.00049983147202672452 0 -0.0041828058611452596 0.00081419460132772033 0 -0.0038379057866307462 0.001024743844092174 0 -0.0038438913483346778 0.0010660338706072498 0 -0.0037991521631981205 0.0010302521818921523 0 -0.0038379057866307462 0.001024743844092174 0 -0.0038845402432376129 0.0010044486143529329 0 -0.0038319889935735886 0.00098202491088736354 0 -0.0038379057866307462 0.001024743844092174 0 -0.0038845402432376129 0.0010044486143529329 0 -0.0038887734503062609 0.0010587427324761261 0 -0.0038845402432376129 0.0010044486143529329 0 -0.0038887734503062609 0.0010587427324761261 0 -0.003933359616762085 0.001030351727808011 0 -0.0038887734503062609 0.0010587427324761261 0 -0.0038438913483346778 0.0010660338706072498 0 -0.0038827990372148568 0.0011003486772234762 0 -0.0038379057866307462 0.001024743844092174 0 -0.0038887734503062609 0.0010587427324761261 0 -0.0038438913483346778 0.0010660338706072498 0 -0.0038438913483346778 0.0010660338706072498 0 -0.0038827990372148568 0.0011003486772234762 0 -0.0038482484106548867 0.0010980574430005071 0 -0.0038890974850657551 0.0011228435352427331 0 -0.0038827990372148568 0.0011003486772234762 0 -0.0038482484106548867 0.0010980574430005071 0 -0.0038890974850657551 0.0011228435352427331 0 -0.0038827990372148568 0.0011003486772234762 0 -0.003911598899024967 0.0011224880915712361 0 -0.0038827990372148568 0.0011003486772234762 0 -0.0039414672454958456 0.0010943407614966213 0 -0.003911598899024967 0.0011224880915712361 0 -0.0038887734503062609 0.0010587427324761261 0 -0.0038827990372148568 0.0011003486772234762 0 -0.0039414672454958456 0.0010943407614966213 0 -0.0041930665507260642 0.00054676800059718592 0 -0.0042405185929929598 0.00057135026854252967 0 -0.0045363516099898998 7.0183287246259184e-05 0 -0.004529281042493543 6.9340356279851416e-05 0 -0.004535539400278019 6.6305060985519148e-05 0 -0.0045361840062739861 6.366375560404784e-05 0 -0.004529281042493543 6.9340356279851416e-05 0 -0.004535539400278019 6.6305060985519148e-05 0 -0.0045363516099898998 7.0183287246259184e-05 0 -0.004535539400278019 6.6305060985519148e-05 0 -0.0045376812780600247 6.6652576011145138e-05 0 -0.004535539400278019 6.6305060985519148e-05 0 -0.0045370116760447042 6.3630327834329642e-05 0 -0.0045376812780600247 6.6652576011145138e-05 0 -0.0045361840062739861 6.366375560404784e-05 0 -0.0045379380918807262 6.3838433152884214e-05 0 -0.0045370116760447042 6.3630327834329642e-05 0 -0.0045361840062739861 6.366375560404784e-05 0 -0.004535539400278019 6.6305060985519148e-05 0 -0.0045370116760447042 6.3630327834329642e-05 0 -0.0045361840062739861 6.366375560404784e-05 0 -0.0045492315133486101 6.925714539099146e-05 0 -0.0045379380918807262 6.3838433152884214e-05 0 -0.0041930665507260642 0.00054676800059718592 0 -0.0041221023438872319 0.00049845589363994316 0 -0.0045492315133486101 6.925714539099146e-05 0 -0.0045334508173962978 7.0173569352584563e-05 0 -0.0045379380918807262 6.3838433152884214e-05 0 -0.0038887734503062609 0.0010587427324761261 0 -0.0039414672454958456 0.0010943407614966213 0 -0.003933359616762085 0.001030351727808011 0 -0.0039414672454958456 0.0010943407614966213 0 -0.003933359616762085 0.001030351727808011 0 -0.0039920192668513876 0.0010416925224248281 0 -0.003933359616762085 0.001030351727808011 0 -0.0039773602486027418 0.00099768818125992552 0 -0.0039364051347026818 0.00097335432282814524 0 -0.0038845402432376129 0.0010044486143529329 0 -0.003933359616762085 0.001030351727808011 0 -0.0039364051347026818 0.00097335432282814524 0 -0.0039920192668513876 0.0010416925224248281 0 -0.0040561377169606536 0.00096507071813606109 0 -0.0039773602486027418 0.00099768818125992552 0 -0.003933359616762085 0.001030351727808011 0 -0.0039920192668513876 0.0010416925224248281 0 -0.0039773602486027418 0.00099768818125992552 0 -0.0041221023438872319 0.00049845589363994316 0 -0.0039525590526567544 0.00044563498771602115 0 -0.0045144170335469913 9.276833338416022e-05 0 -0.0044511613125203034 -6.9193924175337638e-06 0 -0.0044841548706577783 -7.3417416823796987e-05 0 -0.0045492315133486101 6.925714539099146e-05 0 -0.0045144170335469913 9.276833338416022e-05 0 -0.0045439840740694182 0.00015388488423293253 0 -0.0045144170335469913 9.276833338416022e-05 0 -0.0045314590151203813 6.1935323970462622e-05 0 -0.0045334508173962978 7.0173569352584563e-05 0 -0.0045492315133486101 6.925714539099146e-05 0 -0.0045144170335469913 9.276833338416022e-05 0 -0.0045334508173962978 7.0173569352584563e-05 0 -0.0045316706187399072 3.9188600176717581e-05 0 -0.0045327287048958628 5.4324736331181658e-06 0 -0.0045144170335469913 9.276833338416022e-05 0 -0.004428783564426198 9.425984829671497e-05 0 -0.0044511613125203034 -6.9193924175337638e-06 0 -0.0044511613125203034 -6.9193924175337638e-06 0 -0.0043537942457019512 -1.1274548941382617e-05 0 -0.0043684795575317141 6.9099144352145224e-05 0 -0.004428783564426198 9.425984829671497e-05 0 -0.0044511613125203034 -6.9193924175337638e-06 0 -0.0043684795575317141 6.9099144352145224e-05 0 -0.004428783564426198 9.425984829671497e-05 0 -0.0043684795575317141 6.9099144352145224e-05 0 -0.0043598576135540782 0.00013645206858121266 0 -0.0044511613125203034 -6.9193924175337638e-06 0 -0.0044841548706577783 -7.3417416823796987e-05 0 -0.0044251184824782904 -0.00014041958937407333 0 -0.0044511613125203034 -6.9193924175337638e-06 0 -0.004363422420743451 -7.2134334760211953e-05 0 -0.0043845035613381701 -6.4723849696655183e-05 0 -0.0044658178930342103 -4.4990908184109406e-05 0 -0.0044687544928382096 -7.3167792043569456e-05 0 -0.0044511613125203034 -6.9193924175337638e-06 0 -0.0043845035613381701 -6.4723849696655183e-05 0 -0.0043537942457019512 -1.1274548941382617e-05 0 -0.0045314590151203813 6.1935323970462622e-05 0 -0.0045334508173962978 7.0173569352584563e-05 0 -0.0045379380918807262 6.3838433152884214e-05 0 -0.0045314590151203813 6.1935323970462622e-05 0 -0.0045379380918807262 6.3838433152884214e-05 0 -0.0045370116760447042 6.3630327834329642e-05 0 -0.0045327287048958628 5.4324736331181658e-06 0 -0.0045452601437628859 -3.2353287695880059e-05 0 -0.0045314590151203813 6.1935323970462622e-05 0 -0.0045370116760447042 6.3630327834329642e-05 0 -0.0045397599107984054 6.5227161360907008e-05 0 -0.0045431341056345036 7.2518660654260884e-05 0 -0.0045391640300843795 6.9668475457899151e-05 0 -0.0045397599107984054 6.5227161360907008e-05 0 -0.0045370116760447042 6.3630327834329642e-05 0 -0.0045376812780600247 6.6652576011145138e-05 0 -0.0045397599107984054 6.5227161360907008e-05 0 -0.0045391640300843795 6.9668475457899151e-05 0 -0.0045376812780600247 6.6652576011145138e-05 0 -0.0045397599107984054 6.5227161360907008e-05 0 -0.0045391640300843795 6.9668475457899151e-05 0 -0.0045363516099898998 7.0183287246259184e-05 0 -0.0045376812780600247 6.6652576011145138e-05 0 -0.0044495930322108164 -0.00021331801321513509 0 -0.0044392470907041797 -0.00018243422495917771 0 -0.0044626972452961886 -0.00016475520067419156 0 -0.0044392470907041797 -0.00018243422495917771 0 -0.0044626972452961886 -0.00016475520067419156 0 -0.0044251184824782904 -0.00014041958937407333 0 -0.0045829333757701355 -3.3367961979437759e-05 0 -0.0045452601437628859 -3.2353287695880059e-05 0 -0.0044167235234568395 -0.0002045236545242145 0 -0.0044392470907041797 -0.00018243422495917771 0 -0.0044251184824782904 -0.00014041958937407333 0 -0.0044841548706577783 -7.3417416823796987e-05 0 -0.0044626972452961886 -0.00016475520067419156 0 -0.0044251184824782904 -0.00014041958937407333 0 -0.004363422420743451 -7.2134334760211953e-05 0 -0.0044667499997872537 1.7812509335401642e-05 0 -0.0043709639624959044 -0.00013811898738040948 0 -0.004363422420743451 -7.2134334760211953e-05 0 -0.0043709639624959044 -0.00013811898738040948 0 -0.0043845035613381701 -6.4723849696655183e-05 0 -0.0045673957416028955 0.00011583624238676915 0 -0.0044604207774676064 0.00013276785847311204 0 -0.0044667499997872537 1.7812509335401642e-05 0 -0.0044604207774676064 0.00013276785847311204 0 -0.004363422420743451 -7.2134334760211953e-05 0 -0.0044667499997872537 1.7812509335401642e-05 0 -0.0045293556439125497 -4.8396130503030564e-05 0 -0.0044687544928382096 -7.3167792043569456e-05 0 -0.0046563072213886506 0.00013141620812049621 0 -0.0045673957416028955 0.00011583624238676915 0 -0.0045847399784970126 4.1306563532239143e-05 0 -0.0045673957416028955 0.00011583624238676915 0 -0.0044667499997872537 1.7812509335401642e-05 0 -0.0045847399784970126 4.1306563532239143e-05 0 -0.0044667499997872537 1.7812509335401642e-05 0 -0.0045847399784970126 4.1306563532239143e-05 0 -0.0043709639624959044 -0.00013811898738040948 0 -0.0045847399784970126 4.1306563532239143e-05 0 -0.0043709639624959044 -0.00013811898738040948 0 -0.0046436230516296896 -5.7305272272206355e-05 0 -0.0043709639624959044 -0.00013811898738040948 0 -0.0043537942457019512 -1.1274548941382617e-05 0 -0.0040927232714146706 3.8354129814408679e-05 0 -0.0043709639624959044 -0.00013811898738040948 0 -0.0040927232714146706 3.8354129814408679e-05 0 -0.0038870611885132092 -0.00030919040633944336 0 -0.0042139787512201687 -0.00011899393863056832 0 -0.0041405999798528065 -0.00011021353080641934 0 -0.0043709639624959044 -0.00013811898738040948 0 -0.0043845035613381701 -6.4723849696655183e-05 0 -0.0043537942457019512 -1.1274548941382617e-05 0 -0.0043537942457019512 -1.1274548941382617e-05 0 -0.004274298337737883 8.2429235098134611e-05 0 -0.0040927232714146706 3.8354129814408679e-05 0 -0.0043537942457019512 -1.1274548941382617e-05 0 -0.0043684795575317141 6.9099144352145224e-05 0 -0.004274298337737883 8.2429235098134611e-05 0 -0.0043684795575317141 6.9099144352145224e-05 0 -0.004274298337737883 8.2429235098134611e-05 0 -0.0042993304189523438 0.00013818867126625688 0 -0.004274298337737883 8.2429235098134611e-05 0 -0.0040927232714146706 3.8354129814408679e-05 0 -0.0042322647132658937 0.00015187482365153451 0 -0.0040927232714146706 3.8354129814408679e-05 0 -0.0041944442322374891 0.00023250663139652794 0 -0.0042322647132658937 0.00015187482365153451 0 -0.0040927232714146706 3.8354129814408679e-05 0 -0.0041466880105446172 0.00049147665448681513 0 -0.0039378259602030714 0.00025378675266649243 0 -0.0037734074437125067 0.00025128892066192789 0 -0.0036869304467419032 0.00035968192594022628 0 -0.0041944442322374891 0.00023250663139652794 0 -0.0042406920721542131 0.00021339679823884951 0 -0.0042322647132658937 0.00015187482365153451 0 -0.0041466880105446172 0.00049147665448681513 0 -0.0039953886398725351 0.00051329474849589067 0 -0.0039378259602030714 0.00025378675266649243 0 -0.004274298337737883 8.2429235098134611e-05 0 -0.0042322647132658937 0.00015187482365153451 0 -0.0042993304189523438 0.00013818867126625688 0 -0.0042322647132658937 0.00015187482365153451 0 -0.0042993304189523438 0.00013818867126625688 0 -0.0042744253482177473 0.00018686950296518151 0 -0.0043684795575317141 6.9099144352145224e-05 0 -0.0042993304189523438 0.00013818867126625688 0 -0.0043598576135540782 0.00013645206858121266 0 -0.0042993304189523438 0.00013818867126625688 0 -0.0043598576135540782 0.00013645206858121266 0 -0.0043331932871929716 0.00019636323427747935 0 -0.0043598576135540782 0.00013645206858121266 0 -0.0043331932871929716 0.00019636323427747935 0 -0.0043953645127840276 0.00016682173265309734 0 -0.0042993304189523438 0.00013818867126625688 0 -0.0043331932871929716 0.00019636323427747935 0 -0.0042744253482177473 0.00018686950296518151 0 -0.0042406920721542131 0.00021339679823884951 0 -0.0042322647132658937 0.00015187482365153451 0 -0.0042744253482177473 0.00018686950296518151 0 -0.0043331932871929716 0.00019636323427747935 0 -0.0042744253482177473 0.00018686950296518151 0 -0.0042901577549640402 0.0002256735148386748 0 -0.0042406920721542131 0.00021339679823884951 0 -0.0042744253482177473 0.00018686950296518151 0 -0.0042901577549640402 0.0002256735148386748 0 -0.0042406920721542131 0.00021339679823884951 0 -0.0042901577549640402 0.0002256735148386748 0 -0.0042632334421500726 0.0002771902040230597 0 -0.0042632334421500726 0.0002771902040230597 0 -0.0043067262729381385 0.00032638938164108143 0 -0.0042381661720209312 0.00040415271197562534 0 -0.0042901577549640402 0.0002256735148386748 0 -0.0042632334421500726 0.0002771902040230597 0 -0.0043179182397041172 0.00025657654612425704 0 -0.0043179182397041172 0.00025657654612425704 0 -0.0043645081485294002 0.00030064788486378231 0 -0.004385918608580619 0.0002249467333548349 0 -0.0043331932871929716 0.00019636323427747935 0 -0.0042901577549640402 0.0002256735148386748 0 -0.0043179182397041172 0.00025657654612425704 0 -0.0043331932871929716 0.00019636323427747935 0 -0.0043179182397041172 0.00025657654612425704 0 -0.004385918608580619 0.0002249467333548349 0 -0.0043179182397041172 0.00025657654612425704 0 -0.0043067262729381385 0.00032638938164108143 0 -0.0043645081485294002 0.00030064788486378231 0 -0.0043067262729381385 0.00032638938164108143 0 -0.0043405332294938212 0.00036871193038418162 0 -0.0043645081485294002 0.00030064788486378231 0 -0.0042632334421500726 0.0002771902040230597 0 -0.0043179182397041172 0.00025657654612425704 0 -0.0043067262729381385 0.00032638938164108143 0 -0.0041335508961135997 0.0005784831162661565 0 -0.0042410549556071431 0.00091758254684625113 0 -0.0038615094722858098 0.00072713991621759346 0 -0.0036869304467419032 0.00035968192594022628 0 -0.003251969432599474 0.00021872634126408763 0 -0.003418084229156976 0.00025259207940477502 0 -0.0031690184792794998 0.00028754693832414279 0 -0.0041335508961135997 0.0005784831162661565 0 -0.0039953886398725351 0.00051329474849589067 0 -0.0038386206087512491 0.00075691752683322057 0 -0.0041944442322374891 0.00023250663139652794 0 -0.0042632334421500726 0.0002771902040230597 0 -0.0042381661720209312 0.00040415271197562534 0 -0.0041466880105446172 0.00049147665448681513 0 -0.0041335508961135997 0.0005784831162661565 0 -0.0042410549556071431 0.00091758254684625113 0 -0.0041944442322374891 0.00023250663139652794 0 -0.0042406920721542131 0.00021339679823884951 0 -0.0042632334421500726 0.0002771902040230597 0 -0.0041466880105446172 0.00049147665448681513 0 -0.0041335508961135997 0.0005784831162661565 0 -0.0039953886398725351 0.00051329474849589067 0 -0.003251969432599474 0.00021872634126408763 0 -0.0031690184792794998 0.00028754693832414279 0 -0.0023713558617341605 -6.7150416698295246e-05 0 -0.0023530887180210338 -7.7417304701619385e-05 0 -0.0023543077648541088 -5.8529956313878165e-05 0 -0.0023713558617341605 -6.7150416698295246e-05 0 -0.0023653467310546872 -5.7204218269283008e-05 0 -0.0023543077648541088 -5.8529956313878165e-05 0 -0.0023713558617341605 -6.7150416698295246e-05 0 -0.0023653467310546872 -5.7204218269283008e-05 0 -0.0023726541796401969 -5.2462839163900599e-05 0 -0.0023653467310546872 -5.7204218269283008e-05 0 -0.0023623008270596052 -5.1140679158906693e-05 0 -0.0023726541796401969 -5.2462839163900599e-05 0 -0.0023653467310546872 -5.7204218269283008e-05 0 -0.0023543077648541088 -5.8529956313878165e-05 0 -0.0023623008270596052 -5.1140679158906693e-05 0 -0.0024808293693147614 -2.3104436752338256e-05 0 -0.002478545054156667 -2.5290277421611311e-05 0 -0.0024773529627686742 -2.4363356575061785e-05 0 -0.0024808293693147614 -2.3104436752338256e-05 0 -0.0024787715654141554 -2.4474674770929683e-05 0 -0.002478545054156667 -2.5290277421611311e-05 0 -0.003251969432599474 0.00021872634126408763 0 -0.0028210327344908351 -2.2325595601182737e-05 0 -0.0042381661720209312 0.00040415271197562534 0 -0.0043405332294938212 0.00036871193038418162 0 -0.0043866417011926779 0.00048032566192204266 0 -0.003251969432599474 0.00021872634126408763 0 -0.0032908921098817991 0.00010835241670292441 0 -0.0043067262729381385 0.00032638938164108143 0 -0.0042381661720209312 0.00040415271197562534 0 -0.0043405332294938212 0.00036871193038418162 0 -0.0043405332294938212 0.00036871193038418162 0 -0.0043973146869285282 0.00035493100991844005 0 -0.0043645081485294002 0.00030064788486378231 0 -0.0043405332294938212 0.00036871193038418162 0 -0.0043973146869285282 0.00035493100991844005 0 -0.0043866417011926779 0.00048032566192204266 0 -0.0035345750220093838 0.00043478642203808584 0 -0.0032908921098817991 0.00010835241670292441 0 -0.0026182211070685689 0.0001700776687782102 0 -0.0026733919621198476 6.2339090458672685e-05 0 -0.0026069097347493171 9.5445995401594367e-05 0 -0.0043973146869285282 0.00035493100991844005 0 -0.0044649162781488765 0.00033782354406541512 0 -0.0043866417011926779 0.00048032566192204266 0 -0.0026733919621198476 6.2339090458672685e-05 0 -0.0025842732064993755 5.9260929378472162e-05 0 -0.0026069097347493171 9.5445995401594367e-05 0 -0.0032908921098817991 0.00010835241670292441 0 -0.0028368394831588704 -3.795151974183675e-05 0 -0.0024800993334450909 -2.8747729061051958e-05 0 -0.0024816982764919557 -2.5930101737842127e-05 0 -0.0024871961927894056 -2.7987762206334891e-05 0 -0.0032908921098817991 0.00010835241670292441 0 -0.0032645071200494142 0.00012008169556849139 0 -0.0024816982764919557 -2.5930101737842127e-05 0 -0.002478545054156667 -2.5290277421611311e-05 0 -0.0024796464827831471 -2.3520104118149912e-05 0 -0.0024800993334450909 -2.8747729061051958e-05 0 -0.0024816982764919557 -2.5930101737842127e-05 0 -0.002478545054156667 -2.5290277421611311e-05 0 -0.0025797861677163783 2.0096256852936488e-05 0 -0.0025432945563563297 5.6676581504654044e-05 0 -0.0025028392014620699 -1.1573311574525856e-05 0 -0.0026733919621198476 6.2339090458672685e-05 0 -0.0025797861677163783 2.0096256852936488e-05 0 -0.0025842732064993755 5.9260929378472162e-05 0 -0.0025842732064993755 5.9260929378472162e-05 0 -0.0025432945563563297 5.6676581504654044e-05 0 -0.0026069097347493171 9.5445995401594367e-05 0 -0.0025797861677163783 2.0096256852936488e-05 0 -0.0025842732064993755 5.9260929378472162e-05 0 -0.0025432945563563297 5.6676581504654044e-05 0 -0.0041164785295880451 0.00086948986085273803 0 -0.0040647256863105621 0.00077673544094193669 0 -0.0040653068624482676 0.00084043868702737292 0 -0.0035345750220093838 0.00043478642203808584 0 -0.0034037426624785498 0.00036229766437461693 0 -0.0040647256863105621 0.00077673544094193669 0 -0.0040653068624482676 0.00084043868702737292 0 -0.0040409180473028822 0.00081079298278885535 0 -0.0026182211070685689 0.0001700776687782102 0 -0.0025432945563563297 5.6676581504654044e-05 0 -0.0026069097347493171 9.5445995401594367e-05 0 -0.0041164785295880451 0.00086948986085273803 0 -0.0040653068624482676 0.00084043868702737292 0 -0.004077344825824134 0.0008709287647110848 0 -0.0040653068624482676 0.00084043868702737292 0 -0.0040457223023809569 0.0008770391468196345 0 -0.004077344825824134 0.0008709287647110848 0 -0.0040457223023809569 0.0008770391468196345 0 -0.0040630518010519668 0.00090130975919601897 0 -0.0040250360277476558 0.00092367373104930623 0 -0.0041164785295880451 0.00086948986085273803 0 -0.0040630518010519668 0.00090130975919601897 0 -0.0040561377169606536 0.00096507071813606109 0 -0.004469283414018861 0.00033808957682240676 0 -0.0044570396929760094 0.00023052804470656549 0 -0.0045439840740694182 0.00015388488423293253 0 -0.0035345750220093838 0.00043478642203808584 0 -0.0039525590526567544 0.00044563498771602115 0 -0.0040457223023809569 0.0008770391468196345 0 -0.004077344825824134 0.0008709287647110848 0 -0.0040630518010519668 0.00090130975919601897 0 -0.0040630518010519668 0.00090130975919601897 0 -0.0040561377169606536 0.00096507071813606109 0 -0.0040250360277476558 0.00092367373104930623 0 -0.0041164785295880451 0.00086948986085273803 0 -0.004077344825824134 0.0008709287647110848 0 -0.0040630518010519668 0.00090130975919601897 0 -0.0035345750220093838 0.00043478642203808584 0 -0.0035781484559398009 0.00045705503279498406 0 -0.0043973146869285282 0.00035493100991844005 0 -0.0044649162781488765 0.00033782354406541512 0 -0.0044309281196690522 0.00028387768575090466 0 -0.004469283414018861 0.00033808957682240676 0 -0.0044309281196690522 0.00028387768575090466 0 -0.0044570396929760094 0.00023052804470656549 0 -0.0043973146869285282 0.00035493100991844005 0 -0.0044309281196690522 0.00028387768575090466 0 -0.0043645081485294002 0.00030064788486378231 0 -0.0044309281196690522 0.00028387768575090466 0 -0.0043645081485294002 0.00030064788486378231 0 -0.004385918608580619 0.0002249467333548349 0 -0.0044309281196690522 0.00028387768575090466 0 -0.004385918608580619 0.0002249467333548349 0 -0.0044570396929760094 0.00023052804470656549 0 -0.004385918608580619 0.0002249467333548349 0 -0.0044570396929760094 0.00023052804470656549 0 -0.0044541665101021626 0.00015826632969572892 0 -0.0043331932871929716 0.00019636323427747935 0 -0.004385918608580619 0.0002249467333548349 0 -0.0043953645127840276 0.00016682173265309734 0 -0.004385918608580619 0.0002249467333548349 0 -0.0044541665101021626 0.00015826632969572892 0 -0.0043953645127840276 0.00016682173265309734 0 -0.004428783564426198 9.425984829671497e-05 0 -0.0043598576135540782 0.00013645206858121266 0 -0.0043953645127840276 0.00016682173265309734 0 -0.0045144170335469913 9.276833338416022e-05 0 -0.004428783564426198 9.425984829671497e-05 0 -0.0044541665101021626 0.00015826632969572892 0 -0.004428783564426198 9.425984829671497e-05 0 -0.0044541665101021626 0.00015826632969572892 0 -0.0043953645127840276 0.00016682173265309734 0 -0.0045144170335469913 9.276833338416022e-05 0 -0.0044541665101021626 0.00015826632969572892 0 -0.0045439840740694182 0.00015388488423293253 0 -0.0044570396929760094 0.00023052804470656549 0 -0.0044541665101021626 0.00015826632969572892 0 -0.0045439840740694182 0.00015388488423293253 0 -0.0040561377169606536 0.00096507071813606109 0 -0.0039900588682208245 0.0009546472868405437 0 -0.0039773602486027418 0.00099768818125992552 0 -0.0040561377169606536 0.00096507071813606109 0 -0.0039900588682208245 0.0009546472868405437 0 -0.0040250360277476558 0.00092367373104930623 0 -0.0039900588682208245 0.0009546472868405437 0 -0.0039364051347026818 0.00097335432282814524 0 -0.0039680203965112197 0.00090851830883871435 0 -0.0039900588682208245 0.0009546472868405437 0 -0.0039773602486027418 0.00099768818125992552 0 -0.0039364051347026818 0.00097335432282814524 0 -0.0039680203965112197 0.00090851830883871435 0 -0.0039182954718468372 0.00087717309187487411 0 -0.0038837250252510753 0.00093860807623967328 0 -0.0039364051347026818 0.00097335432282814524 0 -0.0039680203965112197 0.00090851830883871435 0 -0.0038837250252510753 0.00093860807623967328 0 -0.0039680203965112197 0.00090851830883871435 0 -0.0040084131402209362 0.00088033228007042752 0 -0.0039732386868414843 0.00084124222002708669 0 -0.0039680203965112197 0.00090851830883871435 0 -0.0040084131402209362 0.00088033228007042752 0 -0.0040250360277476558 0.00092367373104930623 0 -0.0039900588682208245 0.0009546472868405437 0 -0.0039680203965112197 0.00090851830883871435 0 -0.0040250360277476558 0.00092367373104930623 0 -0.0040457223023809569 0.0008770391468196345 0 -0.0040084131402209362 0.00088033228007042752 0 -0.0040250360277476558 0.00092367373104930623 0 -0.0040653068624482676 0.00084043868702737292 0 -0.0040457223023809569 0.0008770391468196345 0 -0.0040303580298618703 0.00084478833210435244 0 -0.0040457223023809569 0.0008770391468196345 0 -0.0040084131402209362 0.00088033228007042752 0 -0.0040303580298618703 0.00084478833210435244 0 -0.0040084131402209362 0.00088033228007042752 0 -0.0040303580298618703 0.00084478833210435244 0 -0.0039732386868414843 0.00084124222002708669 0 -0.0040128382770514923 0.00081193840799082169 0 -0.0039877466283807835 0.0007851286566582928 0 -0.0039732386868414843 0.00084124222002708669 0 -0.0040303580298618703 0.00084478833210435244 0 -0.0040128382770514923 0.00081193840799082169 0 -0.0039732386868414843 0.00084124222002708669 0 -0.0040653068624482676 0.00084043868702737292 0 -0.0040303580298618703 0.00084478833210435244 0 -0.0040409180473028822 0.00081079298278885535 0 -0.0040303580298618703 0.00084478833210435244 0 -0.0040128382770514923 0.00081193840799082169 0 -0.0040409180473028822 0.00081079298278885535 0 -0.0040128382770514923 0.00081193840799082169 0 -0.0040409180473028822 0.00081079298278885535 0 -0.0040231367275005659 0.0007861563674227979 0 -0.0040647256863105621 0.00077673544094193669 0 -0.0040076155679800319 0.00074534754963836839 0 -0.0040141834653571662 0.00066579779541750983 0 -0.0034037426624785498 0.00036229766437461693 0 -0.0033426880003393257 0.0002868740394005527 0 -0.0040647256863105621 0.00077673544094193669 0 -0.0040231367275005659 0.0007861563674227979 0 -0.0040076155679800319 0.00074534754963836839 0 -0.0040647256863105621 0.00077673544094193669 0 -0.0040409180473028822 0.00081079298278885535 0 -0.0040231367275005659 0.0007861563674227979 0 -0.0040231367275005659 0.0007861563674227979 0 -0.0039877466283807835 0.0007851286566582928 0 -0.0040076155679800319 0.00074534754963836839 0 -0.0039877466283807835 0.0007851286566582928 0 -0.0040076155679800319 0.00074534754963836839 0 -0.0039643919505438427 0.00075527895201258776 0 -0.0040128382770514923 0.00081193840799082169 0 -0.0040231367275005659 0.0007861563674227979 0 -0.0039877466283807835 0.0007851286566582928 0 -0.0039200662266455051 0.00075286885289961418 0 -0.0039643919505438427 0.00075527895201258776 0 -0.0039576532775908654 0.00070414766794410478 0 -0.0040076155679800319 0.00074534754963836839 0 -0.0039643919505438427 0.00075527895201258776 0 -0.0039576532775908654 0.00070414766794410478 0 -0.0039877466283807835 0.0007851286566582928 0 -0.0039643919505438427 0.00075527895201258776 0 -0.0039482925812224642 0.0007912283987606773 0 -0.0039200662266455051 0.00075286885289961418 0 -0.0039482925812224642 0.0007912283987606773 0 -0.003907636428258845 0.0008218294141353078 0 -0.0039200662266455051 0.00075286885289961418 0 -0.0039643919505438427 0.00075527895201258776 0 -0.0039482925812224642 0.0007912283987606773 0 -0.0039482925812224642 0.0007912283987606773 0 -0.0039732386868414843 0.00084124222002708669 0 -0.003907636428258845 0.0008218294141353078 0 -0.0039877466283807835 0.0007851286566582928 0 -0.0039482925812224642 0.0007912283987606773 0 -0.0039732386868414843 0.00084124222002708669 0 -0.0039680203965112197 0.00090851830883871435 0 -0.0039732386868414843 0.00084124222002708669 0 -0.0039182954718468372 0.00087717309187487411 0 -0.0039732386868414843 0.00084124222002708669 0 -0.0039182954718468372 0.00087717309187487411 0 -0.003907636428258845 0.0008218294141353078 0 -0.0038486010551684029 0.00087125983477818537 0 -0.003907636428258845 0.0008218294141353078 0 -0.0038614794670068708 0.00077463561209842281 0 -0.0039182954718468372 0.00087717309187487411 0 -0.0038486010551684029 0.00087125983477818537 0 -0.003907636428258845 0.0008218294141353078 0 -0.0039200662266455051 0.00075286885289961418 0 -0.003907636428258845 0.0008218294141353078 0 -0.0038614794670068708 0.00077463561209842281 0 -0.0039200662266455051 0.00075286885289961418 0 -0.0038614794670068708 0.00077463561209842281 0 -0.0038810602515757884 0.00068522753114073985 0 -0.0037873394794231082 0.00080505025793618443 0 -0.003763162702185568 0.00068287287187281001 0 -0.0036947058201652304 0.00078946098930854976 0 -0.0038614794670068708 0.00077463561209842281 0 -0.0037873394794231082 0.00080505025793618443 0 -0.003763162702185568 0.00068287287187281001 0 -0.0038486010551684029 0.00087125983477818537 0 -0.0037873394794231082 0.00080505025793618443 0 -0.0037585965621518384 0.00088379109260802757 0 -0.0038486010551684029 0.00087125983477818537 0 -0.0038614794670068708 0.00077463561209842281 0 -0.0037873394794231082 0.00080505025793618443 0 -0.0038486010551684029 0.00087125983477818537 0 -0.0038058635871094514 0.00093477378358037102 0 -0.0037585965621518384 0.00088379109260802757 0 -0.0039182954718468372 0.00087717309187487411 0 -0.0038486010551684029 0.00087125983477818537 0 -0.0038837250252510753 0.00093860807623967328 0 -0.0038486010551684029 0.00087125983477818537 0 -0.0038058635871094514 0.00093477378358037102 0 -0.0038837250252510753 0.00093860807623967328 0 -0.0038845402432376129 0.0010044486143529329 0 -0.0038837250252510753 0.00093860807623967328 0 -0.0038319889935735886 0.00098202491088736354 0 -0.0038845402432376129 0.0010044486143529329 0 -0.0039364051347026818 0.00097335432282814524 0 -0.0038837250252510753 0.00093860807623967328 0 -0.0038058635871094514 0.00093477378358037102 0 -0.0038837250252510753 0.00093860807623967328 0 -0.0038319889935735886 0.00098202491088736354 0 -0.0038058635871094514 0.00093477378358037102 0 -0.0038319889935735886 0.00098202491088736354 0 -0.0037806092362397087 0.00099141162777049313 0 -0.0038379057866307462 0.001024743844092174 0 -0.0038319889935735886 0.00098202491088736354 0 -0.0037806092362397087 0.00099141162777049313 0 -0.0029290253347391015 3.2735403866001125e-05 0 -0.002941476502095839 -3.6699237704351694e-06 0 -0.0029488260891690232 -9.4408739437133078e-07 0 -0.0029290253347391015 3.2735403866001125e-05 0 -0.0029488260891690232 -9.4408739437133078e-07 0 -0.0030298694041057863 2.1799289829694657e-05 0 -0.0030819141534310398 4.5449490668776753e-05 0 -0.0035132496564775858 3.9169775539882953e-06 0 -0.0029290253347391015 3.2735403866001125e-05 0 -0.0029620048091941898 -3.6966930124201697e-05 0 -0.002941476502095839 -3.6699237704351694e-06 0 -0.0029290253347391015 3.2735403866001125e-05 0 -0.0029620048091941898 -3.6966930124201697e-05 0 -0.0030081156880653907 -0.00012839153451575492 0 -0.0029620048091941898 -3.6966930124201697e-05 0 -0.002941476502095839 -3.6699237704351694e-06 0 -0.0029424027998224524 3.8441703668938754e-06 0 -0.0029620048091941898 -3.6966930124201697e-05 0 -0.0029424027998224524 3.8441703668938754e-06 0 -0.0029809138577007572 -2.6992321699382407e-06 0 -0.0029424027998224524 3.8441703668938754e-06 0 -0.0029500736398429066 3.2274470091970785e-05 0 -0.0029809138577007572 -2.6992321699382407e-06 0 -0.0029424027998224524 3.8441703668938754e-06 0 -0.0029500736398429066 3.2274470091970785e-05 0 -0.0029293229985728484 1.3883239352800122e-05 0 -0.0029488260891690232 -9.4408739437133078e-07 0 -0.0029503249006891824 -6.3748291155818771e-06 0 -0.0029293229985728484 1.3883239352800122e-05 0 -0.0029488260891690232 -9.4408739437133078e-07 0 -0.0029503249006891824 -6.3748291155818771e-06 0 -0.0030193161049525993 -3.6162812735403115e-06 0 -0.0029424027998224524 3.8441703668938754e-06 0 -0.0029488260891690232 -9.4408739437133078e-07 0 -0.0029293229985728484 1.3883239352800122e-05 0 -0.002941476502095839 -3.6699237704351694e-06 0 -0.0029424027998224524 3.8441703668938754e-06 0 -0.0029488260891690232 -9.4408739437133078e-07 0 -0.0029503249006891824 -6.3748291155818771e-06 0 -0.0030193161049525993 -3.6162812735403115e-06 0 -0.0029655229458881477 -2.0220776657009429e-05 0 -0.0030193161049525993 -3.6162812735403115e-06 0 -0.0031138802417880838 -2.4522515695493129e-06 0 -0.0029655229458881477 -2.0220776657009429e-05 0 -0.0029488260891690232 -9.4408739437133078e-07 0 -0.0030193161049525993 -3.6162812735403115e-06 0 -0.0030298694041057863 2.1799289829694657e-05 0 -0.0030193161049525993 -3.6162812735403115e-06 0 -0.0031138802417880838 -2.4522515695493129e-06 0 -0.0031143033550107826 2.0796744896328023e-05 0 -0.0032004388135914081 -2.2773622577735363e-08 0 -0.0031138802417880838 -2.4522515695493129e-06 0 -0.0029655229458881477 -2.0220776657009429e-05 0 -0.0032004388135914081 -2.2773622577735363e-08 0 -0.0031138802417880838 -2.4522515695493129e-06 0 -0.0033021315798898165 1.6147195263873142e-05 0 -0.0032004388135914081 -2.2773622577735363e-08 0 -0.0033021315798898165 1.6147195263873142e-05 0 -0.0034657004371063398 9.4150315736335334e-08 0 -0.0033021315798898165 1.6147195263873142e-05 0 -0.0031854364376156371 0.00010931252647458481 0 -0.0032435209704407353 0.00022908579511484015 0 -0.0031138802417880838 -2.4522515695493129e-06 0 -0.0033021315798898165 1.6147195263873142e-05 0 -0.0031143033550107826 2.0796744896328023e-05 0 -0.0033021315798898165 1.6147195263873142e-05 0 -0.0031143033550107826 2.0796744896328023e-05 0 -0.0031854364376156371 0.00010931252647458481 0 -0.0030819141534310398 4.5449490668776753e-05 0 -0.0031129827670182131 6.1235895719144437e-05 0 -0.0029290253347391015 3.2735403866001125e-05 0 -0.0031854364376156371 0.00010931252647458481 0 -0.0030298694041057863 2.1799289829694657e-05 0 -0.0031143033550107826 2.0796744896328023e-05 0 -0.0031854364376156371 0.00010931252647458481 0 -0.0030298694041057863 2.1799289829694657e-05 0 -0.0030193161049525993 -3.6162812735403115e-06 0 -0.0031143033550107826 2.0796744896328023e-05 0 -0.0030298694041057863 2.1799289829694657e-05 0 -0.0031854364376156371 0.00010931252647458481 0 -0.0030389974726736605 0.00019266572562839812 0 -0.0031357335903615638 0.00022075715762163458 0 -0.0029494627272830844 0.00013393821213901938 0 -0.0031854364376156371 0.00010931252647458481 0 -0.0030389974726736605 0.00019266572562839812 0 -0.0031357335903615638 0.00022075715762163458 0 -0.0031648653379105548 0.00027679351740087497 0 -0.0030503706031537407 0.00028433880157003016 0 -0.0030389974726736605 0.00019266572562839812 0 -0.0031357335903615638 0.00022075715762163458 0 -0.0030503706031537407 0.00028433880157003016 0 -0.0036117681615552822 1.3526706745209633e-05 0 -0.0036457141045660268 4.4930302435563015e-05 0 -0.0033021315798898165 1.6147195263873142e-05 0 -0.0034657004371063398 9.4150315736335334e-08 0 -0.0035369446240968777 -2.2093704103724942e-06 0 -0.0034657004371063398 9.4150315736335334e-08 0 -0.0035369446240968777 -2.2093704103724942e-06 0 -0.0037307183457052336 -4.0155990414134547e-08 0 -0.0031854364376156371 0.00010931252647458481 0 -0.0031357335903615638 0.00022075715762163458 0 -0.0032435209704407353 0.00022908579511484015 0 -0.0031357335903615638 0.00022075715762163458 0 -0.0032435209704407353 0.00022908579511484015 0 -0.0031648653379105548 0.00027679351740087497 0 -0.0032435209704407353 0.00022908579511484015 0 -0.0031648653379105548 0.00027679351740087497 0 -0.0032318926783223307 0.00037087355006459226 0 -0.0036457141045660268 4.4930302435563015e-05 0 -0.0037448907894021884 7.8588397268764177e-05 0 -0.0031648653379105548 0.00027679351740087497 0 -0.0032318926783223307 0.00037087355006459226 0 -0.0030503706031537407 0.00028433880157003016 0 -0.0035369446240968777 -2.2093704103724942e-06 0 -0.0036838019781033284 2.283047255165617e-06 0 -0.0037307183457052336 -4.0155990414134547e-08 0 -0.0037448907894021884 7.8588397268764177e-05 0 -0.0037307787330572106 5.446671172660451e-07 0 -0.004541830252171755 0.00019210780979081875 0 -0.0044685595558434038 0.00023231865288588581 0 -0.0045784038823885867 0.0002410673246203342 0 -0.0037448907894021884 7.8588397268764177e-05 0 -0.0037897967728147894 0.00014794924204438847 0 -0.004541830252171755 0.00019210780979081875 0 -0.0045784038823885867 0.0002410673246203342 0 -0.0046403200203102308 0.00018575870956324213 0 -0.0046403200203102308 0.00018575870956324213 0 -0.0046519473721991821 0.00020281554962950168 0 -0.0046996328956157634 0.0001796750028791499 0 -0.0045784038823885867 0.0002410673246203342 0 -0.0046403200203102308 0.00018575870956324213 0 -0.0046519473721991821 0.00020281554962950168 0 -0.0045784038823885867 0.0002410673246203342 0 -0.0046519473721991821 0.00020281554962950168 0 -0.004682926871476349 0.00020610614666336682 0 -0.0037897967728147894 0.00014794924204438847 0 -0.0037249076595142041 0.00012161581423359336 0 -0.0030389974726736605 0.00019266572562839812 0 -0.0030503706031537407 0.00028433880157003016 0 -0.0028900058578192997 0.00020251983767715734 0 -0.0029494627272830844 0.00013393821213901938 0 -0.0030389974726736605 0.00019266572562839812 0 -0.0028900058578192997 0.00020251983767715734 0 -0.0037249076595142041 0.00012161581423359336 0 -0.0035132496564775858 3.9169775539882953e-06 0 -0.004682926871476349 0.00020610614666336682 0 -0.0046996328956157634 0.0001796750028791499 0 -0.0047372464406649174 0.00015137682316420739 0 -0.0029494627272830844 0.00013393821213901938 0 -0.0028900058578192997 0.00020251983767715734 0 -0.0027453262474322624 0.00013665521830102655 0 -0.0047078778275740744 0.0001502194762493979 0 -0.0046996328956157634 0.0001796750028791499 0 -0.0047350507323286771 0.00015044530374780957 0 -0.0047078778275740744 0.0001502194762493979 0 -0.0046403200203102308 0.00018575870956324213 0 -0.0046996328956157634 0.0001796750028791499 0 -0.0046519473721991821 0.00020281554962950168 0 -0.004682926871476349 0.00020610614666336682 0 -0.0046996328956157634 0.0001796750028791499 0 -0.0047520685639978258 0.00013981852171847395 0 -0.0047350507323286771 0.00015044530374780957 0 -0.0047489191344613239 0.00012851480582027635 0 -0.0047744163594608691 0.00012699715136455818 0 -0.0047656398757174876 0.00011510469327277092 0 -0.0047751176249879318 0.00013567786893685572 0 -0.0047489191344613239 0.00012851480582027635 0 -0.0047403409999788124 9.9878853534842924e-05 0 -0.0047440453346492047 0.00011182092521373687 0 -0.0047402023782909305 6.3407635721202159e-05 0 -0.0047372464406649174 0.00015137682316420739 0 -0.0047489191344613239 0.00012851480582027635 0 -0.0047403409999788124 9.9878853534842924e-05 0 -0.0047440453346492047 0.00011182092521373687 0 -0.0047403409999788124 9.9878853534842924e-05 0 -0.0047440453346492047 0.00011182092521373687 0 -0.0047402023782909305 6.3407635721202159e-05 0 -0.0046996328956157634 0.0001796750028791499 0 -0.0047350507323286771 0.00015044530374780957 0 -0.0047372464406649174 0.00015137682316420739 0 -0.0047350507323286771 0.00015044530374780957 0 -0.0047489191344613239 0.00012851480582027635 0 -0.0047372464406649174 0.00015137682316420739 0 -0.0047489191344613239 0.00012851480582027635 0 -0.0047440453346492047 0.00011182092521373687 0 -0.0047372464406649174 0.00015137682316420739 0 -0.0046563072213886506 0.00013141620812049621 0 -0.0047138599011064273 0.00013789103927835808 0 -0.004683092119493009 6.7488284068221814e-05 0 -0.0046563072213886506 0.00013141620812049621 0 -0.0045847399784970126 4.1306563532239143e-05 0 -0.004683092119493009 6.7488284068221814e-05 0 -0.0047467118944763574 0.00017977567715127867 0 -0.0047403409999788124 9.9878853534842924e-05 0 -0.0047138599011064273 0.00013789103927835808 0 -0.0047403409999788124 9.9878853534842924e-05 0 -0.0047138599011064273 0.00013789103927835808 0 -0.004683092119493009 6.7488284068221814e-05 0 -0.0047403409999788124 9.9878853534842924e-05 0 -0.0047068822082155758 4.631990038261928e-05 0 -0.004683092119493009 6.7488284068221814e-05 0 -0.0047068822082155758 4.631990038261928e-05 0 -0.0046436230516296896 -5.7305272272206355e-05 0 -0.0047402023782909305 6.3407635721202159e-05 0 -0.0047403409999788124 9.9878853534842924e-05 0 -0.0047068822082155758 4.631990038261928e-05 0 -0.0047402023782909305 6.3407635721202159e-05 0 -0.0045847399784970126 4.1306563532239143e-05 0 -0.004683092119493009 6.7488284068221814e-05 0 -0.0046436230516296896 -5.7305272272206355e-05 0 -0.0047068822082155758 4.631990038261928e-05 0 -0.004683092119493009 6.7488284068221814e-05 0 -0.0046436230516296896 -5.7305272272206355e-05 0 -0.0040927232714146706 3.8354129814408679e-05 0 -0.0038870611885132092 -0.00030919040633944336 0 -0.0038208623872374343 -3.1044321830462782e-07 0 -0.0038870611885132092 -0.00030919040633944336 0 -0.0036056220984261836 -0.00014062325265804497 0 -0.0038208623872374343 -3.1044321830462782e-07 0 -0.0038870611885132092 -0.00030919040633944336 0 -0.0036056220984261836 -0.00014062325265804497 0 -0.0033580950359331056 -0.00035246207902052775 0 -0.0041405999798528065 -0.00011021353080641934 0 -0.0039305639892563337 -7.1464393205991183e-05 0 -0.0036056220984261836 -0.00014062325265804497 0 -0.0034242157838114589 -4.5440298511400561e-05 0 -0.003275747894404088 -0.0001498779126545967 0 -0.0036056220984261836 -0.00014062325265804497 0 -0.0033580950359331056 -0.00035246207902052775 0 -0.003275747894404088 -0.0001498779126545967 0 -0.0034242157838114589 -4.5440298511400561e-05 0 -0.0036008865436021002 9.9266761619769172e-05 0 -0.0033454983932436526 6.4110336370169926e-05 0 -0.0036008865436021002 9.9266761619769172e-05 0 -0.0033454983932436526 6.4110336370169926e-05 0 -0.0034071136246168524 0.00022954142484615434 0 -0.0036056220984261836 -0.00014062325265804497 0 -0.0034242157838114589 -4.5440298511400561e-05 0 -0.0036008865436021002 9.9266761619769172e-05 0 -0.0036056220984261836 -0.00014062325265804497 0 -0.0036008865436021002 9.9266761619769172e-05 0 -0.0038208623872374343 -3.1044321830462782e-07 0 -0.0036008865436021002 9.9266761619769172e-05 0 -0.0038208623872374343 -3.1044321830462782e-07 0 -0.0039378259602030714 0.00025378675266649243 0 -0.0040927232714146706 3.8354129814408679e-05 0 -0.0038208623872374343 -3.1044321830462782e-07 0 -0.0039378259602030714 0.00025378675266649243 0 -0.0030081156880653907 -0.00012839153451575492 0 -0.003061446737120728 1.2646678086848489e-05 0 -0.0029809138577007572 -2.6992321699382407e-06 0 -0.0029620048091941898 -3.6966930124201697e-05 0 -0.0030081156880653907 -0.00012839153451575492 0 -0.0029809138577007572 -2.6992321699382407e-06 0 -0.0030081156880653907 -0.00012839153451575492 0 -0.0031845120790146369 -3.7998387811738111e-05 0 -0.003061446737120728 1.2646678086848489e-05 0 -0.0035132496564775858 3.9169775539882953e-06 0 -0.003341194746694569 -7.6389321168606633e-05 0 -0.0039305639892563337 -7.1464393205991183e-05 0 -0.0035132496564775858 3.9169775539882953e-06 0 -0.0030081156880653907 -0.00012839153451575492 0 -0.003275747894404088 -0.0001498779126545967 0 -0.0031845120790146369 -3.7998387811738111e-05 0 -0.0033580950359331056 -0.00035246207902052775 0 -0.0028299942857124716 -0.00034540694224984735 0 -0.003275747894404088 -0.0001498779126545967 0 -0.0034242157838114589 -4.5440298511400561e-05 0 -0.003275747894404088 -0.0001498779126545967 0 -0.0031845120790146369 -3.7998387811738111e-05 0 -0.0031845120790146369 -3.7998387811738111e-05 0 -0.0031855535483669853 8.8760402963084352e-05 0 -0.003061446737120728 1.2646678086848489e-05 0 -0.0034242157838114589 -4.5440298511400561e-05 0 -0.0031845120790146369 -3.7998387811738111e-05 0 -0.0033454983932436526 6.4110336370169926e-05 0 -0.0031845120790146369 -3.7998387811738111e-05 0 -0.0033454983932436526 6.4110336370169926e-05 0 -0.0031855535483669853 8.8760402963084352e-05 0 -0.0033454983932436526 6.4110336370169926e-05 0 -0.0031855535483669853 8.8760402963084352e-05 0 -0.0034071136246168524 0.00022954142484615434 0 -0.0031855535483669853 8.8760402963084352e-05 0 -0.003061446737120728 1.2646678086848489e-05 0 -0.0030669901983868108 0.00011059753647425442 0 -0.003061446737120728 1.2646678086848489e-05 0 -0.0029869689510319546 7.321933965183318e-05 0 -0.0030669901983868108 0.00011059753647425442 0 -0.003061446737120728 1.2646678086848489e-05 0 -0.0029809138577007572 -2.6992321699382407e-06 0 -0.0029869689510319546 7.321933965183318e-05 0 -0.0029500736398429066 3.2274470091970785e-05 0 -0.0029809138577007572 -2.6992321699382407e-06 0 -0.0029869689510319546 7.321933965183318e-05 0 -0.0029869689510319546 7.321933965183318e-05 0 -0.0029680116150560005 8.264301625901608e-05 0 -0.002941066524475169 4.7751479136855907e-05 0 -0.0029869689510319546 7.321933965183318e-05 0 -0.0029680116150560005 8.264301625901608e-05 0 -0.0030137719175992086 0.0001510604501044921 0 -0.0029680116150560005 8.264301625901608e-05 0 -0.0030137719175992086 0.0001510604501044921 0 -0.0029579223486947098 6.6266035865562357e-05 0 -0.0029869689510319546 7.321933965183318e-05 0 -0.0030137719175992086 0.0001510604501044921 0 -0.0030669901983868108 0.00011059753647425442 0 -0.0031855535483669853 8.8760402963084352e-05 0 -0.0030669901983868108 0.00011059753647425442 0 -0.0031613870227393875 0.00021624152311169184 0 -0.0030137719175992086 0.0001510604501044921 0 -0.0030669901983868108 0.00011059753647425442 0 -0.0031613870227393875 0.00021624152311169184 0 -0.0031855535483669853 8.8760402963084352e-05 0 -0.0031613870227393875 0.00021624152311169184 0 -0.0034071136246168524 0.00022954142484615434 0 -0.0031613870227393875 0.00021624152311169184 0 -0.0034071136246168524 0.00022954142484615434 0 -0.0033574428911004313 0.00037794854108501042 0 -0.0031613870227393875 0.00021624152311169184 0 -0.0031607268805954962 0.00041451193709455387 0 -0.0033574428911004313 0.00037794854108501042 0 -0.0030137719175992086 0.0001510604501044921 0 -0.0029342065000940729 0.00011154268762766624 0 -0.0029579223486947098 6.6266035865562357e-05 0 -0.0030153599853775291 0.00024154052291255415 0 -0.0030123045322726603 0.00024275402155092012 0 -0.0030137719175992086 0.0001510604501044921 0 -0.0031613870227393875 0.00021624152311169184 0 -0.0031567878699275253 0.00028989510711321416 0 -0.0030149474672103017 0.00024413704167529653 0 -0.0030123045322726603 0.00024275402155092012 0 -0.0030123045322726603 0.00024275402155092012 0 -0.003153646027823444 0.00030504415518986278 0 -0.0029550443127334962 0.00022026169744349017 0 -0.0029551845231919416 0.00023164257597390488 0 -0.0029662531176483454 0.00022567805803836414 0 -0.0029342065000940729 0.00011154268762766624 0 -0.0029315469097993445 4.596732264569122e-05 0 -0.0029579223486947098 6.6266035865562357e-05 0 -0.0030123045322726603 0.00024275402155092012 0 -0.002905408399740724 0.00018381681849106288 0 -0.0029315469097993445 4.596732264569122e-05 0 -0.0029579223486947098 6.6266035865562357e-05 0 -0.0029225688659461884 4.0396340592475803e-05 0 -0.0029579223486947098 6.6266035865562357e-05 0 -0.0029225688659461884 4.0396340592475803e-05 0 -0.0029175666051803324 3.5971644063783051e-05 0 -0.0029680116150560005 8.264301625901608e-05 0 -0.0029579223486947098 6.6266035865562357e-05 0 -0.0029175666051803324 3.5971644063783051e-05 0 -0.0036008865436021002 9.9266761619769172e-05 0 -0.0039378259602030714 0.00025378675266649243 0 -0.0036778836558465449 0.00034557049148288126 0 -0.0039953886398725351 0.00051329474849589067 0 -0.0038570352080618243 0.0004888056175348822 0 -0.0039378259602030714 0.00025378675266649243 0 -0.0038570352080618243 0.0004888056175348822 0 -0.0036778836558465449 0.00034557049148288126 0 -0.0037104525091549911 0.0005449043786834504 0 -0.0038570352080618243 0.0004888056175348822 0 -0.0039378259602030714 0.00025378675266649243 0 -0.0036778836558465449 0.00034557049148288126 0 -0.0035242676668880558 0.00041423207929911377 0 -0.0036778836558465449 0.00034557049148288126 0 -0.0034071136246168524 0.00022954142484615434 0 -0.0035242676668880558 0.00041423207929911377 0 -0.0036778836558465449 0.00034557049148288126 0 -0.0037104525091549911 0.0005449043786834504 0 -0.0036008865436021002 9.9266761619769172e-05 0 -0.0036778836558465449 0.00034557049148288126 0 -0.0034071136246168524 0.00022954142484615434 0 -0.0035242676668880558 0.00041423207929911377 0 -0.0033574428911004313 0.00037794854108501042 0 -0.0035208716923237383 0.00060906613280756314 0 -0.0035242676668880558 0.00041423207929911377 0 -0.0034071136246168524 0.00022954142484615434 0 -0.0033574428911004313 0.00037794854108501042 0 -0.0031607268805954962 0.00041451193709455387 0 -0.0033574428911004313 0.00037794854108501042 0 -0.0035208716923237383 0.00060906613280756314 0 -0.003153646027823444 0.00030504415518986278 0 -0.0031690184792794998 0.00028754693832414279 0 -0.0029662531176483454 0.00022567805803836414 0 -0.0029777666749154414 0.00023115388505183502 0 -0.0029663710379984852 0.00023723564041316385 0 -0.0029551845231919416 0.00023164257597390488 0 -0.0029662531176483454 0.00022567805803836414 0 -0.0029663710379984852 0.00023723564041316385 0 -0.0035242676668880558 0.00041423207929911377 0 -0.0035208716923237383 0.00060906613280756314 0 -0.0037104525091549911 0.0005449043786834504 0 -0.0035208716923237383 0.00060906613280756314 0 -0.0037104525091549911 0.0005449043786834504 0 -0.0038386206087512491 0.00075691752683322057 0 -0.0038570352080618243 0.0004888056175348822 0 -0.0037104525091549911 0.0005449043786834504 0 -0.0038386206087512491 0.00075691752683322057 0 -0.0039953886398725351 0.00051329474849589067 0 -0.0038570352080618243 0.0004888056175348822 0 -0.0038386206087512491 0.00075691752683322057 0 -0.0023530887180210338 -7.7417304701619385e-05 0 -0.0023381869589258327 -7.0940824290792058e-05 0 -0.0023543077648541088 -5.8529956313878165e-05 0 -0.0031690184792794998 0.00028754693832414279 0 -0.0028938171660006311 0.00023595438964614624 0 -0.0028938171660006311 0.00023595438964614624 0 -0.0027906031555504883 0.0001620914623461719 0 -0.0023381869589258327 -7.0940824290792058e-05 0 -0.0023345336565819513 -5.7766866720397128e-05 0 -0.0023203900991677117 -6.3262323823803796e-05 0 -0.0023345336565819513 -5.7766866720397128e-05 0 -0.0023543077648541088 -5.8529956313878165e-05 0 -0.0023398807638894217 -4.5149017144437987e-05 0 -0.0023381869589258327 -7.0940824290792058e-05 0 -0.0023345336565819513 -5.7766866720397128e-05 0 -0.0023543077648541088 -5.8529956313878165e-05 0 -0.0023345336565819513 -5.7766866720397128e-05 0 -0.0023180905270434242 -4.0726749799789452e-05 0 -0.0023398807638894217 -4.5149017144437987e-05 0 -0.0029225688659461884 4.0396340592475803e-05 0 -0.0028795280380958638 6.9924727520629437e-05 0 -0.0028861840300766174 3.5273228754387834e-05 0 -0.0029225688659461884 4.0396340592475803e-05 0 -0.0028861840300766174 3.5273228754387834e-05 0 -0.0029175666051803324 3.5971644063783051e-05 0 -0.0029315469097993445 4.596732264569122e-05 0 -0.0029225688659461884 4.0396340592475803e-05 0 -0.0029372801743403022 5.278296084282132e-05 0 -0.0029551845231919416 0.00023164257597390488 0 -0.0029663710379984852 0.00023723564041316385 0 -0.0029552194693153863 0.00024317473780776527 0 -0.002905408399740724 0.00018381681849106288 0 -0.0027906031555504883 0.0001620914623461719 0 -0.0027906031555504883 0.0001620914623461719 0 -0.0026453786117961254 8.8474919304156163e-05 0 -0.0023226918131907504 0.00030541293041627101 0 -0.0024962198339280447 0.00021064026281410989 0 -0.0023185285212136597 0.00016410822329284187 0 -0.0023345336565819513 -5.7766866720397128e-05 0 -0.0023203900991677117 -6.3262323823803796e-05 0 -0.0023180905270434242 -4.0726749799789452e-05 0 -0.0029225688659461884 4.0396340592475803e-05 0 -0.0029372801743403022 5.278296084282132e-05 0 -0.0028795280380958638 6.9924727520629437e-05 0 -0.0027906031555504883 0.0001620914623461719 0 -0.0027158489980899335 0.00015686553774171345 0 -0.0028795280380958638 6.9924727520629437e-05 0 -0.0027362667683600247 2.7295419846169497e-05 0 -0.0028328763199022599 1.4807654926386322e-05 0 -0.0028795280380958638 6.9924727520629437e-05 0 -0.0028328763199022599 1.4807654926386322e-05 0 -0.0028861840300766174 3.5273228754387834e-05 0 -0.0028795280380958638 6.9924727520629437e-05 0 -0.0027362667683600247 2.7295419846169497e-05 0 -0.002667715025465161 8.2185088060481297e-05 0 -0.0028328763199022599 1.4807654926386322e-05 0 -0.0028693272266857596 5.6997203687038149e-06 0 -0.0027948661880436679 -2.9196484194337384e-06 0 -0.0027362667683600247 2.7295419846169497e-05 0 -0.0028328763199022599 1.4807654926386322e-05 0 -0.0027948661880436679 -2.9196484194337384e-06 0 -0.0028328763199022599 1.4807654926386322e-05 0 -0.0028861840300766174 3.5273228754387834e-05 0 -0.0029175666051803324 3.5971644063783051e-05 0 -0.0029175666051803324 3.5971644063783051e-05 0 -0.0029102437079573697 1.9515165234058988e-05 0 -0.0028693272266857596 5.6997203687038149e-06 0 -0.0029175666051803324 3.5971644063783051e-05 0 -0.0029102437079573697 1.9515165234058988e-05 0 -0.002941066524475169 4.7751479136855907e-05 0 -0.0028328763199022599 1.4807654926386322e-05 0 -0.0029175666051803324 3.5971644063783051e-05 0 -0.0028693272266857596 5.6997203687038149e-06 0 -0.0029680116150560005 8.264301625901608e-05 0 -0.0029175666051803324 3.5971644063783051e-05 0 -0.002941066524475169 4.7751479136855907e-05 0 -0.0028693272266857596 5.6997203687038149e-06 0 -0.0028659389823048678 -1.1178749010979676e-05 0 -0.0027948661880436679 -2.9196484194337384e-06 0 -0.0028693272266857596 5.6997203687038149e-06 0 -0.0029080974658563987 -3.6136387553873538e-06 0 -0.0028659389823048678 -1.1178749010979676e-05 0 -0.0029102437079573697 1.9515165234058988e-05 0 -0.0028693272266857596 5.6997203687038149e-06 0 -0.0029080974658563987 -3.6136387553873538e-06 0 -0.0029102437079573697 1.9515165234058988e-05 0 -0.0029080974658563987 -3.6136387553873538e-06 0 -0.0029293229985728484 1.3883239352800122e-05 0 -0.0029503249006891824 -6.3748291155818771e-06 0 -0.0029080974658563987 -3.6136387553873538e-06 0 -0.0029293229985728484 1.3883239352800122e-05 0 -0.0029500736398429066 3.2274470091970785e-05 0 -0.0029293229985728484 1.3883239352800122e-05 0 -0.002941066524475169 4.7751479136855907e-05 0 -0.0029500736398429066 3.2274470091970785e-05 0 -0.0029869689510319546 7.321933965183318e-05 0 -0.002941066524475169 4.7751479136855907e-05 0 -0.0029102437079573697 1.9515165234058988e-05 0 -0.0029293229985728484 1.3883239352800122e-05 0 -0.002941066524475169 4.7751479136855907e-05 0 -0.0032004388135914081 -2.2773622577735363e-08 0 -0.0029655229458881477 -2.0220776657009429e-05 0 -0.0029355064579154868 -6.1985438701765297e-08 0 -0.0029080974658563987 -3.6136387553873538e-06 0 -0.0029655229458881477 -2.0220776657009429e-05 0 -0.0028659389823048678 -1.1178749010979676e-05 0 -0.0029503249006891824 -6.3748291155818771e-06 0 -0.0029080974658563987 -3.6136387553873538e-06 0 -0.0029655229458881477 -2.0220776657009429e-05 0 -0.0029655229458881477 -2.0220776657009429e-05 0 -0.0028659389823048678 -1.1178749010979676e-05 0 -0.0027953391073241582 -1.1024382572784794e-05 0 -0.0029655229458881477 -2.0220776657009429e-05 0 -0.0029355064579154868 -6.1985438701765297e-08 0 -0.0027953391073241582 -1.1024382572784794e-05 0 -0.002670439258420559 6.4950047700831093e-09 0 -0.0027953391073241582 -1.1024382572784794e-05 0 -0.0026859916107666725 2.7338404718729076e-06 0 -0.0029355064579154868 -6.1985438701765297e-08 0 -0.002670439258420559 6.4950047700831093e-09 0 -0.0027953391073241582 -1.1024382572784794e-05 0 -0.0027953391073241582 -1.1024382572784794e-05 0 -0.0027948661880436679 -2.9196484194337384e-06 0 -0.0026859916107666725 2.7338404718729076e-06 0 -0.0028659389823048678 -1.1178749010979676e-05 0 -0.0027953391073241582 -1.1024382572784794e-05 0 -0.0027948661880436679 -2.9196484194337384e-06 0 -0.0027362667683600247 2.7295419846169497e-05 0 -0.0027948661880436679 -2.9196484194337384e-06 0 -0.0026859916107666725 2.7338404718729076e-06 0 -0.0027362667683600247 2.7295419846169497e-05 0 -0.0026859916107666725 2.7338404718729076e-06 0 -0.002587295699994135 4.1098011557184041e-05 0 -0.002670439258420559 6.4950047700831093e-09 0 -0.0026859916107666725 2.7338404718729076e-06 0 -0.0024052646416267394 -5.0214101074739161e-08 0 -0.0026859916107666725 2.7338404718729076e-06 0 -0.0024052646416267394 -5.0214101074739161e-08 0 -0.002587295699994135 4.1098011557184041e-05 0 -0.0024052646416267394 -5.0214101074739161e-08 0 -0.002587295699994135 4.1098011557184041e-05 0 -0.0024256086761686368 5.3679265841869476e-06 0 -0.002587295699994135 4.1098011557184041e-05 0 -0.0024256086761686368 5.3679265841869476e-06 0 -0.0023881193353527085 3.2311874548151734e-05 0 -0.0024052646416267394 -5.0214101074739161e-08 0 -0.0024256086761686368 5.3679265841869476e-06 0 -0.0021407856525513099 2.2506444146921694e-07 0 -0.0024962198339280447 0.00021064026281410989 0 -0.0025463682862560525 9.144858800840436e-05 0 -0.002667715025465161 8.2185088060481297e-05 0 -0.0027158489980899335 0.00015686553774171345 0 -0.0027107045861167077 0.00014056387279720456 0 -0.0027362667683600247 2.7295419846169497e-05 0 -0.002587295699994135 4.1098011557184041e-05 0 -0.002667715025465161 8.2185088060481297e-05 0 -0.002587295699994135 4.1098011557184041e-05 0 -0.002667715025465161 8.2185088060481297e-05 0 -0.0026516721556816862 6.0309049654116405e-05 0 -0.0025055461337156974 3.2659731107560492e-05 0 -0.0024745104747201591 2.1109993093292345e-05 0 -0.0024256086761686368 5.3679265841869476e-06 0 -0.0023881193353527085 3.2311874548151734e-05 0 -0.0023862602305817059 1.3930759213958114e-05 0 -0.0025463682862560525 9.144858800840436e-05 0 -0.002667715025465161 8.2185088060481297e-05 0 -0.0026516721556816862 6.0309049654116405e-05 0 -0.0025463682862560525 9.144858800840436e-05 0 -0.0026516721556816862 6.0309049654116405e-05 0 -0.0024615757365187914 3.5437627115986093e-05 0 -0.0023881193353527085 3.2311874548151734e-05 0 -0.0023862602305817059 1.3930759213958114e-05 0 -0.0022856142340828048 -1.8918439694310513e-05 0 -0.0024745104747201591 2.1109993093292345e-05 0 -0.0023953604723496633 -2.2893306153121246e-05 0 -0.0023862602305817059 1.3930759213958114e-05 0 -0.0023472578317297057 -3.7050740312012484e-05 0 -0.0022856142340828048 -1.8918439694310513e-05 0 -0.0026516721556816862 6.0309049654116405e-05 0 -0.0024370388409753301 -8.3305671782343189e-05 0 -0.0024615757365187914 3.5437627115986093e-05 0 -0.0023862602305817059 1.3930759213958114e-05 0 -0.0023472578317297057 -3.7050740312012484e-05 0 -0.0024107982162642947 4.7081224044449834e-05 0 -0.0021956808466337048 -2.7315697820529658e-05 0 -0.0021639884331220642 -1.3811097986024539e-05 0 -0.0019502269720750149 -5.6320858688175323e-05 0 -0.0020304221240140365 -0.0001108917720600653 0 -0.0019178607963724716 -3.8054992344504853e-05 0 -0.0019502269720750149 -5.6320858688175323e-05 0 -0.0020304221240140365 -0.0001108917720600653 0 -0.0020154164928780135 -3.9904388360082316e-05 0 -0.0023472578317297057 -3.7050740312012484e-05 0 -0.0022856142340828048 -1.8918439694310513e-05 0 -0.0022558593947785387 -4.1371739032428144e-05 0 -0.0021956808466337048 -2.7315697820529658e-05 0 -0.0022192482036339353 -2.754524427166643e-05 0 -0.0020304221240140365 -0.0001108917720600653 0 -0.0021055797743956585 -4.6586731403114198e-05 0 -0.0022558593947785387 -4.1371739032428144e-05 0 -0.0020304221240140365 -0.0001108917720600653 0 -0.0020154164928780135 -3.9904388360082316e-05 0 -0.0021055797743956585 -4.6586731403114198e-05 0 -0.0021402034052499731 -3.6030852097802209e-08 0 -0.0021639884331220642 -1.3811097986024539e-05 0 -0.0021397983106790776 1.0297542931946541e-07 0 -0.0019178607963724716 -3.8054992344504853e-05 0 -0.0019057566793733625 -4.8636577437743495e-05 0 -0.0024256086761686368 5.3679265841869476e-06 0 -0.0021407856525513099 2.2506444146921694e-07 0 -0.0024107982162642947 4.7081224044449834e-05 0 -0.0024256086761686368 5.3679265841869476e-06 0 -0.0023862602305817059 1.3930759213958114e-05 0 -0.0024107982162642947 4.7081224044449834e-05 0 -0.0019502269720750149 -5.6320858688175323e-05 0 -0.0019178607963724716 -3.8054992344504853e-05 0 -0.0019057566793733625 -4.8636577437743495e-05 0 -0.0019502269720750149 -5.6320858688175323e-05 0 -0.0019057566793733625 -4.8636577437743495e-05 0 -0.0019331632014864288 -2.5388691787769449e-05 0 -0.0021397983106790776 1.0297542931946541e-07 0 -0.0019057566793733625 -4.8636577437743495e-05 0 -0.0018419939034449555 -2.3610038737533372e-07 0 -0.0019057566793733625 -4.8636577437743495e-05 0 -0.0018419939034449555 -2.3610038737533372e-07 0 -0.0018225947855764011 -1.019250852060184e-05 0 -0.0018419939034449555 -2.3610038737533372e-07 0 -0.0018225947855764011 -1.019250852060184e-05 0 -0.0015441304099279131 3.4250874948291458e-07 0 -0.0018614604073584635 0.00010385849273326159 0 -0.0018225947855764011 -1.019250852060184e-05 0 -0.0015441304099279131 3.4250874948291458e-07 0 -0.0018614604073584635 0.00010385849273326159 0 -0.0018225947855764011 -1.019250852060184e-05 0 -0.0019342629495639929 3.6411297537578323e-05 0 -0.0018225947855764011 -1.019250852060184e-05 0 -0.0019331632014864288 -2.5388691787769449e-05 0 -0.0019342629495639929 3.6411297537578323e-05 0 -0.0019057566793733625 -4.8636577437743495e-05 0 -0.0018225947855764011 -1.019250852060184e-05 0 -0.0019331632014864288 -2.5388691787769449e-05 0 -0.0019502269720750149 -5.6320858688175323e-05 0 -0.0019331632014864288 -2.5388691787769449e-05 0 -0.0020154164928780135 -3.9904388360082316e-05 0 -0.0019331632014864288 -2.5388691787769449e-05 0 -0.0020154164928780135 -3.9904388360082316e-05 0 -0.0020161141983903717 2.0025267183046811e-05 0 -0.0019331632014864288 -2.5388691787769449e-05 0 -0.0020161141983903717 2.0025267183046811e-05 0 -0.0019342629495639929 3.6411297537578323e-05 0 -0.0021055797743956585 -4.6586731403114198e-05 0 -0.002100519105293173 -6.3597475576165848e-06 0 -0.0021671007492385995 -2.1390531401784145e-05 0 -0.0020154164928780135 -3.9904388360082316e-05 0 -0.0021055797743956585 -4.6586731403114198e-05 0 -0.002100519105293173 -6.3597475576165848e-06 0 -0.0020161141983903717 2.0025267183046811e-05 0 -0.002100519105293173 -6.3597475576165848e-06 0 -0.0021133276778809579 3.3902901190975497e-05 0 -0.0020154164928780135 -3.9904388360082316e-05 0 -0.0020161141983903717 2.0025267183046811e-05 0 -0.002100519105293173 -6.3597475576165848e-06 0 -0.002100519105293173 -6.3597475576165848e-06 0 -0.0021133276778809579 3.3902901190975497e-05 0 -0.002205871731995887 -1.1370295900128714e-06 0 -0.0015227378336067979 -9.1695043377195453e-05 0 -0.0017192277351574022 5.1177742394641823e-05 0 -0.0019056065477375355 -8.7058578343132153e-05 0 -0.0018080066610663245 2.4228139749125882e-06 0 -0.0019656132305479186 -7.8868120688638294e-06 0 -0.0021133276778809579 3.3902901190975497e-05 0 -0.0020380266214334742 0.00010396408403331956 0 -0.002190265608969471 5.3002647845412006e-05 0 -0.0020161141983903717 2.0025267183046811e-05 0 -0.0021133276778809579 3.3902901190975497e-05 0 -0.0020380266214334742 0.00010396408403331956 0 -0.0018614604073584635 0.00010385849273326159 0 -0.0019342629495639929 3.6411297537578323e-05 0 -0.0020380266214334742 0.00010396408403331956 0 -0.0016692724694639394 7.7252189787144674e-06 0 -0.0018080066610663245 2.4228139749125882e-06 0 -0.0020161141983903717 2.0025267183046811e-05 0 -0.0019342629495639929 3.6411297537578323e-05 0 -0.0020380266214334742 0.00010396408403331956 0 -0.0013733356184149595 4.4641735424684494e-06 0 -0.0015227378336067979 -9.1695043377195453e-05 0 -0.0014340022353551297 2.2360052912994583e-05 0 -0.0015227378336067979 -9.1695043377195453e-05 0 -0.0014340022353551297 2.2360052912994583e-05 0 -0.0017192277351574022 5.1177742394641823e-05 0 -0.0014340022353551297 2.2360052912994583e-05 0 -0.0017192277351574022 5.1177742394641823e-05 0 -0.0017937297044621637 0.00028762610064381384 0 -0.0014351431862567221 8.2075451466049559e-06 0 -0.0014049055620776968 8.6670668543499218e-06 0 -0.0014177315254305654 3.983284325761759e-05 0 -0.0015416866253614889 8.9865478886332506e-05 0 -0.0016122486995735358 0.00013840321059547576 0 -0.0014340022353551297 2.2360052912994583e-05 0 -0.0014049055620776968 8.6670668543499218e-06 0 -0.001358462787393385 -1.7402027211163312e-05 0 -0.0014340022353551297 2.2360052912994583e-05 0 -0.0014351431862567221 8.2075451466049559e-06 0 -0.0014049055620776968 8.6670668543499218e-06 0 -0.001358462787393385 -1.7402027211163312e-05 0 -0.0013524673475395948 1.084415775364404e-05 0 -0.0012773464535118131 -8.5279911446095956e-06 0 -0.0014049055620776968 8.6670668543499218e-06 0 -0.001358462787393385 -1.7402027211163312e-05 0 -0.0013524673475395948 1.084415775364404e-05 0 -0.001358462787393385 -1.7402027211163312e-05 0 -0.0013112458984694166 -1.5134323766010222e-07 0 -0.0012773464535118131 -8.5279911446095956e-06 0 -0.0013733356184149595 4.4641735424684494e-06 0 -0.001358462787393385 -1.7402027211163312e-05 0 -0.0015432855783014188 9.5525890545986508e-08 0 -0.0016692724694639394 7.7252189787144674e-06 0 -0.0015438799367401986 3.4688318242238223e-08 0 -0.001358462787393385 -1.7402027211163312e-05 0 -0.0013112458984694166 -1.5134323766010222e-07 0 -0.0015432855783014188 9.5525890545986508e-08 0 -0.0013733356184149595 4.4641735424684494e-06 0 -0.0014340022353551297 2.2360052912994583e-05 0 -0.001358462787393385 -1.7402027211163312e-05 0 -0.0022450705567779528 0.00020859961522734963 0 -0.0021683962933103334 0.00010359539209931794 0 -0.0023148889014419894 5.8130996190041232e-05 0 -0.0023449020309827618 0.00020814384003522892 0 -0.0022450705567779528 0.00020859961522734963 0 -0.0023148889014419894 5.8130996190041232e-05 0 -0.0023449020309827618 0.00020814384003522892 0 -0.0023148889014419894 5.8130996190041232e-05 0 -0.0024268482996951859 0.00013379686659597742 0 -0.0023449020309827618 0.00020814384003522892 0 -0.0022800552786685223 0.00029924475250298445 0 -0.0022450705567779528 0.00020859961522734963 0 -0.0023449020309827618 0.00020814384003522892 0 -0.0024395512995343174 0.00025420341899327605 0 -0.0023585413908763383 0.00031887214696471182 0 -0.0023449020309827618 0.00020814384003522892 0 -0.0022800552786685223 0.00029924475250298445 0 -0.0023585413908763383 0.00031887214696471182 0 -0.0022800552786685223 0.00029924475250298445 0 -0.0022450705567779528 0.00020859961522734963 0 -0.0021847709412312123 0.00030319416982324917 0 -0.0022450705567779528 0.00020859961522734963 0 -0.0021847709412312123 0.00030319416982324917 0 -0.0020964006759519854 0.00023594350895777554 0 -0.0022450705567779528 0.00020859961522734963 0 -0.0020964006759519854 0.00023594350895777554 0 -0.0021683962933103334 0.00010359539209931794 0 -0.0021847709412312123 0.00030319416982324917 0 -0.0020964006759519854 0.00023594350895777554 0 -0.0020628105971236765 0.00039992590024634945 0 -0.0017937297044621637 0.00028762610064381384 0 -0.0020964006759519854 0.00023594350895777554 0 -0.0019382169263146634 0.00012470720451057671 0 -0.0017937297044621637 0.00028762610064381384 0 -0.0020964006759519854 0.00023594350895777554 0 -0.0020628105971236765 0.00039992590024634945 0 -0.0017192277351574022 5.1177742394641823e-05 0 -0.0019382169263146634 0.00012470720451057671 0 -0.0019056065477375355 -8.7058578343132153e-05 0 -0.0017192277351574022 5.1177742394641823e-05 0 -0.0017937297044621637 0.00028762610064381384 0 -0.0019382169263146634 0.00012470720451057671 0 -0.0019382169263146634 0.00012470720451057671 0 -0.0021683962933103334 0.00010359539209931794 0 -0.0019056065477375355 -8.7058578343132153e-05 0 -0.0020964006759519854 0.00023594350895777554 0 -0.0019382169263146634 0.00012470720451057671 0 -0.0021683962933103334 0.00010359539209931794 0 -0.0020466402103922724 -1.2232383003306032e-05 0 -0.0019656132305479186 -7.8868120688638294e-06 0 -0.0021683962933103334 0.00010359539209931794 0 -0.0022201347810114026 -1.8038187580410831e-06 0 -0.0019056065477375355 -8.7058578343132153e-05 0 -0.0022201347810114026 -1.8038187580410831e-06 0 -0.002190265608969471 5.3002647845412006e-05 0 -0.002205871731995887 -1.1370295900128714e-06 0 -0.0021133276778809579 3.3902901190975497e-05 0 -0.002190265608969471 5.3002647845412006e-05 0 -0.002205871731995887 -1.1370295900128714e-06 0 -0.0021055797743956585 -4.6586731403114198e-05 0 -0.0021671007492385995 -2.1390531401784145e-05 0 -0.0022558593947785387 -4.1371739032428144e-05 0 -0.002100519105293173 -6.3597475576165848e-06 0 -0.002205871731995887 -1.1370295900128714e-06 0 -0.0021671007492385995 -2.1390531401784145e-05 0 -0.002205871731995887 -1.1370295900128714e-06 0 -0.0022475604987023208 -4.4846803579893068e-05 0 -0.0022558593947785387 -4.1371739032428144e-05 0 -0.002205871731995887 -1.1370295900128714e-06 0 -0.0021671007492385995 -2.1390531401784145e-05 0 -0.0022558593947785387 -4.1371739032428144e-05 0 -0.0022475604987023208 -4.4846803579893068e-05 0 -0.0022988705100118285 -3.2137043874598806e-05 0 -0.0022960894754601052 -4.9198239871893343e-05 0 -0.0022201347810114026 -1.8038187580410831e-06 0 -0.002205871731995887 -1.1370295900128714e-06 0 -0.0022475604987023208 -4.4846803579893068e-05 0 -0.0022201347810114026 -1.8038187580410831e-06 0 -0.0022475604987023208 -4.4846803579893068e-05 0 -0.0022988705100118285 -3.2137043874598806e-05 0 -0.0022201347810114026 -1.8038187580410831e-06 0 -0.0022988705100118285 -3.2137043874598806e-05 0 -0.0023148889014419894 5.8130996190041232e-05 0 -0.0021683962933103334 0.00010359539209931794 0 -0.0022201347810114026 -1.8038187580410831e-06 0 -0.0023148889014419894 5.8130996190041232e-05 0 -0.0023148889014419894 5.8130996190041232e-05 0 -0.0023575778759746548 -1.8520768407620521e-05 0 -0.0023948727749813379 2.9901102404721425e-05 0 -0.0022988705100118285 -3.2137043874598806e-05 0 -0.0023148889014419894 5.8130996190041232e-05 0 -0.0023575778759746548 -1.8520768407620521e-05 0 -0.0022988705100118285 -3.2137043874598806e-05 0 -0.0023575778759746548 -1.8520768407620521e-05 0 -0.0023395822366019201 -3.7864706901780102e-05 0 -0.0022988705100118285 -3.2137043874598806e-05 0 -0.0023150434351655019 -4.1299090408964019e-05 0 -0.0022960894754601052 -4.9198239871893343e-05 0 -0.0022988705100118285 -3.2137043874598806e-05 0 -0.0023395822366019201 -3.7864706901780102e-05 0 -0.0023150434351655019 -4.1299090408964019e-05 0 -0.0023150434351655019 -4.1299090408964019e-05 0 -0.0023218553280417529 -2.8581705384425674e-05 0 -0.0023300715063165724 -3.0303916669553727e-05 0 -0.0023395822366019201 -3.7864706901780102e-05 0 -0.0023150434351655019 -4.1299090408964019e-05 0 -0.0023300715063165724 -3.0303916669553727e-05 0 -0.0023395822366019201 -3.7864706901780102e-05 0 -0.0023300715063165724 -3.0303916669553727e-05 0 -0.0023594575371865471 -4.0378652825472281e-05 0 -0.0022475604987023208 -4.4846803579893068e-05 0 -0.0022856142340828048 -1.8918439694310513e-05 0 -0.0022558593947785387 -4.1371739032428144e-05 0 -0.0023520127369336462 -4.2445084284998324e-05 0 -0.0023953604723496633 -2.2893306153121246e-05 0 -0.0024370388409753301 -8.3305671782343189e-05 0 -0.0023085101668980654 -5.5759801409746873e-05 0 -0.0023545253256103556 -5.4626385391762288e-05 0 -0.0022475604987023208 -4.4846803579893068e-05 0 -0.0024370388409753301 -8.3305671782343189e-05 0 -0.0023085101668980654 -5.5759801409746873e-05 0 -0.0023085101668980654 -5.5759801409746873e-05 0 -0.0023207740612394131 -4.8064669596307416e-05 0 -0.0023545253256103556 -5.4626385391762288e-05 0 -0.0022475604987023208 -4.4846803579893068e-05 0 -0.0023085101668980654 -5.5759801409746873e-05 0 -0.0022960894754601052 -4.9198239871893343e-05 0 -0.0023085101668980654 -5.5759801409746873e-05 0 -0.0022960894754601052 -4.9198239871893343e-05 0 -0.0023207740612394131 -4.8064669596307416e-05 0 -0.0023150434351655019 -4.1299090408964019e-05 0 -0.0022960894754601052 -4.9198239871893343e-05 0 -0.0023207740612394131 -4.8064669596307416e-05 0 -0.0023150434351655019 -4.1299090408964019e-05 0 -0.0023207740612394131 -4.8064669596307416e-05 0 -0.0023218553280417529 -2.8581705384425674e-05 0 -0.0023218553280417529 -2.8581705384425674e-05 0 -0.0023700803717430522 -2.9580299170063592e-05 0 -0.002323505157912509 6.3995438151174696e-06 0 -0.0023207740612394131 -4.8064669596307416e-05 0 -0.0023545253256103556 -5.4626385391762288e-05 0 -0.0023700803717430522 -2.9580299170063592e-05 0 -0.0023207740612394131 -4.8064669596307416e-05 0 -0.0023218553280417529 -2.8581705384425674e-05 0 -0.0023700803717430522 -2.9580299170063592e-05 0 -0.0024370388409753301 -8.3305671782343189e-05 0 -0.0023700803717430522 -2.9580299170063592e-05 0 -0.0024615757365187914 3.5437627115986093e-05 0 -0.0024370388409753301 -8.3305671782343189e-05 0 -0.0023545253256103556 -5.4626385391762288e-05 0 -0.0023700803717430522 -2.9580299170063592e-05 0 -0.0025463682862560525 9.144858800840436e-05 0 -0.0024615757365187914 3.5437627115986093e-05 0 -0.0024140824539220598 9.4271354098810555e-05 0 -0.0024615757365187914 3.5437627115986093e-05 0 -0.002323505157912509 6.3995438151174696e-06 0 -0.0024140824539220598 9.4271354098810555e-05 0 -0.0023700803717430522 -2.9580299170063592e-05 0 -0.0024615757365187914 3.5437627115986093e-05 0 -0.002323505157912509 6.3995438151174696e-06 0 -0.0026016227743805766 6.0071269251869913e-05 0 -0.0026453786117961254 8.8474919304156163e-05 0 -0.002323505157912509 6.3995438151174696e-06 0 -0.0023185285212136597 0.00016410822329284187 0 -0.0024140824539220598 9.4271354098810555e-05 0 -0.002323505157912509 6.3995438151174696e-06 0 -0.0023180905270434242 -4.0726749799789452e-05 0 -0.0023358218902645076 -2.5930686716184318e-05 0 -0.0024962198339280447 0.00021064026281410989 0 -0.0023185285212136597 0.00016410822329284187 0 -0.0024140824539220598 9.4271354098810555e-05 0 -0.0024962198339280447 0.00021064026281410989 0 -0.0025463682862560525 9.144858800840436e-05 0 -0.0024140824539220598 9.4271354098810555e-05 0 -0.0023300715063165724 -3.0303916669553727e-05 0 -0.0023484177657283338 -4.0284681291267572e-05 0 -0.0023594575371865471 -4.0378652825472281e-05 0 -0.0023300715063165724 -3.0303916669553727e-05 0 -0.0023358218902645076 -2.5930686716184318e-05 0 -0.0023484177657283338 -4.0284681291267572e-05 0 -0.0023218553280417529 -2.8581705384425674e-05 0 -0.002323505157912509 6.3995438151174696e-06 0 -0.0023300715063165724 -3.0303916669553727e-05 0 -0.002323505157912509 6.3995438151174696e-06 0 -0.0023300715063165724 -3.0303916669553727e-05 0 -0.0023358218902645076 -2.5930686716184318e-05 0 -0.0023358218902645076 -2.5930686716184318e-05 0 -0.0023398807638894217 -4.5149017144437987e-05 0 -0.0023484177657283338 -4.0284681291267572e-05 0 -0.0023180905270434242 -4.0726749799789452e-05 0 -0.0023358218902645076 -2.5930686716184318e-05 0 -0.0023398807638894217 -4.5149017144437987e-05 0 -0.0023543077648541088 -5.8529956313878165e-05 0 -0.0023398807638894217 -4.5149017144437987e-05 0 -0.0023484177657283338 -4.0284681291267572e-05 0 -0.0023543077648541088 -5.8529956313878165e-05 0 -0.0023484177657283338 -4.0284681291267572e-05 0 -0.0023623008270596052 -5.1140679158906693e-05 0 -0.0023484177657283338 -4.0284681291267572e-05 0 -0.0023623008270596052 -5.1140679158906693e-05 0 -0.0023651250887692073 -4.6427482244520495e-05 0 -0.0023623008270596052 -5.1140679158906693e-05 0 -0.0023651250887692073 -4.6427482244520495e-05 0 -0.0023726541796401969 -5.2462839163900599e-05 0 -0.0023651250887692073 -4.6427482244520495e-05 0 -0.0023594575371865471 -4.0378652825472281e-05 0 -0.002382075243004341 -4.6221248604495737e-05 0 -0.0023484177657283338 -4.0284681291267572e-05 0 -0.0023651250887692073 -4.6427482244520495e-05 0 -0.0023594575371865471 -4.0378652825472281e-05 0 -0.0024723913763681857 -1.7690604372705671e-05 0 -0.0024773529627686742 -2.4363356575061785e-05 0 -0.0024773727847127672 -2.2621961267186079e-05 0 -0.0023651250887692073 -4.6427482244520495e-05 0 -0.002382075243004341 -4.6221248604495737e-05 0 -0.0023726541796401969 -5.2462839163900599e-05 0 -0.0026319826856566401 -4.6280127240949206e-05 0 -0.0028210327344908351 -2.2325595601182737e-05 0 -0.002478545054156667 -2.5290277421611311e-05 0 -0.0024773529627686742 -2.4363356575061785e-05 0 -0.0024773727847127672 -2.2621961267186079e-05 0 -0.002478545054156667 -2.5290277421611311e-05 0 -0.0024773727847127672 -2.2621961267186079e-05 0 -0.0024796464827831471 -2.3520104118149912e-05 0 -0.0024816982764919557 -2.5930101737842127e-05 0 -0.0024796464827831471 -2.3520104118149912e-05 0 -0.0024837084450575878 -2.2110908025513975e-05 0 -0.0024784690389533684 -2.0143980138367193e-05 0 -0.0024837084450575878 -2.2110908025513975e-05 0 -0.0024825039414184008 -1.8924387851466984e-05 0 -0.0024796464827831471 -2.3520104118149912e-05 0 -0.0024784690389533684 -2.0143980138367193e-05 0 -0.0024837084450575878 -2.2110908025513975e-05 0 -0.0024773727847127672 -2.2621961267186079e-05 0 -0.0024796464827831471 -2.3520104118149912e-05 0 -0.0024784690389533684 -2.0143980138367193e-05 0 -0.0024871961927894056 -2.7987762206334891e-05 0 -0.0024944281818414667 -1.8209661526736616e-05 0 -0.0025028392014620699 -1.1573311574525856e-05 0 -0.0028368394831588704 -3.795151974183675e-05 0 -0.0027242530172680943 -6.9395807640900849e-05 0 -0.0024871961927894056 -2.7987762206334891e-05 0 -0.0024944281818414667 -1.8209661526736616e-05 0 -0.0024886469642921936 -2.1273364239441357e-05 0 -0.0024871961927894056 -2.7987762206334891e-05 0 -0.0024837084450575878 -2.2110908025513975e-05 0 -0.0024886469642921936 -2.1273364239441357e-05 0 -0.0024816982764919557 -2.5930101737842127e-05 0 -0.0024871961927894056 -2.7987762206334891e-05 0 -0.0024837084450575878 -2.2110908025513975e-05 0 -0.0024837084450575878 -2.2110908025513975e-05 0 -0.0024886469642921936 -2.1273364239441357e-05 0 -0.0024893701113915478 -1.9780508513273496e-05 0 -0.0024837084450575878 -2.2110908025513975e-05 0 -0.0024893701113915478 -1.9780508513273496e-05 0 -0.0024825039414184008 -1.8924387851466984e-05 0 -0.0024944281818414667 -1.8209661526736616e-05 0 -0.0024893701113915478 -1.9780508513273496e-05 0 -0.0024951073623520684 -2.0635438910092347e-05 0 -0.0024944281818414667 -1.8209661526736616e-05 0 -0.0024886469642921936 -2.1273364239441357e-05 0 -0.0024893701113915478 -1.9780508513273496e-05 0 -0.0024834924889653885 -1.7083425349724506e-05 0 -0.0024906480641678662 -2.0419090080380718e-05 0 -0.0024882615738304331 -1.2056976077704664e-05 0 -0.0024893701113915478 -1.9780508513273496e-05 0 -0.0024834924889653885 -1.7083425349724506e-05 0 -0.0024906480641678662 -2.0419090080380718e-05 0 -0.0024893701113915478 -1.9780508513273496e-05 0 -0.0024825039414184008 -1.8924387851466984e-05 0 -0.0024834924889653885 -1.7083425349724506e-05 0 -0.0024825039414184008 -1.8924387851466984e-05 0 -0.0024834924889653885 -1.7083425349724506e-05 0 -0.0024763644074327872 -1.6003238799024875e-05 0 -0.0024723913763681857 -1.7690604372705671e-05 0 -0.0024784690389533684 -2.0143980138367193e-05 0 -0.0024763644074327872 -1.6003238799024875e-05 0 -0.0024723913763681857 -1.7690604372705671e-05 0 -0.0024773727847127672 -2.2621961267186079e-05 0 -0.0024784690389533684 -2.0143980138367193e-05 0 -0.0024784690389533684 -2.0143980138367193e-05 0 -0.0024825039414184008 -1.8924387851466984e-05 0 -0.0024763644074327872 -1.6003238799024875e-05 0 -0.0024763644074327872 -1.6003238799024875e-05 0 -0.0024775748768652399 -1.07264455294452e-05 0 -0.0024642652491413059 -8.1672068369862845e-06 0 -0.0024723913763681857 -1.7690604372705671e-05 0 -0.0024763644074327872 -1.6003238799024875e-05 0 -0.0024642652491413059 -8.1672068369862845e-06 0 -0.0024834924889653885 -1.7083425349724506e-05 0 -0.0024775748768652399 -1.07264455294452e-05 0 -0.0024882615738304331 -1.2056976077704664e-05 0 -0.0024834924889653885 -1.7083425349724506e-05 0 -0.0024763644074327872 -1.6003238799024875e-05 0 -0.0024775748768652399 -1.07264455294452e-05 0 -0.0024775748768652399 -1.07264455294452e-05 0 -0.0024806993649604705 -2.7171338130404098e-06 0 -0.0024882615738304331 -1.2056976077704664e-05 0 -0.0024775748768652399 -1.07264455294452e-05 0 -0.0024806993649604705 -2.7171338130404098e-06 0 -0.0024684397814057485 -4.0835654353138531e-06 0 -0.0024806993649604705 -2.7171338130404098e-06 0 -0.0024684397814057485 -4.0835654353138531e-06 0 -0.0024703797477013036 5.6928565566172453e-06 0 -0.002553730197573423 -2.9677483913189058e-05 0 -0.0025337032720411344 -1.6001475693628271e-05 0 -0.0024684397814057485 -4.0835654353138531e-06 0 -0.0024642652491413059 -8.1672068369862845e-06 0 -0.0024456365128772725 8.4114478834275922e-06 0 -0.0024775748768652399 -1.07264455294452e-05 0 -0.0024684397814057485 -4.0835654353138531e-06 0 -0.0024642652491413059 -8.1672068369862845e-06 0 -0.0024080890603906382 -3.3093772027705941e-05 0 -0.0023769706844518276 -3.4335884950362063e-05 0 -0.0023929441197936782 -1.183966194415018e-05 0 -0.0024080890603906382 -3.3093772027705941e-05 0 -0.0023929441197936782 -1.183966194415018e-05 0 -0.0024456365128772725 8.4114478834275922e-06 0 -0.0023575778759746548 -1.8520768407620521e-05 0 -0.0023395822366019201 -3.7864706901780102e-05 0 -0.0023769706844518276 -3.4335884950362063e-05 0 -0.0023575778759746548 -1.8520768407620521e-05 0 -0.0023769706844518276 -3.4335884950362063e-05 0 -0.0023929441197936782 -1.183966194415018e-05 0 -0.0023594575371865471 -4.0378652825472281e-05 0 -0.002382075243004341 -4.6221248604495737e-05 0 -0.0023769706844518276 -3.4335884950362063e-05 0 -0.0023395822366019201 -3.7864706901780102e-05 0 -0.0023594575371865471 -4.0378652825472281e-05 0 -0.0023769706844518276 -3.4335884950362063e-05 0 -0.002382075243004341 -4.6221248604495737e-05 0 -0.0024080890603906382 -3.3093772027705941e-05 0 -0.0023769706844518276 -3.4335884950362063e-05 0 -0.0026319826856566401 -4.6280127240949206e-05 0 -0.002553730197573423 -2.9677483913189058e-05 0 -0.003763162702185568 0.00068287287187281001 0 -0.003833249078558382 0.00060870440627920294 0 -0.0037461213790878759 0.00052040976986953628 0 -0.003833249078558382 0.00060870440627920294 0 -0.0038576371892735536 0.0005290511514446589 0 -0.0037461213790878759 0.00052040976986953628 0 -0.003763162702185568 0.00068287287187281001 0 -0.0038810602515757884 0.00068522753114073985 0 -0.003833249078558382 0.00060870440627920294 0 -0.0038614794670068708 0.00077463561209842281 0 -0.003763162702185568 0.00068287287187281001 0 -0.0038810602515757884 0.00068522753114073985 0 -0.0038810602515757884 0.00068522753114073985 0 -0.003833249078558382 0.00060870440627920294 0 -0.0039135482092522459 0.00062253573482995862 0 -0.0039466588561065377 0.0005388709382566501 0 -0.0039135482092522459 0.00062253573482995862 0 -0.0038576371892735536 0.0005290511514446589 0 -0.003833249078558382 0.00060870440627920294 0 -0.0039135482092522459 0.00062253573482995862 0 -0.0038576371892735536 0.0005290511514446589 0 -0.0039466588561065377 0.0005388709382566501 0 -0.0039135482092522459 0.00062253573482995862 0 -0.0040141834653571662 0.00066579779541750983 0 -0.0033553752668489629 0.00023158627372046607 0 -0.0033426880003393257 0.0002868740394005527 0 -0.0025055400291773859 -1.7115624287504688e-05 0 -0.0024874067560235768 -2.7634120497187098e-05 0 -0.0024946104599925154 -1.7099365692107062e-05 0 -0.0038810602515757884 0.00068522753114073985 0 -0.0039135482092522459 0.00062253573482995862 0 -0.0039576532775908654 0.00070414766794410478 0 -0.0039135482092522459 0.00062253573482995862 0 -0.0039576532775908654 0.00070414766794410478 0 -0.0040141834653571662 0.00066579779541750983 0 -0.0039200662266455051 0.00075286885289961418 0 -0.0038810602515757884 0.00068522753114073985 0 -0.0039576532775908654 0.00070414766794410478 0 -0.0025432945563563297 5.6676581504654044e-05 0 -0.0024874067560235768 -2.7634120497187098e-05 0 -0.0025028392014620699 -1.1573311574525856e-05 0 -0.0040076155679800319 0.00074534754963836839 0 -0.0039576532775908654 0.00070414766794410478 0 -0.0040141834653571662 0.00066579779541750983 0 -0.0024874067560235768 -2.7634120497187098e-05 0 -0.0024951073623520684 -2.0635438910092347e-05 0 -0.0024906480641678662 -2.0419090080380718e-05 0 -0.0024944281818414667 -1.8209661526736616e-05 0 -0.0025028392014620699 -1.1573311574525856e-05 0 -0.0024951073623520684 -2.0635438910092347e-05 0 -0.0024874067560235768 -2.7634120497187098e-05 0 -0.0025028392014620699 -1.1573311574525856e-05 0 -0.0024951073623520684 -2.0635438910092347e-05 0 -0.0024893701113915478 -1.9780508513273496e-05 0 -0.0024951073623520684 -2.0635438910092347e-05 0 -0.0024906480641678662 -2.0419090080380718e-05 0 -0.0024906480641678662 -2.0419090080380718e-05 0 -0.0024946104599925154 -1.7099365692107062e-05 0 -0.0024882615738304331 -1.2056976077704664e-05 0 -0.0024874067560235768 -2.7634120497187098e-05 0 -0.0024906480641678662 -2.0419090080380718e-05 0 -0.0024946104599925154 -1.7099365692107062e-05 0 -0.0024946104599925154 -1.7099365692107062e-05 0 -0.0024882615738304331 -1.2056976077704664e-05 0 -0.0025000749246830941 -4.9894658844277429e-06 0 -0.0024882615738304331 -1.2056976077704664e-05 0 -0.0024903053028095547 -4.6203808580661877e-06 0 -0.0025000749246830941 -4.9894658844277429e-06 0 -0.0024806993649604705 -2.7171338130404098e-06 0 -0.0024882615738304331 -1.2056976077704664e-05 0 -0.0024903053028095547 -4.6203808580661877e-06 0 -0.0024923768731493481 3.7887183842486838e-06 0 -0.0025000749246830941 -4.9894658844277429e-06 0 -0.0025026397150991215 1.2354724933908725e-05 0 -0.0024806993649604705 -2.7171338130404098e-06 0 -0.0024903053028095547 -4.6203808580661877e-06 0 -0.0024923768731493481 3.7887183842486838e-06 0 -0.0024806993649604705 -2.7171338130404098e-06 0 -0.0024923768731493481 3.7887183842486838e-06 0 -0.0024813584219214127 1.1581467920412205e-05 0 -0.0024903053028095547 -4.6203808580661877e-06 0 -0.0024923768731493481 3.7887183842486838e-06 0 -0.0025000749246830941 -4.9894658844277429e-06 0 -0.003502635031382473 0.00025666865218187387 0 -0.0031724991212564394 0.00020783350448805413 0 -0.0025000749246830941 -4.9894658844277429e-06 0 -0.0025188191217955205 -2.6178152709150559e-06 0 -0.0025026397150991215 1.2354724933908725e-05 0 -0.0025055400291773859 -1.7115624287504688e-05 0 -0.0025000749246830941 -4.9894658844277429e-06 0 -0.0025188191217955205 -2.6178152709150559e-06 0 -0.0025055400291773859 -1.7115624287504688e-05 0 -0.0024946104599925154 -1.7099365692107062e-05 0 -0.0025000749246830941 -4.9894658844277429e-06 0 -0.0038576371892735536 0.0005290511514446589 0 -0.0038677893057716241 0.00041754461883411514 0 -0.0037461213790878759 0.00052040976986953628 0 -0.0039466588561065377 0.0005388709382566501 0 -0.0038576371892735536 0.0005290511514446589 0 -0.0038677893057716241 0.00041754461883411514 0 -0.0033553752668489629 0.00023158627372046607 0 -0.003502635031382473 0.00025666865218187387 0 -0.003719007660703657 0.00032956381011183938 0 -0.0036973236994999352 0.00032591349828930445 0 -0.0037308191677583747 0.00030282286147361749 0 -0.003719007660703657 0.00032956381011183938 0 -0.0037213629390125025 0.00033244605823370179 0 -0.0037308191677583747 0.00030282286147361749 0 -0.003719007660703657 0.00032956381011183938 0 -0.0037287052013423132 0.00033582117053914968 0 -0.0036973236994999352 0.00032591349828930445 0 -0.0035048059275021777 0.00025887780555196451 0 -0.003502635031382473 0.00025666865218187387 0 -0.0037287052013423132 0.00033582117053914968 0 -0.0036973236994999352 0.00032591349828930445 0 -0.0036677597654030674 0.00035598874989955804 0 -0.0036973236994999352 0.00032591349828930445 0 -0.0036312429058764687 0.00029293621886923663 0 -0.0036565507933977964 0.00022911816921264471 0 -0.0036973236994999352 0.00032591349828930445 0 -0.0036312429058764687 0.00029293621886923663 0 -0.0036677597654030674 0.00035598874989955804 0 -0.0036312429058764687 0.00029293621886923663 0 -0.0036677597654030674 0.00035598874989955804 0 -0.0035829762899888405 0.00033157790630986066 0 -0.0037287052013423132 0.00033582117053914968 0 -0.0036677597654030674 0.00035598874989955804 0 -0.0036679091544927511 0.00044502363478269821 0 -0.0036677597654030674 0.00035598874989955804 0 -0.0036679091544927511 0.00044502363478269821 0 -0.0035829762899888405 0.00033157790630986066 0 -0.003502635031382473 0.00025666865218187387 0 -0.0035818514806303628 0.00039313086722524024 0 -0.0037181811757633506 5.7063914194987444e-05 0 -0.0036334446256625378 0.00012081771975745217 0 -0.0034997404031774314 -7.267816561778271e-05 0 -0.0037181811757633506 5.7063914194987444e-05 0 -0.0038019412225194595 -3.9235221629500096e-06 0 -0.0034997404031774314 -7.267816561778271e-05 0 -0.0037181811757633506 5.7063914194987444e-05 0 -0.0036334446256625378 0.00012081771975745217 0 -0.0037205251174342508 0.00015084403710311859 0 -0.0036334446256625378 0.00012081771975745217 0 -0.0036565507933977964 0.00022911816921264471 0 -0.0035469689672477391 0.00019035743621326919 0 -0.0036312429058764687 0.00029293621886923663 0 -0.0036565507933977964 0.00022911816921264471 0 -0.0035469689672477391 0.00019035743621326919 0 -0.0036973236994999352 0.00032591349828930445 0 -0.0036565507933977964 0.00022911816921264471 0 -0.0037494246758560295 0.00022902716409246919 0 -0.0036334446256625378 0.00012081771975745217 0 -0.0036565507933977964 0.00022911816921264471 0 -0.0037205251174342508 0.00015084403710311859 0 -0.0036565507933977964 0.00022911816921264471 0 -0.0037205251174342508 0.00015084403710311859 0 -0.0037494246758560295 0.00022902716409246919 0 -0.0036973236994999352 0.00032591349828930445 0 -0.0037494246758560295 0.00022902716409246919 0 -0.0038770248106218754 0.00018680106944709153 0 -0.0037205251174342508 0.00015084403710311859 0 -0.0037904014782522209 0.00016837669697002678 0 -0.0038154544036721355 0.0001055015211468464 0 -0.0035927454992934907 0.00013723440551880123 0 -0.0035480139104105686 8.2653800935400559e-05 0 -0.0037205251174342508 0.00015084403710311859 0 -0.0037904014782522209 0.00016837669697002678 0 -0.0037494246758560295 0.00022902716409246919 0 -0.0037904014782522209 0.00016837669697002678 0 -0.0037494246758560295 0.00022902716409246919 0 -0.0038770248106218754 0.00018680106944709153 0 -0.0037904014782522209 0.00016837669697002678 0 -0.0038154544036721355 0.0001055015211468464 0 -0.0038770248106218754 0.00018680106944709153 0 -0.0038154544036721355 0.0001055015211468464 0 -0.0038750484217782593 0.0001067633837398746 0 -0.0038770248106218754 0.00018680106944709153 0 -0.0038154544036721355 0.0001055015211468464 0 -0.0038778764010095924 5.3959493924041827e-05 0 -0.0038750484217782593 0.0001067633837398746 0 -0.0037181811757633506 5.7063914194987444e-05 0 -0.0037205251174342508 0.00015084403710311859 0 -0.0038154544036721355 0.0001055015211468464 0 -0.0037181811757633506 5.7063914194987444e-05 0 -0.0038154544036721355 0.0001055015211468464 0 -0.0038130568956577984 4.9306066546898239e-05 0 -0.0037181811757633506 5.7063914194987444e-05 0 -0.0038130568956577984 4.9306066546898239e-05 0 -0.0038019412225194595 -3.9235221629500096e-06 0 -0.0038130568956577984 4.9306066546898239e-05 0 -0.0038778764010095924 5.3959493924041827e-05 0 -0.0038019412225194595 -3.9235221629500096e-06 0 -0.0038154544036721355 0.0001055015211468464 0 -0.0038130568956577984 4.9306066546898239e-05 0 -0.0038778764010095924 5.3959493924041827e-05 0 -0.0038778764010095924 5.3959493924041827e-05 0 -0.0039292754322809492 8.0395694338247371e-05 0 -0.0040485495822208317 2.9431450854810564e-05 0 -0.0038778764010095924 5.3959493924041827e-05 0 -0.0040485495822208317 2.9431450854810564e-05 0 -0.0038019412225194595 -3.9235221629500096e-06 0 -0.0031410125506965455 9.808757275554873e-05 0 -0.0032575337713991997 -5.1942086104766414e-06 0 -0.0039292754322809492 8.0395694338247371e-05 0 -0.0038770248106218754 0.00018680106944709153 0 -0.0040485495822208317 2.9431450854810564e-05 0 -0.0035480139104105686 8.2653800935400559e-05 0 -0.0031410125506965455 9.808757275554873e-05 0 -0.0039292754322809492 8.0395694338247371e-05 0 -0.0038750484217782593 0.0001067633837398746 0 -0.0038770248106218754 0.00018680106944709153 0 -0.0038778764010095924 5.3959493924041827e-05 0 -0.0039292754322809492 8.0395694338247371e-05 0 -0.0038750484217782593 0.0001067633837398746 0 -0.0037308191677583747 0.00030282286147361749 0 -0.0037379339339695663 0.00030432622934123312 0 -0.0037380104038145334 0.00029578826148523999 0 -0.0037213629390125025 0.00033244605823370179 0 -0.0037308191677583747 0.00030282286147361749 0 -0.0037379339339695663 0.00030432622934123312 0 -0.0025026397150991215 1.2354724933908725e-05 0 -0.0024897093388578681 1.5541358167756144e-05 0 -0.0024822649391102515 3.7433683624529448e-05 0 -0.0024923768731493481 3.7887183842486838e-06 0 -0.0025026397150991215 1.2354724933908725e-05 0 -0.0024897093388578681 1.5541358167756144e-05 0 -0.0024923768731493481 3.7887183842486838e-06 0 -0.0024897093388578681 1.5541358167756144e-05 0 -0.0024813584219214127 1.1581467920412205e-05 0 -0.0031724991212564394 0.00020783350448805413 0 -0.0029134003992942544 0.00016583801692294817 0 -0.0037379339339695663 0.00030432622934123312 0 -0.0037380104038145334 0.00029578826148523999 0 -0.0037401027641817712 0.00029572155061415755 0 -0.0031410125506965455 9.808757275554873e-05 0 -0.0029134003992942544 0.00016583801692294817 0 -0.0026827068804272771 -0.0001320758173362693 0 -0.002674382575311632 -0.00010704830317475883 0 -0.002617466812803703 -0.000110615892818413 0 -0.0026906412760289823 -0.00017618986303722699 0 -0.0026827068804272771 -0.0001320758173362693 0 -0.002617466812803703 -0.000110615892818413 0 -0.0026906412760289823 -0.00017618986303722699 0 -0.0026827068804272771 -0.0001320758173362693 0 -0.0027192000488378675 -0.00014642043733084582 0 -0.0027122115937063722 -0.00012009625951980434 0 -0.0026827068804272771 -0.0001320758173362693 0 -0.0027192000488378675 -0.00014642043733084582 0 -0.0027122115937063722 -0.00012009625951980434 0 -0.0026827068804272771 -0.0001320758173362693 0 -0.002674382575311632 -0.00010704830317475883 0 -0.002674382575311632 -0.00010704830317475883 0 -0.0027024460561209064 -8.5452923255017245e-05 0 -0.0026543606672758705 -7.0405993076519375e-05 0 -0.0027024460561209064 -8.5452923255017245e-05 0 -0.0026543606672758705 -7.0405993076519375e-05 0 -0.0027040716634970968 -4.4365885064151701e-05 0 -0.0027122115937063722 -0.00012009625951980434 0 -0.002674382575311632 -0.00010704830317475883 0 -0.0027024460561209064 -8.5452923255017245e-05 0 -0.0027122115937063722 -0.00012009625951980434 0 -0.0027024460561209064 -8.5452923255017245e-05 0 -0.0027415964356623263 -0.00010612441471380959 0 -0.0027024460561209064 -8.5452923255017245e-05 0 -0.0027415964356623263 -0.00010612441471380959 0 -0.0027390210531816985 -6.9669612451323854e-05 0 -0.0027024460561209064 -8.5452923255017245e-05 0 -0.0027390210531816985 -6.9669612451323854e-05 0 -0.0027040716634970968 -4.4365885064151701e-05 0 -0.0027390210531816985 -6.9669612451323854e-05 0 -0.0027765111124075665 -9.4467206864653678e-05 0 -0.0027731077271440528 -5.5634375427953078e-05 0 -0.0027390210531816985 -6.9669612451323854e-05 0 -0.0027731077271440528 -5.5634375427953078e-05 0 -0.0027472025949916213 -3.2343387075441014e-05 0 -0.0027415964356623263 -0.00010612441471380959 0 -0.0027390210531816985 -6.9669612451323854e-05 0 -0.0027765111124075665 -9.4467206864653678e-05 0 -0.0026906412760289823 -0.00017618986303722699 0 -0.0027528873550759728 -0.00014844270999157274 0 -0.0028041765625716345 -0.00016520394665262719 0 -0.0027415964356623263 -0.00010612441471380959 0 -0.0027691887976263939 -0.00012671803109766118 0 -0.0027765111124075665 -9.4467206864653678e-05 0 -0.0026906412760289823 -0.00017618986303722699 0 -0.0027192000488378675 -0.00014642043733084582 0 -0.0027528873550759728 -0.00014844270999157274 0 -0.0027691887976263939 -0.00012671803109766118 0 -0.0027433695141323715 -0.00013080766035526034 0 -0.0027528873550759728 -0.00014844270999157274 0 -0.0027415964356623263 -0.00010612441471380959 0 -0.0027691887976263939 -0.00012671803109766118 0 -0.0027433695141323715 -0.00013080766035526034 0 -0.0027122115937063722 -0.00012009625951980434 0 -0.0027433695141323715 -0.00013080766035526034 0 -0.0027192000488378675 -0.00014642043733084582 0 -0.0027122115937063722 -0.00012009625951980434 0 -0.0027415964356623263 -0.00010612441471380959 0 -0.0027433695141323715 -0.00013080766035526034 0 -0.0027433695141323715 -0.00013080766035526034 0 -0.0027192000488378675 -0.00014642043733084582 0 -0.0027528873550759728 -0.00014844270999157274 0 -0.0027691887976263939 -0.00012671803109766118 0 -0.0027528873550759728 -0.00014844270999157274 0 -0.0027913443293136409 -0.00014523700343793049 0 -0.0027528873550759728 -0.00014844270999157274 0 -0.0027913443293136409 -0.00014523700343793049 0 -0.0028041765625716345 -0.00016520394665262719 0 -0.0027913443293136409 -0.00014523700343793049 0 -0.0028036289959907992 -0.00014943053626810578 0 -0.0028036364326711402 -0.0001372789127147548 0 -0.0027913443293136409 -0.00014523700343793049 0 -0.0028036289959907992 -0.00014943053626810578 0 -0.0028041765625716345 -0.00016520394665262719 0 -0.0028036364326711402 -0.0001372789127147548 0 -0.0028153686622168677 -0.00015151872475617503 0 -0.0028153556272701237 -0.00011871763787279054 0 -0.0028036289959907992 -0.00014943053626810578 0 -0.0028041765625716345 -0.00016520394665262719 0 -0.0028153686622168677 -0.00015151872475617503 0 -0.0028036289959907992 -0.00014943053626810578 0 -0.0028036364326711402 -0.0001372789127147548 0 -0.0028153686622168677 -0.00015151872475617503 0 -0.0028036364326711402 -0.0001372789127147548 0 -0.0028153556272701237 -0.00011871763787279054 0 -0.0027937655143563688 -0.00012041802363495017 0 -0.0028153556272701237 -0.00011871763787279054 0 -0.0027937655143563688 -0.00012041802363495017 0 -0.0028034653366901616 -9.97449030963871e-05 0 -0.0027691887976263939 -0.00012671803109766118 0 -0.0027937655143563688 -0.00012041802363495017 0 -0.0027765111124075665 -9.4467206864653678e-05 0 -0.0027913443293136409 -0.00014523700343793049 0 -0.0028036364326711402 -0.0001372789127147548 0 -0.0027937655143563688 -0.00012041802363495017 0 -0.0027691887976263939 -0.00012671803109766118 0 -0.0027913443293136409 -0.00014523700343793049 0 -0.0027937655143563688 -0.00012041802363495017 0 -0.0027765111124075665 -9.4467206864653678e-05 0 -0.0028038045918496015 -7.0336850704652107e-05 0 -0.0028034653366901616 -9.97449030963871e-05 0 -0.0027937655143563688 -0.00012041802363495017 0 -0.0027765111124075665 -9.4467206864653678e-05 0 -0.0028034653366901616 -9.97449030963871e-05 0 -0.0027765111124075665 -9.4467206864653678e-05 0 -0.0027731077271440528 -5.5634375427953078e-05 0 -0.0028038045918496015 -7.0336850704652107e-05 0 -0.0028038045918496015 -7.0336850704652107e-05 0 -0.0028260971246050334 -9.0896719904133436e-05 0 -0.0028377683821207505 -6.8526377027462474e-05 0 -0.0028153556272701237 -0.00011871763787279054 0 -0.0028034653366901616 -9.97449030963871e-05 0 -0.0028260971246050334 -9.0896719904133436e-05 0 -0.0028038045918496015 -7.0336850704652107e-05 0 -0.0028034653366901616 -9.97449030963871e-05 0 -0.0028260971246050334 -9.0896719904133436e-05 0 -0.0028260971246050334 -9.0896719904133436e-05 0 -0.0028377683821207505 -6.8526377027462474e-05 0 -0.0028538835733315578 -9.6149059119492902e-05 0 -0.0028153556272701237 -0.00011871763787279054 0 -0.0028260971246050334 -9.0896719904133436e-05 0 -0.0028538835733315578 -9.6149059119492902e-05 0 -0.0028377683821207505 -6.8526377027462474e-05 0 -0.0028538835733315578 -9.6149059119492902e-05 0 -0.0028953248150922336 -5.1586314465826809e-05 0 -0.0028153686622168677 -0.00015151872475617503 0 -0.0029008811255164589 -8.1797005515628078e-05 0 -0.0029563109331688302 -0.0001433711634899132 0 -0.0028041765625716345 -0.00016520394665262719 0 -0.0028153686622168677 -0.00015151872475617503 0 -0.0029563109331688302 -0.0001433711634899132 0 -0.0032575337713991997 -5.1942086104766414e-06 0 -0.0031999720344443069 -5.6796803657095573e-05 0 -0.0026476334634198723 -4.8976255495911828e-05 0 -0.0025712241230025465 -7.090407917686115e-05 0 -0.0028153686622168677 -0.00015151872475617503 0 -0.0028153556272701237 -0.00011871763787279054 0 -0.0028538835733315578 -9.6149059119492902e-05 0 -0.0023948727749813379 2.9901102404721425e-05 0 -0.0025825795504238894 4.0178129090253339e-05 0 -0.0025001966143479121 0.00010086335695705681 0 -0.0024824518800584737 7.0429989969536075e-05 0 -0.0025733646803133806 9.048304533529759e-05 0 -0.0023948727749813379 2.9901102404721425e-05 0 -0.002416797939325309 1.6734940299667423e-05 0 -0.0024366312227370249 3.5718554383664591e-05 0 -0.0023948727749813379 2.9901102404721425e-05 0 -0.0025001966143479121 0.00010086335695705681 0 -0.0024268482996951859 0.00013379686659597742 0 -0.0023148889014419894 5.8130996190041232e-05 0 -0.0023948727749813379 2.9901102404721425e-05 0 -0.0024268482996951859 0.00013379686659597742 0 -0.0023575778759746548 -1.8520768407620521e-05 0 -0.0023948727749813379 2.9901102404721425e-05 0 -0.0023929441197936782 -1.183966194415018e-05 0 -0.0023948727749813379 2.9901102404721425e-05 0 -0.0023929441197936782 -1.183966194415018e-05 0 -0.002416797939325309 1.6734940299667423e-05 0 -0.0023929441197936782 -1.183966194415018e-05 0 -0.002416797939325309 1.6734940299667423e-05 0 -0.0024456365128772725 8.4114478834275922e-06 0 -0.002416797939325309 1.6734940299667423e-05 0 -0.0024456365128772725 8.4114478834275922e-06 0 -0.0024366312227370249 3.5718554383664591e-05 0 -0.0024684397814057485 -4.0835654353138531e-06 0 -0.0024456365128772725 8.4114478834275922e-06 0 -0.0024703797477013036 5.6928565566172453e-06 0 -0.0024456365128772725 8.4114478834275922e-06 0 -0.0024703797477013036 5.6928565566172453e-06 0 -0.0024646657546920359 1.8957196562532366e-05 0 -0.0024456365128772725 8.4114478834275922e-06 0 -0.0024646657546920359 1.8957196562532366e-05 0 -0.0024366312227370249 3.5718554383664591e-05 0 -0.0024897093388578681 1.5541358167756144e-05 0 -0.0024813584219214127 1.1581467920412205e-05 0 -0.0024822649391102515 3.7433683624529448e-05 0 -0.0024806993649604705 -2.7171338130404098e-06 0 -0.0024813584219214127 1.1581467920412205e-05 0 -0.0024703797477013036 5.6928565566172453e-06 0 -0.0024813584219214127 1.1581467920412205e-05 0 -0.0024703797477013036 5.6928565566172453e-06 0 -0.0024646657546920359 1.8957196562532366e-05 0 -0.0024813584219214127 1.1581467920412205e-05 0 -0.0024646657546920359 1.8957196562532366e-05 0 -0.0024822649391102515 3.7433683624529448e-05 0 -0.0024646657546920359 1.8957196562532366e-05 0 -0.0024822649391102515 3.7433683624529448e-05 0 -0.0024366312227370249 3.5718554383664591e-05 0 -0.0027541460608609416 5.9661080095177042e-05 0 -0.0025825795504238894 4.0178129090253339e-05 0 -0.0026632530814265469 0.00014209286630971119 0 -0.0029134003992942544 0.00016583801692294817 0 -0.0025733646803133806 9.048304533529759e-05 0 -0.0025825795504238894 4.0178129090253339e-05 0 -0.0025790949538612197 0.0001257606994134484 0 -0.0026632530814265469 0.00014209286630971119 0 -0.0026632530814265469 0.00014209286630971119 0 -0.0027079299115206237 0.00018303151939965423 0 -0.0026471233959091795 0.00019162875033128246 0 -0.0026632530814265469 0.00014209286630971119 0 -0.0026018251202051456 0.00018509052533072421 0 -0.0026471233959091795 0.00019162875033128246 0 -0.0025790949538612197 0.0001257606994134484 0 -0.0026632530814265469 0.00014209286630971119 0 -0.0026018251202051456 0.00018509052533072421 0 -0.0031410125506965455 9.808757275554873e-05 0 -0.0026981674552145618 8.1582011384731366e-05 0 -0.002754103588359297 5.9320443024450331e-05 0 -0.0026632530814265469 0.00014209286630971119 0 -0.0027079299115206237 0.00018303151939965423 0 -0.002836610497401065 6.8238638249299352e-05 0 -0.002754103588359297 5.9320443024450331e-05 0 -0.0027079299115206237 0.00018303151939965423 0 -0.0029134003992942544 0.00016583801692294817 0 -0.0028578968537107505 0.0001835673887853914 0 -0.002617466812803703 -0.000110615892818413 0 -0.002609741953793215 -6.027122913222357e-05 0 -0.0026543606672758705 -7.0405993076519375e-05 0 -0.002674382575311632 -0.00010704830317475883 0 -0.002617466812803703 -0.000110615892818413 0 -0.0026543606672758705 -7.0405993076519375e-05 0 -0.002617466812803703 -0.000110615892818413 0 -0.002609741953793215 -6.027122913222357e-05 0 -0.0025661826254590515 -6.5024167261027924e-05 0 -0.002609741953793215 -6.027122913222357e-05 0 -0.0025661826254590515 -6.5024167261027924e-05 0 -0.0025412406394024153 -4.2362615146297621e-05 0 -0.0026018251202051456 0.00018509052533072421 0 -0.0026191755622221738 0.00025958992670626496 0 -0.0025503446358161527 0.00023123015036377413 0 -0.0026018251202051456 0.00018509052533072421 0 -0.0026471233959091795 0.00019162875033128246 0 -0.0026191755622221738 0.00025958992670626496 0 -0.0026981674552145618 8.1582011384731366e-05 0 -0.0024297597755699781 7.7771803916411439e-05 0 -0.0027079299115206237 0.00018303151939965423 0 -0.0026471233959091795 0.00019162875033128246 0 -0.0026191755622221738 0.00025958992670626496 0 -0.0024297597755699781 7.7771803916411439e-05 0 -0.0022650344703627643 9.4008342183573589e-05 0 -0.0026191755622221738 0.00025958992670626496 0 -0.0025503446358161527 0.00023123015036377413 0 -0.0025774356361491389 0.00029495630532284548 0 -0.0025503446358161527 0.00023123015036377413 0 -0.0024395512995343174 0.00025420341899327605 0 -0.0025774356361491389 0.00029495630532284548 0 -0.0024088517951632682 0.00016067851553246503 0 -0.0022650344703627643 9.4008342183573589e-05 0 -0.0025503446358161527 0.00023123015036377413 0 -0.0025224915329879376 0.00016877697396543455 0 -0.0024395512995343174 0.00025420341899327605 0 -0.0026018251202051456 0.00018509052533072421 0 -0.0025503446358161527 0.00023123015036377413 0 -0.0025224915329879376 0.00016877697396543455 0 -0.0025790949538612197 0.0001257606994134484 0 -0.0026018251202051456 0.00018509052533072421 0 -0.0025224915329879376 0.00016877697396543455 0 -0.0025224915329879376 0.00016877697396543455 0 -0.0025001966143479121 0.00010086335695705681 0 -0.0024268482996951859 0.00013379686659597742 0 -0.0025825795504238894 4.0178129090253339e-05 0 -0.0025790949538612197 0.0001257606994134484 0 -0.0025001966143479121 0.00010086335695705681 0 -0.0025790949538612197 0.0001257606994134484 0 -0.0025224915329879376 0.00016877697396543455 0 -0.0025001966143479121 0.00010086335695705681 0 -0.0025224915329879376 0.00016877697396543455 0 -0.0024268482996951859 0.00013379686659597742 0 -0.0024395512995343174 0.00025420341899327605 0 -0.0023449020309827618 0.00020814384003522892 0 -0.0024268482996951859 0.00013379686659597742 0 -0.0024395512995343174 0.00025420341899327605 0 -0.0024395512995343174 0.00025420341899327605 0 -0.0024410797271846641 0.00036012874203987256 0 -0.0025832679271188168 0.00033785131410362691 0 -0.0024395512995343174 0.00025420341899327605 0 -0.0024410797271846641 0.00036012874203987256 0 -0.0023585413908763383 0.00031887214696471182 0 -0.001772860718716938 1.0942671927504681e-05 0 -0.0015569093573363025 0.00011051842662412278 0 -0.0024410797271846641 0.00036012874203987256 0 -0.0024744926129913452 0.00045585992661677466 0 -0.0023577808316125309 0.00041026614286310427 0 -0.001557657575818535 3.8450551518777743e-05 0 -0.0014831828918611598 4.1104075420328048e-05 0 -0.0015064571570266045 6.1130944898015659e-05 0 -0.001557657575818535 3.8450551518777743e-05 0 -0.001520858905808984 7.8140315089013265e-05 0 -0.0015064571570266045 6.1130944898015659e-05 0 -0.0016281794660139334 -6.6179883570752118e-05 0 -0.0016167460558078784 -2.0162934712273115e-05 0 -0.0015663221414782111 6.9403853219440323e-07 0 -0.0016281794660139334 -6.6179883570752118e-05 0 -0.0016167460558078784 -2.0162934712273115e-05 0 -0.0016602458727439111 -2.9583007935615267e-05 0 -0.001772860718716938 1.0942671927504681e-05 0 -0.0014318391008992619 5.8161374570344864e-07 0 -0.001772860718716938 1.0942671927504681e-05 0 -0.0017524890351775107 -7.8911066114061803e-06 0 -0.0016664382434711507 -6.4102475228985264e-05 0 -0.0017324914319129113 -6.6544564665829508e-05 0 -0.0017273292844020235 -0.00013175616150010091 0 -0.0016281794660139334 -6.6179883570752118e-05 0 -0.0016602458727439111 -2.9583007935615267e-05 0 -0.0017174093245271023 -6.7919802737145837e-05 0 -0.0016602458727439111 -2.9583007935615267e-05 0 -0.0017174093245271023 -6.7919802737145837e-05 0 -0.0017400442852252927 -1.8196639854374691e-05 0 -0.0024410797271846641 0.00036012874203987256 0 -0.0024744926129913452 0.00045585992661677466 0 -0.0025832679271188168 0.00033785131410362691 0 -0.001772860718716938 1.0942671927504681e-05 0 -0.0021706061256036185 8.1073553915316611e-05 0 -0.0024395512995343174 0.00025420341899327605 0 -0.0025832679271188168 0.00033785131410362691 0 -0.0026105200062798315 0.0003079583308335326 0 -0.0017324914319129113 -6.6544564665829508e-05 0 -0.0017273292844020235 -0.00013175616150010091 0 -0.0017422122625308004 -0.00014854127427485725 0 -0.0021706061256036185 8.1073553915316611e-05 0 -0.0022650344703627643 9.4008342183573589e-05 0 -0.0017324914319129113 -6.6544564665829508e-05 0 -0.0017746243652107983 -0.00011078838576991529 0 -0.0017422122625308004 -0.00014854127427485725 0 -0.0022650344703627643 9.4008342183573589e-05 0 -0.0021853629787613798 -4.1637395481168018e-05 0 -0.0017746243652107983 -0.00011078838576991529 0 -0.0017422122625308004 -0.00014854127427485725 0 -0.0018580607554590258 -0.00012184110559866026 0 -0.002609741953793215 -6.027122913222357e-05 0 -0.0025412406394024153 -4.2362615146297621e-05 0 -0.0026435253755749404 -1.7530780193962475e-05 0 -0.0017746243652107983 -0.00011078838576991529 0 -0.0018580607554590258 -0.00012184110559866026 0 -0.0017982335109964949 -6.8042262076967519e-05 0 -0.002609741953793215 -6.027122913222357e-05 0 -0.0026543606672758705 -7.0405993076519375e-05 0 -0.0026435253755749404 -1.7530780193962475e-05 0 -0.0018580607554590258 -0.00012184110559866026 0 -0.0018614661051482475 -5.6704731568890242e-05 0 -0.0017982335109964949 -6.8042262076967519e-05 0 -0.0015471939759872989 -0.00014747259063896338 0 -0.0013956200952136158 -0.00010856659356501045 0 -0.0011155791945433719 -0.00030539982253138478 0 -0.00101488784902917 -0.00027047178428543346 0 -0.0010609762548031713 -0.00024984074665666887 0 -0.0018614661051482475 -5.6704731568890242e-05 0 -0.0017982335109964949 -6.8042262076967519e-05 0 -0.0017400442852252927 -1.8196639854374691e-05 0 -0.0017524890351775107 -7.8911066114061803e-06 0 -0.0017598783264304203 -1.4118438533801504e-05 0 -0.0017174093245271023 -6.7919802737145837e-05 0 -0.0017982335109964949 -6.8042262076967519e-05 0 -0.0017400442852252927 -1.8196639854374691e-05 0 -0.0017324914319129113 -6.6544564665829508e-05 0 -0.0017746243652107983 -0.00011078838576991529 0 -0.0017982335109964949 -6.8042262076967519e-05 0 -0.00101488784902917 -0.00027047178428543346 0 -0.0010609762548031713 -0.00024984074665666887 0 -0.0010236993565983636 -0.00022480655786023438 0 -0.0010609762548031713 -0.00024984074665666887 0 -0.0010236993565983636 -0.00022480655786023438 0 -0.0010575283670494701 -0.00021212025640564522 0 -0.00101488784902917 -0.00027047178428543346 0 -0.0010236993565983636 -0.00022480655786023438 0 -0.00098364670924866232 -0.00022244791957936634 0 -0.0011155791945433719 -0.00030539982253138478 0 -0.0010978057153109679 -0.00024231232290773227 0 -0.0011317899470257825 -0.00026929907295339124 0 -0.0011155791945433719 -0.00030539982253138478 0 -0.0010609762548031713 -0.00024984074665666887 0 -0.0010978057153109679 -0.00024231232290773227 0 -0.0010978057153109679 -0.00024231232290773227 0 -0.0010923917607672743 -0.00020942906419843367 0 -0.0010575283670494701 -0.00021212025640564522 0 -0.0010609762548031713 -0.00024984074665666887 0 -0.0010978057153109679 -0.00024231232290773227 0 -0.0010575283670494701 -0.00021212025640564522 0 -0.0010978057153109679 -0.00024231232290773227 0 -0.0010923917607672743 -0.00020942906419843367 0 -0.0011341795188560377 -0.0002150028804000718 0 -0.0010978057153109679 -0.00024231232290773227 0 -0.0011317899470257825 -0.00026929907295339124 0 -0.0011341795188560377 -0.0002150028804000718 0 -0.0010757760890661668 -0.00017265615119505228 0 -0.0011341795188560377 -0.0002150028804000718 0 -0.0010932998026755274 -0.00012639564551107562 0 -0.00084551947933493555 -0.0003249730134700726 0 -0.00058117822536956363 -0.00036454172664495674 0 -0.0010923917607672743 -0.00020942906419843367 0 -0.0010757760890661668 -0.00017265615119505228 0 -0.0011341795188560377 -0.0002150028804000718 0 -0.0010923917607672743 -0.00020942906419843367 0 -0.0010757760890661668 -0.00017265615119505228 0 -0.0010575283670494701 -0.00021212025640564522 0 -0.0010757760890661668 -0.00017265615119505228 0 -0.0010160664055465776 -0.00018497466290453782 0 -0.0010171941146334157 -0.00012774739954709316 0 -0.0010757760890661668 -0.00017265615119505228 0 -0.0010575283670494701 -0.00021212025640564522 0 -0.0010160664055465776 -0.00018497466290453782 0 -0.0010236993565983636 -0.00022480655786023438 0 -0.0010575283670494701 -0.00021212025640564522 0 -0.0010160664055465776 -0.00018497466290453782 0 -0.0010236993565983636 -0.00022480655786023438 0 -0.0010160664055465776 -0.00018497466290453782 0 -0.00098364670924866232 -0.00022244791957936634 0 -0.0010160664055465776 -0.00018497466290453782 0 -0.00095845287355162811 -0.00017151026858072907 0 -0.0010171941146334157 -0.00012774739954709316 0 -0.0010160664055465776 -0.00018497466290453782 0 -0.00095845287355162811 -0.00017151026858072907 0 -0.00098364670924866232 -0.00022244791957936634 0 -0.00095845287355162811 -0.00017151026858072907 0 -0.00094597893942811135 -0.00020795905525347675 0 -0.00098364670924866232 -0.00022244791957936634 0 -0.00095845287355162811 -0.00017151026858072907 0 -0.00092142619109327319 -0.00019767146154843829 0 -0.00091180721435517211 -0.0001421562557352499 0 -0.00092142619109327319 -0.00019767146154843829 0 -0.00091180721435517211 -0.0001421562557352499 0 -0.00087255909850525741 -0.00022573654344551063 0 -0.00095845287355162811 -0.00017151026858072907 0 -0.00092142619109327319 -0.00019767146154843829 0 -0.00094597893942811135 -0.00020795905525347675 0 -0.00092142619109327319 -0.00019767146154843829 0 -0.00094597893942811135 -0.00020795905525347675 0 -0.0009205911802161827 -0.00023995405320467413 0 -0.001362853157422282 -8.4185680465452588e-05 0 -0.0013261116803731775 -9.5075928202028009e-05 0 -0.001298951276549043 -6.5438393676465781e-05 0 -0.00092142619109327319 -0.00019767146154843829 0 -0.0009205911802161827 -0.00023995405320467413 0 -0.00087255909850525741 -0.00022573654344551063 0 -0.0012827757538169569 -5.3475133243257667e-05 0 -0.0012786373751971563 -2.7077900369045788e-05 0 -0.0016167460558078784 -2.0162934712273115e-05 0 -0.0015978191269138354 2.552387678877773e-05 0 -0.0015656821844508672 7.1013052447556682e-07 0 -0.0014539886297536783 -6.3905456059840407e-06 0 -0.0014318391008992619 5.8161374570344864e-07 0 -0.0015978191269138354 2.552387678877773e-05 0 -0.0015656821844508672 7.1013052447556682e-07 0 -0.0015544363368586659 1.2911934305796238e-05 0 -0.0012827757538169569 -5.3475133243257667e-05 0 -0.0013804986775462285 -1.3774270972581941e-06 0 -0.0014318391008992619 5.8161374570344864e-07 0 -0.0013804986775462285 -1.3774270972581941e-06 0 -0.0016167460558078784 -2.0162934712273115e-05 0 -0.0016602458727439111 -2.9583007935615267e-05 0 -0.0015978191269138354 2.552387678877773e-05 0 -0.0013956200952136158 -0.00010856659356501045 0 -0.0012827757538169569 -5.3475133243257667e-05 0 -0.00094597893942811135 -0.00020795905525347675 0 -0.0009205911802161827 -0.00023995405320467413 0 -0.00098364670924866232 -0.00022244791957936634 0 -0.00101488784902917 -0.00027047178428543346 0 -0.00092166475431059759 -0.00024019068224796124 0 -0.00098364670924866232 -0.00022244791957936634 0 -0.0012827757538169569 -5.3475133243257667e-05 0 -0.0011505085126464329 -0.00010277697800266776 0 -0.0016602458727439111 -2.9583007935615267e-05 0 -0.0017400442852252927 -1.8196639854374691e-05 0 -0.0015978191269138354 2.552387678877773e-05 0 -0.0010267721030269162 -0.00083194476157145948 0 -0.00099007298793359717 -0.0007071952016460527 0 -0.0011796614577187553 -0.00079585825975296283 0 -0.0010267721030269162 -0.00083194476157145948 0 -0.0010611102661859668 -0.00094168332989162488 0 -0.0011796614577187553 -0.00079585825975296283 0 -0.0028377683821207505 -6.8526377027462474e-05 0 -0.0028484650670526717 -3.68391294432582e-05 0 -0.0027961579037975677 -2.2442893597891026e-05 0 -0.0028377683821207505 -6.8526377027462474e-05 0 -0.0028484650670526717 -3.68391294432582e-05 0 -0.0028953248150922336 -5.1586314465826809e-05 0 -0.0010267721030269162 -0.00083194476157145948 0 -0.0010611102661859668 -0.00094168332989162488 0 -0.00091792080105442474 -0.0009008161625576591 0 -0.0020024030134855974 -0.00032029198220125273 0 -0.0018642389907804434 -0.00029472345978366388 0 -0.0027731077271440528 -5.5634375427953078e-05 0 -0.0028038045918496015 -7.0336850704652107e-05 0 -0.0027965056513790973 -9.9474323888590481e-06 0 -0.0020794495900449076 -0.00035502056558782728 0 -0.0018642389907804434 -0.00029472345978366388 0 -0.0028038045918496015 -7.0336850704652107e-05 0 -0.0028377683821207505 -6.8526377027462474e-05 0 -0.0027965056513790973 -9.9474323888590481e-06 0 -0.0027731077271440528 -5.5634375427953078e-05 0 -0.0027965056513790973 -9.9474323888590481e-06 0 -0.0027472025949916213 -3.2343387075441014e-05 0 -0.0018642389907804434 -0.00029472345978366388 0 -0.0018839216857000688 -0.00020670837866030748 0 -0.00091792080105442474 -0.0009008161625576591 0 -0.00078306690840403213 -0.00073382165507294332 0 -0.00099007298793359717 -0.0007071952016460527 0 -0.0010267721030269162 -0.00083194476157145948 0 -0.00091792080105442474 -0.0009008161625576591 0 -0.00099007298793359717 -0.0007071952016460527 0 -0.0013062480056560957 -0.00036183757635024422 0 -0.0012623194091020578 -0.00033384999568949775 0 -0.0012323262345734589 -0.00027234109697580017 0 -0.0018642389907804434 -0.00029472345978366388 0 -0.0012904222343582726 -0.00033239145253949104 0 -0.0012334513596994668 -0.00034124721396533946 0 -0.0011814463382728378 -0.00031551863829717833 0 -0.0012323262345734589 -0.00027234109697580017 0 -0.0013062480056560957 -0.00036183757635024422 0 -0.0012346626482436693 -0.00034174499278078423 0 -0.0012623194091020578 -0.00033384999568949775 0 -0.0018839216857000688 -0.00020670837866030748 0 -0.0018471433359884984 -0.0002163481579135643 0 -0.0012334513596994668 -0.00034124721396533946 0 -0.0012623194091020578 -0.00033384999568949775 0 -0.0012323262345734589 -0.00027234109697580017 0 -0.0027965056513790973 -9.9474323888590481e-06 0 -0.0027415579872736053 7.741862964010368e-06 0 -0.0027472025949916213 -3.2343387075441014e-05 0 -0.0027390210531816985 -6.9669612451323854e-05 0 -0.0027472025949916213 -3.2343387075441014e-05 0 -0.0027040716634970968 -4.4365885064151701e-05 0 -0.0027415579872736053 7.741862964010368e-06 0 -0.0027472025949916213 -3.2343387075441014e-05 0 -0.0027040716634970968 -4.4365885064151701e-05 0 -0.0026435253755749404 -1.7530780193962475e-05 0 -0.0027415579872736053 7.741862964010368e-06 0 -0.0027040716634970968 -4.4365885064151701e-05 0 -0.0021853629787613798 -4.1637395481168018e-05 0 -0.0018839216857000688 -0.00020670837866030748 0 -0.0026543606672758705 -7.0405993076519375e-05 0 -0.0026435253755749404 -1.7530780193962475e-05 0 -0.0027040716634970968 -4.4365885064151701e-05 0 -0.0018580607554590258 -0.00012184110559866026 0 -0.0018614661051482475 -5.6704731568890242e-05 0 -0.0019731761774840774 -9.0624390292511829e-05 0 -0.0015471939759872989 -0.00014747259063896338 0 -0.0018839216857000688 -0.00020670837866030748 0 -0.0011155791945433719 -0.00030539982253138478 0 -0.0012334513596994668 -0.00034124721396533946 0 -0.0011814463382728378 -0.00031551863829717833 0 -0.0011155791945433719 -0.00030539982253138478 0 -0.0011814463382728378 -0.00031551863829717833 0 -0.0011317899470257825 -0.00026929907295339124 0 -0.0011346440606157142 -0.00020716799736953575 0 -0.0011600340334846466 -0.00018565805617703959 0 -0.0012323262345734589 -0.00027234109697580017 0 -0.0011814463382728378 -0.00031551863829717833 0 -0.0011346440606157142 -0.00020716799736953575 0 -0.0012323262345734589 -0.00027234109697580017 0 -0.0011814463382728378 -0.00031551863829717833 0 -0.0011317899470257825 -0.00026929907295339124 0 -0.0011341795188560377 -0.0002150028804000718 0 -0.00093158445003900037 -0.00034427587947194493 0 -0.00084551947933493555 -0.0003249730134700726 0 -0.0011346440606157142 -0.00020716799736953575 0 -0.0011600340334846466 -0.00018565805617703959 0 -0.0010870342441430159 -9.9240949628888198e-05 0 -0.00092961583675296527 -0.00035508933743146981 0 -0.00058117822536956363 -0.00036454172664495674 0 -0.00064789832976541392 -0.00056679382069003037 0 -0.00081417422134927406 -0.0005445094391358891 0 -0.00066872716652892079 -0.00041224146822673835 0 -0.00064789832976541392 -0.00056679382069003037 0 -0.00081417422134927406 -0.0005445094391358891 0 -0.00078306690840403213 -0.00073382165507294332 0 -0.00092961583675296527 -0.00035508933743146981 0 -0.0012904222343582726 -0.00033239145253949104 0 -0.00081417422134927406 -0.0005445094391358891 0 -0.00078306690840403213 -0.00073382165507294332 0 -0.00099007298793359717 -0.0007071952016460527 0 -0.00081417422134927406 -0.0005445094391358891 0 -0.00099512524985696446 -0.00047822522010924695 0 -0.00099007298793359717 -0.0007071952016460527 0 -9.2445100123132279e-05 -0.0010298213062275513 0 -0.00042607346645871894 -0.0010408774474505497 0 -0.00099512524985696446 -0.00047822522010924695 0 -0.00099007298793359717 -0.0007071952016460527 0 -0.0011900559740022955 -0.0005880779912625279 0 0.0011267971660928985 -0.0017131232924234771 0 0.0012157242387105501 -0.0018000283564237303 0 0.0011934041696220648 -0.0015957855623652526 0 0.00097896653655472074 -0.0017216397861127052 0 0.0010457565434003353 -0.001721660049762302 0 0.00099815323467426602 -0.001661537824052849 0 0.0010457565434003353 -0.001721660049762302 0 0.001076918221678015 -0.0016609748038920291 0 0.00099815323467426602 -0.001661537824052849 0 0.0010457565434003353 -0.001721660049762302 0 0.0010039412905318908 -0.0017848858291644228 0 0.0011061519589931064 -0.0017934572602521617 0 0.00097896653655472074 -0.0017216397861127052 0 0.0010457565434003353 -0.001721660049762302 0 0.0010039412905318908 -0.0017848858291644228 0 0.0010699779886452544 -0.0019120494741309067 0 0.0010039412905318908 -0.0017848858291644228 0 0.00091960701729819024 -0.0018754781305861806 0 0.0010699779886452544 -0.0019120494741309067 0 0.0010039412905318908 -0.0017848858291644228 0 0.0011061519589931064 -0.0017934572602521617 0 -9.2445100123132279e-05 -0.0010298213062275513 0 0.00011114812550148322 -0.00095345435723505822 0 -0.00081417422134927406 -0.0005445094391358891 0 -0.00099512524985696446 -0.00047822522010924695 0 -0.00079999194487173457 -0.0003685516352034827 0 0.0010699779886452544 -0.0019120494741309067 0 0.0011061519589931064 -0.0017934572602521617 0 0.0012157242387105501 -0.0018000283564237303 0 0.0011061519589931064 -0.0017934572602521617 0 0.0011267971660928985 -0.0017131232924234771 0 0.0012157242387105501 -0.0018000283564237303 0 0.0010457565434003353 -0.001721660049762302 0 0.0011061519589931064 -0.0017934572602521617 0 0.0011267971660928985 -0.0017131232924234771 0 0.0010457565434003353 -0.001721660049762302 0 0.0011267971660928985 -0.0017131232924234771 0 0.001076918221678015 -0.0016609748038920291 0 0.0012157242387105501 -0.0018000283564237303 0 0.0013451945295343802 -0.0017125215888285799 0 0.0011934041696220648 -0.0015957855623652526 0 -0.00081417422134927406 -0.0005445094391358891 0 -0.00079999194487173457 -0.0003685516352034827 0 -0.00066872716652892079 -0.00041224146822673835 0 -0.00064789832976541392 -0.00056679382069003037 0 -0.00066872716652892079 -0.00041224146822673835 0 -0.00051304858115147883 -0.00039966515123202669 0 -0.00066872716652892079 -0.00041224146822673835 0 -0.00060481654141342667 -0.00025913547343076038 0 -0.00051304858115147883 -0.00039966515123202669 0 -0.00079999194487173457 -0.0003685516352034827 0 -0.00066872716652892079 -0.00041224146822673835 0 -0.00060481654141342667 -0.00025913547343076038 0 0.00011114812550148322 -0.00095345435723505822 0 0.00023252784268240341 -0.00081424163826352845 0 0.0013451945295343802 -0.0017125215888285799 0 0.0013507779199425569 -0.0015735696133156896 0 0.0011934041696220648 -0.0015957855623652526 0 0.0012724593813030515 -0.001128029038807212 0 0.0012844297787368915 -0.0011098707855518783 0 0.001262102635730818 -0.0011102414031385216 0 0.0012724593813030515 -0.001128029038807212 0 0.0012425053781137513 -0.0011354650566440447 0 0.001262102635730818 -0.0011102414031385216 0 0.0012425053781137513 -0.0011354650566440447 0 0.0012398101638429202 -0.0011160600280569809 0 0.001262102635730818 -0.0011102414031385216 0 0.0011689336743364973 -0.0011090757323894609 0 0.0011718253090711023 -0.0012615194260680784 0 0.0011267971660928985 -0.0017131232924234771 0 0.0011934041696220648 -0.0015957855623652526 0 0.001076918221678015 -0.0016609748038920291 0 0.0011934041696220648 -0.0015957855623652526 0 0.001018660750711467 -0.0016147524429501259 0 0.001076918221678015 -0.0016609748038920291 0 0.0011718253090711023 -0.0012615194260680784 0 0.0010587054021516866 -0.0013580655482645883 0 0.0012425053781137513 -0.0011354650566440447 0 0.0012271331059522819 -0.0011251754562298041 0 0.0012084303099021085 -0.001142282582753146 0 0.0012425053781137513 -0.0011354650566440447 0 0.0012398101638429202 -0.0011160600280569809 0 0.0012271331059522819 -0.0011251754562298041 0 0.0012398101638429202 -0.0011160600280569809 0 0.0012271331059522819 -0.0011251754562298041 0 0.0012207646588805055 -0.0011066316673319927 0 0.0010125837534928079 -0.0015286760481533119 0 0.0010253027761387263 -0.0015911772433625045 0 0.0011136875457764626 -0.0013884178832570925 0 0.0012271331059522819 -0.0011251754562298041 0 0.0012084303099021085 -0.001142282582753146 0 0.0012207646588805055 -0.0011066316673319927 0 0.0010587054021516866 -0.0013580655482645883 0 0.0011418330268227377 -0.0012391580407780814 0 0.0010125837534928079 -0.0015286760481533119 0 0.00096971231851375147 -0.0014847628703413536 0 0.0011136875457764626 -0.0013884178832570925 0 0.0010125837534928079 -0.0015286760481533119 0 0.00096321464899091873 -0.0015628594944938918 0 0.00096971231851375147 -0.0014847628703413536 0 0.0010125837534928079 -0.0015286760481533119 0 0.0010253027761387263 -0.0015911772433625045 0 0.0010141123276441312 -0.001593169875777227 0 0.0010125837534928079 -0.0015286760481533119 0 0.0010141123276441312 -0.001593169875777227 0 0.00096321464899091873 -0.0015628594944938918 0 0.0010141123276441312 -0.001593169875777227 0 0.00096168699881342087 -0.0016194072477775196 0 0.00096321464899091873 -0.0015628594944938918 0 0.0010587054021516866 -0.0013580655482645883 0 0.0010584663279112323 -0.0013583050951621047 0 0.001018660750711467 -0.0016147524429501259 0 0.001076918221678015 -0.0016609748038920291 0 0.00099815323467426602 -0.001661537824052849 0 0.0010587054021516866 -0.0013580655482645883 0 0.0010493569337170043 -0.0013874530762640789 0 0.0010273417475911409 -0.0015911816636962209 0 0.0010141123276441312 -0.001593169875777227 0 0.00099815323467426602 -0.001661537824052849 0 0.0010141123276441312 -0.001593169875777227 0 0.00099815323467426602 -0.001661537824052849 0 0.00096168699881342087 -0.0016194072477775196 0 -0.0009882873331889786 -7.8201504255656144e-05 0 -0.0009510204135380506 -5.7134842077319528e-05 0 -0.00096633909615332161 -0.00011634928153635493 0 -0.0009882873331889786 -7.8201504255656144e-05 0 -0.001031405152303401 -5.3275642166688288e-05 0 -0.00097560079647148812 -3.7745102383889031e-05 0 -0.0009882873331889786 -7.8201504255656144e-05 0 -0.0009510204135380506 -5.7134842077319528e-05 0 -0.00097560079647148812 -3.7745102383889031e-05 0 -0.0009510204135380506 -5.7134842077319528e-05 0 -0.00091386375227638192 -7.0225539389230356e-05 0 -0.00093194723634030239 -1.2711653451056334e-05 0 -0.0010479423323094517 -0.00013118391555489594 0 -0.001080794742963991 -0.00014435489030736407 0 -0.0009510204135380506 -5.7134842077319528e-05 0 -0.00091386375227638192 -7.0225539389230356e-05 0 -0.00092074194941149754 -0.00011556446845616625 0 -0.00091386375227638192 -7.0225539389230356e-05 0 -0.00092074194941149754 -0.00011556446845616625 0 -0.00089631557874449055 -0.00011568498173869819 0 -0.0009510204135380506 -5.7134842077319528e-05 0 -0.00091180721435517211 -0.0001421562557352499 0 -0.00096633909615332161 -0.00011634928153635493 0 -0.00095845287355162811 -0.00017151026858072907 0 -0.00091180721435517211 -0.0001421562557352499 0 -0.00096633909615332161 -0.00011634928153635493 0 -0.00095845287355162811 -0.00017151026858072907 0 -0.00096633909615332161 -0.00011634928153635493 0 -0.0010171941146334157 -0.00012774739954709316 0 -0.0009882873331889786 -7.8201504255656144e-05 0 -0.00096633909615332161 -0.00011634928153635493 0 -0.0010171941146334157 -0.00012774739954709316 0 -0.0010757760890661668 -0.00017265615119505228 0 -0.0010171941146334157 -0.00012774739954709316 0 -0.0010932998026755274 -0.00012639564551107562 0 -0.0010171941146334157 -0.00012774739954709316 0 -0.0010932998026755274 -0.00012639564551107562 0 -0.001031405152303401 -5.3275642166688288e-05 0 -0.00058117822536956363 -0.00036454172664495674 0 -0.00020286455544334662 -0.00046424207260703634 0 -0.00058117822536956363 -0.00036454172664495674 0 -0.0004285821349525918 -0.00037399132373871238 0 0.00023252784268240341 -0.00081424163826352845 0 0.00020246113115704218 -0.00061470420468069892 0 -0.00033981836193139981 -0.00048029639927320126 0 -0.0003142031987143587 -0.00041822272679608533 0 -0.00026993388594121588 -0.00039324840753433415 0 -0.00060481654141342667 -0.00025913547343076038 0 -0.00051304858115147883 -0.00039966515123202669 0 -0.00046144163470920792 -0.00027485849013955297 0 -0.00060481654141342667 -0.00025913547343076038 0 -0.00046144163470920792 -0.00027485849013955297 0 -0.00040983582910615623 -0.00015015552350993293 0 -0.0009882873331889786 -7.8201504255656144e-05 0 -0.0010171941146334157 -0.00012774739954709316 0 -0.001031405152303401 -5.3275642166688288e-05 0 -0.00020286455544334662 -0.00046424207260703634 0 0.00020246113115704218 -0.00061470420468069892 0 -0.0003142031987143587 -0.00041822272679608533 0 -0.00026993388594121588 -0.00039324840753433415 0 -0.00028868426361168336 -0.00035609882089933994 0 0.00020246113115704218 -0.00061470420468069892 0 -0.00010792662233678781 -0.00042812155076837145 0 -0.00026993388594121588 -0.00039324840753433415 0 -0.00028868426361168336 -0.00035609882089933994 0 -0.0002008142360513182 -0.0003060338275369972 0 0.00030385277011858659 -0.00071087561482497557 0 0.00033723183845245727 -0.00062779180053728863 0 0.0004785269825070782 -0.00061078744512899584 0 0.0014668162451365744 -0.0016325481934979515 0 0.0014442115787317411 -0.00162007819510736 0 0.0014866465994616881 -0.0015774410442779474 0 0.00020246113115704218 -0.00061470420468069892 0 0.00060183892162396491 -0.00081561763098344305 0 0.00065062098442463748 -0.00084423116869207938 0 0.00060183892162396491 -0.00081561763098344305 0 0.0013451945295343802 -0.0017125215888285799 0 0.0013507779199425569 -0.0015735696133156896 0 0.0014442115787317411 -0.00162007819510736 0 0.0013451945295343802 -0.0017125215888285799 0 0.0014668162451365744 -0.0016325481934979515 0 0.0014442115787317411 -0.00162007819510736 0 0.0013507779199425569 -0.0015735696133156896 0 0.0014442115787317411 -0.00162007819510736 0 0.0014879590988327389 -0.0015779628551120936 0 0.0011689336743364973 -0.0011090757323894609 0 0.00073320012311744954 -0.00084731228748377563 0 0.0013507779199425569 -0.0015735696133156896 0 0.0014987893030837902 -0.001549722964410769 0 0.0014879590988327389 -0.0015779628551120936 0 0.0012724593813030515 -0.001128029038807212 0 0.0012997426268189919 -0.00112236640167156 0 0.0012844297787368915 -0.0011098707855518783 0 0.00078800509986705564 -0.0008048123009391909 0 0.00081869264782131503 -0.00080008632190762359 0 0.00084089469262494754 -0.00067346023578500065 0 0.00073320012311744954 -0.00084731228748377563 0 0.00090660533916361342 -0.00078902718794257717 0 0.00038996005704433406 -0.00057941869795023564 0 0.00033723183845245727 -0.00062779180053728863 0 0.0004785269825070782 -0.00061078744512899584 0 0.00073320012311744954 -0.00084731228748377563 0 0.000660228123953018 -0.00079823646530787656 0 0.00059581111147160985 -0.00068787394989956654 0 0.00065939281430792737 -0.00067813292150153168 0 0.00056495022437760725 -0.000764994181469696 0 0.000660228123953018 -0.00079823646530787656 0 0.00060183892162396491 -0.00081561763098344305 0 0.00073320012311744954 -0.00084731228748377563 0 0.00060183892162396491 -0.00081561763098344305 0 0.0012997426268189919 -0.00112236640167156 0 0.0012961878533352938 -0.001107808206485196 0 0.0012844297787368915 -0.0011098707855518783 0 0.000660228123953018 -0.00079823646530787656 0 0.00060674115839959796 -0.00077726847477627408 0 0.00038996005704433406 -0.00057941869795023564 0 0.00053553579712550857 -0.00055704798337918306 0 0.0004785269825070782 -0.00061078744512899584 0 0.00039256205816661741 -0.00057969108345337042 0 0.00053553579712550857 -0.00055704798337918306 0 0.00057042310739201924 -0.00041483006256600217 0 -0.001031405152303401 -5.3275642166688288e-05 0 -0.0009718123663051408 1.6032815576475717e-05 0 -0.00097560079647148812 -3.7745102383889031e-05 0 -0.0009718123663051408 1.6032815576475717e-05 0 -0.00097560079647148812 -3.7745102383889031e-05 0 -0.00093194723634030239 -1.2711653451056334e-05 0 -0.0004285821349525918 -0.00037399132373871238 0 -0.00010792662233678781 -0.00042812155076837145 0 -0.0009510204135380506 -5.7134842077319528e-05 0 -0.00097560079647148812 -3.7745102383889031e-05 0 -0.00093194723634030239 -1.2711653451056334e-05 0 -0.0009010104868389518 -7.8151947991375169e-05 0 -0.00093194723634030239 -1.2711653451056334e-05 0 -0.00088159884060617997 -2.906645759904088e-05 0 -0.00093194723634030239 -1.2711653451056334e-05 0 -0.00090093553896193059 5.4992530344533498e-05 0 -0.00088159884060617997 -2.906645759904088e-05 0 -0.0010166685805005769 -9.4810580969963295e-05 0 -0.0010054336723499793 -7.962681541391407e-05 0 -0.0009718123663051408 1.6032815576475717e-05 0 -0.00093194723634030239 -1.2711653451056334e-05 0 -0.00090093553896193059 5.4992530344533498e-05 0 -0.00010792662233678781 -0.00042812155076837145 0 0.00015539021439070412 -0.00021862230414719243 0 0.00053553579712550857 -0.00055704798337918306 0 0.0004785269825070782 -0.00061078744512899584 0 0.00064368813472406394 -0.00051583947253006654 0 0.00015539021439070412 -0.00021862230414719243 0 -0.00029131611636300638 -1.5350697863944824e-05 0 0.00015405192254295383 -2.6440435338897947e-05 0 0.00015779685748245308 -2.6198704520743436e-05 0 0.00017405465730029244 -6.2752841089124004e-06 0 0.00015779685748245308 -2.6198704520743436e-05 0 0.00017928247979916723 -1.8803538404251754e-05 0 0.00014480462404358293 -3.6666492701506971e-05 0 0.00015779685748245308 -2.6198704520743436e-05 0 0.00014480462404358293 -3.6666492701506971e-05 0 0.00017405465730029244 -6.2752841089124004e-06 0 0.00014480462404358293 -3.6666492701506971e-05 0 0.00017405465730029244 -6.2752841089124004e-06 0 0.00010534557590765875 4.6682323008139385e-05 0 -0.00090093553896193059 5.4992530344533498e-05 0 -0.00084166241279886266 -2.9525587218396958e-05 0 -0.00088159884060617997 -2.906645759904088e-05 0 -0.00084166241279886266 -2.9525587218396958e-05 0 -0.00088159884060617997 -2.906645759904088e-05 0 -0.00085893820305266871 -5.2128388495417341e-05 0 -0.00088159884060617997 -2.906645759904088e-05 0 -0.00087368168950110396 -7.9773844034922991e-05 0 -0.00085893820305266871 -5.2128388495417341e-05 0 -0.0010163797294836996 -7.6190447756286801e-05 0 -0.001030736324316942 -8.6028566715829291e-05 0 -0.0009010104868389518 -7.8151947991375169e-05 0 -0.00088159884060617997 -2.906645759904088e-05 0 -0.00087721295693598243 -8.6295471640821761e-05 0 -0.00087368168950110396 -7.9773844034922991e-05 0 -0.0008389982539384191 -6.914178966751609e-05 0 -0.00084734527837686572 -9.9758240072941239e-05 0 -0.00087368168950110396 -7.9773844034922991e-05 0 -0.0008389982539384191 -6.914178966751609e-05 0 -0.00085893820305266871 -5.2128388495417341e-05 0 -0.00084166241279886266 -2.9525587218396958e-05 0 -0.0008389982539384191 -6.914178966751609e-05 0 -0.00085893820305266871 -5.2128388495417341e-05 0 -0.00029131611636300638 -1.5350697863944824e-05 0 -0.00057579607845521254 1.2788777309019734e-05 0 -0.0008389982539384191 -6.914178966751609e-05 0 -0.00081901535461273466 -9.7149616283816678e-05 0 -0.00078880103365488693 -0.00010431620108520783 0 -0.00084166241279886266 -2.9525587218396958e-05 0 -0.0008389982539384191 -6.914178966751609e-05 0 -0.00078880103365488693 -0.00010431620108520783 0 0.00017405465730029244 -6.2752841089124004e-06 0 0.00010534557590765875 4.6682323008139385e-05 0 9.2296140762580884e-05 0.00015143907538869725 0 -0.0008389982539384191 -6.914178966751609e-05 0 -0.00081901535461273466 -9.7149616283816678e-05 0 -0.00084734527837686572 -9.9758240072941239e-05 0 -0.00081901535461273466 -9.7149616283816678e-05 0 -0.00082612520612162404 -0.00011900782817525286 0 -0.00084734527837686572 -9.9758240072941239e-05 0 -0.00082612520612162404 -0.00011900782817525286 0 -0.00078571503178747205 -0.0001098617902709797 0 -0.00084677909499502094 -0.00017499296845232732 0 -0.00081901535461273466 -9.7149616283816678e-05 0 -0.00082612520612162404 -0.00011900782817525286 0 -0.00079005631351653318 -0.00010383460319000244 0 -0.00082612520612162404 -0.00011900782817525286 0 -0.00078571503178747205 -0.0001098617902709797 0 -0.00079005631351653318 -0.00010383460319000244 0 -0.00060551614699983815 1.3323926911381936e-05 0 -0.00057579607845521254 1.2788777309019734e-05 0 -0.0009010104868389518 -7.8151947991375169e-05 0 -0.00087721295693598243 -8.6295471640821761e-05 0 -0.00087228575469589648 -0.0001415882737347303 0 -0.001030736324316942 -8.6028566715829291e-05 0 -0.0010799823853073663 -8.8346636126557758e-05 0 -0.0010166685805005769 -9.4810580969963295e-05 0 -0.0010799823853073663 -8.8346636126557758e-05 0 -0.00087368168950110396 -7.9773844034922991e-05 0 -0.00086821764724514421 -0.00012821263750517579 0 -0.00084734527837686572 -9.9758240072941239e-05 0 -0.00082612520612162404 -0.00011900782817525286 0 -0.00086821764724514421 -0.00012821263750517579 0 -0.00084734527837686572 -9.9758240072941239e-05 0 -0.00073922032008295478 9.7642183785063311e-05 0 -0.00073097200719682764 9.6150128054691165e-05 0 -0.00074127422365564087 9.1652397064041609e-05 0 -0.00054140509878991864 5.6133504537674727e-05 0 -0.00065338049073842489 0.00010209482431197335 0 -7.3558667534458011e-05 9.238272590308723e-05 0 -9.1704535858952861e-05 4.7843721114390534e-05 0 -0.00012205472607227066 7.0754903323200753e-05 0 -0.00073922032008295478 9.7642183785063311e-05 0 -0.00074356684640013702 9.5617771330053325e-05 0 -0.00074127422365564087 9.1652397064041609e-05 0 -0.00073922032008295478 9.7642183785063311e-05 0 -0.00074356684640013702 9.5617771330053325e-05 0 -0.00074767256523297805 9.843313496230698e-05 0 -7.3558667534458011e-05 9.238272590308723e-05 0 -1.5138754030199317e-05 8.2120631115496513e-05 0 -5.2388830877514469e-05 4.0166720537183766e-05 0 -0.00054140509878991864 5.6133504537674727e-05 0 -0.00059852033192048205 1.9245249754676565e-05 0 -0.00059852033192048205 1.9245249754676565e-05 0 -0.00096288689265343851 9.0141016209474345e-05 0 -0.00074356684640013702 9.5617771330053325e-05 0 -0.00074767256523297805 9.843313496230698e-05 0 -0.00074253366424754767 9.1290376617235758e-05 0 8.3035443875687339e-05 0.00016374924464492002 0 9.2296140762580884e-05 0.00015143907538869725 0 6.7867834849743582e-05 9.8178950669467119e-05 0 -0.00059852033192048205 1.9245249754676565e-05 0 -0.00057579607845521254 1.2788777309019734e-05 0 -0.00059852033192048205 1.9245249754676565e-05 0 -0.00034082436351462811 0.00013268098282637013 0 0.00010534557590765875 4.6682323008139385e-05 0 9.2296140762580884e-05 0.00015143907538869725 0 6.7867834849743582e-05 9.8178950669467119e-05 0 8.3035443875687339e-05 0.00016374924464492002 0 6.7867834849743582e-05 9.8178950669467119e-05 0 -1.8967279349468519e-07 8.4895234764172017e-05 0 0.00010534557590765875 4.6682323008139385e-05 0 6.7867834849743582e-05 9.8178950669467119e-05 0 3.2060591770202612e-05 2.0927974259921447e-05 0 6.7867834849743582e-05 9.8178950669467119e-05 0 -1.8967279349468519e-07 8.4895234764172017e-05 0 3.2060591770202612e-05 2.0927974259921447e-05 0 -7.3558667534458011e-05 9.238272590308723e-05 0 -5.2388830877514469e-05 4.0166720537183766e-05 0 -9.1704535858952861e-05 4.7843721114390534e-05 0 -0.00034082436351462811 0.00013268098282637013 0 -0.00029364492861048329 0.00013984394588726257 0 -5.2388830877514469e-05 4.0166720537183766e-05 0 -9.1704535858952861e-05 4.7843721114390534e-05 0 -8.1134112011551455e-05 4.7812285816239087e-06 0 -9.1704535858952861e-05 4.7843721114390534e-05 0 -8.1134112011551455e-05 4.7812285816239087e-06 0 -0.00012838458747318354 2.6798209692339691e-05 0 -8.1134112011551455e-05 4.7812285816239087e-06 0 3.2060591770202612e-05 2.0927974259921447e-05 0 -4.4653545992394757e-05 -7.8704159888306111e-05 0 -8.1134112011551455e-05 4.7812285816239087e-06 0 -4.4653545992394757e-05 -7.8704159888306111e-05 0 -0.0001379771284837057 -2.1785481955080261e-05 0 -1.8967279349468519e-07 8.4895234764172017e-05 0 -8.1134112011551455e-05 4.7812285816239087e-06 0 3.2060591770202612e-05 2.0927974259921447e-05 0 0.00014480462404358293 -3.6666492701506971e-05 0 3.2060591770202612e-05 2.0927974259921447e-05 0 -4.4653545992394757e-05 -7.8704159888306111e-05 0 0.00014480462404358293 -3.6666492701506971e-05 0 0.00010534557590765875 4.6682323008139385e-05 0 3.2060591770202612e-05 2.0927974259921447e-05 0 0.00017928247979916723 -1.8803538404251754e-05 0 0.00014480462404358293 -3.6666492701506971e-05 0 0.0002438596465964714 -4.3569670586946814e-05 0 0.00012874996818759634 -3.1550963876274675e-05 0 0.00011056257969250857 -3.3723517574554533e-05 0 0.00017928247979916723 -1.8803538404251754e-05 0 0.0002438596465964714 -4.3569670586946814e-05 0 0.00021139430707897561 1.4751113941493125e-06 0 0.00011056257969250857 -3.3723517574554533e-05 0 9.1290912690823094e-05 -2.681356898022282e-05 0 0.0002438596465964714 -4.3569670586946814e-05 0 0.00030686876429109289 -1.1543996570390796e-05 0 0.00026491712736917113 3.0546668093423037e-06 0 -4.4653545992394757e-05 -7.8704159888306111e-05 0 -0.00015948448934317351 -5.7383855194992766e-05 0 -0.0001379771284837057 -2.1785481955080261e-05 0 -0.00015948448934317351 -5.7383855194992766e-05 0 -0.00017977525533820099 -3.5175260968879144e-05 0 -0.0001379771284837057 -2.1785481955080261e-05 0 -0.00015948448934317351 -5.7383855194992766e-05 0 -0.00017977525533820099 -3.5175260968879144e-05 0 -0.0001622174236771643 5.6197998706764131e-06 0 -0.00017977525533820099 -3.5175260968879144e-05 0 -0.00020657015134439356 -1.5175754982040809e-05 0 -0.00016752182279553237 2.697463528727231e-06 0 -0.00017977525533820099 -3.5175260968879144e-05 0 -0.00016752182279553237 2.697463528727231e-06 0 -0.0001379771284837057 -2.1785481955080261e-05 0 -0.00016752182279553237 2.697463528727231e-06 0 -0.0001379771284837057 -2.1785481955080261e-05 0 -0.00012838458747318354 2.6798209692339691e-05 0 -8.1134112011551455e-05 4.7812285816239087e-06 0 -0.0001379771284837057 -2.1785481955080261e-05 0 -0.00012838458747318354 2.6798209692339691e-05 0 -0.00015224464605756257 -1.2390365579073063e-07 0 -0.00017592430938784533 -3.3715989016477275e-05 0 -3.7730514628960418e-05 -1.6911089532466156e-05 0 -0.00017592430938784533 -3.3715989016477275e-05 0 -0.0001622174236771643 5.6197998706764131e-06 0 -3.7730514628960418e-05 -1.6911089532466156e-05 0 -0.00017977525533820099 -3.5175260968879144e-05 0 -0.00017592430938784533 -3.3715989016477275e-05 0 -0.0001622174236771643 5.6197998706764131e-06 0 -0.00017977525533820099 -3.5175260968879144e-05 0 -0.00020657015134439356 -1.5175754982040809e-05 0 -0.00017592430938784533 -3.3715989016477275e-05 0 -0.00020657015134439356 -1.5175754982040809e-05 0 -0.00017592430938784533 -3.3715989016477275e-05 0 -0.00024355438322085009 -2.074870035651779e-05 0 -0.00015224464605756257 -1.2390365579073063e-07 0 -0.00024355438322085009 -2.074870035651779e-05 0 -0.00033060700290088105 -4.2219157721132722e-06 0 -0.00015224464605756257 -1.2390365579073063e-07 0 -0.00017592430938784533 -3.3715989016477275e-05 0 -0.00024355438322085009 -2.074870035651779e-05 0 -0.00015224464605756257 -1.2390365579073063e-07 0 -0.0004396879170171783 -5.8710089674586819e-08 0 -0.00033060700290088105 -4.2219157721132722e-06 0 -0.0004396879170171783 -5.8710089674586819e-08 0 -0.00033060700290088105 -4.2219157721132722e-06 0 -0.00040635242091587763 -9.7272784857621372e-06 0 -0.00054775039884146426 0.00015116346780669348 0 -0.00058339824712483009 0.00015493776099137236 0 -0.00033060700290088105 -4.2219157721132722e-06 0 -0.00040509613484497825 -9.7538660964696583e-06 0 -0.00040635242091587763 -9.7272784857621372e-06 0 -0.00024355438322085009 -2.074870035651779e-05 0 -0.00033060700290088105 -4.2219157721132722e-06 0 -0.0002308517302894771 1.7530000468192474e-05 0 -0.00020657015134439356 -1.5175754982040809e-05 0 -0.00024355438322085009 -2.074870035651779e-05 0 -0.0002308517302894771 1.7530000468192474e-05 0 -0.0002308517302894771 1.7530000468192474e-05 0 -0.00023194828635719159 7.7456433251619732e-05 0 -0.00020899102514354434 5.7018183721651067e-05 0 -0.00033060700290088105 -4.2219157721132722e-06 0 -0.0002308517302894771 1.7530000468192474e-05 0 -0.00023194828635719159 7.7456433251619732e-05 0 -0.00040509613484497825 -9.7538660964696583e-06 0 -0.00040479319775379047 -4.599067656275772e-07 0 -0.00040635242091587763 -9.7272784857621372e-06 0 -0.00040509613484497825 -9.7538660964696583e-06 0 -0.00040479319775379047 -4.599067656275772e-07 0 -0.00038690503675402869 6.4807156113058514e-06 0 -0.00040479319775379047 -4.599067656275772e-07 0 -0.00042395247274174441 8.5226746462660771e-06 0 -0.00038176414822990945 2.8308138999531941e-05 0 -0.00042395247274174441 8.5226746462660771e-06 0 -0.00040635242091587763 -9.7272784857621372e-06 0 -0.00049344996218348553 -4.8967405173339508e-06 0 -0.00040479319775379047 -4.599067656275772e-07 0 -0.00042395247274174441 8.5226746462660771e-06 0 -0.00040635242091587763 -9.7272784857621372e-06 0 -0.00042395247274174441 8.5226746462660771e-06 0 -0.00049344996218348553 -4.8967405173339508e-06 0 -0.00045623700130194408 5.6676206965313706e-05 0 -0.0004396879170171783 -5.8710089674586819e-08 0 -0.00049344996218348553 -4.8967405173339508e-06 0 -0.00072691295665354655 1.9779234675236747e-07 0 -0.0004396879170171783 -5.8710089674586819e-08 0 -0.00040635242091587763 -9.7272784857621372e-06 0 -0.00049344996218348553 -4.8967405173339508e-06 0 -0.00015620804830371389 5.6555104509491559e-05 0 -0.00012838458747318354 2.6798209692339691e-05 0 -0.00012205472607227066 7.0754903323200753e-05 0 -9.1704535858952861e-05 4.7843721114390534e-05 0 -0.00012838458747318354 2.6798209692339691e-05 0 -0.00012205472607227066 7.0754903323200753e-05 0 -0.00016752182279553237 2.697463528727231e-06 0 -0.00015620804830371389 5.6555104509491559e-05 0 -0.00012838458747318354 2.6798209692339691e-05 0 -0.00016752182279553237 2.697463528727231e-06 0 -0.00015620804830371389 5.6555104509491559e-05 0 -0.00019116680224867406 3.2251981680339923e-05 0 -0.00020657015134439356 -1.5175754982040809e-05 0 -0.00016752182279553237 2.697463528727231e-06 0 -0.00019116680224867406 3.2251981680339923e-05 0 -0.00020657015134439356 -1.5175754982040809e-05 0 -0.0002308517302894771 1.7530000468192474e-05 0 -0.00019116680224867406 3.2251981680339923e-05 0 -0.0002308517302894771 1.7530000468192474e-05 0 -0.00019116680224867406 3.2251981680339923e-05 0 -0.00020899102514354434 5.7018183721651067e-05 0 -0.00019116680224867406 3.2251981680339923e-05 0 -0.00020899102514354434 5.7018183721651067e-05 0 -0.0001832141185201651 6.4417496766437437e-05 0 -0.00015620804830371389 5.6555104509491559e-05 0 -0.00019116680224867406 3.2251981680339923e-05 0 -0.0001832141185201651 6.4417496766437437e-05 0 -0.00015620804830371389 5.6555104509491559e-05 0 -0.00016096091874996863 7.7241909830169607e-05 0 -0.0001832141185201651 6.4417496766437437e-05 0 -0.00016096091874996863 7.7241909830169607e-05 0 -0.0001832141185201651 6.4417496766437437e-05 0 -0.00021419937291820168 8.5967279097636019e-05 0 -0.00021419937291820168 8.5967279097636019e-05 0 -0.00019019329476443954 0.00010731791136697531 0 -0.0001504333992644621 0.00010860773227737238 0 -0.0004509950655085614 0.00015342573771933853 0 -0.00065338049073842489 0.00010209482431197335 0 -0.00016096091874996863 7.7241909830169607e-05 0 -0.00021419937291820168 8.5967279097636019e-05 0 -0.00013481244069308253 0.00011127727615646983 0 -0.00058339824712483009 0.00015493776099137236 0 -0.00073406077772234153 0.00013249089705269347 0 -0.00023194828635719159 7.7456433251619732e-05 0 -0.00021419937291820168 8.5967279097636019e-05 0 -0.00019019329476443954 0.00010731791136697531 0 -0.00023194828635719159 7.7456433251619732e-05 0 -0.00020899102514354434 5.7018183721651067e-05 0 -0.00021419937291820168 8.5967279097636019e-05 0 -0.00020899102514354434 5.7018183721651067e-05 0 -0.0001832141185201651 6.4417496766437437e-05 0 -0.00021419937291820168 8.5967279097636019e-05 0 -0.00040479319775379047 -4.599067656275772e-07 0 -0.00038690503675402869 6.4807156113058514e-06 0 -0.00038176414822990945 2.8308138999531941e-05 0 -0.00040509613484497825 -9.7538660964696583e-06 0 -0.00038690503675402869 6.4807156113058514e-06 0 -0.00037059631692109982 8.9505722427053754e-06 0 -0.00071450928151400438 0.00013440049545713616 0 -0.00073406077772234153 0.00013249089705269347 0 -0.00083357199672017457 7.4122669631951105e-05 0 -0.0008528336931673408 8.8976265032556905e-05 0 -0.00038690503675402869 6.4807156113058514e-06 0 -0.0003738052499397887 1.2341496175612855e-05 0 -0.00038176414822990945 2.8308138999531941e-05 0 -0.00038690503675402869 6.4807156113058514e-06 0 -0.0003738052499397887 1.2341496175612855e-05 0 -0.00036815520718183224 1.2213864296974237e-05 0 -0.0003738052499397887 1.2341496175612855e-05 0 -0.0003576354694246622 2.1532185908394317e-05 0 -0.00038743576571847023 2.8857196140115449e-05 0 -0.0003738052499397887 1.2341496175612855e-05 0 -0.00036815520718183224 1.2213864296974237e-05 0 -0.0003576354694246622 2.1532185908394317e-05 0 -0.00073406077772234153 0.00013249089705269347 0 -0.00083177989615237197 0.00010570618675049337 0 -0.00073406077772234153 0.00013249089705269347 0 -0.00077672824780044409 0.00011067263607940319 0 -0.00083093193857479756 8.8478613335108236e-05 0 -0.00082232382601803351 9.5941283929804454e-05 0 -0.00081259700283888416 9.3510581446906265e-05 0 -0.00083177989615237197 0.00010570618675049337 0 -0.00077672824780044409 0.00011067263607940319 0 -7.3558667534458011e-05 9.238272590308723e-05 0 -0.00013481244069308253 0.00011127727615646983 0 -0.00012205472607227066 7.0754903323200753e-05 0 -0.00019019329476443954 0.00010731791136697531 0 -0.0001673759021335934 0.00011313668024785334 0 -0.0001504333992644621 0.00010860773227737238 0 -0.00077672824780044409 0.00011067263607940319 0 -0.00065338049073842489 0.00010209482431197335 0 -0.00016096091874996863 7.7241909830169607e-05 0 -0.00013481244069308253 0.00011127727615646983 0 -0.00012205472607227066 7.0754903323200753e-05 0 -0.00015620804830371389 5.6555104509491559e-05 0 -0.00016096091874996863 7.7241909830169607e-05 0 -0.00012205472607227066 7.0754903323200753e-05 0 -0.00077672824780044409 0.00011067263607940319 0 -0.00093938105634914463 8.9498901081397123e-05 0 -0.0013573328269590749 0.0002746972199273667 0 -0.001376740332260501 0.00027932625425433779 0 -0.0014432545626286652 0.00020088704490055988 0 -0.0014004806778160927 0.00027624764361065671 0 -0.0014741248764541723 0.00020342378995823825 0 -0.001384138201013295 0.00022571891676341716 0 -0.001376740332260501 0.00027932625425433779 0 -0.0014432545626286652 0.00020088704490055988 0 -0.0015165216192896509 0.00023876621380275169 0 -0.00068275554520744468 0.00013442141463798312 0 -0.00072739860626354867 0.00014483071217754541 0 -0.00091882712460792542 6.4892738640433351e-05 0 -0.00083177989615237197 0.00010570618675049337 0 -0.0011809558027698385 4.5004176650626206e-05 0 -0.00083177989615237197 0.00010570618675049337 0 -0.0008528336931673408 8.8976265032556905e-05 0 -0.0014004806778160927 0.00027624764361065671 0 -0.0013589450127607062 0.00026707326426231954 0 -0.001384138201013295 0.00022571891676341716 0 -0.0013949337880724644 0.0001760260794129727 0 -0.0012725972854427386 0.000185782202367156 0 -0.0013830464015413069 9.8947119168479839e-05 0 -0.001384138201013295 0.00022571891676341716 0 -0.0013949337880724644 0.0001760260794129727 0 -0.0012725972854427386 0.000185782202367156 0 -0.0013949337880724644 0.0001760260794129727 0 -0.0014413271850844782 0.00015096837075508055 0 -0.0013830464015413069 9.8947119168479839e-05 0 -0.0014741248764541723 0.00020342378995823825 0 -0.0013949337880724644 0.0001760260794129727 0 -0.0014413271850844782 0.00015096837075508055 0 -0.0014741248764541723 0.00020342378995823825 0 -0.001384138201013295 0.00022571891676341716 0 -0.0013949337880724644 0.0001760260794129727 0 -0.0014413271850844782 0.00015096837075508055 0 -0.0014702215058549411 0.00011239351189075524 0 -0.00147888850394498 0.00015174677125416185 0 -0.0014741248764541723 0.00020342378995823825 0 -0.0014413271850844782 0.00015096837075508055 0 -0.00147888850394498 0.00015174677125416185 0 -0.00072723186983292471 8.5179851048907313e-08 0 -0.00073439986397985711 3.4636522112512016e-05 0 -0.00049344996218348553 -4.8967405173339508e-06 0 -0.00072691295665354655 1.9779234675236747e-07 0 -0.00045623700130194408 5.6676206965313706e-05 0 -0.00072758639731901917 4.4980090726185941e-08 0 -0.00082988861041974186 4.3734013681992102e-05 0 -0.00083881173320166623 -1.4921427682082471e-05 0 -0.0008528336931673408 8.8976265032556905e-05 0 -0.00073439986397985711 3.4636522112512016e-05 0 -0.00042395247274174441 8.5226746462660771e-06 0 -0.00038176414822990945 2.8308138999531941e-05 0 -0.00045623700130194408 5.6676206965313706e-05 0 -0.0013589450127607062 0.00026707326426231954 0 -0.001384138201013295 0.00022571891676341716 0 -0.0012725972854427386 0.000185782202367156 0 -0.00088629229694680515 5.7534705757707519e-05 0 -0.00082988861041974186 4.3734013681992102e-05 0 -0.00083881173320166623 -1.4921427682082471e-05 0 -0.0008528336931673408 8.8976265032556905e-05 0 -0.0010069584169902735 7.2432733252839835e-05 0 -0.00072758639731901917 4.4980090726185941e-08 0 -0.00083881173320166623 -1.4921427682082471e-05 0 -0.00090292853764609594 -4.4790749783202857e-08 0 -0.00083881173320166623 -1.4921427682082471e-05 0 -0.00090292853764609594 -4.4790749783202857e-08 0 -0.0010784077953225747 4.4741382343693306e-08 0 -0.0010069584169902735 7.2432733252839835e-05 0 -0.0010784940111688741 8.8660318008460526e-08 0 -0.0012725972854427386 0.000185782202367156 0 -0.001079040910130316 2.6557955842844839e-07 0 -0.0012918926357591864 5.7262382985815067e-05 0 -0.0012725972854427386 0.000185782202367156 0 -0.0012918926357591864 5.7262382985815067e-05 0 -0.0013830464015413069 9.8947119168479839e-05 0 -0.0012918926357591864 5.7262382985815067e-05 0 -0.0013524673475395948 1.084415775364404e-05 0 -0.0013830464015413069 9.8947119168479839e-05 0 -0.0012918926357591864 5.7262382985815067e-05 0 -0.0013524673475395948 1.084415775364404e-05 0 -0.0012773464535118131 -8.5279911446095956e-06 0 -0.0013112458984694166 -1.5134323766010222e-07 0 -0.001079040910130316 2.6557955842844839e-07 0 -0.0012773464535118131 -8.5279911446095956e-06 0 -0.001079040910130316 2.6557955842844839e-07 0 -0.0012918926357591864 5.7262382985815067e-05 0 -0.0012773464535118131 -8.5279911446095956e-06 0 -0.0014575755841264545 0.00011154396779751796 0 -0.0014289397500437348 0.00011012259589773502 0 -0.0014459161809061336 8.7081161500623586e-05 0 -0.0013830464015413069 9.8947119168479839e-05 0 -0.0014177315254305654 3.983284325761759e-05 0 -0.0014413271850844782 0.00015096837075508055 0 -0.0014702215058549411 0.00011239351189075524 0 -0.0013830464015413069 9.8947119168479839e-05 0 -0.0013524673475395948 1.084415775364404e-05 0 -0.0013830464015413069 9.8947119168479839e-05 0 -0.0014177315254305654 3.983284325761759e-05 0 -0.0014049055620776968 8.6670668543499218e-06 0 -0.0013524673475395948 1.084415775364404e-05 0 -0.0014177315254305654 3.983284325761759e-05 0 -0.0014351431862567221 8.2075451466049559e-06 0 -0.0014177315254305654 3.983284325761759e-05 0 -0.0014589908228536843 5.2235841571609327e-05 0 -0.0014459161809061336 8.7081161500623586e-05 0 -0.0014177315254305654 3.983284325761759e-05 0 -0.0014589908228536843 5.2235841571609327e-05 0 -0.0016122486995735358 0.00013840321059547576 0 -0.0016969809993175624 0.0001965768010637109 0 -0.0014351431862567221 8.2075451466049559e-06 0 -0.0014589908228536843 5.2235841571609327e-05 0 -0.0014965883463450768 4.2764527865858852e-05 0 -0.0014589908228536843 5.2235841571609327e-05 0 -0.0014955797466114076 6.5677689038933984e-05 0 -0.0014965883463450768 4.2764527865858852e-05 0 -0.0014702215058549411 0.00011239351189075524 0 -0.0015422025533836611 0.00011077355191323626 0 -0.0015277712543926589 0.00014012269313305392 0 -0.0014702215058549411 0.00011239351189075524 0 -0.00147888850394498 0.00015174677125416185 0 -0.0015277712543926589 0.00014012269313305392 0 -0.0014459161809061336 8.7081161500623586e-05 0 -0.0014589908228536843 5.2235841571609327e-05 0 -0.0014794722026406988 7.8928325544312753e-05 0 -0.0014575755841264545 0.00011154396779751796 0 -0.0014974516595736762 0.00011764513958420424 0 -0.0014459161809061336 8.7081161500623586e-05 0 -0.0014794722026406988 7.8928325544312753e-05 0 -0.0014971206775758646 8.3694129667291744e-05 0 -0.0014589908228536843 5.2235841571609327e-05 0 -0.0014794722026406988 7.8928325544312753e-05 0 -0.0014955797466114076 6.5677689038933984e-05 0 -0.0014974516595736762 0.00011764513958420424 0 -0.0015997957619330475 0.00014153897015837605 0 -0.0016969809993175624 0.0001965768010637109 0 -0.0015997957619330475 0.00014153897015837605 0 -0.0015422025533836611 0.00011077355191323626 0 -0.0016166798903120311 0.0001328809121540435 0 -0.001569528555653972 0.00015445006763198062 0 -0.0014992048963059031 8.5141179178600156e-05 0 -0.0014955797466114076 6.5677689038933984e-05 0 -0.0015537481065862496 8.3324285686521386e-05 0 -0.0014974516595736762 0.00011764513958420424 0 -0.001386055343834179 8.9397131431027816e-05 0 -0.0014955797466114076 6.5677689038933984e-05 0 -0.0014965883463450768 4.2764527865858852e-05 0 -0.0015537481065862496 8.3324285686521386e-05 0 -0.0014794722026406988 7.8928325544312753e-05 0 -0.0014992048963059031 8.5141179178600156e-05 0 -0.0014955797466114076 6.5677689038933984e-05 0 -0.0014957988719458701 0.00011634349711248775 0 -0.0014974516595736762 0.00011764513958420424 0 -0.0021847709412312123 0.00030319416982324917 0 -0.0020628105971236765 0.00039992590024634945 0 -0.00222247938225197 0.00038256225090859471 0 -0.0020628105971236765 0.00039992590024634945 0 -0.00222247938225197 0.00038256225090859471 0 -0.0022345421236342998 0.00048065329870377536 0 -0.0022800552786685223 0.00029924475250298445 0 -0.0021847709412312123 0.00030319416982324917 0 -0.00222247938225197 0.00038256225090859471 0 -0.0022800552786685223 0.00029924475250298445 0 -0.00222247938225197 0.00038256225090859471 0 -0.0022978953809987437 0.0003774824670803618 0 -0.00222247938225197 0.00038256225090859471 0 -0.0022978953809987437 0.0003774824670803618 0 -0.0022596965418266797 0.00043135634787232549 0 -0.0022800552786685223 0.00029924475250298445 0 -0.0023585413908763383 0.00031887214696471182 0 -0.0022978953809987437 0.0003774824670803618 0 -0.0022978953809987437 0.0003774824670803618 0 -0.0023577808316125309 0.00041026614286310427 0 -0.0023017487155901589 0.00042918479609553437 0 -0.0022978953809987437 0.0003774824670803618 0 -0.0023017487155901589 0.00042918479609553437 0 -0.0022596965418266797 0.00043135634787232549 0 -0.0023585413908763383 0.00031887214696471182 0 -0.0022978953809987437 0.0003774824670803618 0 -0.0023577808316125309 0.00041026614286310427 0 -0.0024410797271846641 0.00036012874203987256 0 -0.0023585413908763383 0.00031887214696471182 0 -0.0023577808316125309 0.00041026614286310427 0 -0.0024744926129913452 0.00045585992661677466 0 -0.0023577808316125309 0.00041026614286310427 0 -0.0023180681676791006 0.00046533715691980817 0 -0.0023577808316125309 0.00041026614286310427 0 -0.0023180681676791006 0.00046533715691980817 0 -0.0023017487155901589 0.00042918479609553437 0 -0.0015569093573363025 0.00011051842662412278 0 -0.001567966124624904 0.0001376348034391482 0 -0.0023180681676791006 0.00046533715691980817 0 -0.0023017487155901589 0.00042918479609553437 0 -0.0022804568831429378 0.00046787899585767944 0 -0.0015569093573363025 0.00011051842662412278 0 -0.0014200877694272042 4.9825207166207859e-05 0 -0.0014862530946221013 8.8909392645541025e-05 0 -0.0014348856643328033 9.0622048983997821e-05 0 -0.0014686560975393839 0.00016015278656272508 0 -0.0014862530946221013 8.8909392645541025e-05 0 -0.0014952127779361876 0.00017939919467094474 0 -0.0014686560975393839 0.00016015278656272508 0 -0.001567966124624904 0.0001376348034391482 0 -0.0014572779207265307 7.4198481766299255e-05 0 -0.0014831828918611598 4.1104075420328048e-05 0 -0.0015064571570266045 6.1130944898015659e-05 0 -0.0014863798423381733 7.3554192388387076e-05 0 -0.0015021464186095476 0.00010975041194439973 0 -0.0014860623386153053 0.00010977318230624853 0 -0.0014878114548078506 0.00010838431148459912 0 -0.0015021464186095476 0.00010975041194439973 0 -0.0014859435793396353 0.00010439026335076101 0 -0.0014878114548078506 0.00010838431148459912 0 -0.00222247938225197 0.00038256225090859471 0 -0.0022596965418266797 0.00043135634787232549 0 -0.0022345421236342998 0.00048065329870377536 0 -0.0023017487155901589 0.00042918479609553437 0 -0.0022596965418266797 0.00043135634787232549 0 -0.0022804568831429378 0.00046787899585767944 0 -0.0022596965418266797 0.00043135634787232549 0 -0.0022345421236342998 0.00048065329870377536 0 -0.0022823583468415871 0.00047824611700394434 0 -0.001595464861512987 0.00017231218630719432 0 -0.001567966124624904 0.0001376348034391482 0 -0.0014860623386153053 0.00010977318230624853 0 -0.0014859445688456276 0.00010388328752543545 0 -0.0014878114548078506 0.00010838431148459912 0 -0.0014860623386153053 0.00010977318230624853 0 -0.0014859445688456276 0.00010388328752543545 0 -0.001477168407821897 0.00010295704820986555 0 -0.0015136926460732453 0.00012583426920758834 0 -0.0015406069224383244 0.00012487651835533132 0 -0.0015558640949633474 0.00015636392084949984 0 -0.0015997957619330475 0.00014153897015837605 0 -0.0014572779207265307 7.4198481766299255e-05 0 -0.0015997957619330475 0.00014153897015837605 0 -0.001567966124624904 0.0001376348034391482 0 -0.001386055343834179 8.9397131431027816e-05 0 -0.0013881073607175767 9.1436823189044433e-05 0 -0.0016166798903120311 0.0001328809121540435 0 -0.0016017694391967476 0.00016611765201400092 0 -0.001569528555653972 0.00015445006763198062 0 -0.0016166798903120311 0.0001328809121540435 0 -0.0016371055000137032 0.00017697121747797044 0 -0.0016017694391967476 0.00016611765201400092 0 -0.0013139174848483363 3.6099938330031284e-05 0 -0.0013162877801406972 4.1250183188364238e-05 0 -0.0013191083071356891 3.7494158119320917e-05 0 -0.001386055343834179 8.9397131431027816e-05 0 -0.001248030880597983 2.7129123922702104e-05 0 -0.001386055343834179 8.9397131431027816e-05 0 -0.0014132552830198846 5.4294625349477319e-05 0 -0.0012405486517363571 -5.8325999920014339e-06 0 -0.0012542485052822673 2.393378102149322e-05 0 -0.001122489348352454 6.2305239645251648e-05 0 -0.001248030880597983 2.7129123922702104e-05 0 -0.0011932553700427014 -2.6456605479747203e-06 0 -0.001248030880597983 2.7129123922702104e-05 0 -0.0011669390809546046 4.7961682447339495e-05 0 -0.0016371055000137032 0.00017697121747797044 0 -0.0016017694391967476 0.00016611765201400092 0 -0.0015834335479143922 0.00020059393052868831 0 -0.0016017694391967476 0.00016611765201400092 0 -0.0015834335479143922 0.00020059393052868831 0 -0.001569528555653972 0.00015445006763198062 0 -0.0014318391008992619 5.8161374570344864e-07 0 -0.0013923672699227728 8.2027969591120516e-06 0 -0.0013123384913956788 -1.2614325803048543e-05 0 -0.0013287336883200322 -7.7268212711309463e-06 0 -0.0012792556551634035 4.5941655325647452e-05 0 -0.001381799429588962 6.1598326997212418e-05 0 -0.0014018102557089526 5.3418240792724236e-05 0 -0.001392054279866474 5.0470288101509903e-05 0 -0.0013923672699227728 8.2027969591120516e-06 0 -0.0013804986775462285 -1.3774270972581941e-06 0 -0.001520858905808984 7.8140315089013265e-05 0 -0.0015064571570266045 6.1130944898015659e-05 0 -0.0015081670247742052 8.3379970100208486e-05 0 -0.0013923672699227728 8.2027969591120516e-06 0 -0.0014200877694272042 4.9825207166207859e-05 0 -0.0015064571570266045 6.1130944898015659e-05 0 -0.0015081670247742052 8.3379970100208486e-05 0 -0.0014863798423381733 7.3554192388387076e-05 0 -0.0013923672699227728 8.2027969591120516e-06 0 -0.0013412735181343217 1.4319366137274971e-05 0 -0.0013892027894908748 -4.6449279142852939e-05 0 -0.0013411573399421065 -3.1865839740188437e-05 0 -0.001337369918318655 -6.9896181145009999e-05 0 -0.0013162877801406972 4.1250183188364238e-05 0 -0.0013200498661480322 3.940110839131016e-05 0 -0.0013191083071356891 3.7494158119320917e-05 0 -0.0014859445688456276 0.00010388328752543545 0 -0.00147603887065928 0.00010057574531956449 0 -0.001477168407821897 0.00010295704820986555 0 -0.0013412735181343217 1.4319366137274971e-05 0 -0.0014200877694272042 4.9825207166207859e-05 0 -0.0013412735181343217 1.4319366137274971e-05 0 -0.0014132552830198846 5.4294625349477319e-05 0 -0.0013591088255911973 9.2088697533629086e-05 0 -0.0013559792054442985 6.0263284152334104e-05 0 -0.0013453828926176642 6.3823462414105462e-05 0 -0.001460823385879768 2.853009784523484e-05 0 -0.0014226805696203905 4.1364587964013589e-05 0 -0.0013922721888095049 -2.1165046091973213e-05 0 -0.0014132552830198846 5.4294625349477319e-05 0 -0.0014572779207265307 7.4198481766299255e-05 0 -0.0014200877694272042 4.9825207166207859e-05 0 -0.0014572779207265307 7.4198481766299255e-05 0 -0.0014200877694272042 4.9825207166207859e-05 0 -0.0014132552830198846 5.4294625349477319e-05 0 -0.001248030880597983 2.7129123922702104e-05 0 -0.0013412735181343217 1.4319366137274971e-05 0 -0.0012409003470317992 3.0995475952183404e-05 0 -0.0013019835212330696 8.2052594891613243e-07 0 -0.0013059838922371981 4.1199595138343551e-05 0 -0.0012409003470317992 3.0995475952183404e-05 0 -0.0012526841743275886 5.6602443183333678e-05 0 -0.0013059838922371981 4.1199595138343551e-05 0 -0.0011375381602847122 3.5127752564975913e-06 0 -0.0011522111845883474 -7.395132275120583e-07 0 -0.0011420011712125345 1.3265265281444306e-05 0 -0.0011932553700427014 -2.6456605479747203e-06 0 -0.0012512508251486712 -2.1902968130150118e-05 0 -0.0013412735181343217 1.4319366137274971e-05 0 -0.0012512508251486712 -2.1902968130150118e-05 0 -0.0013123384913956788 -1.2614325803048543e-05 0 -0.0012586509080878736 3.6695455038858844e-06 0 -0.0012792556551634035 4.5941655325647452e-05 0 -0.0013220415650629673 -2.5628787057769211e-05 0 -0.0013150994577312042 -9.4299585047103536e-05 0 -0.0012917854138380289 -8.7608031642654851e-05 0 -0.0013412735181343217 1.4319366137274971e-05 0 -0.0012786373751971563 -2.7077900369045788e-05 0 -0.0012512508251486712 -2.1902968130150118e-05 0 -0.0012786373751971563 -2.7077900369045788e-05 0 -0.0013804986775462285 -1.3774270972581941e-06 0 -0.0012786373751971563 -2.7077900369045788e-05 0 -0.00082612520612162404 -0.00011900782817525286 0 -0.00086821764724514421 -0.00012821263750517579 0 -0.00084677909499502094 -0.00017499296845232732 0 -0.0010799823853073663 -8.8346636126557758e-05 0 -0.0011364608111041801 -3.0651982041078043e-05 0 -0.001080794742963991 -0.00014435489030736407 0 -0.0012786373751971563 -2.7077900369045788e-05 0 -0.00092074194941149754 -0.00011556446845616625 0 -0.00089300217539806331 -0.0001642703754375584 0 -0.00089702141356088911 -0.00016540096664432818 0 -0.0011675669251018843 -8.6214139349622022e-05 0 -0.0011768619038748842 2.3042359864885764e-06 0 -0.001196166035648077 -2.4672270740626844e-05 0 -0.0010799823853073663 -8.8346636126557758e-05 0 -0.0012512508251486712 -2.1902968130150118e-05 0 -0.00092074194941149754 -0.00011556446845616625 0 -0.00089631557874449055 -0.00011568498173869819 0 -0.00089300217539806331 -0.0001642703754375584 0 -0.0012512508251486712 -2.1902968130150118e-05 0 -0.0011364608111041801 -3.0651982041078043e-05 0 -0.0011932553700427014 -2.6456605479747203e-06 0 -0.0011364608111041801 -3.0651982041078043e-05 0 -0.00095242153434181261 -2.4676161796679094e-05 0 -0.00096355736115651819 -3.3774239073419566e-07 0 -0.00087468964035489346 -2.1534942704991124e-06 0 -0.00059852033192048205 1.9245249754676565e-05 0 -0.0011364608111041801 -3.0651982041078043e-05 0 -0.00086146244657330797 0.00010978094955629629 0 -0.00096355736115651819 -3.3774239073419566e-07 0 -0.00087468964035489346 -2.1534942704991124e-06 0 -0.0012405486517363571 -5.8325999920014339e-06 0 -0.001122489348352454 6.2305239645251648e-05 0 -0.0011147840979169061 4.6235584468411339e-05 0 -0.0011932553700427014 -2.6456605479747203e-06 0 -0.0010548272893200895 4.6986205696146579e-05 0 -0.00086146244657330797 0.00010978094955629629 0 -0.00087468964035489346 -2.1534942704991124e-06 0 -0.00079726311716461871 2.0390424798053592e-05 0 -0.0011669390809546046 4.7961682447339495e-05 0 -0.00096288689265343851 9.0141016209474345e-05 0 -0.0010548272893200895 4.6986205696146579e-05 0 -0.00096288689265343851 9.0141016209474345e-05 0 -0.001122489348352454 6.2305239645251648e-05 0 -0.0011147840979169061 4.6235584468411339e-05 0 -0.00099074344749448709 0.00010108169969724217 0 -0.0015271917079937335 0.0002275710513507475 0 -0.0015060927877474453 0.00020113062854272402 0 -0.0015359773547889755 0.00019584868146912349 0 -0.0015834335479143922 0.00020059393052868831 0 -0.0015271917079937335 0.0002275710513507475 0 -0.0015359773547889755 0.00019584868146912349 0 -0.00074356684640013702 9.5617771330053325e-05 0 -0.00074253366424754767 9.1290376617235758e-05 0 -0.00074127422365564087 9.1652397064041609e-05 0 -0.00065338049073842489 0.00010209482431197335 0 -0.00093938105634914463 8.9498901081397123e-05 0 -0.00096288689265343851 9.0141016209474345e-05 0 -0.00093938105634914463 8.9498901081397123e-05 0 -0.0014432545626286652 0.00020088704490055988 0 -0.0015165216192896509 0.00023876621380275169 0 -0.0015060927877474453 0.00020113062854272402 0 -0.0015302427818411086 0.00023468029607851327 0 -0.0015165216192896509 0.00023876621380275169 0 -0.0015060927877474453 0.00020113062854272402 0 -0.00096288689265343851 9.0141016209474345e-05 0 -0.00099886821122649678 0.00012123966699599531 0 -0.0015060927877474453 0.00020113062854272402 0 -0.0015149779912314784 0.00017713537345120101 0 -0.0015359773547889755 0.00019584868146912349 0 -0.0014432545626286652 0.00020088704490055988 0 -0.0015149779912314784 0.00017713537345120101 0 -0.0015277712543926589 0.00014012269313305392 0 -0.0014741248764541723 0.00020342378995823825 0 -0.00147888850394498 0.00015174677125416185 0 -0.0015277712543926589 0.00014012269313305392 0 -0.0011809558027698385 4.5004176650626206e-05 0 -0.0012798580518345926 2.9607053947440055e-05 0 -0.0014432545626286652 0.00020088704490055988 0 -0.0015060927877474453 0.00020113062854272402 0 -0.0015149779912314784 0.00017713537345120101 0 -0.0015422025533836611 0.00011077355191323626 0 -0.0015277712543926589 0.00014012269313305392 0 -0.001569528555653972 0.00015445006763198062 0 -0.0015149779912314784 0.00017713537345120101 0 -0.0015277712543926589 0.00014012269313305392 0 -0.0015463795898879177 0.00017334430754002586 0 -0.0015277712543926589 0.00014012269313305392 0 -0.001569528555653972 0.00015445006763198062 0 -0.0015463795898879177 0.00017334430754002586 0 -0.0015834335479143922 0.00020059393052868831 0 -0.001569528555653972 0.00015445006763198062 0 -0.0015463795898879177 0.00017334430754002586 0 -0.0015834335479143922 0.00020059393052868831 0 -0.0015359773547889755 0.00019584868146912349 0 -0.0015463795898879177 0.00017334430754002586 0 -0.0015149779912314784 0.00017713537345120101 0 -0.0015359773547889755 0.00019584868146912349 0 -0.0015463795898879177 0.00017334430754002586 0 -0.0014544415143504733 -0.00025239429171753194 0 -0.0015257834232712572 -0.0002928005543057542 0 -0.0015079943833614625 -0.00024218244603820661 0 -0.0014544415143504733 -0.00025239429171753194 0 -0.0015079943833614625 -0.00024218244603820661 0 -0.0014705990268124327 -0.00020242532495033135 0 -0.0014544415143504733 -0.00025239429171753194 0 -0.0014705990268124327 -0.00020242532495033135 0 -0.001418668570355419 -0.0001927218739228591 0 -0.0014544415143504733 -0.00025239429171753194 0 -0.0013845580592888791 -0.00022365520207843554 0 -0.0013932327984096651 -0.00026759785965473732 0 -0.0014544415143504733 -0.00025239429171753194 0 -0.0013845580592888791 -0.00022365520207843554 0 -0.001418668570355419 -0.0001927218739228591 0 -0.0013845580592888791 -0.00022365520207843554 0 -0.001418668570355419 -0.0001927218739228591 0 -0.001368390296650581 -0.0001861311687068017 0 -0.0013845580592888791 -0.00022365520207843554 0 -0.0013932327984096651 -0.00026759785965473732 0 -0.0013511334466550398 -0.00025179722580077386 0 -0.0014544415143504733 -0.00025239429171753194 0 -0.0013932327984096651 -0.00026759785965473732 0 -0.0014207939874679441 -0.0003012565013495777 0 -0.0014207939874679441 -0.0003012565013495777 0 -0.0013604969754171408 -0.00030431587011423613 0 -0.0014145933179964363 -0.00033811837173971875 0 -0.0013932327984096651 -0.00026759785965473732 0 -0.0014207939874679441 -0.0003012565013495777 0 -0.0013604969754171408 -0.00030431587011423613 0 -0.0014207939874679441 -0.0003012565013495777 0 -0.0014671320891881819 -0.00031129593208743724 0 -0.0014145933179964363 -0.00033811837173971875 0 -0.0014544415143504733 -0.00025239429171753194 0 -0.0014671320891881819 -0.00031129593208743724 0 -0.0015257834232712572 -0.0002928005543057542 0 -0.0014544415143504733 -0.00025239429171753194 0 -0.0014207939874679441 -0.0003012565013495777 0 -0.0014671320891881819 -0.00031129593208743724 0 -0.0014671320891881819 -0.00031129593208743724 0 -0.0015257834232712572 -0.0002928005543057542 0 -0.0015371626833159896 -0.00034528376677114478 0 -0.0015257834232712572 -0.0002928005543057542 0 -0.0015866277278542679 -0.00033401871956387013 0 -0.0015371626833159896 -0.00034528376677114478 0 -0.0015257834232712572 -0.0002928005543057542 0 -0.0015866277278542679 -0.00033401871956387013 0 -0.0015849404379594974 -0.0002909618876618408 0 -0.0015866277278542679 -0.00033401871956387013 0 -0.001639903305645945 -0.00035628843651350217 0 -0.001631382353334643 -0.00032135479487157751 0 -0.0015849404379594974 -0.0002909618876618408 0 -0.0016319931442743301 -0.00027914651152411742 0 -0.001631382353334643 -0.00032135479487157751 0 -0.0015866277278542679 -0.00033401871956387013 0 -0.0015849404379594974 -0.0002909618876618408 0 -0.001631382353334643 -0.00032135479487157751 0 -0.0015849404379594974 -0.0002909618876618408 0 -0.0016319931442743301 -0.00027914651152411742 0 -0.0015607410947738008 -0.00024608581307538263 0 -0.0016319931442743301 -0.00027914651152411742 0 -0.0015607410947738008 -0.00024608581307538263 0 -0.0016082901976186142 -0.00021212985042864203 0 -0.0016319931442743301 -0.00027914651152411742 0 -0.0016082901976186142 -0.00021212985042864203 0 -0.0016766206307638123 -0.00021784637627506934 0 -0.0015079943833614625 -0.00024218244603820661 0 -0.0015607410947738008 -0.00024608581307538263 0 -0.0015325066265059186 -0.00017155215866061562 0 -0.0015257834232712572 -0.0002928005543057542 0 -0.0015079943833614625 -0.00024218244603820661 0 -0.0015607410947738008 -0.00024608581307538263 0 -0.0015257834232712572 -0.0002928005543057542 0 -0.0015849404379594974 -0.0002909618876618408 0 -0.0015607410947738008 -0.00024608581307538263 0 -0.0015079943833614625 -0.00024218244603820661 0 -0.0015325066265059186 -0.00017155215866061562 0 -0.0014705990268124327 -0.00020242532495033135 0 -0.0015607410947738008 -0.00024608581307538263 0 -0.0015325066265059186 -0.00017155215866061562 0 -0.0016082901976186142 -0.00021212985042864203 0 -0.0015325066265059186 -0.00017155215866061562 0 -0.0016082901976186142 -0.00021212985042864203 0 -0.001616300214337549 -0.00013960448096821584 0 -0.0016082901976186142 -0.00021212985042864203 0 -0.001616300214337549 -0.00013960448096821584 0 -0.0016766206307638123 -0.00021784637627506934 0 -0.001616300214337549 -0.00013960448096821584 0 -0.0015477359832751054 -8.9370889961585905e-05 0 -0.0016302672383729333 -3.9556992365141923e-05 0 -0.0015325066265059186 -0.00017155215866061562 0 -0.0015477359832751054 -8.9370889961585905e-05 0 -0.0014684956142777842 -9.2935938665966058e-05 0 -0.0015325066265059186 -0.00017155215866061562 0 -0.001616300214337549 -0.00013960448096821584 0 -0.0015477359832751054 -8.9370889961585905e-05 0 -0.0014684956142777842 -9.2935938665966058e-05 0 -0.0014442872852515496 -0.00015254477068696749 0 -0.0013983465718131569 -0.00011698027190441638 0 -0.0015325066265059186 -0.00017155215866061562 0 -0.0014684956142777842 -9.2935938665966058e-05 0 -0.0014442872852515496 -0.00015254477068696749 0 -0.0015325066265059186 -0.00017155215866061562 0 -0.0014442872852515496 -0.00015254477068696749 0 -0.0014705990268124327 -0.00020242532495033135 0 -0.0014442872852515496 -0.00015254477068696749 0 -0.0014705990268124327 -0.00020242532495033135 0 -0.001418668570355419 -0.0001927218739228591 0 -0.001418668570355419 -0.0001927218739228591 0 -0.0013962553593980312 -0.00015888843492569091 0 -0.001368390296650581 -0.0001861311687068017 0 -0.0014442872852515496 -0.00015254477068696749 0 -0.0013962553593980312 -0.00015888843492569091 0 -0.0013983465718131569 -0.00011698027190441638 0 -0.0014442872852515496 -0.00015254477068696749 0 -0.001418668570355419 -0.0001927218739228591 0 -0.0013962553593980312 -0.00015888843492569091 0 -0.0013962553593980312 -0.00015888843492569091 0 -0.001368390296650581 -0.0001861311687068017 0 -0.0013532877408194924 -0.00014584856752197558 0 -0.0013962553593980312 -0.00015888843492569091 0 -0.0013983465718131569 -0.00011698027190441638 0 -0.0013532877408194924 -0.00014584856752197558 0 -0.0014684956142777842 -9.2935938665966058e-05 0 -0.0013983465718131569 -0.00011698027190441638 0 -0.0013975841758484527 -5.1564857009579394e-05 0 -0.0013983465718131569 -0.00011698027190441638 0 -0.0013464625693916103 -0.00011016177924401021 0 -0.0013975841758484527 -5.1564857009579394e-05 0 -0.0013464625693916103 -0.00011016177924401021 0 -0.0013036889225710696 -9.4176486332240946e-05 0 -0.0013975841758484527 -5.1564857009579394e-05 0 -0.0021170846313666174 8.5913929762994055e-05 0 -0.0020735697688499689 4.5343401176942987e-05 0 -0.0022696217824719066 0.00010626434160550064 0 -0.0013464625693916103 -0.00011016177924401021 0 -0.0013161573569515925 -0.00013611529438010514 0 -0.0013532877408194924 -0.00014584856752197558 0 -0.0013983465718131569 -0.00011698027190441638 0 -0.0013464625693916103 -0.00011016177924401021 0 -0.0013532877408194924 -0.00014584856752197558 0 -0.0013464625693916103 -0.00011016177924401021 0 -0.0013161573569515925 -0.00013611529438010514 0 -0.0013124390940147804 -0.0001168183112915288 0 -0.0013464625693916103 -0.00011016177924401021 0 -0.0013124390940147804 -0.0001168183112915288 0 -0.0013036889225710696 -9.4176486332240946e-05 0 -0.0021170846313666174 8.5913929762994055e-05 0 -0.0020735697688499689 4.5343401176942987e-05 0 -0.0016607490582027347 0.00014470001561519907 0 -0.0012845533380547128 -0.00012654953838966344 0 -0.0012610336916122691 -0.0001446749934539737 0 -0.0012204515122960951 -0.00013572193527412198 0 -0.001657374800349772 -1.2625481576084036e-05 0 -0.001456360726596221 -8.2002876655815762e-05 0 -0.0013036889225710696 -9.4176486332240946e-05 0 -0.0012845533380547128 -0.00012654953838966344 0 -0.0012204515122960951 -0.00013572193527412198 0 -0.0019396273828445943 9.5618580131793209e-05 0 -0.0018352432649395198 9.4496877471630497e-05 0 -0.0013124390940147804 -0.0001168183112915288 0 -0.0013036889225710696 -9.4176486332240946e-05 0 -0.0012845533380547128 -0.00012654953838966344 0 -0.0013161573569515925 -0.00013611529438010514 0 -0.0013124390940147804 -0.0001168183112915288 0 -0.0012845533380547128 -0.00012654953838966344 0 -0.0013161573569515925 -0.00013611529438010514 0 -0.0012845533380547128 -0.00012654953838966344 0 -0.0012846437474981118 -0.00015569113249898887 0 -0.0013161573569515925 -0.00013611529438010514 0 -0.0012846437474981118 -0.00015569113249898887 0 -0.0013192040265019294 -0.00017299260768765054 0 -0.0012846437474981118 -0.00015569113249898887 0 -0.0012610336916122691 -0.0001446749934539737 0 -0.0012474202929685279 -0.00016921118340104856 0 -0.0012845533380547128 -0.00012654953838966344 0 -0.0012846437474981118 -0.00015569113249898887 0 -0.0012610336916122691 -0.0001446749934539737 0 -0.0012828119754664114 -0.0001835814405540755 0 -0.0012474202929685279 -0.00016921118340104856 0 -0.0012589044454925098 -0.00020229400707614384 0 -0.0012846437474981118 -0.00015569113249898887 0 -0.0012828119754664114 -0.0001835814405540755 0 -0.0012474202929685279 -0.00016921118340104856 0 -0.0012846437474981118 -0.00015569113249898887 0 -0.0012828119754664114 -0.0001835814405540755 0 -0.0013192040265019294 -0.00017299260768765054 0 -0.0012828119754664114 -0.0001835814405540755 0 -0.0013192040265019294 -0.00017299260768765054 0 -0.0012990410271347932 -0.00022194232703464709 0 -0.0013192040265019294 -0.00017299260768765054 0 -0.001368390296650581 -0.0001861311687068017 0 -0.0013532877408194924 -0.00014584856752197558 0 -0.0013192040265019294 -0.00017299260768765054 0 -0.001368390296650581 -0.0001861311687068017 0 -0.0013420535150676818 -0.00021192067990753396 0 -0.0013161573569515925 -0.00013611529438010514 0 -0.0013192040265019294 -0.00017299260768765054 0 -0.0013532877408194924 -0.00014584856752197558 0 -0.0012235972327839142 0.00012284062604731079 0 -0.0015965412459443683 -7.3740835181602718e-05 0 -0.0011697950381219578 -0.00015605536520640616 0 -0.0017107896603133794 8.3689271480861857e-05 0 -0.0018352432649395198 9.4496877471630497e-05 0 -0.0012235972327839142 0.00012284062604731079 0 -0.0015965412459443683 -7.3740835181602718e-05 0 -0.0016607490582027347 0.00014470001561519907 0 -0.0020735697688499689 4.5343401176942987e-05 0 -0.0015965412459443683 -7.3740835181602718e-05 0 -0.0016607490582027347 0.00014470001561519907 0 -0.0012610336916122691 -0.0001446749934539737 0 -0.0012204515122960951 -0.00013572193527412198 0 -0.0012474202929685279 -0.00016921118340104856 0 -0.0012474202929685279 -0.00016921118340104856 0 -0.0012247869167272859 -0.00020470045978549311 0 -0.0012589044454925098 -0.00020229400707614384 0 -0.0012474202929685279 -0.00016921118340104856 0 -0.0012065966690049097 -0.00017107174224984868 0 -0.0012247869167272859 -0.00020470045978549311 0 -0.0012065966690049097 -0.00017107174224984868 0 -0.0011851797908244031 -0.00019659947276664546 0 -0.0012247869167272859 -0.00020470045978549311 0 -0.0012204515122960951 -0.00013572193527412198 0 -0.0012474202929685279 -0.00016921118340104856 0 -0.0012065966690049097 -0.00017107174224984868 0 -0.0012065966690049097 -0.00017107174224984868 0 -0.0011851797908244031 -0.00019659947276664546 0 -0.0011697950381219578 -0.00015605536520640616 0 -0.0012204515122960951 -0.00013572193527412198 0 -0.0012065966690049097 -0.00017107174224984868 0 -0.0011697950381219578 -0.00015605536520640616 0 -0.0011851797908244031 -0.00019659947276664546 0 -0.0011697950381219578 -0.00015605536520640616 0 -0.0011394071418894039 -0.00022148388511752105 0 -0.001456360726596221 -8.2002876655815762e-05 0 -0.0013413204883935277 -0.00011907872739917314 0 -0.0011851797908244031 -0.00019659947276664546 0 -0.0011877391832180266 -0.00025098236271017197 0 -0.0011394071418894039 -0.00022148388511752105 0 -0.0011851797908244031 -0.00019659947276664546 0 -0.0012247869167272859 -0.00020470045978549311 0 -0.0011877391832180266 -0.00025098236271017197 0 -0.0012247869167272859 -0.00020470045978549311 0 -0.0012306457009466263 -0.00026793941261185199 0 -0.0011877391832180266 -0.00025098236271017197 0 -0.0012247869167272859 -0.00020470045978549311 0 -0.0012306457009466263 -0.00026793941261185199 0 -0.0012639739122339152 -0.00023849343941240086 0 -0.0012247869167272859 -0.00020470045978549311 0 -0.0012589044454925098 -0.00020229400707614384 0 -0.0012639739122339152 -0.00023849343941240086 0 -0.0012306457009466263 -0.00026793941261185199 0 -0.0011877391832180266 -0.00025098236271017197 0 -0.001189550418232768 -0.000316650554612484 0 -0.0012306457009466263 -0.00026793941261185199 0 -0.001189550418232768 -0.000316650554612484 0 -0.0012466535076038222 -0.0003181935788895829 0 -0.0011877391832180266 -0.00025098236271017197 0 -0.0011394071418894039 -0.00022148388511752105 0 -0.0011283258772046396 -0.00029733834957768941 0 -0.0011877391832180266 -0.00025098236271017197 0 -0.001189550418232768 -0.000316650554612484 0 -0.0011283258772046396 -0.00029733834957768941 0 -0.0013511334466550398 -0.00025179722580077386 0 -0.0012990410271347932 -0.00022194232703464709 0 -0.0013116124041621462 -0.0002680773869576245 0 -0.0013511334466550398 -0.00025179722580077386 0 -0.0013420535150676818 -0.00021192067990753396 0 -0.0012990410271347932 -0.00022194232703464709 0 -0.0013845580592888791 -0.00022365520207843554 0 -0.0013511334466550398 -0.00025179722580077386 0 -0.0013420535150676818 -0.00021192067990753396 0 -0.0013845580592888791 -0.00022365520207843554 0 -0.001368390296650581 -0.0001861311687068017 0 -0.0013420535150676818 -0.00021192067990753396 0 -0.0013192040265019294 -0.00017299260768765054 0 -0.0013420535150676818 -0.00021192067990753396 0 -0.0012990410271347932 -0.00022194232703464709 0 -0.0012828119754664114 -0.0001835814405540755 0 -0.0012990410271347932 -0.00022194232703464709 0 -0.0012589044454925098 -0.00020229400707614384 0 -0.0012990410271347932 -0.00022194232703464709 0 -0.0012589044454925098 -0.00020229400707614384 0 -0.0012639739122339152 -0.00023849343941240086 0 -0.0012990410271347932 -0.00022194232703464709 0 -0.0012639739122339152 -0.00023849343941240086 0 -0.0013116124041621462 -0.0002680773869576245 0 -0.0012639739122339152 -0.00023849343941240086 0 -0.0012709254891444921 -0.00028069408756520856 0 -0.0013116124041621462 -0.0002680773869576245 0 -0.0012306457009466263 -0.00026793941261185199 0 -0.0012639739122339152 -0.00023849343941240086 0 -0.0012709254891444921 -0.00028069408756520856 0 -0.0012306457009466263 -0.00026793941261185199 0 -0.0012709254891444921 -0.00028069408756520856 0 -0.0012466535076038222 -0.0003181935788895829 0 -0.0012709254891444921 -0.00028069408756520856 0 -0.0012951539554227501 -0.00031567391897358618 0 -0.0012466535076038222 -0.0003181935788895829 0 -0.0012709254891444921 -0.00028069408756520856 0 -0.0013116124041621462 -0.0002680773869576245 0 -0.0012951539554227501 -0.00031567391897358618 0 -0.0013116124041621462 -0.0002680773869576245 0 -0.0013604969754171408 -0.00030431587011423613 0 -0.0012951539554227501 -0.00031567391897358618 0 -0.0013511334466550398 -0.00025179722580077386 0 -0.0013116124041621462 -0.0002680773869576245 0 -0.0013604969754171408 -0.00030431587011423613 0 -0.0013932327984096651 -0.00026759785965473732 0 -0.0013511334466550398 -0.00025179722580077386 0 -0.0013604969754171408 -0.00030431587011423613 0 -0.0013604969754171408 -0.00030431587011423613 0 -0.0013217415938799209 -0.00035316264498224038 0 -0.0013702094239666951 -0.00034398053266637707 0 -0.0013604969754171408 -0.00030431587011423613 0 -0.0013217415938799209 -0.00035316264498224038 0 -0.0012951539554227501 -0.00031567391897358618 0 -0.0013217415938799209 -0.00035316264498224038 0 -0.0013736835717024923 -0.0003801144208178868 0 -0.0013702094239666951 -0.00034398053266637707 0 -0.0012951539554227501 -0.00031567391897358618 0 -0.0012734636963181391 -0.00036466330768189032 0 -0.0012466535076038222 -0.0003181935788895829 0 -0.0013217415938799209 -0.00035316264498224038 0 -0.0012951539554227501 -0.00031567391897358618 0 -0.0012734636963181391 -0.00036466330768189032 0 -0.0012734636963181391 -0.00036466330768189032 0 -0.0013195801470089648 -0.0003972602094590627 0 -0.0012526050067743193 -0.0004245420722601437 0 -0.0013195801470089648 -0.0003972602094590627 0 -0.0012997329580501909 -0.00044634985903043974 0 -0.0012526050067743193 -0.0004245420722601437 0 -0.0012734636963181391 -0.00036466330768189032 0 -0.0012031331275551753 -0.00037810013263446605 0 -0.0012526050067743193 -0.0004245420722601437 0 -0.0013195801470089648 -0.0003972602094590627 0 -0.0013463811167410272 -0.00043271209209288521 0 -0.0012997329580501909 -0.00044634985903043974 0 -0.0013195801470089648 -0.0003972602094590627 0 -0.0013463811167410272 -0.00043271209209288521 0 -0.0013736835717024923 -0.0003801144208178868 0 -0.0013217415938799209 -0.00035316264498224038 0 -0.0013195801470089648 -0.0003972602094590627 0 -0.0013736835717024923 -0.0003801144208178868 0 -0.0013217415938799209 -0.00035316264498224038 0 -0.0012734636963181391 -0.00036466330768189032 0 -0.0013195801470089648 -0.0003972602094590627 0 -0.001189550418232768 -0.000316650554612484 0 -0.0012031331275551753 -0.00037810013263446605 0 -0.0011277184271882661 -0.00037393492042832251 0 -0.001189550418232768 -0.000316650554612484 0 -0.0011277184271882661 -0.00037393492042832251 0 -0.0011283258772046396 -0.00029733834957768941 0 -0.0012734636963181391 -0.00036466330768189032 0 -0.0012466535076038222 -0.0003181935788895829 0 -0.0012031331275551753 -0.00037810013263446605 0 -0.001189550418232768 -0.000316650554612484 0 -0.0012466535076038222 -0.0003181935788895829 0 -0.0012031331275551753 -0.00037810013263446605 0 -0.0012031331275551753 -0.00037810013263446605 0 -0.0011560925928590512 -0.00044390463671825832 0 -0.0012526050067743193 -0.0004245420722601437 0 -0.0012031331275551753 -0.00037810013263446605 0 -0.0011277184271882661 -0.00037393492042832251 0 -0.0011560925928590512 -0.00044390463671825832 0 -0.0011560925928590512 -0.00044390463671825832 0 -0.0012044886710218261 -0.00050431718296384015 0 -0.0011358837352585828 -0.0005196549409946478 0 -0.0011560925928590512 -0.00044390463671825832 0 -0.0011358837352585828 -0.0005196549409946478 0 -0.0010793662411134957 -0.00049273179951957419 0 -0.0011560925928590512 -0.00044390463671825832 0 -0.0012044886710218261 -0.00050431718296384015 0 -0.0012526050067743193 -0.0004245420722601437 0 -0.0011431760569533165 -0.00049182025183074681 0 -0.0011765726900865886 -0.00046266876319383659 0 -0.0011619850579212495 -0.00047570220202388454 0 -0.0010812427432949565 -0.00053892446906257804 0 -0.0011830110679466367 -0.00052911366912827872 0 -0.0011619850579212495 -0.00047570220202388454 0 -0.001254808621479837 -0.00048692520654886181 0 -0.0011830110679466367 -0.00052911366912827872 0 -0.0012044886710218261 -0.00050431718296384015 0 -0.0011358837352585828 -0.0005196549409946478 0 -0.0011453904631503204 -0.00059148353966271693 0 -0.0011431760569533165 -0.00049182025183074681 0 -0.001073475262304517 -0.00054130350117355982 0 -0.0012997329580501909 -0.00044634985903043974 0 -0.001254808621479837 -0.00048692520654886181 0 -0.0013326871378988468 -0.0004750199174794413 0 -0.0013298101835494361 -0.00046103229626136006 0 -0.0013285431689028379 -0.00046781724957607767 0 -0.0013463811167410272 -0.00043271209209288521 0 -0.0012997329580501909 -0.00044634985903043974 0 -0.0013326871378988468 -0.0004750199174794413 0 -0.0012997329580501909 -0.00044634985903043974 0 -0.0012526050067743193 -0.0004245420722601437 0 -0.001254808621479837 -0.00048692520654886181 0 -0.0011619850579212495 -0.00047570220202388454 0 -0.0012526050067743193 -0.0004245420722601437 0 -0.001254808621479837 -0.00048692520654886181 0 -0.001254808621479837 -0.00048692520654886181 0 -0.0012524431027321052 -0.00056103214384774171 0 -0.001330344309415392 -0.00052900556754688463 0 -0.001254808621479837 -0.00048692520654886181 0 -0.0013326871378988468 -0.0004750199174794413 0 -0.001330344309415392 -0.00052900556754688463 0 -0.0013285431689028379 -0.00046781724957607767 0 -0.0013240696339866418 -0.00045764061318589262 0 -0.0016291076987850995 -0.00042191684426976314 0 -0.0016327732753778849 -0.00037877486154569998 0 -0.0016738376765895275 -0.00039085992370821524 0 -0.00148025203569122 -0.00043268488918568322 0 -0.0013240696339866418 -0.00045764061318589262 0 -0.0013514244023571874 -0.00050651731251513774 0 -0.0014616309010875011 -0.00052155753660293458 0 -0.0013539691537520827 -0.00057811419376396864 0 -0.0016291076987850995 -0.00042191684426976314 0 -0.0015995954623358674 -0.00039458283635010336 0 -0.0016327732753778849 -0.00037877486154569998 0 -0.0014616309010875011 -0.00052155753660293458 0 -0.0014894711309923771 -0.00043555721990599819 0 -0.0015637282164224536 -0.00045310114033944495 0 -0.0014616309010875011 -0.00052155753660293458 0 -0.0014894711309923771 -0.00043555721990599819 0 -0.0014217552920698529 -0.00045606270141746602 0 -0.0013514244023571874 -0.00050651731251513774 0 -0.0014616309010875011 -0.00052155753660293458 0 -0.0014217552920698529 -0.00045606270141746602 0 -0.0013463811167410272 -0.00043271209209288521 0 -0.0013514244023571874 -0.00050651731251513774 0 -0.0014217552920698529 -0.00045606270141746602 0 -0.0013463811167410272 -0.00043271209209288521 0 -0.0014217552920698529 -0.00045606270141746602 0 -0.0014371421419394302 -0.00039651910273909568 0 -0.0013463811167410272 -0.00043271209209288521 0 -0.0013736835717024923 -0.0003801144208178868 0 -0.0014371421419394302 -0.00039651910273909568 0 -0.0014894711309923771 -0.00043555721990599819 0 -0.0014217552920698529 -0.00045606270141746602 0 -0.0014371421419394302 -0.00039651910273909568 0 -0.0014894711309923771 -0.00043555721990599819 0 -0.0014371421419394302 -0.00039651910273909568 0 -0.001518427283285502 -0.00038238186258455359 0 -0.0014371421419394302 -0.00039651910273909568 0 -0.0014691584174418776 -0.00035602911953260306 0 -0.0014145933179964363 -0.00033811837173971875 0 -0.0014371421419394302 -0.00039651910273909568 0 -0.0014691584174418776 -0.00035602911953260306 0 -0.001518427283285502 -0.00038238186258455359 0 -0.0014671320891881819 -0.00031129593208743724 0 -0.0014691584174418776 -0.00035602911953260306 0 -0.0015371626833159896 -0.00034528376677114478 0 -0.0014671320891881819 -0.00031129593208743724 0 -0.0014691584174418776 -0.00035602911953260306 0 -0.0014145933179964363 -0.00033811837173971875 0 -0.0013736835717024923 -0.0003801144208178868 0 -0.0014371421419394302 -0.00039651910273909568 0 -0.0014145933179964363 -0.00033811837173971875 0 -0.0013604969754171408 -0.00030431587011423613 0 -0.0014145933179964363 -0.00033811837173971875 0 -0.0013702094239666951 -0.00034398053266637707 0 -0.0013736835717024923 -0.0003801144208178868 0 -0.0014145933179964363 -0.00033811837173971875 0 -0.0013702094239666951 -0.00034398053266637707 0 -0.0015866277278542679 -0.00033401871956387013 0 -0.0015849651673910229 -0.00038854515117894069 0 -0.0015371626833159896 -0.00034528376677114478 0 -0.0015866277278542679 -0.00033401871956387013 0 -0.0015849651673910229 -0.00038854515117894069 0 -0.001639903305645945 -0.00035628843651350217 0 -0.0015849651673910229 -0.00038854515117894069 0 -0.0015371626833159896 -0.00034528376677114478 0 -0.001518427283285502 -0.00038238186258455359 0 -0.0014691584174418776 -0.00035602911953260306 0 -0.0015371626833159896 -0.00034528376677114478 0 -0.001518427283285502 -0.00038238186258455359 0 -0.0015849651673910229 -0.00038854515117894069 0 -0.001518427283285502 -0.00038238186258455359 0 -0.0015637282164224536 -0.00045310114033944495 0 -0.0014894711309923771 -0.00043555721990599819 0 -0.001518427283285502 -0.00038238186258455359 0 -0.0015637282164224536 -0.00045310114033944495 0 -0.0015849651673910229 -0.00038854515117894069 0 -0.0015637282164224536 -0.00045310114033944495 0 -0.0015969866352761476 -0.00042955177785431955 0 -0.0015637282164224536 -0.00045310114033944495 0 -0.0015602839413833085 -0.00044328262911722086 0 -0.0015969866352761476 -0.00042955177785431955 0 -0.00148025203569122 -0.00043268488918568322 0 -0.0015158337713370334 -0.00042923023232292875 0 -0.0015637282164224536 -0.00045310114033944495 0 -0.001563167530344789 -0.00041240769236367393 0 -0.0015995954623358674 -0.00039458283635010336 0 -0.0016291076987850995 -0.00042191684426976314 0 -0.0015637282164224536 -0.00045310114033944495 0 -0.0015995954623358674 -0.00039458283635010336 0 -0.0015637282164224536 -0.00045310114033944495 0 -0.0015602839413833085 -0.00044328262911722086 0 -0.001563167530344789 -0.00041240769236367393 0 -0.0015602839413833085 -0.00044328262911722086 0 -0.0015859340228088455 -0.00044659013707106421 0 -0.001477215807309622 -0.00042574009830874735 0 -0.0015602839413833085 -0.00044328262911722086 0 -0.001477215807309622 -0.00042574009830874735 0 -0.001563167530344789 -0.00041240769236367393 0 -0.0015602839413833085 -0.00044328262911722086 0 -0.0015969866352761476 -0.00042955177785431955 0 -0.0015859340228088455 -0.00044659013707106421 0 -0.0014578550058430512 -0.00072488835379944908 0 -0.0013979864139904222 -0.00094113644997894557 0 -0.0015969866352761476 -0.00042955177785431955 0 -0.0015859340228088455 -0.00044659013707106421 0 -0.0016714536271800107 -0.0004167571018886611 0 -0.0014578550058430512 -0.00072488835379944908 0 -0.0014900785574820104 -0.0006066431877563167 0 -0.0013247396077586617 -0.00094589848506342988 0 -0.0011571428284769469 -0.00057120990296184834 0 -0.001477215807309622 -0.00042574009830874735 0 -0.0013247396077586617 -0.00094589848506342988 0 -0.00059905340711910373 -0.00063818830351218287 0 -0.0011571428284769469 -0.00057120990296184834 0 -0.0013247396077586617 -0.00094589848506342988 0 -0.00059905340711910373 -0.00063818830351218287 0 -0.00053517258928871872 -0.0013732302179902201 0 -1.3068915263634714e-05 -0.0010688153287619837 0 0.00030906799240423209 -0.0013627637728471822 0 -0.00059905340711910373 -0.00063818830351218287 0 -0.00053517258928871872 -0.0013732302179902201 0 3.5549807064765036e-05 -0.0011420528231607639 0 -0.0013247396077586617 -0.00094589848506342988 0 -0.00053517258928871872 -0.0013732302179902201 0 -0.001102163089061272 -0.0015288316058407112 0 -0.0013979864139904222 -0.00094113644997894557 0 -0.001359229318585044 -0.0011043533264769108 0 -0.00053517258928871872 -0.0013732302179902201 0 -0.001102163089061272 -0.0015288316058407112 0 -0.00087423185084176038 -0.0021427941041223548 0 -0.00053517258928871872 -0.0013732302179902201 0 -0.0002500098373443818 -0.001890341102326737 0 -0.00013961172600651179 -0.0014993924229455106 0 -0.00053517258928871872 -0.0013732302179902201 0 -0.0002500098373443818 -0.001890341102326737 0 -0.00087423185084176038 -0.0021427941041223548 0 -0.0002500098373443818 -0.001890341102326737 0 -0.00087423185084176038 -0.0021427941041223548 0 -0.00043288420213910344 -0.0023197425665777696 0 -0.0016714536271800107 -0.0004167571018886611 0 -0.0017347946409430159 -0.0003563401437467006 0 -0.0016943562076824664 -0.00035457436573719999 0 -0.0016714536271800107 -0.0004167571018886611 0 -0.0016943562076824664 -0.00035457436573719999 0 -0.001637125139488754 -0.00039006114453288867 0 -0.0015849651673910229 -0.00038854515117894069 0 -0.001637125139488754 -0.00039006114453288867 0 -0.001639903305645945 -0.00035628843651350217 0 -0.0016943562076824664 -0.00035457436573719999 0 -0.001637125139488754 -0.00039006114453288867 0 -0.001639903305645945 -0.00035628843651350217 0 -0.0015849651673910229 -0.00038854515117894069 0 -0.0015969866352761476 -0.00042955177785431955 0 -0.001637125139488754 -0.00039006114453288867 0 -0.0015969866352761476 -0.00042955177785431955 0 -0.0016714536271800107 -0.0004167571018886611 0 -0.001637125139488754 -0.00039006114453288867 0 0.00099815323467426602 -0.001661537824052849 0 0.00096168699881342087 -0.0016194072477775196 0 0.00092519961578271532 -0.001675302983039172 0 0.00096168699881342087 -0.0016194072477775196 0 0.00091149933838369744 -0.0016043699374646699 0 0.00092519961578271532 -0.001675302983039172 0 0.00085676740978944579 -0.0016404020293693854 0 0.00091149933838369744 -0.0016043699374646699 0 0.0008346228057650708 -0.0015707521659777532 0 0.00085676740978944579 -0.0016404020293693854 0 0.00091149933838369744 -0.0016043699374646699 0 0.00092519961578271532 -0.001675302983039172 0 0.00091149933838369744 -0.0016043699374646699 0 0.00090347277227968887 -0.0015445265021178693 0 0.0008346228057650708 -0.0015707521659777532 0 0.00091149933838369744 -0.0016043699374646699 0 0.00090347277227968887 -0.0015445265021178693 0 0.00096321464899091873 -0.0015628594944938918 0 0.00096168699881342087 -0.0016194072477775196 0 0.00091149933838369744 -0.0016043699374646699 0 0.00096321464899091873 -0.0015628594944938918 0 0.00090347277227968887 -0.0015445265021178693 0 0.00096321464899091873 -0.0015628594944938918 0 0.00096971231851375147 -0.0014847628703413536 0 0.00096971231851375147 -0.0014847628703413536 0 0.00088323118694230078 -0.0014868205407950526 0 0.00094358190971592854 -0.0013895774663405399 0 0.00090347277227968887 -0.0015445265021178693 0 0.00088323118694230078 -0.0014868205407950526 0 0.0008346228057650708 -0.0015707521659777532 0 0.00090347277227968887 -0.0015445265021178693 0 0.00096971231851375147 -0.0014847628703413536 0 0.00088323118694230078 -0.0014868205407950526 0 0.00088323118694230078 -0.0014868205407950526 0 0.00075734335484497573 -0.0014801220784672173 0 0.00084684813408177865 -0.0014060590283295684 0 0.00088323118694230078 -0.0014868205407950526 0 0.00075734335484497573 -0.0014801220784672173 0 0.0008346228057650708 -0.0015707521659777532 0 0.00075734335484497573 -0.0014801220784672173 0 0.0008346228057650708 -0.0015707521659777532 0 0.00073101537336842126 -0.0015964767760804628 0 0.00085676740978944579 -0.0016404020293693854 0 0.0008346228057650708 -0.0015707521659777532 0 0.00077420480206140049 -0.0016504358239426238 0 0.0008346228057650708 -0.0015707521659777532 0 0.00073101537336842126 -0.0015964767760804628 0 0.00077420480206140049 -0.0016504358239426238 0 0.00075734335484497573 -0.0014801220784672173 0 0.00073101537336842126 -0.0015964767760804628 0 0.00062286689864835129 -0.0015686238586612149 0 0.00073101537336842126 -0.0015964767760804628 0 0.00062286689864835129 -0.0015686238586612149 0 0.00068484451914133766 -0.0017175636855368255 0 0.00075734335484497573 -0.0014801220784672173 0 0.00062286689864835129 -0.0015686238586612149 0 0.00064765417847718724 -0.0014046384628346677 0 0.00050989229383382388 -0.0014330371057306665 0 0.00062286689864835129 -0.0015686238586612149 0 0.00064765417847718724 -0.0014046384628346677 0 -0.00053517258928871872 -0.0013732302179902201 0 3.5549807064765036e-05 -0.0011420528231607639 0 -0.00013961172600651179 -0.0014993924229455106 0 3.5549807064765036e-05 -0.0011420528231607639 0 -0.00013961172600651179 -0.0014993924229455106 0 0.00017540685773540475 -0.001705796314355152 0 -0.0002500098373443818 -0.001890341102326737 0 -0.00013961172600651179 -0.0014993924229455106 0 0.00017540685773540475 -0.001705796314355152 0 -0.0002500098373443818 -0.001890341102326737 0 0.00016309563930695482 -0.0021650081133790661 0 -0.00043288420213910344 -0.0023197425665777696 0 -0.0002500098373443818 -0.001890341102326737 0 0.00017540685773540475 -0.001705796314355152 0 0.00016309563930695482 -0.0021650081133790661 0 0.00016309563930695482 -0.0021650081133790661 0 0.00053689570032458024 -0.0018421858737879598 0 0.00060114306522989359 -0.0023914227491545299 0 0.00017540685773540475 -0.001705796314355152 0 0.00016309563930695482 -0.0021650081133790661 0 0.00053689570032458024 -0.0018421858737879598 0 -0.00060781540825003485 -0.0015831348350106337 0 -0.00080955837889950275 -0.0012682929045865802 0 0.00053689570032458024 -0.0018421858737879598 0 0.00068397476861282427 -0.0018463204015185886 0 0.00062307137669766546 -0.0020364697307015465 0 0.00030906799240423209 -0.0013627637728471822 0 0.00050211639313031318 -0.0015451969739548926 0 3.5549807064765036e-05 -0.0011420528231607639 0 0.00017540685773540475 -0.001705796314355152 0 0.00068484451914133766 -0.0017175636855368255 0 0.00017540685773540475 -0.001705796314355152 0 0.00053689570032458024 -0.0018421858737879598 0 0.00068484451914133766 -0.0017175636855368255 0 0.00053689570032458024 -0.0018421858737879598 0 0.00068484451914133766 -0.0017175636855368255 0 0.00068397476861282427 -0.0018463204015185886 0 0.00073101537336842126 -0.0015964767760804628 0 0.00077420480206140049 -0.0016504358239426238 0 0.00068484451914133766 -0.0017175636855368255 0 0.00077420480206140049 -0.0016504358239426238 0 0.00068484451914133766 -0.0017175636855368255 0 0.00076009139597141176 -0.0017285373210361339 0 0.00077420480206140049 -0.0016504358239426238 0 0.00076009139597141176 -0.0017285373210361339 0 0.00083883732118360049 -0.0017062146868403365 0 0.00085676740978944579 -0.0016404020293693854 0 0.00077420480206140049 -0.0016504358239426238 0 0.00083883732118360049 -0.0017062146868403365 0 0.00076009139597141176 -0.0017285373210361339 0 0.00078146393501117215 -0.0018545744644509483 0 0.00083883732118360049 -0.0017062146868403365 0 0.00068484451914133766 -0.0017175636855368255 0 0.00076009139597141176 -0.0017285373210361339 0 0.00068397476861282427 -0.0018463204015185886 0 0.00076009139597141176 -0.0017285373210361339 0 0.00068397476861282427 -0.0018463204015185886 0 0.00078146393501117215 -0.0018545744644509483 0 0.00020614191080626395 -0.0012668897850429224 0 -0.00080955837889950275 -0.0012682929045865802 0 0.00068397476861282427 -0.0018463204015185886 0 0.00078146393501117215 -0.0018545744644509483 0 0.00062307137669766546 -0.0020364697307015465 0 0.00078146393501117215 -0.0018545744644509483 0 0.00091960701729819024 -0.0018754781305861806 0 0.00062307137669766546 -0.0020364697307015465 0 0.00078146393501117215 -0.0018545744644509483 0 0.00091960701729819024 -0.0018754781305861806 0 0.00091090999946097893 -0.0017757673606151058 0 0.0010039412905318908 -0.0017848858291644228 0 0.00091960701729819024 -0.0018754781305861806 0 0.00091090999946097893 -0.0017757673606151058 0 0.00097896653655472074 -0.0017216397861127052 0 0.0010039412905318908 -0.0017848858291644228 0 0.00091090999946097893 -0.0017757673606151058 0 0.00078146393501117215 -0.0018545744644509483 0 0.00091090999946097893 -0.0017757673606151058 0 0.00083883732118360049 -0.0017062146868403365 0 0.00085676740978944579 -0.0016404020293693854 0 0.00083883732118360049 -0.0017062146868403365 0 0.00092519961578271532 -0.001675302983039172 0 0.00091090999946097893 -0.0017757673606151058 0 0.00083883732118360049 -0.0017062146868403365 0 0.00092519961578271532 -0.001675302983039172 0 0.00097896653655472074 -0.0017216397861127052 0 0.00099815323467426602 -0.001661537824052849 0 0.00092519961578271532 -0.001675302983039172 0 0.00097896653655472074 -0.0017216397861127052 0 0.00091090999946097893 -0.0017757673606151058 0 0.00092519961578271532 -0.001675302983039172 0 -0.0011900559740022955 -0.0005880779912625279 0 -0.0012810255622720894 -0.00074464351820050032 0 -0.0011796614577187553 -0.00079585825975296283 0 -0.00099007298793359717 -0.0007071952016460527 0 -0.0011900559740022955 -0.0005880779912625279 0 -0.0011796614577187553 -0.00079585825975296283 0 0.0010699779886452544 -0.0019120494741309067 0 0.00091960701729819024 -0.0018754781305861806 0 0.00089703155430198372 -0.0020232398401647191 0 0.00091960701729819024 -0.0018754781305861806 0 0.00089703155430198372 -0.0020232398401647191 0 0.0007744866825212471 -0.0020228883311230665 0 0.00091960701729819024 -0.0018754781305861806 0 0.0007744866825212471 -0.0020228883311230665 0 0.00068481514326292677 -0.0019392893364222651 0 0.0007744866825212471 -0.0020228883311230665 0 0.00071025776512808735 -0.0021267727696714879 0 0.00068481514326292677 -0.0019392893364222651 0 0.00089703155430198372 -0.0020232398401647191 0 0.0007744866825212471 -0.0020228883311230665 0 0.00071025776512808735 -0.0021267727696714879 0 -0.00042607346645871894 -0.0010408774474505497 0 -0.0011822814411165106 -0.0010451420213691553 0 -0.0011900559740022955 -0.0005880779912625279 0 -0.0013847463773699479 -0.00069802032830141181 0 -0.0012810255622720894 -0.00074464351820050032 0 -0.0029532455096690979 -0.00037068201587383583 0 -0.0027907557610881662 -0.00038140795764693821 0 -0.0029131402936237506 -0.00067505263886332269 0 -0.0029532455096690979 -0.00037068201587383583 0 -0.0028946483839805085 -0.00033835006914956141 0 -0.0027907557610881662 -0.00038140795764693821 0 -0.0011822814411165106 -0.0010451420213691553 0 -0.0012333929719999099 -0.0010558692575351578 0 -0.0011822814411165106 -0.0010451420213691553 0 -0.00080955837889950275 -0.0012682929045865802 0 0.00016309563930695482 -0.0021650081133790661 0 0.00060114306522989359 -0.0023914227491545299 0 -2.7440069952832526e-05 -0.0025869365328025844 0 -0.00080955837889950275 -0.0012682929045865802 0 -0.0012805215666958638 -0.0011998140392623967 0 -0.0027907557610881662 -0.00038140795764693821 0 -0.0029131402936237506 -0.00067505263886332269 0 -0.0026323998718719333 -0.00058741457864609423 0 0.00016309563930695482 -0.0021650081133790661 0 -2.7440069952832526e-05 -0.0025869365328025844 0 -0.00043288420213910344 -0.0023197425665777696 0 -0.0027907557610881662 -0.00038140795764693821 0 -0.0026323998718719333 -0.00058741457864609423 0 -0.0025578335492816668 -0.00036989596530937396 0 -0.0027907557610881662 -0.00038140795764693821 0 -0.0025578335492816668 -0.00036989596530937396 0 -0.002657887861958932 -0.00023026932485827061 0 -0.0025578335492816668 -0.00036989596530937396 0 -0.002657887861958932 -0.00023026932485827061 0 -0.0024641839910800908 -0.00015290598352665023 0 -0.0027907557610881662 -0.00038140795764693821 0 -0.002657887861958932 -0.00023026932485827061 0 -0.0028022413553662247 -0.00017720876454434836 0 -0.002657887861958932 -0.00023026932485827061 0 -0.0026735311612310895 -6.8277013603520488e-05 0 -0.0028022413553662247 -0.00017720876454434836 0 -0.002657887861958932 -0.00023026932485827061 0 -0.0026735311612310895 -6.8277013603520488e-05 0 -0.0024641839910800908 -0.00015290598352665023 0 -0.0020661544391797982 -0.00016755995765755844 0 -0.0022411688451740137 5.5273956558026274e-05 0 -0.0026735311612310895 -6.8277013603520488e-05 0 -0.0027938232795262858 4.696103629514293e-05 0 -0.0026074407858564415 0.00021478207600295304 0 -0.0026735311612310895 -6.8277013603520488e-05 0 -0.0024641839910800908 -0.00015290598352665023 0 -0.0026074407858564415 0.00021478207600295304 0 -0.0026735311612310895 -6.8277013603520488e-05 0 -0.0028626126560947745 -7.9040412980453372e-05 0 -0.0027938232795262858 4.696103629514293e-05 0 -0.0027938232795262858 4.696103629514293e-05 0 -0.0029883002574842788 -8.2362827285554008e-05 0 -0.0028343598988140655 0.00027147573474219978 0 -0.0029304098097103159 2.5137250988853612e-05 0 -0.002890148344535898 0.00010266088121419162 0 -0.0029883002574842788 -8.2362827285554008e-05 0 -0.0030074691970074533 -6.0571972562006393e-05 0 -0.0030283060316482297 -9.4645969300300803e-05 0 -0.0028626126560947745 -7.9040412980453372e-05 0 -0.0027938232795262858 4.696103629514293e-05 0 -0.0029883002574842788 -8.2362827285554008e-05 0 -0.0028626126560947745 -7.9040412980453372e-05 0 -0.0030078543709058641 -0.00013071194203644965 0 -0.0029883002574842788 -8.2362827285554008e-05 0 -0.0028626126560947745 -7.9040412980453372e-05 0 -0.0028022413553662247 -0.00017720876454434836 0 -0.0030078543709058641 -0.00013071194203644965 0 -0.0026735311612310895 -6.8277013603520488e-05 0 -0.0028626126560947745 -7.9040412980453372e-05 0 -0.0028022413553662247 -0.00017720876454434836 0 -0.0028946483839805085 -0.00033835006914956141 0 -0.0027907557610881662 -0.00038140795764693821 0 -0.00297178303811581 -0.00020300332748298861 0 -0.0029469033896816319 -0.00036892794502465517 0 -0.0028946483839805085 -0.00033835006914956141 0 -0.00297178303811581 -0.00020300332748298861 0 -0.0022681805900075006 -0.00027748521420755063 0 -0.0019403961866857908 -0.00048342656705348621 0 -0.0027907557610881662 -0.00038140795764693821 0 -0.0028022413553662247 -0.00017720876454434836 0 -0.0030078543709058641 -0.00013071194203644965 0 -0.0012810255622720894 -0.00074464351820050032 0 -0.0013680296273754962 -0.00081832461010787779 0 -0.0011796614577187553 -0.00079585825975296283 0 -0.0011822814411165106 -0.0010451420213691553 0 -0.0019403961866857908 -0.00048342656705348621 0 -0.0013847463773699479 -0.00069802032830141181 0 -0.0012810255622720894 -0.00074464351820050032 0 -0.0013680296273754962 -0.00081832461010787779 0 -0.0019403961866857908 -0.00048342656705348621 0 -0.002152181552879026 -0.00030390692689099825 0 -0.0030091387409112999 -1.8211987470141198e-05 0 -0.0030074691970074533 -6.0571972562006393e-05 0 -0.0029817849155651761 -5.3954389789654227e-05 0 -0.0030091387409112999 -1.8211987470141198e-05 0 -0.0029719736217838949 -5.1264851419274652e-05 0 -0.0029817849155651761 -5.3954389789654227e-05 0 -0.0019403961866857908 -0.00048342656705348621 0 -0.0021362647986898453 -0.00023743957019799184 0 -0.0030078543709058641 -0.00013071194203644965 0 -0.0029883002574842788 -8.2362827285554008e-05 0 -0.0030074691970074533 -6.0571972562006393e-05 0 -0.0010611102661859668 -0.00094168332989162488 0 -0.0012041404567036331 -0.00098231382392804825 0 -0.0011796614577187553 -0.00079585825975296283 0 -0.0020024030134855974 -0.00032029198220125273 0 -0.002152181552879026 -0.00030390692689099825 0 -0.002152181552879026 -0.00030390692689099825 0 -0.0021830193028544269 -0.00030747218447469245 0 -0.0013680296273754962 -0.00081832461010787779 0 -0.0012041404567036331 -0.00098231382392804825 0 -0.0011796614577187553 -0.00079585825975296283 0 -0.0017787354792334813 -0.00031946681461391828 0 -0.0017025429607738683 -0.00028981667468369631 0 -0.0017323033863088191 -0.00032442697026028959 0 -0.0017787354792334813 -0.00031946681461391828 0 -0.0017323033863088191 -0.00032442697026028959 0 -0.001737539973400648 -0.00032992085514356798 0 -0.0017787354792334813 -0.00031946681461391828 0 -0.0020395286157800507 -0.00025819276176863924 0 -0.0018376890841682366 -0.00018409681214866719 0 -0.0017787354792334813 -0.00031946681461391828 0 -0.0017025429607738683 -0.00028981667468369631 0 -0.0017374174466103618 -0.00023101750679912139 0 -0.0017025429607738683 -0.00028981667468369631 0 -0.0016766206307638123 -0.00021784637627506934 0 -0.0017374174466103618 -0.00023101750679912139 0 -0.0016319931442743301 -0.00027914651152411742 0 -0.0017025429607738683 -0.00028981667468369631 0 -0.0016766206307638123 -0.00021784637627506934 0 -0.0016319931442743301 -0.00027914651152411742 0 -0.0017025429607738683 -0.00028981667468369631 0 -0.0016851564336461515 -0.00032606802959058524 0 -0.0017025429607738683 -0.00028981667468369631 0 -0.0016851564336461515 -0.00032606802959058524 0 -0.0017323033863088191 -0.00032442697026028959 0 -0.0016943562076824664 -0.00035457436573719999 0 -0.001639903305645945 -0.00035628843651350217 0 -0.0016851564336461515 -0.00032606802959058524 0 -0.0016319931442743301 -0.00027914651152411742 0 -0.0016851564336461515 -0.00032606802959058524 0 -0.001631382353334643 -0.00032135479487157751 0 -0.001639903305645945 -0.00035628843651350217 0 -0.0016851564336461515 -0.00032606802959058524 0 -0.001631382353334643 -0.00032135479487157751 0 -0.0016943562076824664 -0.00035457436573719999 0 -0.0016851564336461515 -0.00032606802959058524 0 -0.0017323033863088191 -0.00032442697026028959 0 -0.0017347946409430159 -0.0003563401437467006 0 -0.0016943562076824664 -0.00035457436573719999 0 -0.001737539973400648 -0.00032992085514356798 0 -0.0016943562076824664 -0.00035457436573719999 0 -0.0017323033863088191 -0.00032442697026028959 0 -0.001737539973400648 -0.00032992085514356798 0 -0.001359229318585044 -0.0011043533264769108 0 -0.0014708911255093477 -0.00088211337080511439 0 -0.0017347946409430159 -0.0003563401437467006 0 -0.001737539973400648 -0.00032992085514356798 0 -0.001738438522383821 -0.00033117323024867053 0 -0.0012805215666958638 -0.0011998140392623967 0 -0.0014708911255093477 -0.00088211337080511439 0 -0.00087423185084176038 -0.0021427941041223548 0 -0.00043288420213910344 -0.0023197425665777696 0 -0.00063541563483672514 -0.0027777317693345152 0 -2.7440069952832526e-05 -0.0025869365328025844 0 -0.00043288420213910344 -0.0023197425665777696 0 -0.00063541563483672514 -0.0027777317693345152 0 -0.0026323998718719333 -0.00058741457864609423 0 -0.0025578335492816668 -0.00036989596530937396 0 -0.002334633484928782 -0.00049410680182649389 0 -0.0014708911255093477 -0.00088211337080511439 0 -0.0020661544391797982 -0.00016755995765755844 0 -0.0025578335492816668 -0.00036989596530937396 0 -0.002334633484928782 -0.00049410680182649389 0 -0.0024641839910800908 -0.00015290598352665023 0 -0.0016538621906517048 -0.00077855137753829429 0 -0.0014708911255093477 -0.00088211337080511439 0 -0.0023360209075110358 -0.00053579696140448527 0 -0.0020395286157800507 -0.00025819276176863924 0 -0.0022080706305204379 -0.00017868946034477163 0 -0.0017787354792334813 -0.00031946681461391828 0 -0.0023360209075110358 -0.00053579696140448527 0 -0.0020395286157800507 -0.00025819276176863924 0 -0.0017787354792334813 -0.00031946681461391828 0 -0.001737539973400648 -0.00032992085514356798 0 -0.001738438522383821 -0.00033117323024867053 0 -0.0020395286157800507 -0.00025819276176863924 0 -0.0022080706305204379 -0.00017868946034477163 0 -0.0020637362422365538 -0.00011170587583349056 0 -0.0022080706305204379 -0.00017868946034477163 0 -0.0024910051627600933 -7.4758291323175129e-05 0 -0.0021737423527734829 6.3332688989072171e-05 0 -0.0022080706305204379 -0.00017868946034477163 0 -0.0020637362422365538 -0.00011170587583349056 0 -0.0021737423527734829 6.3332688989072171e-05 0 -0.0023360209075110358 -0.00053579696140448527 0 -0.0022080706305204379 -0.00017868946034477163 0 -0.0024910051627600933 -7.4758291323175129e-05 0 -0.0024910051627600933 -7.4758291323175129e-05 0 -0.0023872986189551128 0.00012086325961713882 0 -0.0021737423527734829 6.3332688989072171e-05 0 -0.0024910051627600933 -7.4758291323175129e-05 0 -0.0023872986189551128 0.00012086325961713882 0 -0.0026074407858564415 0.00021478207600295304 0 -0.0020637362422365538 -0.00011170587583349056 0 -0.0021737423527734829 6.3332688989072171e-05 0 -0.0018661987258384298 0.00018642432990176216 0 -0.0023872986189551128 0.00012086325961713882 0 -0.0021737423527734829 6.3332688989072171e-05 0 -0.0022329621447332447 0.00020026039725971428 0 -0.0021737423527734829 6.3332688989072171e-05 0 -0.0020912353117487326 0.00011234105370408373 0 -0.0022329621447332447 0.00020026039725971428 0 -0.0021037579342853335 9.0843416864467151e-05 0 -0.0021007996119057639 9.1704525557374396e-05 0 -0.0020637362422365538 -0.00011170587583349056 0 -0.0018661987258384298 0.00018642432990176216 0 -0.0018376890841682366 -0.00018409681214866719 0 -0.0021007996119057639 9.1704525557374396e-05 0 -0.0020705086633838994 7.944229127979594e-06 0 -0.0018018358548766769 -7.6872043737939138e-05 0 -0.0018376890841682366 -0.00018409681214866719 0 -0.0017327281939747447 -0.00013754754545865799 0 -0.0017787354792334813 -0.00031946681461391828 0 -0.0018376890841682366 -0.00018409681214866719 0 -0.0017374174466103618 -0.00023101750679912139 0 -0.0018376890841682366 -0.00018409681214866719 0 -0.0017374174466103618 -0.00023101750679912139 0 -0.0017327281939747447 -0.00013754754545865799 0 -0.0020395286157800507 -0.00025819276176863924 0 -0.0020637362422365538 -0.00011170587583349056 0 -0.0018376890841682366 -0.00018409681214866719 0 -0.001616300214337549 -0.00013960448096821584 0 -0.0016766206307638123 -0.00021784637627506934 0 -0.0017327281939747447 -0.00013754754545865799 0 -0.0016766206307638123 -0.00021784637627506934 0 -0.0017374174466103618 -0.00023101750679912139 0 -0.0017327281939747447 -0.00013754754545865799 0 -0.001616300214337549 -0.00013960448096821584 0 -0.0017327281939747447 -0.00013754754545865799 0 -0.0016302672383729333 -3.9556992365141923e-05 0 -0.0018018358548766769 -7.6872043737939138e-05 0 -0.0017327281939747447 -0.00013754754545865799 0 -0.0016302672383729333 -3.9556992365141923e-05 0 -0.0021007996119057639 9.1704525557374396e-05 0 -0.0019385453645796064 0.00011777088921876929 0 -0.0021407630235892794 0.00018069774430813393 0 -0.0021099878509790899 0.00015735629061291949 0 -0.0021090433049244534 0.0002034334639332569 0 -0.0021735746466226215 0.00013367077626257133 0 -0.0021407630235892794 0.00018069774430813393 0 -0.0021099878509790899 0.00015735629061291949 0 -0.0023618544575591781 0.00033964698543016963 0 -0.0022564492779216252 0.00024359808153078902 0 -0.0021407630235892794 0.00018069774430813393 0 -0.0021719362433547315 0.00022589170380859857 0 -0.0021090433049244534 0.0002034334639332569 0 -0.0021091118391069635 0.00031208660162063986 0 -0.0022290308127746366 0.00049183435642206777 0 -0.0021124516357812397 0.00054606055273021946 0 -0.0021407630235892794 0.00018069774430813393 0 -0.0021726815129267142 0.00017963332326328835 0 -0.0021719362433547315 0.00022589170380859857 0 -0.0022178539101251928 0.00022900932763134511 0 -0.0023618544575591781 0.00033964698543016963 0 -0.0021007996119057639 9.1704525557374396e-05 0 -0.0022178539101251928 0.00022900932763134511 0 -0.0020912353117487326 0.00011234105370408373 0 -0.0021091118391069635 0.00031208660162063986 0 -0.0022329621447332447 0.00020026039725971428 0 -0.0021735746466226215 0.00013367077626257133 0 -0.0021407630235892794 0.00018069774430813393 0 -0.0021726815129267142 0.00017963332326328835 0 -0.0023872986189551128 0.00012086325961713882 0 -0.0022329621447332447 0.00020026039725971428 0 -0.002404603177760636 0.00026260066427692008 0 -0.0022329621447332447 0.00020026039725971428 0 -0.002404603177760636 0.00026260066427692008 0 -0.0022858534008109335 0.00036212472477010371 0 -0.002404603177760636 0.00026260066427692008 0 -0.00241185226034683 0.00041230341916013953 0 -0.0022858534008109335 0.00036212472477010371 0 -0.0021091118391069635 0.00031208660162063986 0 -0.0022329621447332447 0.00020026039725971428 0 -0.0022858534008109335 0.00036212472477010371 0 -0.0023872986189551128 0.00012086325961713882 0 -0.002404603177760636 0.00026260066427692008 0 -0.0026074407858564415 0.00021478207600295304 0 -0.002404603177760636 0.00026260066427692008 0 -0.0025195386902030006 0.00035993331073037291 0 -0.0026074407858564415 0.00021478207600295304 0 -0.002404603177760636 0.00026260066427692008 0 -0.0025195386902030006 0.00035993331073037291 0 -0.00241185226034683 0.00041230341916013953 0 -0.0025195386902030006 0.00035993331073037291 0 -0.0025043312754555974 0.00045103777921759426 0 -0.0025778010054893813 0.00047506654568417369 0 -0.0025195386902030006 0.00035993331073037291 0 -0.0025043312754555974 0.00045103777921759426 0 -0.00241185226034683 0.00041230341916013953 0 -0.0025043312754555974 0.00045103777921759426 0 -0.00241185226034683 0.00041230341916013953 0 -0.0024860296067460387 0.00053538247268894337 0 -0.0025043312754555974 0.00045103777921759426 0 -0.0025439181587527645 0.00053048529639210576 0 -0.0024860296067460387 0.00053538247268894337 0 -0.00241185226034683 0.00041230341916013953 0 -0.0023656591237560709 0.00048919807557820866 0 -0.0024860296067460387 0.00053538247268894337 0 -0.0025043312754555974 0.00045103777921759426 0 -0.0025439181587527645 0.00053048529639210576 0 -0.0025778010054893813 0.00047506654568417369 0 -0.0025439181587527645 0.00053048529639210576 0 -0.002588224483744247 0.0005636310037664664 0 -0.0025778010054893813 0.00047506654568417369 0 -0.0021091118391069635 0.00031208660162063986 0 -0.0022858534008109335 0.00036212472477010371 0 -0.0022290308127746366 0.00049183435642206777 0 -0.00241185226034683 0.00041230341916013953 0 -0.0022858534008109335 0.00036212472477010371 0 -0.0023656591237560709 0.00048919807557820866 0 -0.0023656591237560709 0.00048919807557820866 0 -0.0022290308127746366 0.00049183435642206777 0 -0.0023633583585669954 0.00059538300495965704 0 -0.0022858534008109335 0.00036212472477010371 0 -0.0023656591237560709 0.00048919807557820866 0 -0.0022290308127746366 0.00049183435642206777 0 -0.0022290308127746366 0.00049183435642206777 0 -0.0023633583585669954 0.00059538300495965704 0 -0.0023524106373897947 0.00062068643338762826 0 -0.0024769351249151585 0.00041567768730909618 0 -0.0023618544575591781 0.00033964698543016963 0 -0.0022290308127746366 0.00049183435642206777 0 -0.0023524106373897947 0.00062068643338762826 0 -0.0021124516357812397 0.00054606055273021946 0 -0.0024432349968781767 0.00056219180560206701 0 -0.0023633583585669954 0.00059538300495965704 0 -0.0025673284119121249 0.000628006765483845 0 -0.0023656591237560709 0.00048919807557820866 0 -0.0024432349968781767 0.00056219180560206701 0 -0.0023633583585669954 0.00059538300495965704 0 -0.0023633583585669954 0.00059538300495965704 0 -0.0023523663188969013 0.00062648936727988027 0 -0.0025673284119121249 0.000628006765483845 0 -0.0023656591237560709 0.00048919807557820866 0 -0.0024432349968781767 0.00056219180560206701 0 -0.0024860296067460387 0.00053538247268894337 0 -0.0024764267068377488 0.00041686411769774394 0 -0.0024769351249151585 0.00041567768730909618 0 -0.0026708552810563208 0.00065495775425576555 0 -0.0025673284119121249 0.000628006765483845 0 -0.0026504916746510937 0.00056364237911393203 0 -0.0024769351249151585 0.00041567768730909618 0 -0.0024882228257925246 0.00042789473970257502 0 -0.0025439181587527645 0.00053048529639210576 0 -0.002588224483744247 0.0005636310037664664 0 -0.0025673284119121249 0.000628006765483845 0 -0.0025439181587527645 0.00053048529639210576 0 -0.0024860296067460387 0.00053538247268894337 0 -0.0025673284119121249 0.000628006765483845 0 -0.0024432349968781767 0.00056219180560206701 0 -0.0024860296067460387 0.00053538247268894337 0 -0.0025673284119121249 0.000628006765483845 0 -0.002588224483744247 0.0005636310037664664 0 -0.0025673284119121249 0.000628006765483845 0 -0.0025752939445714313 0.00060272079199108063 0 -0.0027390886574624475 0.00036779978731066299 0 -0.0027141004700363099 0.00041837337826067846 0 -0.0026504916746510937 0.00056364237911393203 0 -0.0025752939445714313 0.00060272079199108063 0 -0.0027014378034383351 0.00046815123529065473 0 -0.0025673284119121249 0.000628006765483845 0 -0.0026504916746510937 0.00056364237911393203 0 -0.0025752939445714313 0.00060272079199108063 0 -0.0024769351249151585 0.00041567768730909618 0 -0.0025475042531454785 0.00044782874308256981 0 -0.0024972775534008542 0.00041898649648534724 0 -0.0024906863838767622 0.00042755241244336038 0 -0.0024940539881372027 0.00042875278889580368 0 -0.0026708552810563208 0.00065495775425576555 0 -0.0026504916746510937 0.00056364237911393203 0 -0.0027665042849199556 0.00049693618800258346 0 -0.0026414177372124843 0.00036579985475674231 0 -0.002555694570624763 0.00027468468287028308 0 -0.0025200261236529194 0.00035750233555866402 0 -0.002555694570624763 0.00027468468287028308 0 -0.0026419808984807875 0.00023158599882684502 0 -0.0025136479644308138 0.00018667580028695297 0 -0.0026414177372124843 0.00036579985475674231 0 -0.002555694570624763 0.00027468468287028308 0 -0.0026419808984807875 0.00023158599882684502 0 -0.0024915957710417254 0.00039989064566840564 0 -0.0023618544575591781 0.00033964698543016963 0 -0.0024972775534008542 0.00041898649648534724 0 -0.0024906863838767622 0.00042755241244336038 0 -0.0024905682011024726 0.0004165868828741459 0 -0.0029008811255164589 -8.1797005515628078e-05 0 -0.0029563109331688302 -0.0001433711634899132 0 -0.0029698041103068539 -7.7858938654673613e-05 0 -0.0029563109331688302 -0.0001433711634899132 0 -0.0029698041103068539 -7.7858938654673613e-05 0 -0.0030016605119026255 -9.1895476056868812e-05 0 -0.0029008811255164589 -8.1797005515628078e-05 0 -0.0029666967662167272 -4.4677885401853647e-05 0 -0.0029698041103068539 -7.7858938654673613e-05 0 -0.0025712241230025465 -7.090407917686115e-05 0 -0.002152181552879026 -0.00030390692689099825 0 -0.0029817849155651761 -5.3954389789654227e-05 0 -0.0029698041103068539 -7.7858938654673613e-05 0 -0.0029977940402948957 -7.2898349430234956e-05 0 -0.0029666967662167272 -4.4677885401853647e-05 0 -0.0029817849155651761 -5.3954389789654227e-05 0 -0.0029698041103068539 -7.7858938654673613e-05 0 -0.0029698041103068539 -7.7858938654673613e-05 0 -0.0030016605119026255 -9.1895476056868812e-05 0 -0.0029977940402948957 -7.2898349430234956e-05 0 -0.0030074691970074533 -6.0571972562006393e-05 0 -0.0029817849155651761 -5.3954389789654227e-05 0 -0.0029977940402948957 -7.2898349430234956e-05 0 -0.0030074691970074533 -6.0571972562006393e-05 0 -0.0029977940402948957 -7.2898349430234956e-05 0 -0.0030213629922546479 -8.3204727014367475e-05 0 -0.0030016605119026255 -9.1895476056868812e-05 0 -0.0029977940402948957 -7.2898349430234956e-05 0 -0.0030213629922546479 -8.3204727014367475e-05 0 -0.0030016605119026255 -9.1895476056868812e-05 0 -0.0030213629922546479 -8.3204727014367475e-05 0 -0.0030536502117267158 -8.8450785686673634e-05 0 -0.0031999720344443069 -5.6796803657095573e-05 0 -0.0031320151647554954 -7.2462832666967533e-05 0 -0.0034997404031774314 -7.267816561778271e-05 0 -0.0030536502117267158 -8.8450785686673634e-05 0 -0.0032675639389730107 9.9470661128051456e-05 0 -0.0029563109331688302 -0.0001433711634899132 0 -0.0030016605119026255 -9.1895476056868812e-05 0 -0.0030536502117267158 -8.8450785686673634e-05 0 -0.0030536502117267158 -8.8450785686673634e-05 0 -0.0030283060316482297 -9.4645969300300803e-05 0 -0.0029347142919391488 -4.5927216065911354e-05 0 -0.002890148344535898 0.00010266088121419162 0 -0.0028112700802988447 0.00023995110792821324 0 -0.0030213629922546479 -8.3204727014367475e-05 0 -0.0030536502117267158 -8.8450785686673634e-05 0 -0.0030283060316482297 -9.4645969300300803e-05 0 -0.0030074691970074533 -6.0571972562006393e-05 0 -0.0030213629922546479 -8.3204727014367475e-05 0 -0.0030283060316482297 -9.4645969300300803e-05 0 -0.0027938232795262858 4.696103629514293e-05 0 -0.0028343598988140655 0.00027147573474219978 0 -0.0026074407858564415 0.00021478207600295304 0 -0.0028343598988140655 0.00027147573474219978 0 -0.0026074407858564415 0.00021478207600295304 0 -0.0026387022882844945 0.00036956590626788276 0 -0.0025195386902030006 0.00035993331073037291 0 -0.0026074407858564415 0.00021478207600295304 0 -0.0026387022882844945 0.00036956590626788276 0 -0.0028343598988140655 0.00027147573474219978 0 -0.0026387022882844945 0.00036956590626788276 0 -0.0026735896009985618 0.00052671026977447154 0 -0.0026387022882844945 0.00036956590626788276 0 -0.0026735896009985618 0.00052671026977447154 0 -0.0025778010054893813 0.00047506654568417369 0 -0.0025195386902030006 0.00035993331073037291 0 -0.0026387022882844945 0.00036956590626788276 0 -0.0025778010054893813 0.00047506654568417369 0 -0.002588224483744247 0.0005636310037664664 0 -0.0026735896009985618 0.00052671026977447154 0 -0.0025778010054893813 0.00047506654568417369 0 -0.002588224483744247 0.0005636310037664664 0 -0.0026735896009985618 0.00052671026977447154 0 -0.0025752939445714313 0.00060272079199108063 0 -0.0029347142919391488 -4.5927216065911354e-05 0 -0.0027895226154469612 0.00021821216300902925 0 -0.0030296570945938018 0.00012209771256994453 0 -0.0028112700802988447 0.00023995110792821324 0 -0.0027390886574624475 0.00036779978731066299 0 -0.0027895226154469612 0.00021821216300902925 0 -0.0029514507299094081 0.00030166047624643984 0 -0.0030296570945938018 0.00012209771256994453 0 -0.0027895226154469612 0.00021821216300902925 0 -0.0029514507299094081 0.00030166047624643984 0 -0.0028280475311293941 0.00038862984055242935 0 -0.0029514507299094081 0.00030166047624643984 0 -0.0030296570945938018 0.00012209771256994453 0 -0.0032341608143896649 0.00035469390675744317 0 -0.0030536502117267158 -8.8450785686673634e-05 0 -0.0029347142919391488 -4.5927216065911354e-05 0 -0.0030296570945938018 0.00012209771256994453 0 -0.0030536502117267158 -8.8450785686673634e-05 0 -0.0030296570945938018 0.00012209771256994453 0 -0.0032675639389730107 9.9470661128051456e-05 0 -0.0030296570945938018 0.00012209771256994453 0 -0.0032675639389730107 9.9470661128051456e-05 0 -0.0032341608143896649 0.00035469390675744317 0 -0.0032675639389730107 9.9470661128051456e-05 0 -0.0032341608143896649 0.00035469390675744317 0 -0.0035469689672477391 0.00019035743621326919 0 -0.0034851752946094029 0.00024174084385332812 0 -0.0035469689672477391 0.00019035743621326919 0 -0.0035829762899888405 0.00033157790630986066 0 -0.0033203717273676985 0.00028721121758239551 0 -0.0034102522339808819 0.00024205320725526313 0 -0.0034997404031774314 -7.267816561778271e-05 0 -0.0032675639389730107 9.9470661128051456e-05 0 -0.0035469689672477391 0.00019035743621326919 0 -0.0036334446256625378 0.00012081771975745217 0 -0.0034997404031774314 -7.267816561778271e-05 0 -0.0035469689672477391 0.00019035743621326919 0 -0.0036679091544927511 0.00044502363478269821 0 -0.0035829762899888405 0.00033157790630986066 0 -0.0034876015089320006 0.00041838907405894232 0 -0.0036312429058764687 0.00029293621886923663 0 -0.0035469689672477391 0.00019035743621326919 0 -0.0035829762899888405 0.00033157790630986066 0 -0.0034851752946094029 0.00024174084385332812 0 -0.0035829762899888405 0.00033157790630986066 0 -0.0034876015089320006 0.00041838907405894232 0 -0.0034876015089320006 0.00041838907405894232 0 -0.0033453421317563839 0.00028397464160808571 0 -0.0033080027604896326 0.00041227312378965041 0 -0.0033203717273676985 0.00028721121758239551 0 -0.0031540526631509756 0.00036330486679034881 0 -0.0029514507299094081 0.00030166047624643984 0 -0.0032341608143896649 0.00035469390675744317 0 -0.0029639043052607423 0.00046960846665845092 0 -0.0034851752946094029 0.00024174084385332812 0 -0.0034876015089320006 0.00041838907405894232 0 -0.0033453421317563839 0.00028397464160808571 0 -0.0029639043052607423 0.00046960846665845092 0 -0.0028280475311293941 0.00038862984055242935 0 -0.0027411627770129524 0.0005167590454938024 0 -0.0029514507299094081 0.00030166047624643984 0 -0.0029639043052607423 0.00046960846665845092 0 -0.0028280475311293941 0.00038862984055242935 0 -0.0033080027604896326 0.00041227312378965041 0 -0.003129064355496574 0.00033911433566006344 0 -0.0030983724411554623 0.00054818276837287729 0 -0.0033453421317563839 0.00028397464160808571 0 -0.0033080027604896326 0.00041227312378965041 0 -0.003129064355496574 0.00033911433566006344 0 -0.0031540526631509756 0.00036330486679034881 0 -0.0029958280965950322 0.00043097461849962308 0 -0.0033080027604896326 0.00041227312378965041 0 -0.0033375225930637143 0.00057797542416311153 0 -0.0030983724411554623 0.00054818276837287729 0 -0.0032044434153022773 0.00066183113004331052 0 -0.003318289342439234 0.00078405749184663157 0 -0.0030601989740643761 0.00074070664057559511 0 -0.0032044434153022773 0.00066183113004331052 0 -0.0033375225930637143 0.00057797542416311153 0 -0.003318289342439234 0.00078405749184663157 0 -0.0032044434153022773 0.00066183113004331052 0 -0.0033375225930637143 0.00057797542416311153 0 -0.0030983724411554623 0.00054818276837287729 0 -0.0033375225930637143 0.00057797542416311153 0 -0.0035937384573989442 0.00061691919324999723 0 -0.0035489469047816869 0.00077791821710272789 0 -0.0033375225930637143 0.00057797542416311153 0 -0.0035489469047816869 0.00077791821710272789 0 -0.003318289342439234 0.00078405749184663157 0 -0.0034876015089320006 0.00041838907405894232 0 -0.0033080027604896326 0.00041227312378965041 0 -0.0033375225930637143 0.00057797542416311153 0 -0.0034876015089320006 0.00041838907405894232 0 -0.0033375225930637143 0.00057797542416311153 0 -0.0035937384573989442 0.00061691919324999723 0 -0.003763162702185568 0.00068287287187281001 0 -0.0035937384573989442 0.00061691919324999723 0 -0.0036947058201652304 0.00078946098930854976 0 -0.003763162702185568 0.00068287287187281001 0 -0.0037461213790878759 0.00052040976986953628 0 -0.0035937384573989442 0.00061691919324999723 0 -0.0036679091544927511 0.00044502363478269821 0 -0.0034876015089320006 0.00041838907405894232 0 -0.0035937384573989442 0.00061691919324999723 0 -0.0035818514806303628 0.00039313086722524024 0 -0.0035562176327455356 0.00047635778640886105 0 -0.0027575830346151385 0.0004687878787694194 0 -0.0027665042849199556 0.00049693618800258346 0 -0.0027753224357680325 0.0004689838762709851 0 -0.0027753224357680325 0.0004689838762709851 0 -0.0028308890938731233 0.00047032029539473524 0 -0.0027432524862602823 0.00047593216996844978 0 -0.0027575830346151385 0.0004687878787694194 0 -0.0027753224357680325 0.0004689838762709851 0 -0.0027432524862602823 0.00047593216996844978 0 -0.0025622885055986578 0.00047345424228184476 0 -0.0025639611277357183 0.00047353814514206212 0 -0.0025702289981767452 0.00043940881037407965 0 -0.0025807296819640954 0.00055412685291874176 0 -0.0025064747120203041 0.00048779640969773258 0 -0.0026519117601581815 0.00050569438943089649 0 -0.0025702289981767452 0.00043940881037407965 0 -0.0025807296819640954 0.00055412685291874176 0 -0.0026414177372124843 0.00036579985475674231 0 -0.0025702289981767452 0.00043940881037407965 0 -0.0025200261236529194 0.00035750233555866402 0 -0.0025622885055986578 0.00047345424228184476 0 -0.0025475042531454785 0.00044782874308256981 0 -0.0024906863838767622 0.00042755241244336038 0 -0.0024909439335125279 0.00043887814934956914 0 -0.0024940539881372027 0.00042875278889580368 0 -0.0024915957710417254 0.00039989064566840564 0 -0.0025622885055986578 0.00047345424228184476 0 -0.0026414177372124843 0.00036579985475674231 0 -0.0026519117601581815 0.00050569438943089649 0 -0.0025702289981767452 0.00043940881037407965 0 -0.0026504916746510937 0.00056364237911393203 0 -0.0027665042849199556 0.00049693618800258346 0 -0.0027014378034383351 0.00046815123529065473 0 -0.0027665042849199556 0.00049693618800258346 0 -0.0027014378034383351 0.00046815123529065473 0 -0.0027551744878824658 0.00047727307559750743 0 -0.0027665042849199556 0.00049693618800258346 0 -0.0027551744878824658 0.00047727307559750743 0 -0.0027753224357680325 0.0004689838762709851 0 -0.0028280475311293941 0.00038862984055242935 0 -0.0027014378034383351 0.00046815123529065473 0 -0.0027411627770129524 0.0005167590454938024 0 -0.0027895226154469612 0.00021821216300902925 0 -0.0028280475311293941 0.00038862984055242935 0 -0.0027014378034383351 0.00046815123529065473 0 -0.0029958280965950322 0.00043097461849962308 0 -0.0029259105314382813 0.00046153435863917466 0 -0.0027411627770129524 0.0005167590454938024 0 -0.0027551744878824658 0.00047727307559750743 0 -0.0028308890938731233 0.00047032029539473524 0 -0.0027014378034383351 0.00046815123529065473 0 -0.0027411627770129524 0.0005167590454938024 0 -0.0027551744878824658 0.00047727307559750743 0 -0.0027551744878824658 0.00047727307559750743 0 -0.0027753224357680325 0.0004689838762709851 0 -0.0028308890938731233 0.00047032029539473524 0 -0.0028308890938731233 0.00047032029539473524 0 -0.0029166907513608164 0.00064708048833559512 0 -0.0027888930823924589 0.0005847043993170006 0 -0.0028308890938731233 0.00047032029539473524 0 -0.0030983724411554623 0.00054818276837287729 0 -0.0029166907513608164 0.00064708048833559512 0 -0.003129064355496574 0.00033911433566006344 0 -0.0028308890938731233 0.00047032029539473524 0 -0.0030983724411554623 0.00054818276837287729 0 -0.0030983724411554623 0.00054818276837287729 0 -0.0029166907513608164 0.00064708048833559512 0 -0.0030601989740643761 0.00074070664057559511 0 -0.0032044434153022773 0.00066183113004331052 0 -0.0030983724411554623 0.00054818276837287729 0 -0.0030601989740643761 0.00074070664057559511 0 -0.0029166907513608164 0.00064708048833559512 0 -0.0030601989740643761 0.00074070664057559511 0 -0.0029317642629322484 0.00081592564855593205 0 -0.0029166907513608164 0.00064708048833559512 0 -0.0028082950588533659 0.00072293337989038601 0 -0.0029317642629322484 0.00081592564855593205 0 -0.0029166907513608164 0.00064708048833559512 0 -0.0028082950588533659 0.00072293337989038601 0 -0.0027888930823924589 0.0005847043993170006 0 -0.0028082950588533659 0.00072293337989038601 0 -0.0026319451161890065 0.000653668663097841 0 -0.0027432221955112387 0.00079755237643670113 0 -0.0028082950588533659 0.00072293337989038601 0 -0.0027888930823924589 0.0005847043993170006 0 -0.0026319451161890065 0.000653668663097841 0 -0.0027496106679113703 0.00043323919367234788 0 -0.0027432524862602823 0.00047593216996844978 0 -0.0026319451161890065 0.000653668663097841 0 -0.0028308890938731233 0.00047032029539473524 0 -0.0027888930823924589 0.0005847043993170006 0 -0.0027432524862602823 0.00047593216996844978 0 -0.0025622885055986578 0.00047345424228184476 0 -0.0025695872579919398 0.00054142723665014342 0 -0.0027888930823924589 0.0005847043993170006 0 -0.0027432524862602823 0.00047593216996844978 0 -0.0026319451161890065 0.000653668663097841 0 -0.0026519117601581815 0.00050569438943089649 0 -0.0025807296819640954 0.00055412685291874176 0 -0.0026319451161890065 0.000653668663097841 0 -0.0025807296819640954 0.00055412685291874176 0 -0.0026319451161890065 0.000653668663097841 0 -0.0025002089804519036 0.00062925193364441498 0 -0.0026319451161890065 0.000653668663097841 0 -0.0025002089804519036 0.00062925193364441498 0 -0.002566856126466995 0.00074408533556666811 0 -0.0024981115678352045 0.00056464036753110802 0 -0.0024597516407519841 0.00060339605099672341 0 -0.002497835564761824 0.00063574481730001981 0 -0.0027438917800726025 0.00062261391877687429 0 -0.0029087775195811511 0.00073784696234109267 0 -0.0025002089804519036 0.00062925193364441498 0 -0.0024941448347872703 0.00082510078346324366 0 -0.002566856126466995 0.00074408533556666811 0 -0.0024981115678352045 0.00056464036753110802 0 -0.0024597516407519841 0.00060339605099672341 0 -0.0024545601406413412 0.00056591260368631308 0 -0.002418116003538038 0.00057464523329063598 0 -0.0024545601406413412 0.00056591260368631308 0 -0.0024440918537677828 0.00052728609543224671 0 -0.0024597516407519841 0.00060339605099672341 0 -0.002418116003538038 0.00057464523329063598 0 -0.002421177775912282 0.0006244305196203058 0 -0.0024597516407519841 0.00060339605099672341 0 -0.002418116003538038 0.00057464523329063598 0 -0.0024545601406413412 0.00056591260368631308 0 -0.0024440918537677828 0.00052728609543224671 0 -0.0023893679488750401 0.00053154250299543542 0 -0.0023962289368893493 0.00047303412591216985 0 -0.002418116003538038 0.00057464523329063598 0 -0.0024440918537677828 0.00052728609543224671 0 -0.0023893679488750401 0.00053154250299543542 0 -0.0025807296819640954 0.00055412685291874176 0 -0.0025002089804519036 0.00062925193364441498 0 -0.0025064747120203041 0.00048779640969773258 0 -0.0027438917800726025 0.00062261391877687429 0 -0.0026969415823116715 0.00056633959233407471 0 -0.0024981115678352045 0.00056464036753110802 0 -0.0024545601406413412 0.00056591260368631308 0 -0.0024440918537677828 0.00052728609543224671 0 -0.0024981115678352045 0.00056464036753110802 0 -0.0024440918537677828 0.00052728609543224671 0 -0.0025064747120203041 0.00048779640969773258 0 -0.00233348698826665 0.0005881865243976479 0 -0.0023410105122092673 0.00053673829530083601 0 -0.0022980875376978471 0.00056296827985814171 0 -0.00233348698826665 0.0005881865243976479 0 -0.0023742168225091035 0.0005637494545730591 0 -0.0023809031092840247 0.00060486356973636786 0 -0.00233348698826665 0.0005881865243976479 0 -0.0023742168225091035 0.0005637494545730591 0 -0.0023410105122092673 0.00053673829530083601 0 -0.002418116003538038 0.00057464523329063598 0 -0.0023809031092840247 0.00060486356973636786 0 -0.002421177775912282 0.0006244305196203058 0 -0.002418116003538038 0.00057464523329063598 0 -0.0023742168225091035 0.0005637494545730591 0 -0.0023809031092840247 0.00060486356973636786 0 -0.002418116003538038 0.00057464523329063598 0 -0.0023742168225091035 0.0005637494545730591 0 -0.0023893679488750401 0.00053154250299543542 0 -0.0023660916790207605 0.0005078968692481397 0 -0.0023893679488750401 0.00053154250299543542 0 -0.0023410105122092673 0.00053673829530083601 0 -0.0023742168225091035 0.0005637494545730591 0 -0.0023893679488750401 0.00053154250299543542 0 -0.0023410105122092673 0.00053673829530083601 0 -0.0023660916790207605 0.0005078968692481397 0 -0.0023893679488750401 0.00053154250299543542 0 -0.0023962289368893493 0.00047303412591216985 0 -0.0023410105122092673 0.00053673829530083601 0 -0.0023380487431782118 0.00049003320073677374 0 -0.0022767121811249399 0.00050266066432748879 0 -0.0023660916790207605 0.0005078968692481397 0 -0.0023410105122092673 0.00053673829530083601 0 -0.0023380487431782118 0.00049003320073677374 0 -0.0023410105122092673 0.00053673829530083601 0 -0.0022872073620481522 0.0005297538840533829 0 -0.0022980875376978471 0.00056296827985814171 0 -0.0022435841176983921 0.00044998687496779026 0 -0.0022773729932132488 0.00050021014109139395 0 -0.0023069399963017061 0.00044402371762055281 0 -0.0022773729932132488 0.00050021014109139395 0 -0.0023962289368893493 0.00047303412591216985 0 -0.0023069399963017061 0.00044402371762055281 0 -0.0022894805249483955 0.00047925475646472466 0 -0.002331512723902062 0.00047380961660947832 0 -0.0023660916790207605 0.0005078968692481397 0 -0.0023380487431782118 0.00049003320073677374 0 -0.0023962289368893493 0.00047303412591216985 0 -0.0023962289368893493 0.00047303412591216985 0 -0.0023177837058218119 0.00038204282317277341 0 -0.0023069399963017061 0.00044402371762055281 0 -0.0023962289368893493 0.00047303412591216985 0 -0.0023177837058218119 0.00038204282317277341 0 -0.0024094406017970828 0.0003617753833848859 0 -0.0022435841176983921 0.00044998687496779026 0 -0.0023177837058218119 0.00038204282317277341 0 -0.0023069399963017061 0.00044402371762055281 0 -0.0022383692663860669 0.00045316308426359358 0 -0.0022667450425182096 0.00042769082037361831 0 -0.0022283633441857399 0.00045089198328502304 0 -0.0023177837058218119 0.00038204282317277341 0 -0.002214798272674691 0.00036417274240899876 0 -0.0024440918537677828 0.00052728609543224671 0 -0.0025064747120203041 0.00048779640969773258 0 -0.0024569108120783356 0.00043058876923943818 0 -0.0025702289981767452 0.00043940881037407965 0 -0.0025064747120203041 0.00048779640969773258 0 -0.0024569108120783356 0.00043058876923943818 0 -0.0024440918537677828 0.00052728609543224671 0 -0.0023962289368893493 0.00047303412591216985 0 -0.0024569108120783356 0.00043058876923943818 0 -0.0023962289368893493 0.00047303412591216985 0 -0.0024569108120783356 0.00043058876923943818 0 -0.0024094406017970828 0.0003617753833848859 0 -0.0025702289981767452 0.00043940881037407965 0 -0.0024569108120783356 0.00043058876923943818 0 -0.0025200261236529194 0.00035750233555866402 0 -0.0024569108120783356 0.00043058876923943818 0 -0.0025200261236529194 0.00035750233555866402 0 -0.0024094406017970828 0.0003617753833848859 0 -0.002555694570624763 0.00027468468287028308 0 -0.0025200261236529194 0.00035750233555866402 0 -0.0024637901566656071 0.00027734828278226664 0 -0.0025200261236529194 0.00035750233555866402 0 -0.0024637901566656071 0.00027734828278226664 0 -0.0024094406017970828 0.0003617753833848859 0 -0.002555694570624763 0.00027468468287028308 0 -0.0024637901566656071 0.00027734828278226664 0 -0.0025136479644308138 0.00018667580028695297 0 -0.0024637901566656071 0.00027734828278226664 0 -0.0023854833893952316 0.00027248704816492785 0 -0.0023971974871787945 0.00020906009158028929 0 -0.0024637901566656071 0.00027734828278226664 0 -0.0023854833893952316 0.00027248704816492785 0 -0.0024094406017970828 0.0003617753833848859 0 -0.0023854833893952316 0.00027248704816492785 0 -0.0024094406017970828 0.0003617753833848859 0 -0.0023022782143584117 0.00030474158442913218 0 -0.0023177837058218119 0.00038204282317277341 0 -0.0024094406017970828 0.0003617753833848859 0 -0.0023022782143584117 0.00030474158442913218 0 -0.0023177837058218119 0.00038204282317277341 0 -0.0023022782143584117 0.00030474158442913218 0 -0.002214798272674691 0.00036417274240899876 0 -0.0023022782143584117 0.00030474158442913218 0 -0.0021859704978604063 0.00028747723680758365 0 -0.002214798272674691 0.00036417274240899876 0 -0.0023022782143584117 0.00030474158442913218 0 -0.002248607214492966 0.0002317392492329655 0 -0.0021859704978604063 0.00028747723680758365 0 -0.0023022782143584117 0.00030474158442913218 0 -0.0023324235488691729 0.0002236970813272951 0 -0.002248607214492966 0.0002317392492329655 0 -0.0023854833893952316 0.00027248704816492785 0 -0.0023022782143584117 0.00030474158442913218 0 -0.0023324235488691729 0.0002236970813272951 0 -0.0023854833893952316 0.00027248704816492785 0 -0.0023324235488691729 0.0002236970813272951 0 -0.0023971974871787945 0.00020906009158028929 0 -0.0023324235488691729 0.0002236970813272951 0 -0.00228865101547905 0.00017302393606978504 0 -0.0023630844397607991 0.00014979570314912921 0 -0.0023324235488691729 0.0002236970813272951 0 -0.0023630844397607991 0.00014979570314912921 0 -0.0023971974871787945 0.00020906009158028929 0 -0.0023799049796888144 0.00014305155765456 0 -0.0023630844397607991 0.00014979570314912921 0 -0.0023971974871787945 0.00020906009158028929 0 -0.0023324235488691729 0.0002236970813272951 0 -0.002248607214492966 0.0002317392492329655 0 -0.00228865101547905 0.00017302393606978504 0 -0.002248607214492966 0.0002317392492329655 0 -0.00228865101547905 0.00017302393606978504 0 -0.0022033754216006494 0.00015985431703792615 0 -0.00228865101547905 0.00017302393606978504 0 -0.0022696217824719066 0.00010626434160550064 0 -0.0022033754216006494 0.00015985431703792615 0 -0.0018195694503814659 5.4115755522638625e-05 0 -0.0019742817487302367 0.00013576607689603414 0 -0.0022696217824719066 0.00010626434160550064 0 -0.0023782504314213962 0.0001440498654216613 0 -0.0023630844397607991 0.00014979570314912921 0 -0.0014684956142777842 -9.2935938665966058e-05 0 -0.0013975841758484527 -5.1564857009579394e-05 0 -0.0014993073757913443 -6.6087123131880862e-06 0 -0.00228865101547905 0.00017302393606978504 0 -0.0022696217824719066 0.00010626434160550064 0 -0.0023630844397607991 0.00014979570314912921 0 -0.0019742817487302367 0.00013576607689603414 0 -0.0019815480861962781 0.00013386286062051517 0 -0.0015477359832751054 -8.9370889961585905e-05 0 -0.0014993073757913443 -6.6087123131880862e-06 0 -0.0016302672383729333 -3.9556992365141923e-05 0 -0.0019742817487302367 0.00013576607689603414 0 -0.0019385453645796064 0.00011777088921876929 0 -0.0015477359832751054 -8.9370889961585905e-05 0 -0.0014684956142777842 -9.2935938665966058e-05 0 -0.0014993073757913443 -6.6087123131880862e-06 0 -0.0020459695063352783 0.00018083034295037574 0 -0.0021099878509790899 0.00015735629061291949 0 -0.0021090433049244534 0.0002034334639332569 0 -0.0024637901566656071 0.00027734828278226664 0 -0.0025136479644308138 0.00018667580028695297 0 -0.0023971974871787945 0.00020906009158028929 0 -0.0023799049796888144 0.00014305155765456 0 -0.0025136479644308138 0.00018667580028695297 0 -0.0023971974871787945 0.00020906009158028929 0 -0.0019742817487302367 0.00013576607689603414 0 -0.0022564492779216252 0.00024359808153078902 0 -0.0020509467116017429 0.00020849234243726714 0 -0.0019731652439218634 0.00024271412177871298 0 -0.0020232833766554862 0.00026343065770143009 0 -0.001992174125376449 0.00022882804123118929 0 -0.0019508660502247021 0.00023836276931406389 0 -0.0020509467116017429 0.00020849234243726714 0 -0.0020381896777131522 0.00014735764429470619 0 -0.0020812662320266661 0.00014815131018655321 0 -0.0019417324949525814 0.00022966362733111255 0 -0.00198272721492698 0.00013848995256505753 0 -0.0019210212431675982 0.00016007279014067314 0 -0.0020509467116017429 0.00020849234243726714 0 -0.0019417324949525814 0.00022966362733111255 0 -0.00198272721492698 0.00013848995256505753 0 -0.0019190577792314056 9.4508358302300424e-05 0 -0.0020349067981100576 9.7036565326459308e-05 0 -0.00198272721492698 0.00013848995256505753 0 -0.0019217122179450128 0.00010321874631405362 0 -0.00198272721492698 0.00013848995256505753 0 -0.0019210212431675982 0.00016007279014067314 0 -0.0017107896603133794 8.3689271480861857e-05 0 -0.0017801576873609757 0.00011862552255239512 0 -0.0020349067981100576 9.7036565326459308e-05 0 -0.00198272721492698 0.00013848995256505753 0 -0.0020381896777131522 0.00014735764429470619 0 -0.0020509467116017429 0.00020849234243726714 0 -0.00198272721492698 0.00013848995256505753 0 -0.0020381896777131522 0.00014735764429470619 0 -0.0020349067981100576 9.7036565326459308e-05 0 -0.0020381896777131522 0.00014735764429470619 0 -0.0020812662320266661 0.00014815131018655321 0 -0.0021170846313666174 8.5913929762994055e-05 0 -0.0020349067981100576 9.7036565326459308e-05 0 -0.0020893958259903672 0.00011661405144781556 0 -0.0020349067981100576 9.7036565326459308e-05 0 -0.0020893958259903672 0.00011661405144781556 0 -0.0020812662320266661 0.00014815131018655321 0 -0.0021170846313666174 8.5913929762994055e-05 0 -0.0020893958259903672 0.00011661405144781556 0 -0.0021314190008784712 0.00014120814492725594 0 -0.0020893958259903672 0.00011661405144781556 0 -0.0020812662320266661 0.00014815131018655321 0 -0.0021314190008784712 0.00014120814492725594 0 -0.0020812662320266661 0.00014815131018655321 0 -0.0021314190008784712 0.00014120814492725594 0 -0.0021493199834633483 0.00019777052973985577 0 -0.0021170846313666174 8.5913929762994055e-05 0 -0.0022696217824719066 0.00010626434160550064 0 -0.0022033754216006494 0.00015985431703792615 0 -0.001657374800349772 -1.2625481576084036e-05 0 -0.0018195694503814659 5.4115755522638625e-05 0 -0.0021170846313666174 8.5913929762994055e-05 0 -0.0021314190008784712 0.00014120814492725594 0 -0.0022033754216006494 0.00015985431703792615 0 -0.002248607214492966 0.0002317392492329655 0 -0.0022033754216006494 0.00015985431703792615 0 -0.0021493199834633483 0.00019777052973985577 0 -0.0021314190008784712 0.00014120814492725594 0 -0.0022033754216006494 0.00015985431703792615 0 -0.0021493199834633483 0.00019777052973985577 0 -0.0020509467116017429 0.00020849234243726714 0 -0.0021493199834633483 0.00019777052973985577 0 -0.0020917058663030242 0.00026957356074594865 0 -0.0020509467116017429 0.00020849234243726714 0 -0.0020812662320266661 0.00014815131018655321 0 -0.0021493199834633483 0.00019777052973985577 0 -0.0021493199834633483 0.00019777052973985577 0 -0.0020917058663030242 0.00026957356074594865 0 -0.0021859704978604063 0.00028747723680758365 0 -0.0020917058663030242 0.00026957356074594865 0 -0.0021859704978604063 0.00028747723680758365 0 -0.0021245174275301803 0.00033812584760698616 0 -0.002248607214492966 0.0002317392492329655 0 -0.0021493199834633483 0.00019777052973985577 0 -0.0021859704978604063 0.00028747723680758365 0 -0.0021859704978604063 0.00028747723680758365 0 -0.002214798272674691 0.00036417274240899876 0 -0.0021245174275301803 0.00033812584760698616 0 -0.002214798272674691 0.00036417274240899876 0 -0.0021245174275301803 0.00033812584760698616 0 -0.0021371928989310897 0.00041391620713113479 0 -0.0020917058663030242 0.00026957356074594865 0 -0.0021245174275301803 0.00033812584760698616 0 -0.0020360655929419825 0.00031676294713990958 0 -0.0021245174275301803 0.00033812584760698616 0 -0.0020360655929419825 0.00031676294713990958 0 -0.0020703050474213478 0.00037809729959746693 0 -0.0020360655929419825 0.00031676294713990958 0 -0.0020122885836163034 0.00037225542835798693 0 -0.0020703050474213478 0.00037809729959746693 0 -0.0020509467116017429 0.00020849234243726714 0 -0.0020917058663030242 0.00026957356074594865 0 -0.0020232833766554862 0.00026343065770143009 0 -0.0020917058663030242 0.00026957356074594865 0 -0.0020360655929419825 0.00031676294713990958 0 -0.0020232833766554862 0.00026343065770143009 0 -0.0020360655929419825 0.00031676294713990958 0 -0.0020232833766554862 0.00026343065770143009 0 -0.0019838441056876008 0.0002854221411986936 0 -0.0019731652439218634 0.00024271412177871298 0 -0.0019838441056876008 0.0002854221411986936 0 -0.0019417197614118302 0.00028835614359590326 0 -0.0019731652439218634 0.00024271412177871298 0 -0.0020232833766554862 0.00026343065770143009 0 -0.0019838441056876008 0.0002854221411986936 0 -0.0019838441056876008 0.0002854221411986936 0 -0.0019809552194480187 0.00032986303951606654 0 -0.0019417197614118302 0.00028835614359590326 0 -0.0020360655929419825 0.00031676294713990958 0 -0.0019838441056876008 0.0002854221411986936 0 -0.0019809552194480187 0.00032986303951606654 0 -0.0020360655929419825 0.00031676294713990958 0 -0.0019809552194480187 0.00032986303951606654 0 -0.0020122885836163034 0.00037225542835798693 0 -0.0019809552194480187 0.00032986303951606654 0 -0.0020122885836163034 0.00037225542835798693 0 -0.0019492838841287127 0.00038936645732659325 0 -0.0021052055044913473 0.00043258993464562445 0 -0.0020682540578904575 0.0004408956556582817 0 -0.0020601828820564724 0.00040862979961333418 0 -0.0020122885836163034 0.00037225542835798693 0 -0.0020443737339134837 0.0004517931737393059 0 -0.0019492838841287127 0.00038936645732659325 0 -0.0020933125003460072 0.00042746877818835709 0 -0.0020143888117732729 0.00037369481932703188 0 -0.0020412373249470853 0.00042518194302930277 0 -0.0020143888117732729 0.00037369481932703188 0 -0.0020122885836163034 0.00037225542835798693 0 -0.0020703050474213478 0.00037809729959746693 0 -0.0020443737339134837 0.0004517931737393059 0 -0.0021052055044913473 0.00043258993464562445 0 -0.0020904982644168344 0.00045306360403843198 0 -0.0021122678819465971 0.00046566973542064272 0 -0.0020139430312035656 0.000392817592689344 0 -0.0020295070296211313 0.00044931319369765651 0 -0.001975350415932785 0.00041186102990767705 0 -0.0020682540578904575 0.0004408956556582817 0 -0.0020904982644168344 0.00045306360403843198 0 -0.0020762730772397901 0.00047310063585833539 0 -0.0021052055044913473 0.00043258993464562445 0 -0.0020682540578904575 0.0004408956556582817 0 -0.0020904982644168344 0.00045306360403843198 0 -0.0020412373249470853 0.00042518194302930277 0 -0.0020697059555900834 0.00048493250137936916 0 -0.0022283633441857399 0.00045089198328502304 0 -0.002214798272674691 0.00036417274240899876 0 -0.0021371928989310897 0.00041391620713113479 0 -0.0021245174275301803 0.00033812584760698616 0 -0.0020703050474213478 0.00037809729959746693 0 -0.0021371928989310897 0.00041391620713113479 0 -0.0020703050474213478 0.00037809729959746693 0 -0.0020443737339134837 0.0004517931737393059 0 -0.0021371928989310897 0.00041391620713113479 0 -0.0020933125003460072 0.00042746877818835709 0 -0.0022070657115054746 0.00048406573456913782 0 -0.0021052055044913473 0.00043258993464562445 0 -0.00215211922771251 0.0004574914892635242 0 -0.0021483913711762858 0.00045825771054594944 0 -0.0020443737339134837 0.0004517931737393059 0 -0.0021371928989310897 0.00041391620713113479 0 -0.0021542840354540817 0.00051669440374873827 0 -0.0021052055044913473 0.00043258993464562445 0 -0.0021483913711762858 0.00045825771054594944 0 -0.0021122678819465971 0.00046566973542064272 0 -0.0022894805249483955 0.00047925475646472466 0 -0.0022070657115054746 0.00048406573456913782 0 -0.0022435841176983921 0.00044998687496779026 0 -0.0022773729932132488 0.00050021014109139395 0 -0.0021689275508598514 0.00052220608358669615 0 -0.0022283633441857399 0.00045089198328502304 0 -0.0021371928989310897 0.00041391620713113479 0 -0.0021542840354540817 0.00051669440374873827 0 -0.0022383692663860669 0.00045316308426359358 0 -0.0022070657115054746 0.00048406573456913782 0 -0.0023410105122092673 0.00053673829530083601 0 -0.0022505185736038241 0.00048022297113222405 0 -0.0022872073620481522 0.0005297538840533829 0 -0.0022749282763947156 0.00051511615756302679 0 -0.0022070657115054746 0.00048406573456913782 0 -0.0022505185736038241 0.00048022297113222405 0 -0.0022872073620481522 0.0005297538840533829 0 -0.0022484429618664695 0.00050348720284731918 0 -0.0022872073620481522 0.0005297538840533829 0 -0.0022593888409442333 0.00053185732052942847 0 -0.0022630387459874265 0.00055688206101741689 0 -0.0022872073620481522 0.0005297538840533829 0 -0.0022484429618664695 0.00050348720284731918 0 -0.0022593888409442333 0.00053185732052942847 0 -0.0022303140071071514 0.00048854009371571984 0 -0.0021873508637209305 0.0005265831395634416 0 -0.0021687251394320716 0.00050127957595415382 0 -0.002199995937114888 0.00048536387119821583 0 -0.0021372360753795982 0.00048458094929065891 0 -0.0022484429618664695 0.00050348720284731918 0 -0.0022593888409442333 0.00053185732052942847 0 -0.0022264219480305136 0.00054232622938811439 0 -0.0022484429618664695 0.00050348720284731918 0 -0.0021930936217667957 0.00052461855611457282 0 -0.0022264219480305136 0.00054232622938811439 0 -0.0022484429618664695 0.00050348720284731918 0 -0.0022429210023558574 0.00048205191010397623 0 -0.0021930936217667957 0.00052461855611457282 0 -0.0022505185736038241 0.00048022297113222405 0 -0.0022484429618664695 0.00050348720284731918 0 -0.0022429210023558574 0.00048205191010397623 0 -0.0022070657115054746 0.00048406573456913782 0 -0.002199995937114888 0.00048536387119821583 0 -0.002199995937114888 0.00048536387119821583 0 -0.0021840029141221118 0.00050802197197253544 0 -0.0021930936217667957 0.00052461855611457282 0 -0.0022264219480305136 0.00054232622938811439 0 -0.0021846591104350706 0.00056310734459305946 0 -0.0022060098744792981 0.00058620326760776514 0 -0.0022264219480305136 0.00054232622938811439 0 -0.0021846591104350706 0.00056310734459305946 0 -0.0022060098744792981 0.00058620326760776514 0 -0.0022385435326848146 0.00057209398805050185 0 -0.0022264219480305136 0.00054232622938811439 0 -0.0022060098744792981 0.00058620326760776514 0 -0.0022385435326848146 0.00057209398805050185 0 -0.0022640851364732783 0.00060435792676406103 0 -0.0022385435326848146 0.00057209398805050185 0 -0.0022264219480305136 0.00054232622938811439 0 -0.0022630387459874265 0.00055688206101741689 0 -0.00233348698826665 0.0005881865243976479 0 -0.0022980875376978471 0.00056296827985814171 0 -0.0022640851364732783 0.00060435792676406103 0 -0.0022593888409442333 0.00053185732052942847 0 -0.0022264219480305136 0.00054232622938811439 0 -0.0022630387459874265 0.00055688206101741689 0 -0.0022630387459874265 0.00055688206101741689 0 -0.0022980875376978471 0.00056296827985814171 0 -0.0022640851364732783 0.00060435792676406103 0 -0.0022385435326848146 0.00057209398805050185 0 -0.0022630387459874265 0.00055688206101741689 0 -0.0022640851364732783 0.00060435792676406103 0 -0.0022872073620481522 0.0005297538840533829 0 -0.0022630387459874265 0.00055688206101741689 0 -0.0022980875376978471 0.00056296827985814171 0 -0.0020904982644168344 0.00045306360403843198 0 -0.0020762730772397901 0.00047310063585833539 0 -0.0021122678819465971 0.00046566973542064272 0 -0.0021061559141066361 0.00051393580803302827 0 -0.0021687251394320716 0.00050127957595415382 0 -0.0021534723140759558 0.00053207927200814244 0 -0.0020697059555900834 0.00048493250137936916 0 -0.0021372360753795982 0.00048458094929065891 0 -0.0021873508637209305 0.0005265831395634416 0 -0.0021687251394320716 0.00050127957595415382 0 -0.0021534723140759558 0.00053207927200814244 0 -0.0021061559141066361 0.00051393580803302827 0 -0.0021534723140759558 0.00053207927200814244 0 -0.0021440518190144037 0.00056538274227537866 0 -0.0021930936217667957 0.00052461855611457282 0 -0.0021846591104350706 0.00056310734459305946 0 -0.0021440518190144037 0.00056538274227537866 0 -0.0021873508637209305 0.0005265831395634416 0 -0.0021534723140759558 0.00053207927200814244 0 -0.0021440518190144037 0.00056538274227537866 0 -0.0021840029141221118 0.00050802197197253544 0 -0.0021717477240364488 0.00052141977311074108 0 -0.0022060098744792981 0.00058620326760776514 0 -0.0021846591104350706 0.00056310734459305946 0 -0.0021616559585232284 0.00060466783463125119 0 -0.0021846591104350706 0.00056310734459305946 0 -0.0021440518190144037 0.00056538274227537866 0 -0.0021616559585232284 0.00060466783463125119 0 -0.0021440518190144037 0.00056538274227537866 0 -0.0021234015761519287 0.00058548962792386266 0 -0.0021616559585232284 0.00060466783463125119 0 -0.0020699438854787995 0.00044051466763832752 0 -0.0020997947852309891 0.00054468274188995832 0 -0.0020140588098039188 0.00053447502960133448 0 -0.0021061559141066361 0.00051393580803302827 0 -0.0021440518190144037 0.00056538274227537866 0 -0.0021234015761519287 0.00058548962792386266 0 -0.0020697059555900834 0.00048493250137936916 0 -0.0020951286580927564 0.00055554804329732677 0 -0.0020997947852309891 0.00054468274188995832 0 -0.0020550461003055282 0.0006030662313404304 0 -0.0020140588098039188 0.00053447502960133448 0 -0.0020997947852309891 0.00054468274188995832 0 -0.0020550461003055282 0.0006030662313404304 0 -0.0021328199522886349 0.00065624742446299274 0 -0.0020951286580927564 0.00055554804329732677 0 -0.0021070519215039352 0.00059450472208460124 0 -0.0021616559585232284 0.00060466783463125119 0 -0.0021328199522886349 0.00065624742446299274 0 -0.0022135566898800357 0.00063399364587582647 0 -0.0021234015761519287 0.00058548962792386266 0 -0.0021616559585232284 0.00060466783463125119 0 -0.0021328199522886349 0.00065624742446299274 0 -0.0021328199522886349 0.00065624742446299274 0 -0.0022004287010666487 0.00074342133974096363 0 -0.0022168722563658426 0.00068526064163581407 0 -0.0020550461003055282 0.0006030662313404304 0 -0.0021328199522886349 0.00065624742446299274 0 -0.0020430668552511308 0.00067135735959789576 0 -0.0021328199522886349 0.00065624742446299274 0 -0.0020430668552511308 0.00067135735959789576 0 -0.0020758058046455173 0.00072797583526283281 0 -0.0020758058046455173 0.00072797583526283281 0 -0.002141916429226461 0.00077389588698239056 0 -0.0020555002896285699 0.00080220615399635459 0 -0.0020758058046455173 0.00072797583526283281 0 -0.0020555002896285699 0.00080220615399635459 0 -0.0020035660731132191 0.00073563752364524894 0 -0.0020430668552511308 0.00067135735959789576 0 -0.0020758058046455173 0.00072797583526283281 0 -0.0020035660731132191 0.00073563752364524894 0 -0.0021328199522886349 0.00065624742446299274 0 -0.0020758058046455173 0.00072797583526283281 0 -0.002141916429226461 0.00077389588698239056 0 -0.0021328199522886349 0.00065624742446299274 0 -0.002141916429226461 0.00077389588698239056 0 -0.0022004287010666487 0.00074342133974096363 0 -0.002141916429226461 0.00077389588698239056 0 -0.0022004287010666487 0.00074342133974096363 0 -0.0022246375015746453 0.00086381193593131685 0 -0.002141916429226461 0.00077389588698239056 0 -0.0021160412130753004 0.00085653139130208254 0 -0.0022246375015746453 0.00086381193593131685 0 -0.002141916429226461 0.00077389588698239056 0 -0.0020555002896285699 0.00080220615399635459 0 -0.0021160412130753004 0.00085653139130208254 0 -0.0023182144921006374 0.00078039754463729723 0 -0.0023121471415068011 0.00075720068935933229 0 -0.0024531659172630487 0.00082152369740070533 0 -0.0023182144921006374 0.00078039754463729723 0 -0.0022812953039983092 0.00073602057306398048 0 -0.0022941455909606702 0.00084248155717236116 0 -0.0023182144921006374 0.00078039754463729723 0 -0.0023121471415068011 0.00075720068935933229 0 -0.0022812953039983092 0.00073602057306398048 0 -0.0032588516804150638 0.00049069373495978514 0 -0.0033367808839809151 0.00045021576956682439 0 -0.0023182144921006374 0.00078039754463729723 0 -0.0023802859875638569 0.00084618296924003438 0 -0.0023501344659311945 0.00087766080486036374 0 -0.0023182144921006374 0.00078039754463729723 0 -0.0022941455909606702 0.00084248155717236116 0 -0.0023439568233702703 0.00085570213744833403 0 -0.0022698251195682551 0.00074822420923358296 0 -0.0022493636847429411 0.00079677170852289437 0 -0.0022812953039983092 0.00073602057306398048 0 -0.0022246375015746453 0.00086381193593131685 0 -0.0022941455909606702 0.00084248155717236116 0 -0.0022004287010666487 0.00074342133974096363 0 -0.0022596903612760082 0.00076052343883632875 0 -0.0022246375015746453 0.00086381193593131685 0 -0.0022004287010666487 0.00074342133974096363 0 -0.0022596903612760082 0.00076052343883632875 0 -0.0022168722563658426 0.00068526064163581407 0 -0.0022698251195682551 0.00074822420923358296 0 -0.0022999899833441909 0.00067629243270803303 0 -0.0022812953039983092 0.00073602057306398048 0 -0.0023253265361256148 0.00071639865387287537 0 -0.0023123045305725458 0.0006659478177996486 0 -0.0023121471415068011 0.00075720068935933229 0 -0.0023253265361256148 0.00071639865387287537 0 -0.0023492607857555515 0.00074498611540124639 0 -0.0023121471415068011 0.00075720068935933229 0 -0.0022812953039983092 0.00073602057306398048 0 -0.0023253265361256148 0.00071639865387287537 0 -0.0022596903612760082 0.00076052343883632875 0 -0.0022943125996013809 0.00066761575098406192 0 -0.0022168722563658426 0.00068526064163581407 0 -0.0021328199522886349 0.00065624742446299274 0 -0.0022168722563658426 0.00068526064163581407 0 -0.0022135566898800357 0.00063399364587582647 0 -0.0022943125996013809 0.00066761575098406192 0 -0.0022168722563658426 0.00068526064163581407 0 -0.0022135566898800357 0.00063399364587582647 0 -0.0022060098744792981 0.00058620326760776514 0 -0.0022135566898800357 0.00063399364587582647 0 -0.0022640851364732783 0.00060435792676406103 0 -0.0022060098744792981 0.00058620326760776514 0 -0.0021616559585232284 0.00060466783463125119 0 -0.0022135566898800357 0.00063399364587582647 0 -0.0022943125996013809 0.00066761575098406192 0 -0.0022135566898800357 0.00063399364587582647 0 -0.0022640851364732783 0.00060435792676406103 0 -0.00233348698826665 0.0005881865243976479 0 -0.0022943125996013809 0.00066761575098406192 0 -0.0022640851364732783 0.00060435792676406103 0 -0.00233348698826665 0.0005881865243976479 0 -0.0023123045305725458 0.0006659478177996486 0 -0.0023530339782298392 0.00063664630730102462 0 -0.002316733394721709 0.00063630104860685967 0 -0.0022999899833441909 0.00067629243270803303 0 -0.00233348698826665 0.0005881865243976479 0 -0.0023530339782298392 0.00063664630730102462 0 -0.0023809031092840247 0.00060486356973636786 0 -0.0023809031092840247 0.00060486356973636786 0 -0.0023865045790766592 0.00064755001462279678 0 -0.002421177775912282 0.0006244305196203058 0 -0.0023865045790766592 0.00064755001462279678 0 -0.002421177775912282 0.0006244305196203058 0 -0.0024203864824776634 0.00066310198588072074 0 -0.0023530339782298392 0.00063664630730102462 0 -0.0023809031092840247 0.00060486356973636786 0 -0.0023865045790766592 0.00064755001462279678 0 -0.0023865045790766592 0.00064755001462279678 0 -0.0023938853810374964 0.00068493706251602441 0 -0.0023557968030926868 0.00067821709161499223 0 -0.0023865045790766592 0.00064755001462279678 0 -0.0023938853810374964 0.00068493706251602441 0 -0.0024203864824776634 0.00066310198588072074 0 -0.0023938853810374964 0.00068493706251602441 0 -0.0024203864824776634 0.00066310198588072074 0 -0.0024367567186260293 0.00070326577891380933 0 -0.0023938853810374964 0.00068493706251602441 0 -0.0023557968030926868 0.00067821709161499223 0 -0.0023659571528007639 0.00071607705403858033 0 -0.0023253265361256148 0.00071639865387287537 0 -0.0023123045305725458 0.0006659478177996486 0 -0.0023557968030926868 0.00067821709161499223 0 -0.0023123045305725458 0.0006659478177996486 0 -0.0023530339782298392 0.00063664630730102462 0 -0.0023557968030926868 0.00067821709161499223 0 -0.0023530339782298392 0.00063664630730102462 0 -0.0023865045790766592 0.00064755001462279678 0 -0.0023557968030926868 0.00067821709161499223 0 -0.0024597516407519841 0.00060339605099672341 0 -0.002497835564761824 0.00063574481730001981 0 -0.0024597446249545758 0.00064996930549443555 0 -0.0024597516407519841 0.00060339605099672341 0 -0.0024597446249545758 0.00064996930549443555 0 -0.002421177775912282 0.0006244305196203058 0 -0.0024597446249545758 0.00064996930549443555 0 -0.002421177775912282 0.0006244305196203058 0 -0.0024203864824776634 0.00066310198588072074 0 -0.0024597446249545758 0.00064996930549443555 0 -0.0024716962633277934 0.00068050347068140504 0 -0.0024465474535489899 0.00069395741081803252 0 -0.0024597446249545758 0.00064996930549443555 0 -0.0024203864824776634 0.00066310198588072074 0 -0.0024367567186260293 0.00070326577891380933 0 -0.0028503380632205924 0.00080162489312174564 0 -0.0029138075920743132 0.00080595474637928715 0 -0.0024941448347872703 0.00082510078346324366 0 -0.0024995345104945601 0.00102442501536942 0 -0.0025802708269180852 0.00088518706275033299 0 -0.002497835564761824 0.00063574481730001981 0 -0.0024716962633277934 0.00068050347068140504 0 -0.0024981675901180277 0.00069824140251726274 0 -0.0029087775195811511 0.00073784696234109267 0 -0.0032719510100390372 0.00088221322480398594 0 -0.002497835564761824 0.00063574481730001981 0 -0.0024597446249545758 0.00064996930549443555 0 -0.0024716962633277934 0.00068050347068140504 0 -0.0032719510100390372 0.00088221322480398594 0 -0.0037627940863190728 0.0010209553168103068 0 -0.0035973972593008885 0.00081790385101455736 0 -0.0035762111450269446 0.00082926591339545252 0 -0.0035992103848715221 0.00085471722143244547 0 -0.0024716962633277934 0.00068050347068140504 0 -0.0024981675901180277 0.00069824140251726274 0 -0.0024628517165721682 0.00071546784273399989 0 -0.0032719510100390372 0.00088221322480398594 0 -0.0031628913160977328 0.00083083427572030642 0 -0.0024628517165721682 0.00071546784273399989 0 -0.0024465474535489899 0.00069395741081803252 0 -0.002432522901629256 0.0007321869596588653 0 -0.0029138075920743132 0.00080595474637928715 0 -0.0031492935060060284 0.00075709676120864057 0 -0.0024716962633277934 0.00068050347068140504 0 -0.0024628517165721682 0.00071546784273399989 0 -0.0024465474535489899 0.00069395741081803252 0 -0.0031628913160977328 0.00083083427572030642 0 -0.0031492935060060284 0.00075709676120864057 0 -0.0035732157754913172 0.00085282033809309802 0 -0.0035543884818546494 0.00084063849132014667 0 -0.0035445149861247421 0.00086358261596304576 0 -0.0035762111450269446 0.00082926591339545252 0 -0.0035732157754913172 0.00085282033809309802 0 -0.0035543884818546494 0.00084063849132014667 0 -0.0042443670681326026 0.001200415356581325 0 -0.0042481222463644627 0.0012976451491513389 0 -0.0042805785070144983 0.0012711584186507923 0 -0.0035762111450269446 0.00082926591339545252 0 -0.0035732157754913172 0.00085282033809309802 0 -0.0035992103848715221 0.00085471722143244547 0 -0.0023492607857555515 0.00074498611540124639 0 -0.0023659571528007639 0.00071607705403858033 0 -0.0023789049912520915 0.00074302245907393704 0 -0.0023253265361256148 0.00071639865387287537 0 -0.0023492607857555515 0.00074498611540124639 0 -0.0023659571528007639 0.00071607705403858033 0 -0.0023253265361256148 0.00071639865387287537 0 -0.0023557968030926868 0.00067821709161499223 0 -0.0023659571528007639 0.00071607705403858033 0 -0.0023938853810374964 0.00068493706251602441 0 -0.0023659571528007639 0.00071607705403858033 0 -0.0024003784225984717 0.00071782306400350337 0 -0.0024367567186260293 0.00070326577891380933 0 -0.0024003784225984717 0.00071782306400350337 0 -0.0024150139864816331 0.00075397606770246208 0 -0.0023938853810374964 0.00068493706251602441 0 -0.0024367567186260293 0.00070326577891380933 0 -0.0024003784225984717 0.00071782306400350337 0 -0.0024003784225984717 0.00071782306400350337 0 -0.0023789049912520915 0.00074302245907393704 0 -0.0024150139864816331 0.00075397606770246208 0 -0.0023659571528007639 0.00071607705403858033 0 -0.0024003784225984717 0.00071782306400350337 0 -0.0023789049912520915 0.00074302245907393704 0 -0.0023789049912520915 0.00074302245907393704 0 -0.0024150139864816331 0.00075397606770246208 0 -0.0023648064001606408 0.00078030204461549486 0 -0.0031492935060060284 0.00075709676120864057 0 -0.00319594678138671 0.00061611490608824097 0 -0.0032801461244982345 0.00067906268414062764 0 -0.0034595458622532632 0.00058136213070314263 0 -0.0033476489189025091 0.00052360404906359346 0 -0.0031492935060060284 0.00075709676120864057 0 -0.0035422978044928359 0.00068140962719429174 0 -0.00319594678138671 0.00061611490608824097 0 -0.0035422978044928359 0.00068140962719429174 0 -0.0023182144921006374 0.00078039754463729723 0 -0.0024531659172630487 0.00082152369740070533 0 -0.0023802859875638569 0.00084618296924003438 0 -0.0023121471415068011 0.00075720068935933229 0 -0.0023492607857555515 0.00074498611540124639 0 -0.0023648064001606408 0.00078030204461549486 0 -0.00319594678138671 0.00061611490608824097 0 -0.0033624865127339361 0.00049732137428785451 0 -0.0028491345353386212 0.00053713688971748503 0 -0.00319594678138671 0.00061611490608824097 0 -0.0023492607857555515 0.00074498611540124639 0 -0.0023789049912520915 0.00074302245907393704 0 -0.0023648064001606408 0.00078030204461549486 0 -0.0024531659172630487 0.00082152369740070533 0 -0.0023802859875638569 0.00084618296924003438 0 -0.0023955018093439577 0.00085379750620420149 0 -0.0033561419387933074 0.00049595940176328109 0 -0.0033624865127339361 0.00049732137428785451 0 -0.0033624865127339361 0.00049732137428785451 0 -0.003807752679327685 0.00052849537253208973 0 -0.0037837517694971753 0.00056512311140221498 0 -0.0037025945202341995 0.00052333027426021677 0 -0.0038063310140800592 0.00051038088004115828 0 -0.0023802859875638569 0.00084618296924003438 0 -0.0023951726377579937 0.00085362934598377056 0 -0.0023501344659311945 0.00087766080486036374 0 -0.0034964041027090369 0.00041492559679233773 0 -0.0033621543316317034 0.0004873755729448622 0 -0.0036282425644893644 0.00062399783552114939 0 -0.0033624865127339361 0.00049732137428785451 0 -0.0033367808839809151 0.00045021576956682439 0 -0.0037837517694971753 0.00056512311140221498 0 -0.003816835995762925 0.0005474170620798492 0 -0.0038063310140800592 0.00051038088004115828 0 -0.003807752679327685 0.00052849537253208973 0 -0.0041882628089014327 0.00067774475919598102 0 -0.0034964041027090369 0.00041492559679233773 0 -0.0036780633397522334 0.00050888945917076218 0 -0.0036282425644893644 0.00062399783552114939 0 -0.003685378170745891 0.00055140641544577517 0 -0.00363706319605321 0.00066304957228988527 0 -0.0039728800366606526 0.00070001507096003842 0 -0.0035422978044928359 0.00068140962719429174 0 -0.003807752679327685 0.00052849537253208973 0 -0.0049336868154578597 6.9350664851349486e-06 0 -0.0049406993858317691 1.813140600666017e-05 0 -0.0049488811404637574 1.5871927516674939e-05 0 -0.0049336868154578597 6.9350664851349486e-06 0 -0.0049406993858317691 1.813140600666017e-05 0 -0.0049252853319577692 2.5669861273174759e-05 0 -0.0037025945202341995 0.00052333027426021677 0 -0.0037574238984547539 0.00039815449500403305 0 -0.0038063310140800592 0.00051038088004115828 0 -0.0037754059110024045 0.000401206472556748 0 -0.0037574238984547539 0.00039815449500403305 0 -0.0038063310140800592 0.00051038088004115828 0 -0.0040074618239431528 0.0003805221419394359 0 -0.0034784546663231912 0.00046922463469336012 0 -0.003807752679327685 0.00052849537253208973 0 -0.0041424027099511568 0.00034196128405412549 0 -0.0035992103848715221 0.00085471722143244547 0 -0.0035726465253633796 0.00087812134708437084 0 -0.0036012931317622701 0.00089275404073593085 0 -0.0037627940863190728 0.0010209553168103068 0 -0.0041688167315660513 0.0010024296675996682 0 -0.0042481222463644627 0.0012976451491513389 0 -0.0042655282922920423 0.0013440898841699347 0 -0.004251970136129009 0.0013912345348634527 0 -0.0035732157754913172 0.00085282033809309802 0 -0.0035992103848715221 0.00085471722143244547 0 -0.0035726465253633796 0.00087812134708437084 0 -0.003817173044731273 0.00082063065312092543 0 -0.0041688167315660513 0.0010024296675996682 0 -0.0042776981236411753 0.0011398600069869695 0 -0.0042786776116497489 0.0010576171320234103 0 -0.0035732157754913172 0.00085282033809309802 0 -0.0035445149861247421 0.00086358261596304576 0 -0.0035726465253633796 0.00087812134708437084 0 -0.00363706319605321 0.00066304957228988527 0 -0.0039728800366606526 0.00070001507096003842 0 -0.0039496843261210123 0.0008234034675919014 0 -0.0035422978044928359 0.00068140962719429174 0 -0.003817173044731273 0.00082063065312092543 0 -0.0039728800366606526 0.00070001507096003842 0 -0.0039496843261210123 0.0008234034675919014 0 -0.0042599420705023445 0.00084831908515575923 0 -0.0049406993858317691 1.813140600666017e-05 0 -0.0049488811404637574 1.5871927516674939e-05 0 -0.0049524955714583029 2.3177746920997381e-05 0 -0.0049488811404637574 1.5871927516674939e-05 0 -0.0049528199919130766 2.2591133471961081e-05 0 -0.0049524955714583029 2.3177746920997381e-05 0 -0.0041882628089014327 0.00067774475919598102 0 -0.0043024620126121439 0.0008479918463504179 0 -0.0039496843261210123 0.0008234034675919014 0 -0.0042618031615862095 0.0009833435727330652 0 -0.0042599420705023445 0.00084831908515575923 0 -0.0049488811404637574 1.5871927516674939e-05 0 -0.0049536417888783541 2.1977457067642831e-05 0 -0.0049528199919130766 2.2591133471961081e-05 0 -0.0042122481476884934 0.00085065393518245344 0 -0.0042962372675855393 0.00089381973664801506 0 -0.004212017906403966 0.0010417404265757996 0 -0.0043024620126121439 0.0008479918463504179 0 -0.0041688167315660513 0.0010024296675996682 0 -0.0043858464804734584 0.00093540579600981865 0 -0.0042786776116497489 0.0010576171320234103 0 -0.0043858464804734584 0.00093540579600981865 0 -0.0043024620126121439 0.0008479918463504179 0 -0.0042655282922920423 0.0013440898841699347 0 -0.0042662914639749385 0.001398439912625035 0 -0.004251970136129009 0.0013912345348634527 0 -0.0042962372675855393 0.00089381973664801506 0 -0.004212017906403966 0.0010417404265757996 0 -0.0042983755353462778 0.0010864532065641458 0 -0.0042786776116497489 0.0010576171320234103 0 -0.0041688167315660513 0.0010024296675996682 0 -0.0049466537657001713 3.1317461006465145e-05 0 -0.0049515249140544646 2.2478421633403505e-05 0 -0.0049525189643144811 1.302974084622445e-05 0 -0.0043858464804734584 0.00093540579600981865 0 -0.0047541496564110029 0.00070112881948698345 0 -0.0043024620126121439 0.0008479918463504179 0 -0.004345736291304839 0.00064799233455237475 0 -0.0049536417888783541 2.1977457067642831e-05 0 -0.0049515249140544646 2.2478421633403505e-05 0 -0.0049528199919130766 2.2591133471961081e-05 0 -0.0049466537657001713 3.1317461006465145e-05 0 -0.0049491471936088504 3.3117198268138556e-05 0 -0.0049515249140544646 2.2478421633403505e-05 0 -0.0049515249140544646 2.2478421633403505e-05 0 -0.0049528199919130766 2.2591133471961081e-05 0 -0.0049547057084630116 1.6857436555529256e-05 0 -0.0049528199919130766 2.2591133471961081e-05 0 -0.0049524955714583029 2.3177746920997381e-05 0 -0.0049547057084630116 1.6857436555529256e-05 0 -0.004959224834527258 8.7335010008146489e-06 0 -0.0049547057084630116 1.6857436555529256e-05 0 -0.0049590565104502271 8.9162892375595986e-06 0 -0.0049524955714583029 2.3177746920997381e-05 0 -0.004959224834527258 8.7335010008146489e-06 0 -0.004962293866531008 1.1287732147302275e-05 0 -0.0049524955714583029 2.3177746920997381e-05 0 -0.004959224834527258 8.7335010008146489e-06 0 -0.0049547057084630116 1.6857436555529256e-05 0 -0.0049547057084630116 1.6857436555529256e-05 0 -0.0049525189643144811 1.302974084622445e-05 0 -0.0049590565104502271 8.9162892375595986e-06 0 -0.0049515249140544646 2.2478421633403505e-05 0 -0.0049547057084630116 1.6857436555529256e-05 0 -0.0049525189643144811 1.302974084622445e-05 0 -0.0049722038105945842 2.3600995184836859e-05 0 -0.0049655429128035913 1.8942130925536681e-05 0 -0.0049700036734910196 1.0554137328179774e-05 0 -0.005021685354030166 -0.00021283498901860184 0 -0.0049829943672548985 -0.00012356650151820628 0 -0.0049771696164015262 -0.00018579211027171683 0 -0.0041685409397597961 0.00026424646528654393 0 -0.0044095812257289634 0.00016456329531668582 0 -0.0041685409397597961 0.00026424646528654393 0 -0.0044665862875945808 -2.2498963457665926e-05 0 -0.005021685354030166 -0.00021283498901860184 0 -0.005013247801826862 -0.00024100409891705492 0 -0.0049771696164015262 -0.00018579211027171683 0 -0.0041685409397597961 0.00026424646528654393 0 -0.0040074618239431528 0.0003805221419394359 0 -0.0040941738664123286 0.0003989094275142842 0 -0.0041480253460556725 0.00058329326387868033 0 -0.0040234133357727473 0.00056215473588202094 0 -0.0041685409397597961 0.00026424646528654393 0 -0.0041424027099511568 0.00034196128405412549 0 -0.0049722038105945842 2.3600995184836859e-05 0 -0.0049707879843892185 2.6653625858305465e-05 0 -0.0049655429128035913 1.8942130925536681e-05 0 -0.0040074618239431528 0.0003805221419394359 0 -0.0041424027099511568 0.00034196128405412549 0 -0.0049524955714583029 2.3177746920997381e-05 0 -0.0049655429128035913 1.8942130925536681e-05 0 -0.004962293866531008 1.1287732147302275e-05 0 -0.0049524955714583029 2.3177746920997381e-05 0 -0.0049707879843892185 2.6653625858305465e-05 0 -0.0049655429128035913 1.8942130925536681e-05 0 -0.0049406993858317691 1.813140600666017e-05 0 -0.0049524955714583029 2.3177746920997381e-05 0 -0.0049252853319577692 2.5669861273174759e-05 0 -0.0047041894148883443 0.00030439371135169621 0 -0.0041424027099511568 0.00034196128405412549 0 -0.004962293866531008 1.1287732147302275e-05 0 -0.0049700036734910196 1.0554137328179774e-05 0 -0.0049634414445409265 -5.7276132928736285e-06 0 -0.0049655429128035913 1.8942130925536681e-05 0 -0.004962293866531008 1.1287732147302275e-05 0 -0.0049700036734910196 1.0554137328179774e-05 0 -0.0049460202919062802 -5.9748646620143719e-05 0 -0.0049546729381750058 -4.0492202224530136e-05 0 -0.0049399376052745138 -4.2441939722256291e-05 0 -0.0049546729381750058 -4.0492202224530136e-05 0 -0.0049399376052745138 -4.2441939722256291e-05 0 -0.0049459001394019609 -2.645416663044987e-05 0 -0.0049829943672548985 -0.00012356650151820628 0 -0.0049126174165647967 -9.6520223865554882e-05 0 -0.0049337488276147284 -3.2821130847627536e-05 0 -0.0044665862875945808 -2.2498963457665926e-05 0 -0.0045433765984250751 -7.7154586702718215e-05 0 -0.0049126174165647967 -9.6520223865554882e-05 0 -0.0049375436997552355 -0.00014786294622904541 0 -0.0048651616587960852 -0.00013922318240915826 0 -0.0049829943672548985 -0.00012356650151820628 0 -0.0049375436997552355 -0.00014786294622904541 0 -0.0049771696164015262 -0.00018579211027171683 0 -0.0049829943672548985 -0.00012356650151820628 0 -0.0049126174165647967 -9.6520223865554882e-05 0 -0.0049375436997552355 -0.00014786294622904541 0 -0.0049375436997552355 -0.00014786294622904541 0 -0.0049771696164015262 -0.00018579211027171683 0 -0.0049297424912098462 -0.00020231882451765513 0 -0.005013247801826862 -0.00024100409891705492 0 -0.0049297424912098462 -0.00020231882451765513 0 -0.0048637090156481788 -0.00027445002969894288 0 -0.0049375436997552355 -0.00014786294622904541 0 -0.0049297424912098462 -0.00020231882451765513 0 -0.0048651616587960852 -0.00013922318240915826 0 -0.005013247801826862 -0.00024100409891705492 0 -0.0049771696164015262 -0.00018579211027171683 0 -0.0049297424912098462 -0.00020231882451765513 0 -0.0049297424912098462 -0.00020231882451765513 0 -0.0048251687877158356 -0.00020332261195310744 0 -0.0048651616587960852 -0.00013922318240915826 0 -0.0049297424912098462 -0.00020231882451765513 0 -0.0048251687877158356 -0.00020332261195310744 0 -0.0048637090156481788 -0.00027445002969894288 0 -0.0048251687877158356 -0.00020332261195310744 0 -0.0047474407268657788 -0.00024019734445644629 0 -0.0048637090156481788 -0.00027445002969894288 0 -0.0048251687877158356 -0.00020332261195310744 0 -0.0048651616587960852 -0.00013922318240915826 0 -0.0048019656293877095 -0.00015207684958641488 0 -0.0048651616587960852 -0.00013922318240915826 0 -0.0048098989121393041 -0.0001028201256754272 0 -0.0048019656293877095 -0.00015207684958641488 0 -0.0049126174165647967 -9.6520223865554882e-05 0 -0.0048651616587960852 -0.00013922318240915826 0 -0.0048582945491909869 -7.9823080470759936e-05 0 -0.0048651616587960852 -0.00013922318240915826 0 -0.0048582945491909869 -7.9823080470759936e-05 0 -0.0048098989121393041 -0.0001028201256754272 0 -0.0048582945491909869 -7.9823080470759936e-05 0 -0.0048098989121393041 -0.0001028201256754272 0 -0.0048124293947119038 -5.8612969963934761e-05 0 -0.0048098989121393041 -0.0001028201256754272 0 -0.0047776244073152868 -8.251731752346566e-05 0 -0.0048124293947119038 -5.8612969963934761e-05 0 -0.0048098989121393041 -0.0001028201256754272 0 -0.0047776244073152868 -8.251731752346566e-05 0 -0.0047623891586741204 -0.00012358768643406552 0 -0.0047776244073152868 -8.251731752346566e-05 0 -0.004737659170588937 -8.0532394618308646e-05 0 -0.0047623891586741204 -0.00012358768643406552 0 -0.004737659170588937 -8.0532394618308646e-05 0 -0.0047623891586741204 -0.00012358768643406552 0 -0.0047221541069710302 -0.00016261625042507749 0 -0.0047623891586741204 -0.00012358768643406552 0 -0.0047221541069710302 -0.00016261625042507749 0 -0.0047544249763448671 -0.00018031808261841111 0 -0.0047623891586741204 -0.00012358768643406552 0 -0.0048019656293877095 -0.00015207684958641488 0 -0.0047544249763448671 -0.00018031808261841111 0 -0.0048098989121393041 -0.0001028201256754272 0 -0.0047623891586741204 -0.00012358768643406552 0 -0.0048019656293877095 -0.00015207684958641488 0 -0.004737659170588937 -8.0532394618308646e-05 0 -0.0047221541069710302 -0.00016261625042507749 0 -0.0046438431655788344 -0.00022439669514188993 0 -0.0046967105702090837 -3.0984308904592091e-05 0 -0.004622498129030669 -0.00014064572559231497 0 -0.0046438431655788344 -0.00022439669514188993 0 -0.0047056685064224045 -3.6045551512548403e-05 0 -0.0046749588910441646 -0.00013164154207882171 0 -0.004582095093273229 -5.6354908547379958e-05 0 -0.004627496857821909 -7.5106862162937027e-05 0 -0.0045865963182945861 -0.00010235240399834717 0 -0.004582095093273229 -5.6354908547379958e-05 0 -0.0046312490385894056 -3.1707344377122345e-05 0 -0.0045844794250686416 -9.5940866422434828e-06 0 -0.004582095093273229 -5.6354908547379958e-05 0 -0.0046312490385894056 -3.1707344377122345e-05 0 -0.004627496857821909 -7.5106862162937027e-05 0 -0.0046967105702090837 -3.0984308904592091e-05 0 -0.004627496857821909 -7.5106862162937027e-05 0 -0.004622498129030669 -0.00014064572559231497 0 -0.0046967105702090837 -3.0984308904592091e-05 0 -0.0046312490385894056 -3.1707344377122345e-05 0 -0.004627496857821909 -7.5106862162937027e-05 0 -0.004627496857821909 -7.5106862162937027e-05 0 -0.004622498129030669 -0.00014064572559231497 0 -0.0045865963182945861 -0.00010235240399834717 0 -0.004622498129030669 -0.00014064572559231497 0 -0.0045865963182945861 -0.00010235240399834717 0 -0.0045625838780299043 -0.00014597005361678507 0 -0.004622498129030669 -0.00014064572559231497 0 -0.0046186222463169401 -0.00019661829246226572 0 -0.0046438431655788344 -0.00022439669514188993 0 -0.004622498129030669 -0.00014064572559231497 0 -0.0045821785336925885 -0.00017487148076376563 0 -0.0045625838780299043 -0.00014597005361678507 0 -0.004622498129030669 -0.00014064572559231497 0 -0.0045821785336925885 -0.00017487148076376563 0 -0.0046186222463169401 -0.00019661829246226572 0 -0.0047221541069710302 -0.00016261625042507749 0 -0.0046438431655788344 -0.00022439669514188993 0 -0.0047112296342987497 -0.00020708848308087084 0 -0.0046438431655788344 -0.00022439669514188993 0 -0.0046957459159719592 -0.00024414992521353831 0 -0.0047112296342987497 -0.00020708848308087084 0 -0.0048251687877158356 -0.00020332261195310744 0 -0.0048019656293877095 -0.00015207684958641488 0 -0.0047544249763448671 -0.00018031808261841111 0 -0.0048251687877158356 -0.00020332261195310744 0 -0.0047544249763448671 -0.00018031808261841111 0 -0.0047474407268657788 -0.00024019734445644629 0 -0.0047544249763448671 -0.00018031808261841111 0 -0.0047112296342987497 -0.00020708848308087084 0 -0.0047474407268657788 -0.00024019734445644629 0 -0.0047221541069710302 -0.00016261625042507749 0 -0.0047544249763448671 -0.00018031808261841111 0 -0.0047112296342987497 -0.00020708848308087084 0 -0.0046957459159719592 -0.00024414992521353831 0 -0.0047112296342987497 -0.00020708848308087084 0 -0.0047474407268657788 -0.00024019734445644629 0 -0.0021078846275158843 0.00095567300374957626 0 -0.0022246375015746453 0.00086381193593131685 0 -0.0022436196841394925 0.00097941034230340936 0 -0.0033828706659019539 0.00033236057244807394 0 -0.0035973343384915449 0.00034485852286757316 0 -0.0047474407268657788 -0.00024019734445644629 0 -0.0046862699307698161 -0.0003212704130044642 0 -0.0048637090156481788 -0.00027445002969894288 0 -0.0046957459159719592 -0.00024414992521353831 0 -0.0047474407268657788 -0.00024019734445644629 0 -0.0046862699307698161 -0.0003212704130044642 0 -0.0021078846275158843 0.00095567300374957626 0 -0.0020496725209078626 0.00088572365321370312 0 -0.0019761054665574456 0.0009358635635082032 0 -0.0046438431655788344 -0.00022439669514188993 0 -0.0046862699307698161 -0.0003212704130044642 0 -0.004467862587424566 -0.00035893620425192041 0 -0.0046438431655788344 -0.00022439669514188993 0 -0.0046957459159719592 -0.00024414992521353831 0 -0.0046862699307698161 -0.0003212704130044642 0 -0.0020555002896285699 0.00080220615399635459 0 -0.0021160412130753004 0.00085653139130208254 0 -0.0020496725209078626 0.00088572365321370312 0 -0.0021078846275158843 0.00095567300374957626 0 -0.0021160412130753004 0.00085653139130208254 0 -0.0020496725209078626 0.00088572365321370312 0 -0.0021078846275158843 0.00095567300374957626 0 -0.0021160412130753004 0.00085653139130208254 0 -0.0022246375015746453 0.00086381193593131685 0 -0.0022246375015746453 0.00086381193593131685 0 -0.0022908000835786748 0.00091202415996184552 0 -0.0022436196841394925 0.00097941034230340936 0 -0.0022246375015746453 0.00086381193593131685 0 -0.0022941455909606702 0.00084248155717236116 0 -0.0022908000835786748 0.00091202415996184552 0 -0.0022941455909606702 0.00084248155717236116 0 -0.0023439568233702703 0.00085570213744833403 0 -0.0023562743158960118 0.00089356809962866639 0 -0.0033367808839809151 0.00045021576956682439 0 -0.0034784546663231912 0.00046922463469336012 0 -0.0023562743158960118 0.00089356809962866639 0 -0.0022908000835786748 0.00091202415996184552 0 -0.0023205470793513567 0.00094770926959635818 0 -0.0022941455909606702 0.00084248155717236116 0 -0.0023562743158960118 0.00089356809962866639 0 -0.0022908000835786748 0.00091202415996184552 0 -0.0023923064489805601 0.0010052476271543893 0 -0.0023562743158960118 0.00089356809962866639 0 -0.0023205470793513567 0.00094770926959635818 0 -0.0023923064489805601 0.0010052476271543893 0 -0.0023205470793513567 0.00094770926959635818 0 -0.0022436196841394925 0.00097941034230340936 0 -0.0022908000835786748 0.00091202415996184552 0 -0.0023205470793513567 0.00094770926959635818 0 -0.0022436196841394925 0.00097941034230340936 0 -0.0040074618239431528 0.0003805221419394359 0 -0.0035973343384915449 0.00034485852286757316 0 -0.0038058635871094514 0.00093477378358037102 0 -0.0037806092362397087 0.00099141162777049313 0 -0.0037322990436517251 0.00094790102619882503 0 -0.0037806092362397087 0.00099141162777049313 0 -0.0037311675886001856 0.0009924868087476306 0 -0.0037322990436517251 0.00094790102619882503 0 -0.0037311675886001856 0.0009924868087476306 0 -0.0036613779934306628 0.00095499002541948928 0 -0.003688124787155151 0.00099459829258060858 0 -0.0037311675886001856 0.0009924868087476306 0 -0.0036613779934306628 0.00095499002541948928 0 -0.0037322990436517251 0.00094790102619882503 0 -0.0036613779934306628 0.00095499002541948928 0 -0.0037322990436517251 0.00094790102619882503 0 -0.0036779215946330583 0.00090955800326564761 0 -0.0036613779934306628 0.00095499002541948928 0 -0.0036779215946330583 0.00090955800326564761 0 -0.0035783860346166366 0.00092731423947788364 0 -0.0038058635871094514 0.00093477378358037102 0 -0.0037322990436517251 0.00094790102619882503 0 -0.0037585965621518384 0.00088379109260802757 0 -0.0037322990436517251 0.00094790102619882503 0 -0.0037585965621518384 0.00088379109260802757 0 -0.0036779215946330583 0.00090955800326564761 0 -0.0037585965621518384 0.00088379109260802757 0 -0.0036947058201652304 0.00078946098930854976 0 -0.0036779215946330583 0.00090955800326564761 0 -0.0037873394794231082 0.00080505025793618443 0 -0.0037585965621518384 0.00088379109260802757 0 -0.0036947058201652304 0.00078946098930854976 0 -0.0036947058201652304 0.00078946098930854976 0 -0.0035489469047816869 0.00077791821710272789 0 -0.0036779215946330583 0.00090955800326564761 0 -0.0035937384573989442 0.00061691919324999723 0 -0.0036947058201652304 0.00078946098930854976 0 -0.0035489469047816869 0.00077791821710272789 0 -0.0035489469047816869 0.00077791821710272789 0 -0.0036779215946330583 0.00090955800326564761 0 -0.0035783860346166366 0.00092731423947788364 0 -0.0035783860346166366 0.00092731423947788364 0 -0.003318289342439234 0.00078405749184663157 0 -0.0032640759478851861 0.0010294610408324298 0 -0.0034936004728050672 0.00098450985633379701 0 -0.0034470875645157776 0.00099898987000700658 0 -0.0035489469047816869 0.00077791821710272789 0 -0.0035783860346166366 0.00092731423947788364 0 -0.003318289342439234 0.00078405749184663157 0 -0.003318289342439234 0.00078405749184663157 0 -0.0032640759478851861 0.0010294610408324298 0 -0.0030906411265841649 0.0009037471508735465 0 -0.0036313960651804438 0.00094655415959645677 0 -0.003639720969152748 0.00095191103369931856 0 -0.0036245749466107756 0.00095908466931670191 0 -0.0035783860346166366 0.00092731423947788364 0 -0.0036313960651804438 0.00094655415959645677 0 -0.003639720969152748 0.00095191103369931856 0 -0.0036613779934306628 0.00095499002541948928 0 -0.0035783860346166366 0.00092731423947788364 0 -0.003639720969152748 0.00095191103369931856 0 -0.0036613779934306628 0.00095499002541948928 0 -0.003639720969152748 0.00095191103369931856 0 -0.003688124787155151 0.00099459829258060858 0 -0.003639720969152748 0.00095191103369931856 0 -0.0036388401863848823 0.000979176646712691 0 -0.0036245749466107756 0.00095908466931670191 0 -0.003639720969152748 0.00095191103369931856 0 -0.0036388401863848823 0.000979176646712691 0 -0.003688124787155151 0.00099459829258060858 0 -0.0036178580156571291 0.0009779362707414167 0 -0.0036000839821313069 0.00096515607859595624 0 -0.0036245749466107756 0.00095908466931670191 0 -0.0036388401863848823 0.000979176646712691 0 -0.0036178580156571291 0.0009779362707414167 0 -0.0036245749466107756 0.00095908466931670191 0 -0.0036388401863848823 0.000979176646712691 0 -0.0036178580156571291 0.0009779362707414167 0 -0.0036269818185507867 0.00099669961089090512 0 -0.0036178580156571291 0.0009779362707414167 0 -0.0035982926616007576 0.00098952013738191924 0 -0.0036000839821313069 0.00096515607859595624 0 -0.0036178580156571291 0.0009779362707414167 0 -0.0035982926616007576 0.00098952013738191924 0 -0.0036269818185507867 0.00099669961089090512 0 -0.0039343023009333518 0.0012259106321676554 0 -0.0039614096875107158 0.0012535471471995122 0 -0.0039491874809070926 0.0012209948920438474 0 -0.0037813313160584652 0.0011109979999019608 0 -0.0038044956414925277 0.0011271567580050685 0 -0.0035982926616007576 0.00098952013738191924 0 -0.0036000839821313069 0.00096515607859595624 0 -0.0035787000205665569 0.00096279362137433001 0 -0.0034108876082907589 0.0010198818950054611 0 -0.0036307303760784635 0.0010117155391501094 0 -0.0036000839821313069 0.00096515607859595624 0 -0.0036071460708228106 0.0009452047091708046 0 -0.0035787000205665569 0.00096279362137433001 0 -0.0036071460708228106 0.0009452047091708046 0 -0.0035738339802372297 0.00094937652115684049 0 -0.0035787000205665569 0.00096279362137433001 0 -0.0036313960651804438 0.00094655415959645677 0 -0.0036071460708228106 0.0009452047091708046 0 -0.0036245749466107756 0.00095908466931670191 0 -0.0036000839821313069 0.00096515607859595624 0 -0.0036071460708228106 0.0009452047091708046 0 -0.0036245749466107756 0.00095908466931670191 0 -0.0034470875645157776 0.00099898987000700658 0 -0.0034108876082907589 0.0010198818950054611 0 -0.0032640759478851861 0.0010294610408324298 0 -0.0029945377967446683 0.0010777898706953025 0 -0.0030906411265841649 0.0009037471508735465 0 -0.0030906411265841649 0.0009037471508735465 0 -0.0030601989740643761 0.00074070664057559511 0 -0.0029317642629322484 0.00081592564855593205 0 -0.003318289342439234 0.00078405749184663157 0 -0.0030906411265841649 0.0009037471508735465 0 -0.0030601989740643761 0.00074070664057559511 0 -0.0030906411265841649 0.0009037471508735465 0 -0.0029317642629322484 0.00081592564855593205 0 -0.0028957360826224994 0.0009390494310578259 0 -0.0028082950588533659 0.00072293337989038601 0 -0.0029317642629322484 0.00081592564855593205 0 -0.0028303567655379018 0.00085092879807583234 0 -0.0029317642629322484 0.00081592564855593205 0 -0.0028303567655379018 0.00085092879807583234 0 -0.0028957360826224994 0.0009390494310578259 0 -0.0029945377967446683 0.0010777898706953025 0 -0.0027924564387640468 0.001010629169803221 0 -0.0027453025232126566 0.001114978140826143 0 -0.0029945377967446683 0.0010777898706953025 0 -0.0030906411265841649 0.0009037471508735465 0 -0.0028957360826224994 0.0009390494310578259 0 -0.0028303567655379018 0.00085092879807583234 0 -0.0028957360826224994 0.0009390494310578259 0 -0.0027662663149270431 0.00091368086152342134 0 -0.0029945377967446683 0.0010777898706953025 0 -0.0028957360826224994 0.0009390494310578259 0 -0.0027924564387640468 0.001010629169803221 0 -0.0027924564387640468 0.001010629169803221 0 -0.0026870656588271645 0.00095754538531506335 0 -0.0027453025232126566 0.001114978140826143 0 -0.0043343000694608929 0.001151863889046766 0 -0.0043295953698821565 0.0012118881699704237 0 -0.0043550017686328343 0.0012074535368383418 0 -0.0034830015874584546 0.0010131848990722031 0 -0.0036307303760784635 0.0010117155391501094 0 -0.002694632618466317 0.00095163246627790398 0 -0.0027662663149270431 0.00091368086152342134 0 -0.0026515441983597518 0.00082158292038274198 0 -0.0034830015874584546 0.0010131848990722031 0 -0.003423462218991296 0.001032490836736196 0 -0.0027924564387640468 0.001010629169803221 0 -0.0026870656588271645 0.00095754538531506335 0 -0.0027662663149270431 0.00091368086152342134 0 -0.0028957360826224994 0.0009390494310578259 0 -0.0027924564387640468 0.001010629169803221 0 -0.0027662663149270431 0.00091368086152342134 0 -0.0026319451161890065 0.000653668663097841 0 -0.0027432221955112387 0.00079755237643670113 0 -0.0026515441983597518 0.00082158292038274198 0 -0.0028303567655379018 0.00085092879807583234 0 -0.0027662663149270431 0.00091368086152342134 0 -0.0027432221955112387 0.00079755237643670113 0 -0.0034830015874584546 0.0010131848990722031 0 -0.0034050658170853829 0.00093719927851162988 0 -0.0027662663149270431 0.00091368086152342134 0 -0.0027432221955112387 0.00079755237643670113 0 -0.0026515441983597518 0.00082158292038274198 0 -0.0028082950588533659 0.00072293337989038601 0 -0.0028303567655379018 0.00085092879807583234 0 -0.0027432221955112387 0.00079755237643670113 0 -0.0024941448347872703 0.00082510078346324366 0 -0.002566856126466995 0.00074408533556666811 0 -0.0025802708269180852 0.00088518706275033299 0 -0.002566856126466995 0.00074408533556666811 0 -0.0026515441983597518 0.00082158292038274198 0 -0.0025802708269180852 0.00088518706275033299 0 -0.0026319451161890065 0.000653668663097841 0 -0.002566856126466995 0.00074408533556666811 0 -0.0026515441983597518 0.00082158292038274198 0 -0.0024995345104945601 0.00102442501536942 0 -0.0026899951781821324 0.00092016075680878735 0 -0.0025802708269180852 0.00088518706275033299 0 -0.0042443670681326026 0.001200415356581325 0 -0.0043343000694608929 0.001151863889046766 0 -0.0042999058536046771 0.0012063483198604802 0 -0.0032719510100390372 0.00088221322480398594 0 -0.0034830015874584546 0.0010131848990722031 0 -0.0026899951781821324 0.00092016075680878735 0 -0.0026515441983597518 0.00082158292038274198 0 -0.0025802708269180852 0.00088518706275033299 0 -0.0043343000694608929 0.001151863889046766 0 -0.0042999058536046771 0.0012063483198604802 0 -0.0043295953698821565 0.0012118881699704237 0 -0.0042443670681326026 0.001200415356581325 0 -0.0043007340023222974 0.0012453170030716817 0 -0.0042999058536046771 0.0012063483198604802 0 -0.0042443670681326026 0.001200415356581325 0 -0.0043007340023222974 0.0012453170030716817 0 -0.0042805785070144983 0.0012711584186507923 0 -0.0043007340023222974 0.0012453170030716817 0 -0.004317813195339297 0.0012306504950285657 0 -0.0042999058536046771 0.0012063483198604802 0 -0.0043226280095129263 0.0012520487539078742 0 -0.0043007340023222974 0.0012453170030716817 0 -0.004317813195339297 0.0012306504950285657 0 -0.004317813195339297 0.0012306504950285657 0 -0.0042999058536046771 0.0012063483198604802 0 -0.0043295953698821565 0.0012118881699704237 0 -0.0036791827017230408 0.0010097656987765079 0 -0.0036307303760784635 0.0010117155391501094 0 -0.0043295953698821565 0.0012118881699704237 0 -0.0043575511536740295 0.0012072981067112961 0 -0.004346615010333058 0.0012228976438474566 0 -0.0043575511536740295 0.0012072981067112961 0 -0.0043618920717138398 0.0012343126217204963 0 -0.004346615010333058 0.0012228976438474566 0 -0.0043575511536740295 0.0012072981067112961 0 -0.0043618920717138398 0.0012343126217204963 0 -0.0043717976550071468 0.0012451243616650087 0 -0.0036307303760784635 0.0010117155391501094 0 -0.0038044956414925277 0.0011271567580050685 0 -0.0043618920717138398 0.0012343126217204963 0 -0.0043729714657244042 0.0012454657080582399 0 -0.0043546735556585434 0.0012504784462064665 0 -0.0038125779498206598 0.0011331960004304982 0 -0.0038044956414925277 0.0011271567580050685 0 -0.004317813195339297 0.0012306504950285657 0 -0.0043295953698821565 0.0012118881699704237 0 -0.0043365652590656167 0.0012380262121530399 0 -0.0043295953698821565 0.0012118881699704237 0 -0.004346615010333058 0.0012228976438474566 0 -0.0043365652590656167 0.0012380262121530399 0 -0.0043618920717138398 0.0012343126217204963 0 -0.004346615010333058 0.0012228976438474566 0 -0.0043365652590656167 0.0012380262121530399 0 -0.0043546735556585434 0.0012504784462064665 0 -0.0043365652590656167 0.0012380262121530399 0 -0.004341799680259599 0.0012642377735021207 0 -0.0043618920717138398 0.0012343126217204963 0 -0.0043546735556585434 0.0012504784462064665 0 -0.0043365652590656167 0.0012380262121530399 0 -0.0043226280095129263 0.0012520487539078742 0 -0.004317813195339297 0.0012306504950285657 0 -0.0043365652590656167 0.0012380262121530399 0 -0.0043226280095129263 0.0012520487539078742 0 -0.0043365652590656167 0.0012380262121530399 0 -0.004341799680259599 0.0012642377735021207 0 -0.004341799680259599 0.0012642377735021207 0 -0.0043513476604906572 0.0012886806177642362 0 -0.0043191703407324663 0.0012841542497630154 0 -0.0043729714657244042 0.0012454657080582399 0 -0.0043750703325224367 0.0012917604052605884 0 -0.004403159844531478 0.0013281236811645803 0 -0.0038044956414925277 0.0011271567580050685 0 -0.0040398375129679373 0.0012820250577301382 0 -0.0043226280095129263 0.0012520487539078742 0 -0.004341799680259599 0.0012642377735021207 0 -0.0043191703407324663 0.0012841542497630154 0 -0.0043546735556585434 0.0012504784462064665 0 -0.004341799680259599 0.0012642377735021207 0 -0.0043594790446975697 0.0012683551330652438 0 -0.004341799680259599 0.0012642377735021207 0 -0.0043594790446975697 0.0012683551330652438 0 -0.0043513476604906572 0.0012886806177642362 0 -0.0043729714657244042 0.0012454657080582399 0 -0.0043594790446975697 0.0012683551330652438 0 -0.0043750703325224367 0.0012917604052605884 0 -0.0043729714657244042 0.0012454657080582399 0 -0.0043546735556585434 0.0012504784462064665 0 -0.0043594790446975697 0.0012683551330652438 0 -0.0043594790446975697 0.0012683551330652438 0 -0.0043750703325224367 0.0012917604052605884 0 -0.0043513476604906572 0.0012886806177642362 0 -0.0043750703325224367 0.0012917604052605884 0 -0.0043797028994618566 0.001316029261623245 0 -0.004403159844531478 0.0013281236811645803 0 -0.0043750703325224367 0.0012917604052605884 0 -0.0043651103406918638 0.0013099348058414498 0 -0.0043513476604906572 0.0012886806177642362 0 -0.0043750703325224367 0.0012917604052605884 0 -0.0043651103406918638 0.0013099348058414498 0 -0.0043797028994618566 0.001316029261623245 0 -0.0043445231504612783 0.0013165225515362582 0 -0.0043197332604736271 0.0013158207022969958 0 -0.0043191703407324663 0.0012841542497630154 0 -0.0043513476604906572 0.0012886806177642362 0 -0.0043445231504612783 0.0013165225515362582 0 -0.0043191703407324663 0.0012841542497630154 0 -0.0043651103406918638 0.0013099348058414498 0 -0.0043513476604906572 0.0012886806177642362 0 -0.0043445231504612783 0.0013165225515362582 0 -0.0042805785070144983 0.0012711584186507923 0 -0.0043191703407324663 0.0012841542497630154 0 -0.0042921439571200195 0.0013164983082686399 0 -0.0043197332604736271 0.0013158207022969958 0 -0.0043191703407324663 0.0012841542497630154 0 -0.0042921439571200195 0.0013164983082686399 0 -0.0042481222463644627 0.0012976451491513389 0 -0.0042805785070144983 0.0012711584186507923 0 -0.0042921439571200195 0.0013164983082686399 0 -0.0043226280095129263 0.0012520487539078742 0 -0.0043007340023222974 0.0012453170030716817 0 -0.0043191703407324663 0.0012841542497630154 0 -0.0043007340023222974 0.0012453170030716817 0 -0.0042805785070144983 0.0012711584186507923 0 -0.0043191703407324663 0.0012841542497630154 0 -0.0043025846611526109 0.0013557447536418409 0 -0.004323241923760864 0.0013401098806353146 0 -0.004329703534414195 0.0013659762293641844 0 -0.0043025846611526109 0.0013557447536418409 0 -0.004329703534414195 0.0013659762293641844 0 -0.0043163715907168628 0.0013866636815292974 0 -0.0043025846611526109 0.0013557447536418409 0 -0.0042870482084547065 0.0013767267199755481 0 -0.0043163715907168628 0.0013866636815292974 0 -0.0042655282922920423 0.0013440898841699347 0 -0.0042672984819474482 0.0014024585269307418 0 -0.0042870482084547065 0.0013767267199755481 0 -0.0042655282922920423 0.0013440898841699347 0 -0.0043025846611526109 0.0013557447536418409 0 -0.0042870482084547065 0.0013767267199755481 0 -0.0042655282922920423 0.0013440898841699347 0 -0.0043025846611526109 0.0013557447536418409 0 -0.0042921439571200195 0.0013164983082686399 0 -0.0042481222463644627 0.0012976451491513389 0 -0.0042655282922920423 0.0013440898841699347 0 -0.0042921439571200195 0.0013164983082686399 0 -0.0043025846611526109 0.0013557447536418409 0 -0.0042921439571200195 0.0013164983082686399 0 -0.004323241923760864 0.0013401098806353146 0 -0.0043197332604736271 0.0013158207022969958 0 -0.0042921439571200195 0.0013164983082686399 0 -0.004323241923760864 0.0013401098806353146 0 -0.0043445231504612783 0.0013165225515362582 0 -0.0043197332604736271 0.0013158207022969958 0 -0.004323241923760864 0.0013401098806353146 0 -0.0043445231504612783 0.0013165225515362582 0 -0.004323241923760864 0.0013401098806353146 0 -0.0043462621496006947 0.0013505118698874349 0 -0.0043445231504612783 0.0013165225515362582 0 -0.0043750932356938083 0.0013370685245479273 0 -0.0043462621496006947 0.0013505118698874349 0 -0.0043797028994618566 0.001316029261623245 0 -0.0043750932356938083 0.0013370685245479273 0 -0.004403159844531478 0.0013281236811645803 0 -0.0043651103406918638 0.0013099348058414498 0 -0.0043445231504612783 0.0013165225515362582 0 -0.0043750932356938083 0.0013370685245479273 0 -0.0043651103406918638 0.0013099348058414498 0 -0.0043797028994618566 0.001316029261623245 0 -0.0043750932356938083 0.0013370685245479273 0 -0.0043462621496006947 0.0013505118698874349 0 -0.004329703534414195 0.0013659762293641844 0 -0.0043575141500829277 0.0013874814684569222 0 -0.0043750932356938083 0.0013370685245479273 0 -0.0043462621496006947 0.0013505118698874349 0 -0.0043575141500829277 0.0013874814684569222 0 -0.004323241923760864 0.0013401098806353146 0 -0.0043462621496006947 0.0013505118698874349 0 -0.004329703534414195 0.0013659762293641844 0 -0.0043575141500829277 0.0013874814684569222 0 -0.0043907491635637765 0.0014179456929488377 0 -0.0043306591155533045 0.0014301054410656175 0 -0.004329703534414195 0.0013659762293641844 0 -0.0043575141500829277 0.0013874814684569222 0 -0.0043163715907168628 0.0013866636815292974 0 -0.0043750932356938083 0.0013370685245479273 0 -0.0043575141500829277 0.0013874814684569222 0 -0.0043907491635637765 0.0014179456929488377 0 -0.0043575141500829277 0.0013874814684569222 0 -0.0043306591155533045 0.0014301054410656175 0 -0.0043163715907168628 0.0013866636815292974 0 -0.0043907491635637765 0.0014179456929488377 0 -0.0043306591155533045 0.0014301054410656175 0 -0.0043933755163466709 0.0014465438176338439 0 -0.0043306591155533045 0.0014301054410656175 0 -0.0043004209309632849 0.0013990895175683483 0 -0.0043163715907168628 0.0013866636815292974 0 -0.0042870482084547065 0.0013767267199755481 0 -0.0043004209309632849 0.0013990895175683483 0 -0.0043163715907168628 0.0013866636815292974 0 -0.0042672984819474482 0.0014024585269307418 0 -0.0042870482084547065 0.0013767267199755481 0 -0.0043004209309632849 0.0013990895175683483 0 -0.0042786776116497489 0.0010576171320234103 0 -0.0043667184651839672 0.0011854982879182302 0 -0.0043450413496415544 0.0014330086265030917 0 -0.0043448368363229383 0.0014172088431934939 0 -0.0043721433604172136 0.0014325801612734672 0 -0.0042672984819474482 0.0014024585269307418 0 -0.0043306591155533045 0.0014301054410656175 0 -0.0043004209309632849 0.0013990895175683483 0 -0.0043858464804734584 0.00093540579600981865 0 -0.0046089742167204828 0.0012591014585295881 0 -0.0052103380537193702 0.0018244187306644239 0 -0.0050728521668084404 0.001598520557146416 0 -0.0048299526108572599 0.0016333044841509632 0 -0.0043450413496415544 0.0014330086265030917 0 -0.0043721433604172136 0.0014325801612734672 0 -0.0043858188631377562 0.0014550208679971418 0 -0.0052103380537193702 0.0018244187306644239 0 -0.005213001433643432 0.0013759605328072637 0 -0.0050728521668084404 0.001598520557146416 0 -0.0050728521668084404 0.001598520557146416 0 -0.0049276883389018115 0.0014473829828540242 0 -0.0048299526108572599 0.0016333044841509632 0 -0.005213001433643432 0.0013759605328072637 0 -0.0050728521668084404 0.001598520557146416 0 -0.0049276883389018115 0.0014473829828540242 0 -0.005213001433643432 0.0013759605328072637 0 -0.0049276883389018115 0.0014473829828540242 0 -0.0048003700025813691 0.0012294856640274298 0 -0.0047082908072618238 0.0013925372709120063 0 -0.0045907588368503871 0.001250113264179221 0 -0.0048003700025813691 0.0012294856640274298 0 -0.0047082908072618238 0.0013925372709120063 0 -0.0049276883389018115 0.0014473829828540242 0 -0.0048003700025813691 0.0012294856640274298 0 -0.0047082908072618238 0.0013925372709120063 0 -0.0049276883389018115 0.0014473829828540242 0 -0.0048299526108572599 0.0016333044841509632 0 -0.0043858188631377562 0.0014550208679971418 0 -0.0043933755163466709 0.0014465438176338439 0 -0.0044102501832684301 0.0014447107616958254 0 -0.0043667184651839672 0.0011854982879182302 0 -0.0043930645885438798 0.001224404121714995 0 -0.0043721433604172136 0.0014325801612734672 0 -0.0043858188631377562 0.0014550208679971418 0 -0.0043933755163466709 0.0014465438176338439 0 -0.0043907491635637765 0.0014179456929488377 0 -0.0043933755163466709 0.0014465438176338439 0 -0.004406891947263303 0.0014397423432317264 0 -0.004406891947263303 0.0014397423432317264 0 -0.0043869866304183667 0.001465993709469877 0 -0.0044229400234414018 0.0014134851946422196 0 -0.0043933755163466709 0.0014465438176338439 0 -0.004406891947263303 0.0014397423432317264 0 -0.0044102501832684301 0.0014447107616958254 0 -0.0043858188631377562 0.0014550208679971418 0 -0.0044102501832684301 0.0014447107616958254 0 -0.0044336290469890035 0.0014221144634226379 0 -0.0042657980343494993 0.0014666196495206299 0 -0.0042014641509664349 0.00138386287644652 0 -0.004406891947263303 0.0014397423432317264 0 -0.0044102501832684301 0.0014447107616958254 0 -0.0043869866304183667 0.001465993709469877 0 -0.0044102501832684301 0.0014447107616958254 0 -0.0044336290469890035 0.0014221144634226379 0 -0.0043869866304183667 0.001465993709469877 0 -0.0046089742167204828 0.0012591014585295881 0 -0.0045740465707148834 0.0012977559100927694 0 -0.0047082908072618238 0.0013925372709120063 0 -0.0048299526108572599 0.0016333044841509632 0 -0.0044336290469890035 0.0014221144634226379 0 -0.0047082908072618238 0.0013925372709120063 0 -0.0044336290469890035 0.0014221144634226379 0 -0.0045907588368503871 0.001250113264179221 0 -0.0043005685582028115 0.0013435761482978449 0 -0.0042972463994499759 0.001518697644512146 0 -0.0040973656624304121 0.0013167635095276268 0 -0.0044336290469890035 0.0014221144634226379 0 -0.0043005685582028115 0.0013435761482978449 0 -0.0044091976564913571 0.0011516103730791977 0 -0.0043005685582028115 0.0013435761482978449 0 -0.0042972463994499759 0.001518697644512146 0 -0.0043869866304183667 0.001465993709469877 0 -0.0044336290469890035 0.0014221144634226379 0 -0.0043005685582028115 0.0013435761482978449 0 -0.0043869866304183667 0.001465993709469877 0 -0.0041120958774727772 0.0013122646588682807 0 -0.0042014641509664349 0.00138386287644652 0 -0.0042972463994499759 0.001518697644512146 0 -0.0043869866304183667 0.001465993709469877 0 -0.0044901065962683253 0.0017480708424590307 0 -0.0039073682665957234 0.0011486769561504509 0 -0.0039042125157353713 0.0011957038088348411 0 -0.0039367332499649025 0.0011852957404569259 0 -0.0043750932356938083 0.0013370685245479273 0 -0.0043907491635637765 0.0014179456929488377 0 -0.0044229400234414018 0.0014134851946422196 0 -0.0043907491635637765 0.0014179456929488377 0 -0.004406891947263303 0.0014397423432317264 0 -0.0044229400234414018 0.0014134851946422196 0 -0.0042600641308018538 0.0014069618817719534 0 -0.0042014641509664349 0.00138386287644652 0 -0.0043750932356938083 0.0013370685245479273 0 -0.0044292665325198653 0.0014033403496646123 0 -0.004403159844531478 0.0013281236811645803 0 -0.0039343023009333518 0.0012259106321676554 0 -0.0039367332499649025 0.0011852957404569259 0 -0.0039491874809070926 0.0012209948920438474 0 -0.0042014641509664349 0.00138386287644652 0 -0.0040398375129679373 0.0012820250577301382 0 -0.0035982926616007576 0.00098952013738191924 0 -0.0036304318504005026 0.0010341587634445175 0 -0.0036269818185507867 0.00099669961089090512 0 -0.0037813313160584652 0.0011109979999019608 0 -0.0037786140404760431 0.0011104853730741894 0 -0.0039343023009333518 0.0012259106321676554 0 -0.0039042125157353713 0.0011957038088348411 0 -0.0039367332499649025 0.0011852957404569259 0 -0.0036304318504005026 0.0010341587634445175 0 -0.0036269818185507867 0.00099669961089090512 0 -0.0036503293327542043 0.0010091102354853056 0 -0.0036388401863848823 0.000979176646712691 0 -0.0036503293327542043 0.0010091102354853056 0 -0.003688124787155151 0.00099459829258060858 0 -0.0036304318504005026 0.0010341587634445175 0 -0.0036503293327542043 0.0010091102354853056 0 -0.0036872102692853781 0.0010252985989919704 0 -0.0036503293327542043 0.0010091102354853056 0 -0.003688124787155151 0.00099459829258060858 0 -0.0036872102692853781 0.0010252985989919704 0 -0.0036388401863848823 0.000979176646712691 0 -0.0036269818185507867 0.00099669961089090512 0 -0.0036503293327542043 0.0010091102354853056 0 -0.003688124787155151 0.00099459829258060858 0 -0.0036872102692853781 0.0010252985989919704 0 -0.0037482481124415119 0.0010460820100237664 0 -0.0037482481124415119 0.0010460820100237664 0 -0.0037052185462482764 0.0010886017760474809 0 -0.0038057029488723082 0.0010928455320454364 0 -0.0036872102692853781 0.0010252985989919704 0 -0.0037482481124415119 0.0010460820100237664 0 -0.0037052185462482764 0.0010886017760474809 0 -0.0039073682665957234 0.0011486769561504509 0 -0.0039042125157353713 0.0011957038088348411 0 -0.0038718224585103322 0.0011631411766235054 0 -0.0036304318504005026 0.0010341587634445175 0 -0.0036872102692853781 0.0010252985989919704 0 -0.0037052185462482764 0.0010886017760474809 0 -0.0037786140404760431 0.0011104853730741894 0 -0.0037852168670705626 0.0011134996701521562 0 -0.0039073682665957234 0.0011486769561504509 0 -0.0038736052092193229 0.0011363508644747326 0 -0.0038718224585103322 0.0011631411766235054 0 -0.0041120958774727772 0.0013122646588682807 0 -0.0040178887764867688 0.001216320977521924 0 -0.0039073682665957234 0.0011486769561504509 0 -0.0038736052092193229 0.0011363508644747326 0 -0.0038769696610999323 0.0011109141599470562 0 -0.0038769696610999323 0.0011109141599470562 0 -0.0038338598280123664 0.0011221137863928149 0 -0.0038743783073437147 0.0011113351057029798 0 -0.0038736052092193229 0.0011363508644747326 0 -0.0038769696610999323 0.0011109141599470562 0 -0.0038338598280123664 0.0011221137863928149 0 -0.0037052185462482764 0.0010886017760474809 0 -0.0038338598280123664 0.0011221137863928149 0 -0.0038057029488723082 0.0010928455320454364 0 -0.0037852168670705626 0.0011134996701521562 0 -0.0037919471479141839 0.0011156803484127687 0 -0.0038736052092193229 0.0011363508644747326 0 -0.0038718224585103322 0.0011631411766235054 0 -0.0038338598280123664 0.0011221137863928149 0 -0.0038057029488723082 0.0010928455320454364 0 -0.0038550012511164482 0.0011154102188353006 0 -0.0038482484106548867 0.0010980574430005071 0 -0.0038338598280123664 0.0011221137863928149 0 -0.0038550012511164482 0.0011154102188353006 0 -0.0038743783073437147 0.0011113351057029798 0 -0.0038338598280123664 0.0011221137863928149 0 -0.0038057029488723082 0.0010928455320454364 0 -0.0038550012511164482 0.0011154102188353006 0 -0.0038890974850657551 0.0011228435352427331 0 -0.0038550012511164482 0.0011154102188353006 0 -0.0038482484106548867 0.0010980574430005071 0 -0.0038057029488723082 0.0010928455320454364 0 -0.0038482484106548867 0.0010980574430005071 0 -0.0038022609138043083 0.0010623701192632997 0 -0.0038438913483346778 0.0010660338706072498 0 -0.0038022609138043083 0.0010623701192632997 0 -0.0037991521631981205 0.0010302521818921523 0 -0.0038438913483346778 0.0010660338706072498 0 -0.0038482484106548867 0.0010980574430005071 0 -0.0038022609138043083 0.0010623701192632997 0 -0.0037482481124415119 0.0010460820100237664 0 -0.0038022609138043083 0.0010623701192632997 0 -0.0037548902683002478 0.0010252652721818771 0 -0.0037482481124415119 0.0010460820100237664 0 -0.0038057029488723082 0.0010928455320454364 0 -0.0038022609138043083 0.0010623701192632997 0 -0.0037311675886001856 0.0009924868087476306 0 -0.003688124787155151 0.00099459829258060858 0 -0.0037548902683002478 0.0010252652721818771 0 -0.003688124787155151 0.00099459829258060858 0 -0.0037482481124415119 0.0010460820100237664 0 -0.0037548902683002478 0.0010252652721818771 0 -0.0037806092362397087 0.00099141162777049313 0 -0.0037311675886001856 0.0009924868087476306 0 -0.0037991521631981205 0.0010302521818921523 0 -0.0037311675886001856 0.0009924868087476306 0 -0.0037548902683002478 0.0010252652721818771 0 -0.0037991521631981205 0.0010302521818921523 0 -0.0038379057866307462 0.001024743844092174 0 -0.0037806092362397087 0.00099141162777049313 0 -0.0037991521631981205 0.0010302521818921523 0 -0.0038022609138043083 0.0010623701192632997 0 -0.0037548902683002478 0.0010252652721818771 0 -0.0037991521631981205 0.0010302521818921523 0 -0.0042423014015736671 0.00049983147202672452 0 -0.0045102356181907569 0.00070208434772845623 0 -0.0041828058611452596 0.00081419460132772033 0 -0.0042423014015736671 0.00049983147202672452 0 -0.0045102356181907569 0.00070208434772845623 0 -0.0045797125788917259 0.00046035186410870637 0 -0.0045102356181907569 0.00070208434772845623 0 -0.0048512812563571914 0.00083891851757902599 0 -0.0047164770843157733 0.00060088126337606645 0 -0.0045102356181907569 0.00070208434772845623 0 -0.0047164770843157733 0.00060088126337606645 0 -0.0045797125788917259 0.00046035186410870637 0 -0.0047164770843157733 0.00060088126337606645 0 -0.0047507134263210125 0.00045455324985031032 0 -0.0045797125788917259 0.00046035186410870637 0 -0.0042172689604302307 0.00090683359462903244 0 -0.0044014235395905387 0.00077770756661024038 0 -0.0045102356181907569 0.00070208434772845623 0 -0.0044769384683639914 0.00099354809006833617 0 -0.0048512812563571914 0.00083891851757902599 0 -0.0039578100808930188 0.0010933074000904171 0 -0.0041828058611452596 0.00081419460132772033 0 -0.0044769384683639914 0.00099354809006833617 0 -0.0045102356181907569 0.00070208434772845623 0 -0.0041828058611452596 0.00081419460132772033 0 -0.0044769384683639914 0.00099354809006833617 0 -0.0039578100808930188 0.0010933074000904171 0 -0.0038831372624880157 0.0010986195551501306 0 -0.0038757112000665978 0.0010566653543680282 0 -0.0041215805638406284 0.00095979559766014538 0 -0.0042172689604302307 0.00090683359462903244 0 -0.0038890974850657551 0.0011228435352427331 0 -0.0038550012511164482 0.0011154102188353006 0 -0.0038831372624880157 0.0010986195551501306 0 -0.0038890974850657551 0.0011228435352427331 0 -0.0039578100808930188 0.0010933074000904171 0 -0.0038831372624880157 0.0010986195551501306 0 -0.0038550012511164482 0.0011154102188353006 0 -0.0038831372624880157 0.0010986195551501306 0 -0.0038743783073437147 0.0011113351057029798 0 -0.0038831372624880157 0.0010986195551501306 0 -0.0038743783073437147 0.0011113351057029798 0 -0.0039167076121651209 0.0011026866074555052 0 -0.0038831372624880157 0.0010986195551501306 0 -0.0038757112000665978 0.0010566653543680282 0 -0.0039167076121651209 0.0011026866074555052 0 -0.0039167076121651209 0.0011026866074555052 0 -0.0041166298696728963 0.00099540955425442084 0 -0.0039850274861492089 0.0009270208512991994 0 -0.0038757112000665978 0.0010566653543680282 0 -0.0039167076121651209 0.0011026866074555052 0 -0.0039850274861492089 0.0009270208512991994 0 -0.0040178887764867688 0.001216320977521924 0 -0.0039723703304259039 0.0011650628447505236 0 -0.0038769696610999323 0.0011109141599470562 0 -0.0038743783073437147 0.0011113351057029798 0 -0.0039167076121651209 0.0011026866074555052 0 -0.0043005685582028115 0.0013435761482978449 0 -0.0040973656624304121 0.0013167635095276268 0 -0.0041975462121844956 0.0011430797310146058 0 -0.0040973656624304121 0.0013167635095276268 0 -0.0039167076121651209 0.0011026866074555052 0 -0.0041975462121844956 0.0011430797310146058 0 -0.0041975462121844956 0.0011430797310146058 0 -0.0041166298696728963 0.00099540955425442084 0 -0.0042903594486854392 0.0009889964209006106 0 -0.0039167076121651209 0.0011026866074555052 0 -0.0041975462121844956 0.0011430797310146058 0 -0.0041166298696728963 0.00099540955425442084 0 -0.0044014235395905387 0.00077770756661024038 0 -0.0045834406314322791 0.00059321176374896008 0 -0.0041166298696728963 0.00099540955425442084 0 -0.0039850274861492089 0.0009270208512991994 0 -0.0042038339509458018 0.00081845535432504483 0 -0.0048512812563571914 0.00083891851757902599 0 -0.0047164770843157733 0.00060088126337606645 0 -0.0048927759113591646 0.00057117549081052497 0 -0.0047164770843157733 0.00060088126337606645 0 -0.0048927759113591646 0.00057117549081052497 0 -0.0047507134263210125 0.00045455324985031032 0 -0.0045834406314322791 0.00059321176374896008 0 -0.0047114705680267911 0.00041969972849049747 0 -0.0048512812563571914 0.00083891851757902599 0 -0.0048927759113591646 0.00057117549081052497 0 -0.0051661616160534954 0.00071025340122163902 0 -0.0048927759113591646 0.00057117549081052497 0 -0.0051661616160534954 0.00071025340122163902 0 -0.0050190290242148206 0.00038170836645685366 0 -0.0048588438910359575 0.00023909755954303988 0 -0.0048666838208739306 0.00021039993048381438 0 -0.0048558938118402539 0.0002033825690313892 0 -0.0045834406314322791 0.00059321176374896008 0 -0.0047106391796755773 0.0004681778801165395 0 -0.0048588438910359575 0.00023909755954303988 0 -0.0048863998753216741 0.00023612211235783759 0 -0.0048666838208739306 0.00021039993048381438 0 -0.0048863998753216741 0.00023612211235783759 0 -0.0048993362250866288 0.00026464085348617547 0 -0.0048965657671884875 0.00020387749039348809 0 -0.0047106391796755773 0.0004681778801165395 0 -0.0047798423111482932 0.00042169155468485596 0 -0.0045176963063304704 0.00035930478108219774 0 -0.004553380542198112 0.00064669947548830274 0 -0.0048329789843581245 0.00050153106424281034 0 -0.0041757074318210302 0.0004768302867622618 0 -0.0045176963063304704 0.00035930478108219774 0 -0.004553380542198112 0.00064669947548830274 0 -0.0041166298696728963 0.00099540955425442084 0 -0.0042038339509458018 0.00081845535432504483 0 -0.0042903594486854392 0.0009889964209006106 0 -0.0045834406314322791 0.00059321176374896008 0 -0.0045259677115910626 0.0007883657493146216 0 -0.0041757074318210302 0.0004768302867622618 0 -0.004553380542198112 0.00064669947548830274 0 -0.0043004380506383938 0.00080790229735404014 0 -0.0041975462121844956 0.0011430797310146058 0 -0.0042903594486854392 0.0009889964209006106 0 -0.0044091976564913571 0.0011516103730791977 0 -0.0045259677115910626 0.0007883657493146216 0 -0.0045300196907898556 0.00089805112404707196 0 -0.0043005685582028115 0.0013435761482978449 0 -0.0041975462121844956 0.0011430797310146058 0 -0.0044091976564913571 0.0011516103730791977 0 -0.0044336290469890035 0.0014221144634226379 0 -0.0044091976564913571 0.0011516103730791977 0 -0.0045907588368503871 0.001250113264179221 0 -0.0044091976564913571 0.0011516103730791977 0 -0.0045907588368503871 0.001250113264179221 0 -0.0046541468520114948 0.00099055451294316759 0 -0.0043004380506383938 0.00080790229735404014 0 -0.0044091976564913571 0.0011516103730791977 0 -0.0046541468520114948 0.00099055451294316759 0 -0.004553380542198112 0.00064669947548830274 0 -0.0046541468520114948 0.00099055451294316759 0 -0.0048949823218735148 0.00074529759785058481 0 -0.004553380542198112 0.00064669947548830274 0 -0.0043004380506383938 0.00080790229735404014 0 -0.0046541468520114948 0.00099055451294316759 0 -0.0046541468520114948 0.00099055451294316759 0 -0.0049472030928444811 0.00098986784229547356 0 -0.0048949823218735148 0.00074529759785058481 0 -0.0046541468520114948 0.00099055451294316759 0 -0.0049472030928444811 0.00098986784229547356 0 -0.0048003700025813691 0.0012294856640274298 0 -0.0045907588368503871 0.001250113264179221 0 -0.0046541468520114948 0.00099055451294316759 0 -0.0048003700025813691 0.0012294856640274298 0 -0.005213001433643432 0.0013759605328072637 0 -0.0049472030928444811 0.00098986784229547356 0 -0.0048003700025813691 0.0012294856640274298 0 -0.005213001433643432 0.0013759605328072637 0 -0.0049472030928444811 0.00098986784229547356 0 -0.0052144472239824286 0.00092535579488401429 0 -0.0049472030928444811 0.00098986784229547356 0 -0.0048949823218735148 0.00074529759785058481 0 -0.0052144472239824286 0.00092535579488401429 0 -0.0048949823218735148 0.00074529759785058481 0 -0.0052144472239824286 0.00092535579488401429 0 -0.0051889747736609459 0.00047965735748815104 0 -0.0048949823218735148 0.00074529759785058481 0 -0.0048329789843581245 0.00050153106424281034 0 -0.0051889747736609459 0.00047965735748815104 0 -0.004553380542198112 0.00064669947548830274 0 -0.0048949823218735148 0.00074529759785058481 0 -0.0048329789843581245 0.00050153106424281034 0 -0.0048329789843581245 0.00050153106424281034 0 -0.0048993362250866288 0.00026464085348617547 0 -0.0051889747736609459 0.00047965735748815104 0 -0.0045176963063304704 0.00035930478108219774 0 -0.0048329789843581245 0.00050153106424281034 0 -0.0048993362250866288 0.00026464085348617547 0 -0.0048993362250866288 0.00026464085348617547 0 -0.0051889747736609459 0.00047965735748815104 0 -0.0051181374118936919 0.00018746809774778848 0 -0.0048993362250866288 0.00026464085348617547 0 -0.0049778215017294092 0.00014571458435972578 0 -0.0051181374118936919 0.00018746809774778848 0 -0.0048993362250866288 0.00026464085348617547 0 -0.0049778215017294092 0.00014571458435972578 0 -0.0048965657671884875 0.00020387749039348809 0 -0.0049778215017294092 0.00014571458435972578 0 -0.0049268672160733013 0.00012769926605070512 0 -0.0048965657671884875 0.00020387749039348809 0 -0.0049778215017294092 0.00014571458435972578 0 -0.0049826136925381339 5.2622280238866779e-05 0 -0.0049268672160733013 0.00012769926605070512 0 -0.0049778215017294092 0.00014571458435972578 0 -0.0051181374118936919 0.00018746809774778848 0 -0.0050625505923885313 5.9581367148260393e-05 0 -0.0050127617357035295 2.3216184426032628e-05 0 -0.0049826136925381339 5.2622280238866779e-05 0 -0.0050625505923885313 5.9581367148260393e-05 0 -0.0049778215017294092 0.00014571458435972578 0 -0.0049826136925381339 5.2622280238866779e-05 0 -0.0050625505923885313 5.9581367148260393e-05 0 -0.0050127617357035295 2.3216184426032628e-05 0 -0.0050000406908167917 2.3527856627291373e-08 0 -0.005000055471548184 -1.0071577873193255e-09 0 -0.0050127617357035295 2.3216184426032628e-05 0 -0.0050625505923885313 5.9581367148260393e-05 0 -0.005000055471548184 -1.0071577873193255e-09 0 -0.0050000406908167917 2.3527856627291373e-08 0 -0.0049826136925381339 5.2622280238866779e-05 0 -0.0049998081728700929 -2.2982873608061213e-08 0 -0.0050127617357035295 2.3216184426032628e-05 0 -0.0050000406908167917 2.3527856627291373e-08 0 -0.0049826136925381339 5.2622280238866779e-05 0 -0.0049826136925381339 5.2622280238866779e-05 0 -0.0049239493444025555 7.5131081102984364e-05 0 -0.0049268672160733013 0.00012769926605070512 0 -0.0049239493444025555 7.5131081102984364e-05 0 -0.0049998081728700929 -2.2982873608061213e-08 0 -0.0048771610838582967 3.2670350022352489e-05 0 -0.004999942503068385 4.5415352488750954e-08 0 -0.0049560541737433024 3.3313212683444015e-05 0 -0.0049826136925381339 5.2622280238866779e-05 0 -0.0049239493444025555 7.5131081102984364e-05 0 -0.0049998081728700929 -2.2982873608061213e-08 0 -0.0049999999677788846 -7.0419516272534731e-11 0 -0.0049999998967692593 8.5679434075115746e-11 0 -0.0049999596017100559 3.9633337353982387e-08 0 -0.0049999998967692593 8.5679434075115746e-11 0 -0.0049999596017100559 3.9633337353982387e-08 0 -0.0049999468086699018 5.4938559391551999e-08 0 -0.0049239493444025555 7.5131081102984364e-05 0 -0.0048771610838582967 3.2670350022352489e-05 0 -0.0048562125560571313 9.4618584740638337e-05 0 -0.0049239493444025555 7.5131081102984364e-05 0 -0.0048562125560571313 9.4618584740638337e-05 0 -0.0048803603935819286 0.00015299546474528846 0 -0.0048562125560571313 9.4618584740638337e-05 0 -0.0048803603935819286 0.00015299546474528846 0 -0.0048307509252964176 0.00015043293249537485 0 -0.0049239493444025555 7.5131081102984364e-05 0 -0.0048803603935819286 0.00015299546474528846 0 -0.0049268672160733013 0.00012769926605070512 0 -0.0048803603935819286 0.00015299546474528846 0 -0.0049268672160733013 0.00012769926605070512 0 -0.0048965657671884875 0.00020387749039348809 0 -0.0048863998753216741 0.00023612211235783759 0 -0.0048965657671884875 0.00020387749039348809 0 -0.0048666838208739306 0.00021039993048381438 0 -0.0048803603935819286 0.00015299546474528846 0 -0.0048965657671884875 0.00020387749039348809 0 -0.0048666838208739306 0.00021039993048381438 0 -0.0048803603935819286 0.00015299546474528846 0 -0.0048666838208739306 0.00021039993048381438 0 -0.0048307509252964176 0.00015043293249537485 0 -0.0049121136160252318 0.0001316853932005695 0 -0.0049142484426195005 0.00010904917323038713 0 -0.0048666838208739306 0.00021039993048381438 0 -0.0048558938118402539 0.0002033825690313892 0 -0.0048758982908251262 0.00017388294890666791 0 -0.0048927759113591646 0.00057117549081052497 0 -0.0050190290242148206 0.00038170836645685366 0 -0.0048726074658769257 0.00040455165020024722 0 -0.0048927759113591646 0.00057117549081052497 0 -0.0048726074658769257 0.00040455165020024722 0 -0.0047507134263210125 0.00045455324985031032 0 -0.0048726074658769257 0.00040455165020024722 0 -0.0047507134263210125 0.00045455324985031032 0 -0.0047979033776512515 0.0003245333757118567 0 -0.0047979033776512515 0.0003245333757118567 0 -0.0047551048197751137 0.0002410957694298928 0 -0.0046879400129869082 0.00032532202915680833 0 -0.0047507134263210125 0.00045455324985031032 0 -0.0047979033776512515 0.0003245333757118567 0 -0.0046879400129869082 0.00032532202915680833 0 -0.0050190290242148206 0.00038170836645685366 0 -0.0048726074658769257 0.00040455165020024722 0 -0.0048749475696563552 0.00029317680583429965 0 -0.0048726074658769257 0.00040455165020024722 0 -0.0047979033776512515 0.0003245333757118567 0 -0.0048749475696563552 0.00029317680583429965 0 -0.0048749475696563552 0.00029317680583429965 0 -0.0048217655003314763 0.00022962546708643961 0 -0.0048561603073175473 0.00014896531519856582 0 -0.0047979033776512515 0.0003245333757118567 0 -0.0048749475696563552 0.00029317680583429965 0 -0.0048217655003314763 0.00022962546708643961 0 -0.0047979033776512515 0.0003245333757118567 0 -0.0048217655003314763 0.00022962546708643961 0 -0.0047551048197751137 0.0002410957694298928 0 -0.0048217655003314763 0.00022962546708643961 0 -0.0047551048197751137 0.0002410957694298928 0 -0.0047958690481360883 0.00015119351126181087 0 -0.0048217655003314763 0.00022962546708643961 0 -0.0047958690481360883 0.00015119351126181087 0 -0.0048561603073175473 0.00014896531519856582 0 -0.0048558938118402539 0.0002033825690313892 0 -0.0048561603073175473 0.00014896531519856582 0 -0.0048758982908251262 0.00017388294890666791 0 -0.0050190290242148206 0.00038170836645685366 0 -0.0048749475696563552 0.00029317680583429965 0 -0.0048561603073175473 0.00014896531519856582 0 -0.0049142484426195005 0.00010904917323038713 0 -0.0049336317446487159 6.364451096732603e-05 0 -0.0047114705680267911 0.00041969972849049747 0 -0.0047317429789073976 0.00033471383823364368 0 -0.0048561603073175473 0.00014896531519856582 0 -0.0048758982908251262 0.00017388294890666791 0 -0.0048806388764494517 0.00011447826897252165 0 -0.0048562125560571313 9.4618584740638337e-05 0 -0.0048307509252964176 0.00015043293249537485 0 -0.0047948613146371272 8.0310718397122181e-05 0 -0.0048771610838582967 3.2670350022352489e-05 0 -0.0048562125560571313 9.4618584740638337e-05 0 -0.0047948613146371272 8.0310718397122181e-05 0 -0.0049560541737433024 3.3313212683444015e-05 0 -0.0049336317446487159 6.364451096732603e-05 0 -0.0049998665317355544 1.4968790182771146e-07 0 -0.0049999468086699018 5.4938559391551999e-08 0 -0.0049999998500314096 2.0873263820277559e-11 0 -0.0049999596017100559 3.9633337353982387e-08 0 -0.0049998665317355544 1.4968790182771146e-07 0 -0.0049999468086699018 5.4938559391551999e-08 0 -0.0049999998967692593 8.5679434075115746e-11 0 -0.0049999468086699018 5.4938559391551999e-08 0 -0.0049999998500314096 2.0873263820277559e-11 0 -0.0049999196888767267 -4.5457465217794135e-08 0 -0.0049803951184944368 1.64642742948782e-05 0 -0.0049210174841080633 -6.5246523358886385e-07 0 -0.0049336317446487159 6.364451096732603e-05 0 -0.004999872072841971 8.8108639692047966e-08 0 -0.0050122989336113871 2.6830064163609717e-05 0 -0.0049999196888767267 -4.5457465217794135e-08 0 -0.0049803951184944368 1.64642742948782e-05 0 -0.0049749842540981037 8.4386772302794309e-05 0 -0.0050122989336113871 2.6830064163609717e-05 0 -0.0049803951184944368 1.64642742948782e-05 0 -0.0048709960762615872 0.0001057703332713376 0 -0.0049336317446487159 6.364451096732603e-05 0 -0.0047958690481360883 0.00015119351126181087 0 -0.0048561603073175473 0.00014896531519856582 0 -0.0048806388764494517 0.00011447826897252165 0 -0.0049749842540981037 8.4386772302794309e-05 0 -0.0049803951184944368 1.64642742948782e-05 0 -0.0049210174841080633 -6.5246523358886385e-07 0 -0.0049749842540981037 8.4386772302794309e-05 0 -0.0049210174841080633 -6.5246523358886385e-07 0 -0.0047935580815942598 0.00012283987296653412 0 -0.0049210174841080633 -6.5246523358886385e-07 0 -0.0049716427434802462 -3.3137602065494053e-06 0 -0.0049732308872229127 -1.4429026343011824e-05 0 -0.0049999196888767267 -4.5457465217794135e-08 0 -0.0049210174841080633 -6.5246523358886385e-07 0 -0.0049725090269886829 5.8047255440893289e-06 0 -0.0049999196888767267 -4.5457465217794135e-08 0 -0.0049999504477744759 2.9560204905852159e-08 0 -0.0049725090269886829 5.8047255440893289e-06 0 -0.0049898330943064532 3.1003878779696172e-06 0 -0.0049999504477744759 2.9560204905852159e-08 0 -0.0049725090269886829 5.8047255440893289e-06 0 -0.0049898330943064532 3.1003878779696172e-06 0 -0.0049716427434802462 -3.3137602065494053e-06 0 -0.0049809762310085697 -6.439853139726968e-06 0 -0.0049898330943064532 3.1003878779696172e-06 0 -0.0049725090269886829 5.8047255440893289e-06 0 -0.0049716427434802462 -3.3137602065494053e-06 0 -0.0049210174841080633 -6.5246523358886385e-07 0 -0.0049725090269886829 5.8047255440893289e-06 0 -0.0049716427434802462 -3.3137602065494053e-06 0 -0.0049716427434802462 -3.3137602065494053e-06 0 -0.0049809762310085697 -6.439853139726968e-06 0 -0.0049732308872229127 -1.4429026343011824e-05 0 -0.0049809762310085697 -6.439853139726968e-06 0 -0.0049732308872229127 -1.4429026343011824e-05 0 -0.0049804805464675099 -8.1059886316904792e-06 0 -0.0049210174841080633 -6.5246523358886385e-07 0 -0.0045280170132615399 0.00021853679635896973 0 -0.0047935580815942598 0.00012283987296653412 0 -0.0047330295872442217 0.00011352528538363602 0 -0.0046839352933957185 0.00016651665107741097 0 -0.0048709960762615872 0.0001057703332713376 0 -0.0048279211901980663 0.00013224058756956933 0 -0.0047551048197751137 0.0002410957694298928 0 -0.0047958690481360883 0.00015119351126181087 0 -0.0046735832333138936 0.00021657700646112194 0 -0.0049749842540981037 8.4386772302794309e-05 0 -0.0047935580815942598 0.00012283987296653412 0 -0.0046735832333138936 0.00021657700646112194 0 -0.0047551048197751137 0.0002410957694298928 0 -0.0046735832333138936 0.00021657700646112194 0 -0.0046879400129869082 0.00032532202915680833 0 -0.0045280170132615399 0.00021853679635896973 0 -0.0047935580815942598 0.00012283987296653412 0 -0.0046735832333138936 0.00021657700646112194 0 -0.0045280170132615399 0.00021853679635896973 0 -0.0046735832333138936 0.00021657700646112194 0 -0.0045468625812805467 0.00034160061443648776 0 -0.0046735832333138936 0.00021657700646112194 0 -0.0045468625812805467 0.00034160061443648776 0 -0.0046879400129869082 0.00032532202915680833 0 -0.0045468625812805467 0.00034160061443648776 0 -0.0046879400129869082 0.00032532202915680833 0 -0.0045797125788917259 0.00046035186410870637 0 -0.0047507134263210125 0.00045455324985031032 0 -0.0046879400129869082 0.00032532202915680833 0 -0.0045797125788917259 0.00046035186410870637 0 -0.0042423014015736671 0.00049983147202672452 0 -0.0045468625812805467 0.00034160061443648776 0 -0.0045797125788917259 0.00046035186410870637 0 -0.0049838659535250676 -3.4040655397699442e-06 0 -0.0049732308872229127 -1.4429026343011824e-05 0 -0.0049804805464675099 -8.1059886316904792e-06 0 -0.0042423014015736671 0.00049983147202672452 0 -0.0045280170132615399 0.00021853679635896973 0 -0.0045468625812805467 0.00034160061443648776 0 -0.0045864897112510407 0.0002733534824355184 0 -0.0046839352933957185 0.00016651665107741097 0 -0.0048455904760786482 0.00022315441733742635 0 -0.00484427629140337 0.00031667055709867244 0 -0.004792445342286223 0.00010717831832387108 0 -0.0048455904760786482 0.00022315441733742635 0 -0.004894087609125534 0.00030040103281504154 0 -0.004827463488099923 0.00012022272192837503 0 -0.0048992917902134945 0.00014386029453876829 0 -0.0048480256425076675 5.9323983230772368e-05 0 -0.0048987874315522713 2.1945691243527787e-05 0 -0.0049180380334937438 3.217839991727119e-05 0 -0.0048588713291732432 1.8671078363025725e-05 0 -0.0049181242702099831 2.600531129675309e-05 0 -0.0048987874315522713 2.1945691243527787e-05 0 -0.0049180380334937438 3.217839991727119e-05 0 -0.0048455904760786482 0.00022315441733742635 0 -0.004894087609125534 0.00030040103281504154 0 -0.0048661324428931289 0.00029751595829442682 0 -0.0048987874315522713 2.1945691243527787e-05 0 -0.0049056508093511756 1.3422389422033211e-05 0 -0.0048843993830841896 1.3434824472729131e-05 0 -0.0049181242702099831 2.600531129675309e-05 0 -0.0048987874315522713 2.1945691243527787e-05 0 -0.0049155619580805608 2.0120491583162527e-05 0 -0.0048987874315522713 2.1945691243527787e-05 0 -0.0049155619580805608 2.0120491583162527e-05 0 -0.0049056508093511756 1.3422389422033211e-05 0 -0.0049155619580805608 2.0120491583162527e-05 0 -0.0049056508093511756 1.3422389422033211e-05 0 -0.0049269901333964944 1.169045502311333e-05 0 -0.0049155619580805608 2.0120491583162527e-05 0 -0.0049314016198836793 2.4065004236779114e-05 0 -0.0049269901333964944 1.169045502311333e-05 0 -0.0049314016198836793 2.4065004236779114e-05 0 -0.0049269901333964944 1.169045502311333e-05 0 -0.0049436205892277483 1.6261108150188802e-05 0 -0.0049314016198836793 2.4065004236779114e-05 0 -0.0049436205892277483 1.6261108150188802e-05 0 -0.0049513274924091813 2.3463722283379213e-05 0 -0.0049181242702099831 2.600531129675309e-05 0 -0.0049155619580805608 2.0120491583162527e-05 0 -0.0049314016198836793 2.4065004236779114e-05 0 -0.0049181242702099831 2.600531129675309e-05 0 -0.0049314016198836793 2.4065004236779114e-05 0 -0.0049263841056249487 2.8118832143362325e-05 0 -0.0049263841056249487 2.8118832143362325e-05 0 -0.0049383272875257629 2.888449156360279e-05 0 -0.0049180380334937438 3.217839991727119e-05 0 -0.0049314016198836793 2.4065004236779114e-05 0 -0.0049263841056249487 2.8118832143362325e-05 0 -0.0049383272875257629 2.888449156360279e-05 0 -0.0049383272875257629 2.888449156360279e-05 0 -0.0049180380334937438 3.217839991727119e-05 0 -0.0049509049655937472 2.9456726765000618e-05 0 -0.0049314016198836793 2.4065004236779114e-05 0 -0.0049383272875257629 2.888449156360279e-05 0 -0.0049513274924091813 2.3463722283379213e-05 0 -0.0049383272875257629 2.888449156360279e-05 0 -0.0049513274924091813 2.3463722283379213e-05 0 -0.0049547531184960273 2.6657698712128881e-05 0 -0.0048722253429362861 0.00032841355830222119 0 -0.0048477468630138184 0.00039177674970985017 0 -0.0049683900777300694 0.00047231817356332078 0 -0.004894087609125534 0.00030040103281504154 0 -0.0048722253429362861 0.00032841355830222119 0 -0.0049683900777300694 0.00047231817356332078 0 -0.0048992917902134945 0.00014386029453876829 0 -0.0049428117918106657 0.00020694601172311771 0 -0.0049181242702099831 2.600531129675309e-05 0 -0.0049263841056249487 2.8118832143362325e-05 0 -0.0049180380334937438 3.217839991727119e-05 0 -0.0048455904760786482 0.00022315441733742635 0 -0.0048661324428931289 0.00029751595829442682 0 -0.00484427629140337 0.00031667055709867244 0 -0.004894087609125534 0.00030040103281504154 0 -0.0048661324428931289 0.00029751595829442682 0 -0.0048722253429362861 0.00032841355830222119 0 -0.0047703621883314696 0.00026387792375277824 0 -0.0047677822583428921 0.00026274739375528703 0 -0.0048661324428931289 0.00029751595829442682 0 -0.0048722253429362861 0.00032841355830222119 0 -0.00484427629140337 0.00031667055709867244 0 -0.0048722253429362861 0.00032841355830222119 0 -0.0048422261226982325 0.00031875856503628489 0 -0.0048289497576945103 0.00034334442286570343 0 -0.0048722253429362861 0.00032841355830222119 0 -0.0048289497576945103 0.00034334442286570343 0 -0.0048477468630138184 0.00039177674970985017 0 -0.0048289497576945103 0.00034334442286570343 0 -0.0048477468630138184 0.00039177674970985017 0 -0.004799477228348537 0.00036583394413972054 0 -0.0048422261226982325 0.00031875856503628489 0 -0.0047698910157145651 0.00033399337888017402 0 -0.0046591240895103485 0.00025800769694022974 0 -0.0047677822583428921 0.00026274739375528703 0 -0.0046537561901576797 0.00024527430058141427 0 -0.0048477468630138184 0.00039177674970985017 0 -0.004799477228348537 0.00036583394413972054 0 -0.0047808501316898367 0.00039902047829140749 0 -0.0048289497576945103 0.00034334442286570343 0 -0.004799477228348537 0.00036583394413972054 0 -0.0047698910157145651 0.00033399337888017402 0 -0.0047702758927234768 0.00036129455715872179 0 -0.0047808501316898367 0.00039902047829140749 0 -0.0047255146427804514 0.00035450204427911784 0 -0.004799477228348537 0.00036583394413972054 0 -0.0047702758927234768 0.00036129455715872179 0 -0.0047698910157145651 0.00033399337888017402 0 -0.004799477228348537 0.00036583394413972054 0 -0.0047702758927234768 0.00036129455715872179 0 -0.0047808501316898367 0.00039902047829140749 0 -0.0047255146427804514 0.00035450204427911784 0 -0.0046854874650645072 0.00037700533163012448 0 -0.0047119286133324645 0.00041643491365776059 0 -0.0047808501316898367 0.00039902047829140749 0 -0.0047255146427804514 0.00035450204427911784 0 -0.0047119286133324645 0.00041643491365776059 0 -0.0047702758927234768 0.00036129455715872179 0 -0.0047255146427804514 0.00035450204427911784 0 -0.0047698910157145651 0.00033399337888017402 0 -0.0047255146427804514 0.00035450204427911784 0 -0.0047698910157145651 0.00033399337888017402 0 -0.0046591240895103485 0.00025800769694022974 0 -0.0048422261226982325 0.00031875856503628489 0 -0.0048289497576945103 0.00034334442286570343 0 -0.0047698910157145651 0.00033399337888017402 0 -0.004638401909977382 0.00039231524976845929 0 -0.0046578469028159134 0.00034092311802040565 0 -0.0045732896629986841 0.00031866162796442382 0 -0.0047255146427804514 0.00035450204427911784 0 -0.0046854874650645072 0.00037700533163012448 0 -0.0046578469028159134 0.00034092311802040565 0 -0.004638401909977382 0.00039231524976845929 0 -0.0046854874650645072 0.00037700533163012448 0 -0.0047119286133324645 0.00041643491365776059 0 -0.004638401909977382 0.00039231524976845929 0 -0.0046854874650645072 0.00037700533163012448 0 -0.0046578469028159134 0.00034092311802040565 0 -0.0047255146427804514 0.00035450204427911784 0 -0.0046578469028159134 0.00034092311802040565 0 -0.0046591240895103485 0.00025800769694022974 0 -0.0046578469028159134 0.00034092311802040565 0 -0.0046591240895103485 0.00025800769694022974 0 -0.0045732896629986841 0.00031866162796442382 0 -0.0046531689100542204 0.00027982512729610447 0 -0.0047135109516716596 0.0002241190924255936 0 -0.0046742131732747313 0.00015221633849230035 0 -0.0046531689100542204 0.00027982512729610447 0 -0.0045812374115725444 0.00017602764161619614 0 -0.0046742131732747313 0.00015221633849230035 0 -0.0048226762770612044 0.00034274332709959774 0 -0.0046531689100542204 0.00027982512729610447 0 -0.0047135109516716596 0.0002241190924255936 0 -0.0048226762770612044 0.00034274332709959774 0 -0.0047135109516716596 0.0002241190924255936 0 -0.0047590145950945966 0.0001559670072465725 0 -0.0047677822583428921 0.00026274739375528703 0 -0.0047514509715934246 0.00013276158416198992 0 -0.0048455904760786482 0.00022315441733742635 0 -0.004792445342286223 0.00010717831832387108 0 -0.004827463488099923 0.00012022272192837503 0 -0.004792445342286223 0.00010717831832387108 0 -0.004827463488099923 0.00012022272192837503 0 -0.0047623676459144686 -4.2654131571412113e-05 0 -0.0048480256425076675 5.9323983230772368e-05 0 -0.004817986893684738 7.5793162301823859e-06 0 -0.0047135109516716596 0.0002241190924255936 0 -0.0047590145950945966 0.0001559670072465725 0 -0.0046742131732747313 0.00015221633849230035 0 -0.0047590145950945966 0.0001559670072465725 0 -0.0046742131732747313 0.00015221633849230035 0 -0.0046819320429082236 6.0611757732459853e-05 0 -0.0045812374115725444 0.00017602764161619614 0 -0.0046742131732747313 0.00015221633849230035 0 -0.0045883762742561863 0.0001079918172851781 0 -0.0046742131732747313 0.00015221633849230035 0 -0.0045883762742561863 0.0001079918172851781 0 -0.0046362703076125991 7.9187043156105818e-05 0 -0.0046742131732747313 0.00015221633849230035 0 -0.0046362703076125991 7.9187043156105818e-05 0 -0.0046819320429082236 6.0611757732459853e-05 0 -0.0045883762742561863 0.0001079918172851781 0 -0.0045942106337191358 4.1389211844212792e-05 0 -0.0046362703076125991 7.9187043156105818e-05 0 -0.0045942106337191358 4.1389211844212792e-05 0 -0.0046424895141502923 3.371744570054465e-05 0 -0.0046362703076125991 7.9187043156105818e-05 0 -0.0046424895141502923 3.371744570054465e-05 0 -0.0046819320429082236 6.0611757732459853e-05 0 -0.0046575387007929091 6.7989370358420187e-07 0 -0.0046424895141502923 3.371744570054465e-05 0 -0.0046362703076125991 7.9187043156105818e-05 0 -0.0046819320429082236 6.0611757732459853e-05 0 -0.0046967105702090837 -3.0984308904592091e-05 0 -0.0046312490385894056 -3.1707344377122345e-05 0 -0.0046575387007929091 6.7989370358420187e-07 0 -0.0046967105702090837 -3.0984308904592091e-05 0 -0.0046819320429082236 6.0611757732459853e-05 0 -0.0046575387007929091 6.7989370358420187e-07 0 -0.0046312490385894056 -3.1707344377122345e-05 0 -0.0046575387007929091 6.7989370358420187e-07 0 -0.0046218505419494222 4.0253983804316074e-06 0 -0.0046424895141502923 3.371744570054465e-05 0 -0.0046575387007929091 6.7989370358420187e-07 0 -0.0046218505419494222 4.0253983804316074e-06 0 -0.0045942106337191358 4.1389211844212792e-05 0 -0.0046424895141502923 3.371744570054465e-05 0 -0.0046218505419494222 4.0253983804316074e-06 0 -0.0046312490385894056 -3.1707344377122345e-05 0 -0.0046218505419494222 4.0253983804316074e-06 0 -0.0045844794250686416 -9.5940866422434828e-06 0 -0.0045942106337191358 4.1389211844212792e-05 0 -0.0046218505419494222 4.0253983804316074e-06 0 -0.0045844794250686416 -9.5940866422434828e-06 0 -0.0046967105702090837 -3.0984308904592091e-05 0 -0.0047590145950945966 0.0001559670072465725 0 -0.0046819320429082236 6.0611757732459853e-05 0 -0.0048588713291732432 1.8671078363025725e-05 0 -0.0048275322041059724 -2.2982516532561262e-05 0 -0.0047623676459144686 -4.2654131571412113e-05 0 -0.004737659170588937 -8.0532394618308646e-05 0 -0.004792445342286223 0.00010717831832387108 0 -0.0047623676459144686 -4.2654131571412113e-05 0 -0.0047056685064224045 -3.6045551512548403e-05 0 -0.0047514509715934246 0.00013276158416198992 0 -0.0047776244073152868 -8.251731752346566e-05 0 -0.004737659170588937 -8.0532394618308646e-05 0 -0.0047623676459144686 -4.2654131571412113e-05 0 -0.0047776244073152868 -8.251731752346566e-05 0 -0.0047623676459144686 -4.2654131571412113e-05 0 -0.0048124293947119038 -5.8612969963934761e-05 0 -0.0048275322041059724 -2.2982516532561262e-05 0 -0.0047623676459144686 -4.2654131571412113e-05 0 -0.0048124293947119038 -5.8612969963934761e-05 0 -0.0048582945491909869 -7.9823080470759936e-05 0 -0.0048124293947119038 -5.8612969963934761e-05 0 -0.0048545662720461723 -3.7438769608214013e-05 0 -0.0048582945491909869 -7.9823080470759936e-05 0 -0.0048911072980567707 -5.1797734384827004e-05 0 -0.0048545662720461723 -3.7438769608214013e-05 0 -0.0049126174165647967 -9.6520223865554882e-05 0 -0.0048582945491909869 -7.9823080470759936e-05 0 -0.0048911072980567707 -5.1797734384827004e-05 0 -0.0048911072980567707 -5.1797734384827004e-05 0 -0.0048949979575213633 -1.9774432930072929e-05 0 -0.0048545662720461723 -3.7438769608214013e-05 0 -0.0048949979575213633 -1.9774432930072929e-05 0 -0.0048545662720461723 -3.7438769608214013e-05 0 -0.0048575912718086464 -5.2514269684107922e-06 0 -0.0048275322041059724 -2.2982516532561262e-05 0 -0.0048545662720461723 -3.7438769608214013e-05 0 -0.0048575912718086464 -5.2514269684107922e-06 0 -0.0048275322041059724 -2.2982516532561262e-05 0 -0.0048124293947119038 -5.8612969963934761e-05 0 -0.0048545662720461723 -3.7438769608214013e-05 0 -0.0048588713291732432 1.8671078363025725e-05 0 -0.0048275322041059724 -2.2982516532561262e-05 0 -0.0048575912718086464 -5.2514269684107922e-06 0 -0.0048575912718086464 -5.2514269684107922e-06 0 -0.0048901654364447789 1.8035950883527943e-06 0 -0.0048704283707983005 7.9644843397127814e-06 0 -0.0048949979575213633 -1.9774432930072929e-05 0 -0.0048575912718086464 -5.2514269684107922e-06 0 -0.0048901654364447789 1.8035950883527943e-06 0 -0.0048901654364447789 1.8035950883527943e-06 0 -0.0049056508093511756 1.3422389422033211e-05 0 -0.0048843993830841896 1.3434824472729131e-05 0 -0.0048901654364447789 1.8035950883527943e-06 0 -0.0048843993830841896 1.3434824472729131e-05 0 -0.0048704283707983005 7.9644843397127814e-06 0 -0.0048588713291732432 1.8671078363025725e-05 0 -0.0048575912718086464 -5.2514269684107922e-06 0 -0.0048704283707983005 7.9644843397127814e-06 0 -0.0048987874315522713 2.1945691243527787e-05 0 -0.0048588713291732432 1.8671078363025725e-05 0 -0.0048843993830841896 1.3434824472729131e-05 0 -0.0048588713291732432 1.8671078363025725e-05 0 -0.0048843993830841896 1.3434824472729131e-05 0 -0.0048704283707983005 7.9644843397127814e-06 0 -0.0049269901333964944 1.169045502311333e-05 0 -0.0049434032964715338 -3.9185821565035858e-06 0 -0.0049436205892277483 1.6261108150188802e-05 0 -0.0049269901333964944 1.169045502311333e-05 0 -0.0049208663039191089 -5.9043298276250216e-06 0 -0.0049434032964715338 -3.9185821565035858e-06 0 -0.0049056508093511756 1.3422389422033211e-05 0 -0.0049269901333964944 1.169045502311333e-05 0 -0.0049208663039191089 -5.9043298276250216e-06 0 -0.0048901654364447789 1.8035950883527943e-06 0 -0.0049056508093511756 1.3422389422033211e-05 0 -0.0049208663039191089 -5.9043298276250216e-06 0 -0.0048949979575213633 -1.9774432930072929e-05 0 -0.0048901654364447789 1.8035950883527943e-06 0 -0.0049208663039191089 -5.9043298276250216e-06 0 -0.0049208663039191089 -5.9043298276250216e-06 0 -0.0049337488276147284 -3.2821130847627536e-05 0 -0.0049434032964715338 -3.9185821565035858e-06 0 -0.0049399376052745138 -4.2441939722256291e-05 0 -0.0049337488276147284 -3.2821130847627536e-05 0 -0.0049459001394019609 -2.645416663044987e-05 0 -0.0048949979575213633 -1.9774432930072929e-05 0 -0.0049208663039191089 -5.9043298276250216e-06 0 -0.0049337488276147284 -3.2821130847627536e-05 0 -0.0048911072980567707 -5.1797734384827004e-05 0 -0.0048949979575213633 -1.9774432930072929e-05 0 -0.0049337488276147284 -3.2821130847627536e-05 0 -0.0049126174165647967 -9.6520223865554882e-05 0 -0.0048911072980567707 -5.1797734384827004e-05 0 -0.0049337488276147284 -3.2821130847627536e-05 0 -0.0049546729381750058 -4.0492202224530136e-05 0 -0.0049459001394019609 -2.645416663044987e-05 0 -0.0049634414445409265 -5.7276132928736285e-06 0 -0.0049459001394019609 -2.645416663044987e-05 0 -0.0049634414445409265 -5.7276132928736285e-06 0 -0.0049434032964715338 -3.9185821565035858e-06 0 -0.0049337488276147284 -3.2821130847627536e-05 0 -0.0049459001394019609 -2.645416663044987e-05 0 -0.0049434032964715338 -3.9185821565035858e-06 0 -0.004959224834527258 8.7335010008146489e-06 0 -0.004962293866531008 1.1287732147302275e-05 0 -0.0049634414445409265 -5.7276132928736285e-06 0 -0.0044095812257289634 0.00016456329531668582 0 -0.0044834110417974705 0.00013819460800984005 0 -0.0049632842701235512 4.3393739290886624e-06 0 -0.0049642634589159677 4.4949432289529769e-06 0 -0.0049655996039986421 1.1610788139396466e-05 0 -0.0049634414445409265 -5.7276132928736285e-06 0 -0.0049632842701235512 4.3393739290886624e-06 0 -0.0049553444402998734 9.4922153884803311e-06 0 -0.0049634414445409265 -5.7276132928736285e-06 0 -0.0049632842701235512 4.3393739290886624e-06 0 -0.0049642634589159677 4.4949432289529769e-06 0 -0.0049634414445409265 -5.7276132928736285e-06 0 -0.0049434032964715338 -3.9185821565035858e-06 0 -0.0049553444402998734 9.4922153884803311e-06 0 -0.0049434032964715338 -3.9185821565035858e-06 0 -0.0049436205892277483 1.6261108150188802e-05 0 -0.0049553444402998734 9.4922153884803311e-06 0 -0.0049525189643144811 1.302974084622445e-05 0 -0.0049590565104502271 8.9162892375595986e-06 0 -0.004964541747992113 7.3920081895953994e-06 0 -0.0047541496564110029 0.00070112881948698345 0 -0.0049233498355785235 0.00048100866374520062 0 -0.0049590565104502271 8.9162892375595986e-06 0 -0.0049642634589159677 4.4949432289529769e-06 0 -0.004964541747992113 7.3920081895953994e-06 0 -0.004959224834527258 8.7335010008146489e-06 0 -0.0049634414445409265 -5.7276132928736285e-06 0 -0.0049642634589159677 4.4949432289529769e-06 0 -0.004959224834527258 8.7335010008146489e-06 0 -0.0049590565104502271 8.9162892375595986e-06 0 -0.0049642634589159677 4.4949432289529769e-06 0 -0.0049642634589159677 4.4949432289529769e-06 0 -0.004964541747992113 7.3920081895953994e-06 0 -0.0049687477693691404 1.0665130529693415e-05 0 -0.0049738737203959358 1.4090097051764722e-05 0 -0.0049687477693691404 1.0665130529693415e-05 0 -0.0049729806259169633 1.7599352304771933e-05 0 -0.0049233498355785235 0.00048100866374520062 0 -0.0049935061398594912 0.00028789605092769636 0 -0.004964541747992113 7.3920081895953994e-06 0 -0.0049738737203959358 1.4090097051764722e-05 0 -0.0049687477693691404 1.0665130529693415e-05 0 -0.0049642634589159677 4.4949432289529769e-06 0 -0.0049687477693691404 1.0665130529693415e-05 0 -0.0049655996039986421 1.1610788139396466e-05 0 -0.0049687477693691404 1.0665130529693415e-05 0 -0.0049729806259169633 1.7599352304771933e-05 0 -0.0049655996039986421 1.1610788139396466e-05 0 -0.0049738737203959358 1.4090097051764722e-05 0 -0.0049729806259169633 1.7599352304771933e-05 0 -0.0049780646208075477 1.8333231273323279e-05 0 -0.0049935061398594912 0.00028789605092769636 0 -0.0050130143286275467 0.00014804205064371733 0 -0.0049580340280898161 1.7215991440341693e-05 0 -0.0049436205892277483 1.6261108150188802e-05 0 -0.0049513274924091813 2.3463722283379213e-05 0 -0.0049580340280898161 1.7215991440341693e-05 0 -0.0049436205892277483 1.6261108150188802e-05 0 -0.0049553444402998734 9.4922153884803311e-06 0 -0.0049580340280898161 1.7215991440341693e-05 0 -0.0049553444402998734 9.4922153884803311e-06 0 -0.0049655996039986421 1.1610788139396466e-05 0 -0.0049632842701235512 4.3393739290886624e-06 0 -0.0049553444402998734 9.4922153884803311e-06 0 -0.0049655996039986421 1.1610788139396466e-05 0 -0.0049580340280898161 1.7215991440341693e-05 0 -0.0049655996039986421 1.1610788139396466e-05 0 -0.0049655057546253841 1.9810509744548436e-05 0 -0.0049729806259169633 1.7599352304771933e-05 0 -0.0049655996039986421 1.1610788139396466e-05 0 -0.0049655057546253841 1.9810509744548436e-05 0 -0.0049729806259169633 1.7599352304771933e-05 0 -0.0049655057546253841 1.9810509744548436e-05 0 -0.0049740643448992709 2.0913907231675362e-05 0 -0.0049655057546253841 1.9810509744548436e-05 0 -0.0049513274924091813 2.3463722283379213e-05 0 -0.0049632282854276902 2.3550751957349733e-05 0 -0.0049580340280898161 1.7215991440341693e-05 0 -0.0049655057546253841 1.9810509744548436e-05 0 -0.0049513274924091813 2.3463722283379213e-05 0 -0.0049513274924091813 2.3463722283379213e-05 0 -0.0049547531184960273 2.6657698712128881e-05 0 -0.0049632282854276902 2.3550751957349733e-05 0 -0.0049547531184960273 2.6657698712128881e-05 0 -0.0049672624853338964 2.4212792858097855e-05 0 -0.0049632282854276902 2.3550751957349733e-05 0 -0.0049655057546253841 1.9810509744548436e-05 0 -0.0049632282854276902 2.3550751957349733e-05 0 -0.0049740643448992709 2.0913907231675362e-05 0 -0.0049672624853338964 2.4212792858097855e-05 0 -0.0049632282854276902 2.3550751957349733e-05 0 -0.0049740643448992709 2.0913907231675362e-05 0 -0.0049672624853338964 2.4212792858097855e-05 0 -0.0049740643448992709 2.0913907231675362e-05 0 -0.0049786082430020523 2.0238725613699082e-05 0 -0.0049740643448992709 2.0913907231675362e-05 0 -0.0049786082430020523 2.0238725613699082e-05 0 -0.0049860018526712499 1.4379235926586951e-05 0 -0.0049786082430020523 2.0238725613699082e-05 0 -0.004973465824484909 2.3082199883504615e-05 0 -0.0049819825708660058 2.0281970810053946e-05 0 -0.0049672624853338964 2.4212792858097855e-05 0 -0.004973465824484909 2.3082199883504615e-05 0 -0.0049509049655937472 2.9456726765000618e-05 0 -0.004973465824484909 2.3082199883504615e-05 0 -0.0049819825708660058 2.0281970810053946e-05 0 -0.004972606869422613 2.4141805109189364e-05 0 -0.0049672624853338964 2.4212792858097855e-05 0 -0.0049786082430020523 2.0238725613699082e-05 0 -0.004973465824484909 2.3082199883504615e-05 0 -0.0049729806259169633 1.7599352304771933e-05 0 -0.0049780646208075477 1.8333231273323279e-05 0 -0.0049812871550777987 1.746514420468418e-05 0 -0.0049729806259169633 1.7599352304771933e-05 0 -0.0049740643448992709 2.0913907231675362e-05 0 -0.0049812871550777987 1.746514420468418e-05 0 -0.0049740643448992709 2.0913907231675362e-05 0 -0.0049812871550777987 1.746514420468418e-05 0 -0.0049860018526712499 1.4379235926586951e-05 0 -0.0050130143286275467 0.00014804205064371733 0 -0.00501045270247376 6.3818903984823064e-05 0 -0.0049780646208075477 1.8333231273323279e-05 0 -0.0049812871550777987 1.746514420468418e-05 0 -0.0049837674563534195 1.2664476868652752e-05 0 -0.0049812871550777987 1.746514420468418e-05 0 -0.0049837674563534195 1.2664476868652752e-05 0 -0.0049911587870806575 8.4485595374661645e-06 0 -0.0049812871550777987 1.746514420468418e-05 0 -0.0049911587870806575 8.4485595374661645e-06 0 -0.0049860018526712499 1.4379235926586951e-05 0 -0.0049911587870806575 8.4485595374661645e-06 0 -0.0049860018526712499 1.4379235926586951e-05 0 -0.0049931502064432679 7.2277461994699591e-06 0 -0.0049911587870806575 8.4485595374661645e-06 0 -0.0049999892884833239 6.1810960303248135e-09 0 -0.0049931502064432679 7.2277461994699591e-06 0 -0.0049837674563534195 1.2664476868652752e-05 0 -0.0049911587870806575 8.4485595374661645e-06 0 -0.004999974448032839 5.6777584772935361e-09 0 -0.0049911587870806575 8.4485595374661645e-06 0 -0.0049999892884833239 6.1810960303248135e-09 0 -0.004999974448032839 5.6777584772935361e-09 0 -0.00501045270247376 6.3818903984823064e-05 0 -0.0050000221036511847 7.078191111421248e-08 0 -0.0049819825708660058 2.0281970810053946e-05 0 -0.0049871757624698042 1.3542455174121766e-05 0 -0.0049901003632649241 1.1468414899889528e-05 0 -0.0049871757624698042 1.3542455174121766e-05 0 -0.0049926263990591382 8.0636975876264616e-06 0 -0.0049901003632649241 1.1468414899889528e-05 0 -0.0049665871606532058 6.1749208985714674e-05 0 -0.0049419876320453034 0.00017028956989102769 0 -0.0049994291477853097 8.3820373132013744e-07 0 -0.0049995980086960136 1.1048913431573906e-06 0 -0.0049991971621978319 1.9716605823727644e-06 0 -0.0049819825708660058 2.0281970810053946e-05 0 -0.0049901003632649241 1.1468414899889528e-05 0 -0.0049857775624542735 2.2929808924450414e-05 0 -0.0049408762147305219 0.00016516432680502408 0 -0.0049419876320453034 0.00017028956989102769 0 -0.0049786082430020523 2.0238725613699082e-05 0 -0.0049819825708660058 2.0281970810053946e-05 0 -0.0049871757624698042 1.3542455174121766e-05 0 -0.0049786082430020523 2.0238725613699082e-05 0 -0.0049860018526712499 1.4379235926586951e-05 0 -0.0049871757624698042 1.3542455174121766e-05 0 -0.0049860018526712499 1.4379235926586951e-05 0 -0.0049871757624698042 1.3542455174121766e-05 0 -0.0049931502064432679 7.2277461994699591e-06 0 -0.0049999892884833239 6.1810960303248135e-09 0 -0.0049931502064432679 7.2277461994699591e-06 0 -0.0049999835565167116 1.3068402758990547e-08 0 -0.0049926263990591382 8.0636975876264616e-06 0 -0.0049931502064432679 7.2277461994699591e-06 0 -0.0049999835565167116 1.3068402758990547e-08 0 -0.0049871757624698042 1.3542455174121766e-05 0 -0.0049926263990591382 8.0636975876264616e-06 0 -0.0049931502064432679 7.2277461994699591e-06 0 -0.0049998762760568114 1.1213668853901258e-07 0 -0.0049665871606532058 6.1749208985714674e-05 0 -0.004999999128543247 3.3004856133821255e-10 0 -0.0049994291477853097 8.3820373132013744e-07 0 -0.0049999990530467534 4.8365074920209404e-10 0 -0.0049926263990591382 8.0636975876264616e-06 0 -0.0049999835565167116 1.3068402758990547e-08 0 -0.0049901003632649241 1.1468414899889528e-05 0 -0.0049994291477853097 8.3820373132013744e-07 0 -0.0049999990530467534 4.8365074920209404e-10 0 -0.0049995980086960136 1.1048913431573906e-06 0 -0.0049999990530467534 4.8365074920209404e-10 0 -0.0049998732564967355 1.2622218490482588e-06 0 -0.0049995980086960136 1.1048913431573906e-06 0 -0.0049999990530467534 4.8365074920209404e-10 0 -0.0050000017457381895 8.7895085605142362e-10 0 -0.0049998732564967355 1.2622218490482588e-06 0 -0.0050000017457381895 8.7895085605142362e-10 0 -0.0049998732564967355 1.2622218490482588e-06 0 -0.0050004750779737359 1.4961459227447894e-06 0 -0.0049998732564967355 1.2622218490482588e-06 0 -0.0049999450474426362 3.3991168444518839e-06 0 -0.0050004750779737359 1.4961459227447894e-06 0 -0.0049998732564967355 1.2622218490482588e-06 0 -0.0049991971621978319 1.9716605823727644e-06 0 -0.0049999450474426362 3.3991168444518839e-06 0 -0.0049998732564967355 1.2622218490482588e-06 0 -0.0049995980086960136 1.1048913431573906e-06 0 -0.0049991971621978319 1.9716605823727644e-06 0 -0.0050445170541524292 0.00063617845608409101 0 -0.0048516149129869939 0.00055330066687053292 0 -0.0049683900777300694 0.00047231817356332078 0 -0.0049419876320453034 0.00017028956989102769 0 -0.0049224461467061928 0.00022749763200349073 0 -0.004973465824484909 2.3082199883504615e-05 0 -0.004972606869422613 2.4141805109189364e-05 0 -0.0049509049655937472 2.9456726765000618e-05 0 -0.0049419876320453034 0.00017028956989102769 0 -0.0049428117918106657 0.00020694601172311771 0 -0.0048477468630138184 0.00039177674970985017 0 -0.0048404654004584862 0.00044723817282084062 0 -0.0049683900777300694 0.00047231817356332078 0 -0.0048516149129869939 0.00055330066687053292 0 -0.0048404654004584862 0.00044723817282084062 0 -0.0049683900777300694 0.00047231817356332078 0 -0.0048516149129869939 0.00055330066687053292 0 -0.0048404654004584862 0.00044723817282084062 0 -0.004767717841459654 0.00044466545088968471 0 -0.0048477468630138184 0.00039177674970985017 0 -0.0047808501316898367 0.00039902047829140749 0 -0.0048404654004584862 0.00044723817282084062 0 -0.0049547531184960273 2.6657698712128881e-05 0 -0.0049672624853338964 2.4212792858097855e-05 0 -0.0049509049655937472 2.9456726765000618e-05 0 -0.0049383272875257629 2.888449156360279e-05 0 -0.0049547531184960273 2.6657698712128881e-05 0 -0.0049509049655937472 2.9456726765000618e-05 0 -0.004638401909977382 0.00039231524976845929 0 -0.0046526307856089655 0.00046960233869251566 0 -0.0045017183134222795 0.00040489305090825062 0 -0.004638401909977382 0.00039231524976845929 0 -0.0046534026596695699 0.00046902052336064319 0 -0.0047119286133324645 0.00041643491365776059 0 -0.0048179639400779475 0.00024125471521890224 0 -0.004822166858225954 0.00021346542866156203 0 -0.0047808501316898367 0.00039902047829140749 0 -0.0047119286133324645 0.00041643491365776059 0 -0.004767717841459654 0.00044466545088968471 0 -0.0048516149129869939 0.00055330066687053292 0 -0.0046534026596695699 0.00046902052336064319 0 -0.004767717841459654 0.00044466545088968471 0 -0.0049224461467061928 0.00022749763200349073 0 -0.004822166858225954 0.00021346542866156203 0 -0.0046534026596695699 0.00046902052336064319 0 -0.0047119286133324645 0.00041643491365776059 0 -0.004767717841459654 0.00044466545088968471 0 -0.0047808501316898367 0.00039902047829140749 0 -0.0048404654004584862 0.00044723817282084062 0 -0.004767717841459654 0.00044466545088968471 0 -0.0049999450474426362 3.3991168444518839e-06 0 -0.0050013980151993641 5.0201474222679139e-06 0 -0.0050014011699464067 2.5159975234918417e-06 0 -0.004822166858225954 0.00021346542866156203 0 -0.0048923293673111944 0.00010756259883578532 0 -0.004750799708530146 0.00015901761424437353 0 -0.0047581164636244363 0.00019743363185757763 0 -0.0047288511405655211 0.00018082291578186657 0 -0.0047581164636244363 0.00019743363185757763 0 -0.0047386435198994463 0.00020877827763444089 0 -0.0047288511405655211 0.00018082291578186657 0 -0.0047581164636244363 0.00019743363185757763 0 -0.0047386435198994463 0.00020877827763444089 0 -0.0047655981855247798 0.0002357944724803978 0 -0.0048923293673111944 0.00010756259883578532 0 -0.0049742900521705571 3.1232557302286135e-05 0 -0.0050014011699464067 2.5159975234918417e-06 0 -0.0050004750779737359 1.4961459227447894e-06 0 -0.0050011717656089083 3.721651480716484e-07 0 -0.0049999450474426362 3.3991168444518839e-06 0 -0.0050014011699464067 2.5159975234918417e-06 0 -0.0050004750779737359 1.4961459227447894e-06 0 -0.0050000017457381895 8.7895085605142362e-10 0 -0.0050004750779737359 1.4961459227447894e-06 0 -0.0050011717656089083 3.721651480716484e-07 0 -0.0049742900521705571 3.1232557302286135e-05 0 -0.0049995900543184672 2.6901282068963364e-07 0 -0.0049999502211378237 1.0497596746033824e-07 0 -0.0049742900521705571 3.1232557302286135e-05 0 -0.005000000029363366 -3.7546414912774304e-12 0 -0.0049999885436666693 1.7897591028843359e-08 0 -0.0049999998818636947 7.3353983491033943e-11 0 -0.0047386435198994463 0.00020877827763444089 0 -0.0047655981855247798 0.0002357944724803978 0 -0.0047297674651748858 0.00022840277350155282 0 -0.0049742900521705571 3.1232557302286135e-05 0 -0.0048876472168065685 7.6419583784707819e-05 0 -0.0049999848398318818 2.0495658912791748e-08 0 -0.005000000703655136 -3.14754344622138e-10 0 -0.0049999588736180092 -1.762999784052899e-08 0 -0.005000000703655136 -3.14754344622138e-10 0 -0.0049999588736180092 -1.762999784052899e-08 0 -0.0049999983397002856 8.9550966075476765e-10 0 -0.0048876472168065685 7.6419583784707819e-05 0 -0.0048405553161468542 0.00010976783170921721 0 -0.0049999588736180092 -1.762999784052899e-08 0 -0.0049999983397002856 8.9550966075476765e-10 0 -0.0049989860924165314 1.1012591840156547e-07 0 -0.0050000002368329561 -7.0559869072224198e-11 0 -0.0049999995848120839 1.2386138144663301e-10 0 -0.0050000157860300596 -2.1233932645161171e-08 0 -0.0049999994703206381 6.860508850659771e-11 0 -0.0049997130122449683 8.3925674576718468e-09 0 -0.0049999983397002856 8.9550966075476765e-10 0 -0.0049989860924165314 1.1012591840156547e-07 0 -0.0049989703226241688 1.5184581925707794e-07 0 -0.0046938010064527334 0.00022075975939130353 0 -0.0047107828744309905 0.00020137059912833194 0 -0.0046865899009674097 0.00019278813642038351 0 -0.0047297674651748858 0.00022840277350155282 0 -0.0046938010064527334 0.00022075975939130353 0 -0.0047107828744309905 0.00020137059912833194 0 -0.0047386435198994463 0.00020877827763444089 0 -0.0047297674651748858 0.00022840277350155282 0 -0.0047107828744309905 0.00020137059912833194 0 -0.0047386435198994463 0.00020877827763444089 0 -0.0047107828744309905 0.00020137059912833194 0 -0.0047288511405655211 0.00018082291578186657 0 -0.0049998070946373216 1.0065462247003383e-07 0 -0.0049999995848120839 1.2386138144663301e-10 0 -0.0049999996316276883 2.6685330307438682e-10 0 -0.0049998070946373216 1.0065462247003383e-07 0 -0.0049994754373387986 2.5853677960128307e-07 0 -0.0049999996316276883 2.6685330307438682e-10 0 -0.0049989703226241688 1.5184581925707794e-07 0 -0.0049993603913481123 3.4232973818082689e-07 0 -0.0049994754373387986 2.5853677960128307e-07 0 -0.0049989860924165314 1.1012591840156547e-07 0 -0.0049989703226241688 1.5184581925707794e-07 0 -0.0049993603913481123 3.4232973818082689e-07 0 -0.0049997130122449683 8.3925674576718468e-09 0 -0.0049996892766978824 5.2258417071891625e-08 0 -0.0049998070946373216 1.0065462247003383e-07 0 -0.0050000157860300596 -2.1233932645161171e-08 0 -0.0049994754373387986 2.5853677960128307e-07 0 -0.0049998070946373216 1.0065462247003383e-07 0 -0.0049999995848120839 1.2386138144663301e-10 0 -0.0050000157860300596 -2.1233932645161171e-08 0 -0.0046585090033976918 0.00021277550919100813 0 -0.0046683933358752667 0.00018665926558983717 0 -0.0046865899009674097 0.00019278813642038351 0 -0.0048405553161468542 0.00010976783170921721 0 -0.0047784392494891834 0.00014012662525015928 0 -0.0046938010064527334 0.00022075975939130353 0 -0.0046585090033976918 0.00021277550919100813 0 -0.0046865899009674097 0.00019278813642038351 0 -0.0046585090033976918 0.00021277550919100813 0 -0.00464990217584999 0.00017651418655916095 0 -0.004623886959705165 0.00020501279220214408 0 -0.0049993603913481123 3.4232973818082689e-07 0 -0.0049994754373387986 2.5853677960128307e-07 0 -0.0049993239339520103 4.1114836086691573e-07 0 -0.0047784392494891834 0.00014012662525015928 0 -0.0046076700760138032 0.0001679874852498234 0 -0.0046585090033976918 0.00021277550919100813 0 -0.00464990217584999 0.00017651418655916095 0 -0.0046683933358752667 0.00018665926558983717 0 -0.00464990217584999 0.00017651418655916095 0 -0.0046683933358752667 0.00018665926558983717 0 -0.0046806649578069051 0.00017057296771709913 0 -0.0046683933358752667 0.00018665926558983717 0 -0.0046865899009674097 0.00019278813642038351 0 -0.0046806649578069051 0.00017057296771709913 0 -0.0045487224748994928 0.00021683424994708896 0 -0.0045351501849686887 0.00022008350120366534 0 -0.00464990217584999 0.00017651418655916095 0 -0.0046806649578069051 0.00017057296771709913 0 -0.0046753333962652579 0.0001486420036375546 0 -0.0045351501849686887 0.00022008350120366534 0 -0.0044948946897398695 0.00024417429431062876 0 -0.0046811944365855234 0.00016952014177180894 0 -0.0046757304534986461 0.00014635853612815917 0 -0.0046932442242202596 0.0001541520601904807 0 -0.0041537005708561356 0.0004799793870789222 0 -0.0042608513730495153 0.00036160229370396494 0 -0.0041554240378319021 0.00032519537001066725 0 -0.0044662487310930549 0.0002905075434072779 0 -0.0044948946897398695 0.00024417429431062876 0 -0.0041537005708561356 0.0004799793870789222 0 -0.0041554240378319021 0.00032519537001066725 0 -0.0040507209833426788 0.00036008279691935224 0 -0.0047107828744309905 0.00020137059912833194 0 -0.0047288511405655211 0.00018082291578186657 0 -0.0047033944259972883 0.00017401717440491084 0 -0.0047107828744309905 0.00020137059912833194 0 -0.0046865899009674097 0.00019278813642038351 0 -0.0047033944259972883 0.00017401717440491084 0 -0.0046865899009674097 0.00019278813642038351 0 -0.0046811944365855234 0.00016952014177180894 0 -0.0047033944259972883 0.00017401717440491084 0 -0.0047033944259972883 0.00017401717440491084 0 -0.0046932442242202596 0.0001541520601904807 0 -0.0047196433817586533 0.00014555667118200125 0 -0.0046811944365855234 0.00016952014177180894 0 -0.0047033944259972883 0.00017401717440491084 0 -0.0046932442242202596 0.0001541520601904807 0 -0.0047288511405655211 0.00018082291578186657 0 -0.0047033944259972883 0.00017401717440491084 0 -0.0047196433817586533 0.00014555667118200125 0 -0.004750799708530146 0.00015901761424437353 0 -0.0047288511405655211 0.00018082291578186657 0 -0.0047196433817586533 0.00014555667118200125 0 -0.004822166858225954 0.00021346542866156203 0 -0.0046495377112714242 0.00022524290695911597 0 -0.004638401909977382 0.00039231524976845929 0 -0.0045017183134222795 0.00040489305090825062 0 -0.0045732896629986841 0.00031866162796442382 0 -0.0045017183134222795 0.00040489305090825062 0 -0.0044757511110092964 0.00029964109376251935 0 -0.0045732896629986841 0.00031866162796442382 0 -0.0046537561901576797 0.00024527430058141427 0 -0.0045080280499692881 0.00020315383677840118 0 -0.0046531689100542204 0.00027982512729610447 0 -0.0045812374115725444 0.00017602764161619614 0 -0.0044805838794118079 0.00021653391029662769 0 -0.0044757511110092964 0.00029964109376251935 0 -0.0045732896629986841 0.00031866162796442382 0 -0.0044802046470656196 0.00019968823785315533 0 -0.0046591240895103485 0.00025800769694022974 0 -0.0045732896629986841 0.00031866162796442382 0 -0.0044802046470656196 0.00019968823785315533 0 -0.0044802046470656196 0.00019968823785315533 0 -0.004403745853467712 0.00024418739724003566 0 -0.0043076210448303636 0.00014757954799717382 0 -0.004403745853467712 0.00024418739724003566 0 -0.0043292713248940353 0.00024250722721228424 0 -0.0043076210448303636 0.00014757954799717382 0 -0.0044757511110092964 0.00029964109376251935 0 -0.004403745853467712 0.00024418739724003566 0 -0.0043785339861487516 0.00031558361637461316 0 -0.0044757511110092964 0.00029964109376251935 0 -0.0044802046470656196 0.00019968823785315533 0 -0.004403745853467712 0.00024418739724003566 0 -0.004403745853467712 0.00024418739724003566 0 -0.0043614669529313931 0.00027354125679871698 0 -0.0043292713248940353 0.00024250722721228424 0 -0.004403745853467712 0.00024418739724003566 0 -0.0043614669529313931 0.00027354125679871698 0 -0.0043785339861487516 0.00031558361637461316 0 -0.0043614669529313931 0.00027354125679871698 0 -0.0043785339861487516 0.00031558361637461316 0 -0.0043347837887372986 0.00029207495328134923 0 -0.0043785339861487516 0.00031558361637461316 0 -0.0043552956685397283 0.00034098192380251226 0 -0.0043347837887372986 0.00029207495328134923 0 -0.0046932442242202596 0.0001541520601904807 0 -0.0047196433817586533 0.00014555667118200125 0 -0.0046884912891685705 0.00013215197245639997 0 -0.0045017183134222795 0.00040489305090825062 0 -0.0044757511110092964 0.00029964109376251935 0 -0.0043785339861487516 0.00031558361637461316 0 -0.0046495377112714242 0.00022524290695911597 0 -0.0045158350732283931 0.00022685450887692345 0 -0.0045017183134222795 0.00040489305090825062 0 -0.0043785339861487516 0.00031558361637461316 0 -0.0043548897506958031 0.00034185296648715573 0 -0.0045113641329821586 0.00023121992654972002 0 -0.0045158350732283931 0.00022685450887692345 0 -0.0046757304534986461 0.00014635853612815917 0 -0.0046932442242202596 0.0001541520601904807 0 -0.0046884912891685705 0.00013215197245639997 0 -0.0044794799274081917 0.00020399888591644876 0 -0.0044369278068722897 0.00025124257094536021 0 -0.0044961180633821887 0.00027739567170430508 0 -0.0042608513730495153 0.00036160229370396494 0 -0.004240674906146517 0.00027385841349097793 0 -0.0041554240378319021 0.00032519537001066725 0 -0.0044948946897398695 0.00024417429431062876 0 -0.0045158350732283931 0.00022685450887692345 0 -0.0044948946897398695 0.00024417429431062876 0 -0.0044213028602152612 0.00020358738904862605 0 -0.0043552956685397283 0.00034098192380251226 0 -0.0042742865451779076 0.00030509815339940463 0 -0.0043347837887372986 0.00029207495328134923 0 -0.0045158350732283931 0.00022685450887692345 0 -0.0044213028602152612 0.00020358738904862605 0 -0.004240674906146517 0.00027385841349097793 0 -0.0041554240378319021 0.00032519537001066725 0 -0.0041626500767769506 0.00023970643715949655 0 -0.0041554240378319021 0.00032519537001066725 0 -0.0041626500767769506 0.00023970643715949655 0 -0.0040838539649807075 0.00023810371621151358 0 -0.0042431412805526269 0.00027513800330866619 0 -0.0041626500767769506 0.00023970643715949655 0 -0.0042153103370505315 0.0001477349319134255 0 -0.0041626500767769506 0.00023970643715949655 0 -0.0041459690064215918 0.00017681228027884 0 -0.0040838539649807075 0.00023810371621151358 0 -0.0044213028602152612 0.00020358738904862605 0 -0.0043707481436404448 0.0001926051674335663 0 -0.0041626500767769506 0.00023970643715949655 0 -0.0041459690064215918 0.00017681228027884 0 -0.0042153103370505315 0.0001477349319134255 0 -0.0044213028602152612 0.00020358738904862605 0 -0.0043420868805222404 0.00014000594676160107 0 -0.0042742865451779076 0.00030509815339940463 0 -0.0042873861963760636 0.00021507284919556452 0 -0.0042382108049022274 0.00016536751477603517 0 -0.0042742865451779076 0.00030509815339940463 0 -0.0043292713248940353 0.00024250722721228424 0 -0.0043347837887372986 0.00029207495328134923 0 -0.0042742865451779076 0.00030509815339940463 0 -0.0043292713248940353 0.00024250722721228424 0 -0.0042873861963760636 0.00021507284919556452 0 -0.0043614669529313931 0.00027354125679871698 0 -0.0043292713248940353 0.00024250722721228424 0 -0.0043347837887372986 0.00029207495328134923 0 -0.0043292713248940353 0.00024250722721228424 0 -0.0042873861963760636 0.00021507284919556452 0 -0.0043076210448303636 0.00014757954799717382 0 -0.0042382108049022274 0.00016536751477603517 0 -0.0041949301805704661 1.7847900127481016e-05 0 -0.0042806328638769504 5.9452439570421294e-05 0 -0.0042873861963760636 0.00021507284919556452 0 -0.0043076210448303636 0.00014757954799717382 0 -0.0042382108049022274 0.00016536751477603517 0 -0.0043076210448303636 0.00014757954799717382 0 -0.0042382108049022274 0.00016536751477603517 0 -0.0042806328638769504 5.9452439570421294e-05 0 -0.0043076210448303636 0.00014757954799717382 0 -0.0042806328638769504 5.9452439570421294e-05 0 -0.0043472234018603947 7.1096351737772316e-05 0 -0.0043420868805222404 0.00014000594676160107 0 -0.0043119934175447783 9.206595451659686e-05 0 -0.0042153103370505315 0.0001477349319134255 0 -0.0041476072628388906 0.00011148281169661327 0 -0.0041949301805704661 1.7847900127481016e-05 0 -0.0041459690064215918 0.00017681228027884 0 -0.0041476072628388906 0.00011148281169661327 0 -0.0040910385595340501 0.00014361285191598653 0 -0.0041459690064215918 0.00017681228027884 0 -0.0042153103370505315 0.0001477349319134255 0 -0.0041476072628388906 0.00011148281169661327 0 -0.0041949301805704661 1.7847900127481016e-05 0 -0.0040942421148529775 5.8068921367623514e-05 0 -0.0041306515514414515 -7.3856849100996957e-05 0 -0.0041476072628388906 0.00011148281169661327 0 -0.0041949301805704661 1.7847900127481016e-05 0 -0.0040942421148529775 5.8068921367623514e-05 0 -0.0042806328638769504 5.9452439570421294e-05 0 -0.0043422337093806012 5.0630072954514154e-07 0 -0.0043472234018603947 7.1096351737772316e-05 0 -0.0041949301805704661 1.7847900127481016e-05 0 -0.0042806328638769504 5.9452439570421294e-05 0 -0.0042541071578934449 -4.8682938819572029e-05 0 -0.0042806328638769504 5.9452439570421294e-05 0 -0.0043422337093806012 5.0630072954514154e-07 0 -0.0042541071578934449 -4.8682938819572029e-05 0 -0.0043422337093806012 5.0630072954514154e-07 0 -0.0044053181056893992 3.3582665771858818e-05 0 -0.0044076897249039409 -3.198695815579915e-05 0 -0.0043422337093806012 5.0630072954514154e-07 0 -0.0043472234018603947 7.1096351737772316e-05 0 -0.0044053181056893992 3.3582665771858818e-05 0 -0.0043472234018603947 7.1096351737772316e-05 0 -0.0044053181056893992 3.3582665771858818e-05 0 -0.0044153698589818992 0.00011028232208376471 0 -0.0044053181056893992 3.3582665771858818e-05 0 -0.004472136917447714 5.393957648338553e-05 0 -0.0044153698589818992 0.00011028232208376471 0 -0.0044053181056893992 3.3582665771858818e-05 0 -0.0044653487056831266 -9.5611260520933497e-06 0 -0.004472136917447714 5.393957648338553e-05 0 -0.0044053181056893992 3.3582665771858818e-05 0 -0.0044653487056831266 -9.5611260520933497e-06 0 -0.0044076897249039409 -3.198695815579915e-05 0 -0.0044653487056831266 -9.5611260520933497e-06 0 -0.004532755282437898 1.8346104432373468e-05 0 -0.004472136917447714 5.393957648338553e-05 0 -0.0044653487056831266 -9.5611260520933497e-06 0 -0.004532755282437898 1.8346104432373468e-05 0 -0.0045259688076567791 -3.2222817092266336e-05 0 -0.0045844794250686416 -9.5940866422434828e-06 0 -0.004532755282437898 1.8346104432373468e-05 0 -0.0045259688076567791 -3.2222817092266336e-05 0 -0.0045942106337191358 4.1389211844212792e-05 0 -0.0045844794250686416 -9.5940866422434828e-06 0 -0.004532755282437898 1.8346104432373468e-05 0 -0.0045942106337191358 4.1389211844212792e-05 0 -0.004532755282437898 1.8346104432373468e-05 0 -0.0045316965448636498 6.7270669658903211e-05 0 -0.0045883762742561863 0.0001079918172851781 0 -0.0045942106337191358 4.1389211844212792e-05 0 -0.0045316965448636498 6.7270669658903211e-05 0 -0.0045316965448636498 6.7270669658903211e-05 0 -0.004472136917447714 5.393957648338553e-05 0 -0.0045089945075868741 0.00012342084603876664 0 -0.004532755282437898 1.8346104432373468e-05 0 -0.0045316965448636498 6.7270669658903211e-05 0 -0.004472136917447714 5.393957648338553e-05 0 -0.004472136917447714 5.393957648338553e-05 0 -0.0045089945075868741 0.00012342084603876664 0 -0.0044153698589818992 0.00011028232208376471 0 -0.0045883762742561863 0.0001079918172851781 0 -0.0045316965448636498 6.7270669658903211e-05 0 -0.0045089945075868741 0.00012342084603876664 0 -0.0045812374115725444 0.00017602764161619614 0 -0.0045883762742561863 0.0001079918172851781 0 -0.0045089945075868741 0.00012342084603876664 0 -0.0045812374115725444 0.00017602764161619614 0 -0.0044805838794118079 0.00021653391029662769 0 -0.0045089945075868741 0.00012342084603876664 0 -0.0044805838794118079 0.00021653391029662769 0 -0.0045089945075868741 0.00012342084603876664 0 -0.0044153698589818992 0.00011028232208376471 0 -0.0044805838794118079 0.00021653391029662769 0 -0.0043076210448303636 0.00014757954799717382 0 -0.0044153698589818992 0.00011028232208376471 0 -0.0045080280499692881 0.00020315383677840118 0 -0.0044257172699219164 0.00017629453334253037 0 -0.0043076210448303636 0.00014757954799717382 0 -0.0043472234018603947 7.1096351737772316e-05 0 -0.0044153698589818992 0.00011028232208376471 0 -0.0038580627162198857 4.1619521032937948e-05 0 -0.0039813619653211165 0.00013451269540944473 0 -0.0037966866014814923 0.00017824184608385564 0 -0.0037397057254403474 4.4729266871443243e-05 0 -0.0037966866014814923 0.00017824184608385564 0 -0.0036327179991036919 8.5254864916856351e-05 0 -0.0037397057254403474 4.4729266871443243e-05 0 -0.0038580627162198857 4.1619521032937948e-05 0 -0.0037966866014814923 0.00017824184608385564 0 -0.0037397057254403474 4.4729266871443243e-05 0 -0.0038580627162198857 4.1619521032937948e-05 0 -0.0037409641942783576 -7.0096546321944472e-05 0 -0.0038580627162198857 4.1619521032937948e-05 0 -0.0038681287297194504 -6.1601447680936696e-05 0 -0.0037409641942783576 -7.0096546321944472e-05 0 -0.004006687862800405 1.5510164825008306e-05 0 -0.003987746471590739 0.00013550206658984016 0 -0.0038580627162198857 4.1619521032937948e-05 0 -0.0040045686514474273 -7.5422800678265343e-06 0 -0.0039813619653211165 0.00013451269540944473 0 -0.0038580627162198857 4.1619521032937948e-05 0 -0.0040045686514474273 -7.5422800678265343e-06 0 -0.0038681287297194504 -6.1601447680936696e-05 0 -0.0040133515683725479 -2.7459006009299464e-06 0 -0.0040942421148529775 5.8068921367623514e-05 0 -0.0041306515514414515 -7.3856849100996957e-05 0 -0.0040133515683725479 -2.7459006009299464e-06 0 -0.0040942421148529775 5.8068921367623514e-05 0 -0.0039948132039906133 0.0001409544808708101 0 -0.0040942421148529775 5.8068921367623514e-05 0 -0.0040910385595340501 0.00014361285191598653 0 -0.0039948132039906133 0.0001409544808708101 0 -0.0041476072628388906 0.00011148281169661327 0 -0.0040942421148529775 5.8068921367623514e-05 0 -0.0040910385595340501 0.00014361285191598653 0 -0.003987746471590739 0.00013550206658984016 0 -0.0039690222881378166 0.00025289702047180646 0 -0.0039813619653211165 0.00013451269540944473 0 -0.0039615118973347395 0.00027427705238150784 0 -0.0037966866014814923 0.00017824184608385564 0 -0.0040910385595340501 0.00014361285191598653 0 -0.0039948132039906133 0.0001409544808708101 0 -0.0040838539649807075 0.00023810371621151358 0 -0.0039948132039906133 0.0001409544808708101 0 -0.0040838539649807075 0.00023810371621151358 0 -0.0039719745884438246 0.0002768095056486726 0 -0.0041459690064215918 0.00017681228027884 0 -0.0040910385595340501 0.00014361285191598653 0 -0.0040838539649807075 0.00023810371621151358 0 -0.0040838539649807075 0.00023810371621151358 0 -0.0039719745884438246 0.0002768095056486726 0 -0.0040507209833426788 0.00036008279691935224 0 -0.0041554240378319021 0.00032519537001066725 0 -0.0040838539649807075 0.00023810371621151358 0 -0.0040507209833426788 0.00036008279691935224 0 -0.0039690222881378166 0.00025289702047180646 0 -0.0039589611699283791 0.00031507949737400343 0 -0.0039719745884438246 0.0002768095056486726 0 -0.0040507209833426788 0.00036008279691935224 0 -0.003944428524121673 0.00041322135053547735 0 -0.0039615118973347395 0.00027427705238150784 0 -0.0038370904468800295 0.00030559804486814855 0 -0.003944428524121673 0.00041322135053547735 0 -0.0039615118973347395 0.00027427705238150784 0 -0.0038370904468800295 0.00030559804486814855 0 -0.0037966866014814923 0.00017824184608385564 0 -0.0038464591791987236 0.00026071325651738967 0 -0.0038879451971734185 0.00025128185685837604 0 -0.0038370904468800295 0.00030559804486814855 0 -0.0037966866014814923 0.00017824184608385564 0 -0.0037110459076500329 0.0003280492086172222 0 -0.0038370904468800295 0.00030559804486814855 0 -0.0038056074517831941 0.00042945202423290787 0 -0.0037110459076500329 0.0003280492086172222 0 -0.0038056074517831941 0.00042945202423290787 0 -0.0037316758626533717 0.00045289911569739349 0 -0.0037236963479977234 0.00033762569433611902 0 -0.0038764480698929116 0.00028419829678675765 0 -0.0038879451971734185 0.00025128185685837604 0 -0.0038370904468800295 0.00030559804486814855 0 -0.0038056074517831941 0.00042945202423290787 0 -0.003944428524121673 0.00041322135053547735 0 -0.0038056074517831941 0.00042945202423290787 0 -0.003944428524121673 0.00041322135053547735 0 -0.0038982931081982131 0.00056612002848469532 0 -0.0044266915038050714 0.00016286340641640136 0 -0.0044888207247691754 0.00018561312505796152 0 -0.0038056074517831941 0.00042945202423290787 0 -0.0037568524671346233 0.0005303279146982949 0 -0.0038982931081982131 0.00056612002848469532 0 -0.0038056074517831941 0.00042945202423290787 0 -0.0037316758626533717 0.00045289911569739349 0 -0.0037568524671346233 0.0005303279146982949 0 -0.0041537005708561356 0.0004799793870789222 0 -0.0040507209833426788 0.00036008279691935224 0 -0.0040423189926423455 0.00046981537449181272 0 -0.0040507209833426788 0.00036008279691935224 0 -0.003944428524121673 0.00041322135053547735 0 -0.0040423189926423455 0.00046981537449181272 0 -0.003944428524121673 0.00041322135053547735 0 -0.0040423189926423455 0.00046981537449181272 0 -0.0038982931081982131 0.00056612002848469532 0 -0.0040423189926423455 0.00046981537449181272 0 -0.0040456080961522251 0.00059930369850310359 0 -0.0038982931081982131 0.00056612002848469532 0 -0.0044662487310930549 0.0002905075434072779 0 -0.0046076700760138032 0.0001679874852498234 0 -0.0041537005708561356 0.0004799793870789222 0 -0.0040423189926423455 0.00046981537449181272 0 -0.0040456080961522251 0.00059930369850310359 0 -0.0049994754373387986 2.5853677960128307e-07 0 -0.0049993239339520103 4.1114836086691573e-07 0 -0.0049997443343753481 1.4464678943731884e-07 0 -0.004995272977517588 2.2348691761412376e-06 0 -0.0049984264667942242 1.1003999140725729e-06 0 -0.0049983696366408996 1.7814422084813316e-06 0 -0.0046076700760138032 0.0001679874852498234 0 -0.0044888207247691754 0.00018561312505796152 0 -0.0046076700760138032 0.0001679874852498234 0 -0.004818317682943587 3.2129409645255074e-06 0 -0.0049999970338830396 7.9248698986041356e-11 0 -0.0049997073965417031 -1.0928196119113942e-09 0 -0.0049997443343753481 1.4464678943731884e-07 0 -0.004995272977517588 2.2348691761412376e-06 0 -0.0049984264667942242 1.1003999140725729e-06 0 -0.0049997073965417031 -1.0928196119113942e-09 0 -0.0049993239339520103 4.1114836086691573e-07 0 -0.0049997073965417031 -1.0928196119113942e-09 0 -0.0049997443343753481 1.4464678943731884e-07 0 -0.0049999970338830396 7.9248698986041356e-11 0 -0.0049999996316276883 2.6685330307438682e-10 0 -0.0049997443343753481 1.4464678943731884e-07 0 -0.0049994754373387986 2.5853677960128307e-07 0 -0.0049999996316276883 2.6685330307438682e-10 0 -0.0049997443343753481 1.4464678943731884e-07 0 -0.0049985304227404149 8.1554560662507137e-07 0 -0.0049993143459499635 6.1688367149911557e-07 0 -0.0049993020602161929 4.3913113830459716e-07 0 -0.0049985304227404149 8.1554560662507137e-07 0 -0.0049983696366408996 1.7814422084813316e-06 0 -0.0049993143459499635 6.1688367149911557e-07 0 -0.0049984264667942242 1.1003999140725729e-06 0 -0.0049983696366408996 1.7814422084813316e-06 0 -0.0049993143459499635 6.1688367149911557e-07 0 -0.0049999970338830396 7.9248698986041356e-11 0 -0.0049997073965417031 -1.0928196119113942e-09 0 -0.0049999993070435475 4.4123078048425965e-10 0 -0.0049997073965417031 -1.0928196119113942e-09 0 -0.0049993143459499635 6.1688367149911557e-07 0 -0.0049999993070435475 4.4123078048425965e-10 0 -0.0049984264667942242 1.1003999140725729e-06 0 -0.0049997073965417031 -1.0928196119113942e-09 0 -0.0049993143459499635 6.1688367149911557e-07 0 -0.0049993143459499635 6.1688367149911557e-07 0 -0.0049999993070435475 4.4123078048425965e-10 0 -0.0049993020602161929 4.3913113830459716e-07 0 -0.0049999993070435475 4.4123078048425965e-10 0 -0.0049993020602161929 4.3913113830459716e-07 0 -0.0049999981916773757 5.7587559281384157e-10 0 -0.0049993020602161929 4.3913113830459716e-07 0 -0.0049990019307072269 3.8361546550707056e-07 0 -0.0049999981916773757 5.7587559281384157e-10 0 -0.0049985304227404149 8.1554560662507137e-07 0 -0.0049993020602161929 4.3913113830459716e-07 0 -0.0049990019307072269 3.8361546550707056e-07 0 -0.0049985304227404149 8.1554560662507137e-07 0 -0.0049990019307072269 3.8361546550707056e-07 0 -0.0049979896391111897 4.1882852610429453e-07 0 -0.0049986085713967813 2.4160923336962435e-07 0 -0.0049981453197011864 1.0091183219187405e-06 0 -0.0049948976386762819 1.9825334278433792e-06 0 -0.0046666383657447659 -6.1639604144373157e-05 0 -0.0044380334054176752 0.00010011880014132956 0 -0.0049990019307072269 3.8361546550707056e-07 0 -0.0049986085713967813 2.4160923336962435e-07 0 -0.0049979896391111897 4.1882852610429453e-07 0 -0.0049990019307072269 3.8361546550707056e-07 0 -0.0049999981916773757 5.7587559281384157e-10 0 -0.0049986085713967813 2.4160923336962435e-07 0 -0.0049986085713967813 2.4160923336962435e-07 0 -0.0049999978747188659 -7.3693522449751422e-11 0 -0.0049995633997467438 1.6647528229940442e-07 0 -0.0049999981916773757 5.7587559281384157e-10 0 -0.0049986085713967813 2.4160923336962435e-07 0 -0.0049999978747188659 -7.3693522449751422e-11 0 -0.0049986085713967813 2.4160923336962435e-07 0 -0.0049995633997467438 1.6647528229940442e-07 0 -0.0049989618160982728 6.6651204174227768e-07 0 -0.0049999978747188659 -7.3693522449751422e-11 0 -0.0049995633997467438 1.6647528229940442e-07 0 -0.004999999954737786 1.2073079699599194e-10 0 -0.0049995633997467438 1.6647528229940442e-07 0 -0.0049989618160982728 6.6651204174227768e-07 0 -0.0049997351377689299 2.485202321942183e-07 0 -0.0049426819003920734 -3.7079653531004241e-06 0 -0.004915326915906233 -1.1980683429385201e-05 0 -0.0049989618160982728 6.6651204174227768e-07 0 -0.0049982712910849854 8.3036037185179227e-07 0 -0.0049980321950841133 8.8792294900847258e-07 0 -0.0049989618160982728 6.6651204174227768e-07 0 -0.0049983508485921292 9.9118000277957717e-07 0 -0.0049981453197011864 1.0091183219187405e-06 0 -0.0049989618160982728 6.6651204174227768e-07 0 -0.0049983508485921292 9.9118000277957717e-07 0 -0.0049982216616464023 1.0073453284549494e-06 0 -0.0049989618160982728 6.6651204174227768e-07 0 -0.0049982712910849854 8.3036037185179227e-07 0 -0.0049982216616464023 1.0073453284549494e-06 0 -0.0049986085713967813 2.4160923336962435e-07 0 -0.0049989618160982728 6.6651204174227768e-07 0 -0.0049981453197011864 1.0091183219187405e-06 0 -0.0045029793866951618 8.761915919718239e-05 0 -0.0045464796233694472 7.8114548107378364e-05 0 -0.0049981453197011864 1.0091183219187405e-06 0 -0.0049967161410513945 2.0834508142471813e-06 0 -0.0049948976386762819 1.9825334278433792e-06 0 -0.0049967161410513945 2.0834508142471813e-06 0 -0.0049980008885524068 1.302862740190841e-06 0 -0.0049977572882704945 1.726329048523661e-06 0 -0.0049983508485921292 9.9118000277957717e-07 0 -0.0049981453197011864 1.0091183219187405e-06 0 -0.0049980008885524068 1.302862740190841e-06 0 -0.0049981453197011864 1.0091183219187405e-06 0 -0.0049967161410513945 2.0834508142471813e-06 0 -0.0049980008885524068 1.302862740190841e-06 0 -0.0049982389154015474 8.5468459235442787e-07 0 -0.0049982216616464023 1.0073453284549494e-06 0 -0.0049977572882704945 1.726329048523661e-06 0 -0.0048401163584717759 -5.8567012193797999e-06 0 -0.0048493334855062376 -6.1297786514637454e-06 0 -0.0049983508485921292 9.9118000277957717e-07 0 -0.0049982216616464023 1.0073453284549494e-06 0 -0.0049980008885524068 1.302862740190841e-06 0 -0.0049982216616464023 1.0073453284549494e-06 0 -0.0049980008885524068 1.302862740190841e-06 0 -0.0049977572882704945 1.726329048523661e-06 0 -0.0048401163584717759 -5.8567012193797999e-06 0 -0.0045464796233694472 7.8114548107378364e-05 0 -0.0040260889956649695 0.0001056240245782039 0 -0.0040054971825385921 7.4002929299195295e-05 0 -0.0039663607958120833 9.0185510025941258e-05 0 -0.0040260889956649695 0.0001056240245782039 0 -0.0040054971825385921 7.4002929299195295e-05 0 -0.0040570565187744234 7.7938368678266516e-05 0 -0.0040645309918627441 0.00011444827940361281 0 -0.0040570565187744234 7.7938368678266516e-05 0 -0.004086145667527628 8.8471790483543166e-05 0 -0.0040645309918627441 0.00011444827940361281 0 -0.0040291282667134802 0.00010600981573423833 0 -0.0040570565187744234 7.7938368678266516e-05 0 -0.0045464796233694472 7.8114548107378364e-05 0 -0.0044175037243527381 0.00014543440419169143 0 -0.0040570565187744234 7.7938368678266516e-05 0 -0.004086145667527628 8.8471790483543166e-05 0 -0.0040669626600613931 5.4746119757230019e-05 0 -0.004086145667527628 8.8471790483543166e-05 0 -0.0041023834000493533 6.7066397467650018e-05 0 -0.0040669626600613931 5.4746119757230019e-05 0 -0.004086145667527628 8.8471790483543166e-05 0 -0.0041217252456653506 9.0187594137155336e-05 0 -0.0041016628685530011 0.00012305548794210136 0 -0.004086145667527628 8.8471790483543166e-05 0 -0.0041217252456653506 9.0187594137155336e-05 0 -0.0041023834000493533 6.7066397467650018e-05 0 -0.0037316758626533717 0.00045289911569739349 0 -0.003674239641166263 0.00041798144069008311 0 -0.0037236963479977234 0.00033762569433611902 0 -0.0041217252456653506 9.0187594137155336e-05 0 -0.0041419726034444089 5.7196683956510947e-05 0 -0.0041023834000493533 6.7066397467650018e-05 0 -0.0041099496047372272 0.00022546567384023044 0 -0.0038879451971734185 0.00025128185685837604 0 -0.0037316758626533717 0.00045289911569739349 0 -0.003674239641166263 0.00041798144069008311 0 -0.0036252845452203314 0.000497698991057891 0 -0.0044266915038050714 0.00016286340641640136 0 -0.0044380334054176752 0.00010011880014132956 0 -0.0037316758626533717 0.00045289911569739349 0 -0.0037568524671346233 0.0005303279146982949 0 -0.0036252845452203314 0.000497698991057891 0 -0.0041099496047372272 0.00022546567384023044 0 -0.0044380334054176752 0.00010011880014132956 0 -0.0045029793866951618 8.761915919718239e-05 0 -0.0044380334054176752 0.00010011880014132956 0 -0.0040645309918627441 0.00011444827940361281 0 -0.004086145667527628 8.8471790483543166e-05 0 -0.0041016628685530011 0.00012305548794210136 0 -0.0049864907192696739 -7.1330688040158042e-06 0 -0.0049931154220392892 -6.0590883843796227e-06 0 -0.0049991662293920811 -3.7946773106510642e-07 0 -0.0049997830454128339 -1.2964840220516744e-06 0 -0.0049967894093724497 -1.0795490423877973e-06 0 -0.0049991662293920811 -3.7946773106510642e-07 0 -0.0050000032798942096 -4.9660273071178793e-07 0 -0.0049997830454128339 -1.2964840220516744e-06 0 -0.0049991662293920811 -3.7946773106510642e-07 0 -0.0049999977310525023 5.7449555197490577e-10 0 -0.0050000032798942096 -4.9660273071178793e-07 0 -0.0049999723275110661 -2.2819968897625582e-08 0 -0.0049812194936921994 -8.8962775244247202e-06 0 -0.0049999985788642615 -2.143328875388895e-10 0 -0.0049999554403611299 4.1848694514544087e-07 0 -0.0049988711683161382 3.2401006569386247e-07 0 -0.005000000987592252 1.6822986851385755e-10 0 -0.0049999985788642615 -2.143328875388895e-10 0 -0.0049999554403611299 4.1848694514544087e-07 0 -0.0050002111169287584 -1.0677291283223235e-06 0 -0.0050005139976771014 -1.2468124357438569e-06 0 -0.0049997830454128339 -1.2964840220516744e-06 0 -0.0050000032798942096 -4.9660273071178793e-07 0 -0.0050002111169287584 -1.0677291283223235e-06 0 -0.0050005612794099654 -1.2600463116139606e-06 0 -0.0050000032798942096 -4.9660273071178793e-07 0 -0.0050002111169287584 -1.0677291283223235e-06 0 -0.0049997830454128339 -1.2964840220516744e-06 0 -0.0049812194936921994 -8.8962775244247202e-06 0 -0.0049357707010462522 -9.3363957086591689e-06 0 -0.0049988711683161382 3.2401006569386247e-07 0 -0.0049976524389348572 1.1793552278831591e-06 0 -0.0049986595248460155 1.5506836526945357e-06 0 -0.0049999554403611299 4.1848694514544087e-07 0 -0.0049988711683161382 3.2401006569386247e-07 0 -0.0049986595248460155 1.5506836526945357e-06 0 -0.0050000001425520579 2.2654974444336205e-11 0 -0.0050000310786774823 1.4685854542090329e-07 0 -0.004999999954737786 1.2073079699599194e-10 0 -0.0049999421312122479 -3.9097959981722178e-08 0 -0.0049692922914375253 -1.0449024473669667e-05 0 -0.0050000310786774823 1.4685854542090329e-07 0 -0.004999999954737786 1.2073079699599194e-10 0 -0.0049997351377689299 2.485202321942183e-07 0 -0.0049995633997467438 1.6647528229940442e-07 0 -0.004999999954737786 1.2073079699599194e-10 0 -0.0049997351377689299 2.485202321942183e-07 0 -0.0050000310786774823 1.4685854542090329e-07 0 -0.0049997351377689299 2.485202321942183e-07 0 -0.0049997188574703883 7.1234022864259431e-07 0 -0.0049989618160982728 6.6651204174227768e-07 0 -0.0049997351377689299 2.485202321942183e-07 0 -0.0049997188574703883 7.1234022864259431e-07 0 -0.0049692922914375253 -1.0449024473669667e-05 0 -0.004915326915906233 -1.1980683429385201e-05 0 -0.004915326915906233 -1.1980683429385201e-05 0 -0.0049357707010462522 -9.3363957086591689e-06 0 -0.0048401163584717759 -5.8567012193797999e-06 0 -0.004915326915906233 -1.1980683429385201e-05 0 -0.0048088804713962239 -5.7262122201859568e-05 0 -0.0048467808228647912 -4.1654924949904054e-05 0 -0.0048687400297786022 -6.0698706813763165e-05 0 -0.0048088804713962239 -5.7262122201859568e-05 0 -0.0047721148188491222 -2.2885767682252337e-05 0 -0.004846590733460345 -7.7626742714927044e-06 0 -0.0048088804713962239 -5.7262122201859568e-05 0 -0.0048467808228647912 -4.1654924949904054e-05 0 -0.004846590733460345 -7.7626742714927044e-06 0 -0.0049053638819932044 -1.9959156387855268e-05 0 -0.0049058706243086383 -2.040271898283964e-05 0 -0.004906770835314188 -2.0116697889395333e-05 0 -0.0048401163584717759 -5.8567012193797999e-06 0 -0.0049357707010462522 -9.3363957086591689e-06 0 -0.0045464796233694472 7.8114548107378364e-05 0 -0.004432770365758342 4.7297416895506131e-05 0 -0.004846590733460345 -7.7626742714927044e-06 0 -0.0048796383462478667 -2.5301564148876893e-05 0 -0.0049174829064197942 3.2426242008551401e-06 0 -0.004432770365758342 4.7297416895506131e-05 0 -0.0044155206477155054 3.8088849862590633e-05 0 -0.0039663607958120833 9.0185510025941258e-05 0 -0.003911217040533631 7.6267761977689313e-05 0 -0.003932854645663497 3.554525635063994e-05 0 -0.0048955775822245098 -3.7372062088214128e-05 0 -0.0048796383462478667 -2.5301564148876893e-05 0 -0.0048726027851151328 -4.585605608147699e-05 0 -0.0048955775822245098 -3.7372062088214128e-05 0 -0.0048796383462478667 -2.5301564148876893e-05 0 -0.0049088894399732198 -2.3835118003672668e-05 0 -0.0048467808228647912 -4.1654924949904054e-05 0 -0.0048796383462478667 -2.5301564148876893e-05 0 -0.0048726027851151328 -4.585605608147699e-05 0 -0.0048467808228647912 -4.1654924949904054e-05 0 -0.004846590733460345 -7.7626742714927044e-06 0 -0.0048796383462478667 -2.5301564148876893e-05 0 -0.0048467808228647912 -4.1654924949904054e-05 0 -0.0048726027851151328 -4.585605608147699e-05 0 -0.0048684065062717264 -5.9943932155867122e-05 0 -0.0049294428606384538 -8.2709954035009637e-06 0 -0.0049357707010462522 -9.3363957086591689e-06 0 -0.0048726027851151328 -4.585605608147699e-05 0 -0.0048684065062717264 -5.9943932155867122e-05 0 -0.0048728037474416834 -6.0118210287734562e-05 0 -0.0049357707010462522 -9.3363957086591689e-06 0 -0.004940744924694874 -9.6433968259846433e-06 0 -0.0050002111169287584 -1.0677291283223235e-06 0 -0.0050005612794099654 -1.2600463116139606e-06 0 -0.0050005139976771014 -1.2468124357438569e-06 0 -0.0048955775822245098 -3.7372062088214128e-05 0 -0.0048726027851151328 -4.585605608147699e-05 0 -0.0048728037474416834 -6.0118210287734562e-05 0 -0.004940744924694874 -9.6433968259846433e-06 0 -0.0049635448025676402 -1.0028814719299657e-05 0 -0.0050003053299896754 -2.0182690311247703e-06 0 -0.0049990371553141491 -2.8862108578511299e-06 0 -0.0049990734673892563 -1.9391964179373385e-06 0 -0.0048955775822245098 -3.7372062088214128e-05 0 -0.0048728037474416834 -6.0118210287734562e-05 0 -0.0049429833332465985 -3.1110404596520924e-05 0 -0.0048955775822245098 -3.7372062088214128e-05 0 -0.0049088894399732198 -2.3835118003672668e-05 0 -0.0049429833332465985 -3.1110404596520924e-05 0 -0.004940744924694874 -9.6433968259846433e-06 0 -0.0049864907192696739 -7.1330688040158042e-06 0 -0.0048796383462478667 -2.5301564148876893e-05 0 -0.0049088894399732198 -2.3835118003672668e-05 0 -0.0049174829064197942 3.2426242008551401e-06 0 -0.0049088894399732198 -2.3835118003672668e-05 0 -0.0049174829064197942 3.2426242008551401e-06 0 -0.0049429833332465985 -3.1110404596520924e-05 0 -0.0044155206477155054 3.8088849862590633e-05 0 -0.0044082648029162485 2.997969351158019e-05 0 -0.0049174829064197942 3.2426242008551401e-06 0 -0.0049429833332465985 -3.1110404596520924e-05 0 -0.0049773238554303529 9.2253344851894635e-06 0 -0.0049990371553141491 -2.8862108578511299e-06 0 -0.0049990734673892563 -1.9391964179373385e-06 0 -0.0049967894093724497 -1.0795490423877973e-06 0 -0.0038880754429922019 2.6828895398839944e-05 0 -0.00387943573184552 -6.0969145580425258e-06 0 -0.0038511140949596717 1.0670888143203553e-05 0 -0.0038880754429922019 2.6828895398839944e-05 0 -0.0039075183748924205 2.9123271086099028e-06 0 -0.00387943573184552 -6.0969145580425258e-06 0 -0.0038880754429922019 2.6828895398839944e-05 0 -0.0038567007939202748 6.3203545709130727e-05 0 -0.0038511140949596717 1.0670888143203553e-05 0 -0.003911217040533631 7.6267761977689313e-05 0 -0.0038880754429922019 2.6828895398839944e-05 0 -0.0038567007939202748 6.3203545709130727e-05 0 -0.003911217040533631 7.6267761977689313e-05 0 -0.0038880754429922019 2.6828895398839944e-05 0 -0.003932854645663497 3.554525635063994e-05 0 -0.0038880754429922019 2.6828895398839944e-05 0 -0.0039075183748924205 2.9123271086099028e-06 0 -0.003932854645663497 3.554525635063994e-05 0 -0.0039075183748924205 2.9123271086099028e-06 0 -0.003932854645663497 3.554525635063994e-05 0 -0.0039403358682963989 -2.3250401839673785e-06 0 -0.003932854645663497 3.554525635063994e-05 0 -0.00398328033679378 2.9421782248183104e-05 0 -0.0039403358682963989 -2.3250401839673785e-06 0 -0.0039663607958120833 9.0185510025941258e-05 0 -0.003932854645663497 3.554525635063994e-05 0 -0.00398328033679378 2.9421782248183104e-05 0 -0.0040054971825385921 7.4002929299195295e-05 0 -0.0039663607958120833 9.0185510025941258e-05 0 -0.00398328033679378 2.9421782248183104e-05 0 -0.0038865308788038743 5.8074427883908176e-05 0 -0.0038235120485955068 3.9143121432633176e-05 0 -0.00398328033679378 2.9421782248183104e-05 0 -0.0039678237269170314 -1.7104204882455332e-05 0 -0.0039986340414563514 -1.5290885737116113e-05 0 -0.00398328033679378 2.9421782248183104e-05 0 -0.0039678237269170314 -1.7104204882455332e-05 0 -0.0039265744663294772 -8.305365714760412e-06 0 -0.0039678237269170314 -1.7104204882455332e-05 0 -0.0039803111868358092 -4.1329444765308205e-05 0 -0.0039986340414563514 -1.5290885737116113e-05 0 -0.0039678237269170314 -1.7104204882455332e-05 0 -0.0039803111868358092 -4.1329444765308205e-05 0 -0.0039422935630174264 -3.9407824585369323e-05 0 -0.0036530183744887062 -5.0122387263301714e-05 0 -0.0036749012029530233 -3.6474985116995522e-05 0 -0.0034920535570606222 -4.2697292985969132e-05 0 -0.0035555980047901623 -5.4070375516647104e-05 0 -0.0035051324768006894 -9.8691238323274006e-05 0 -0.0034920535570606222 -4.2697292985969132e-05 0 -0.003462810085573924 -7.9145044199381326e-05 0 -0.0035051324768006894 -9.8691238323274006e-05 0 -0.0039803111868358092 -4.1329444765308205e-05 0 -0.0039571946694993958 -6.4282720968725725e-05 0 -0.0040043218429288551 -7.1454594361718029e-05 0 -0.0039803111868358092 -4.1329444765308205e-05 0 -0.0039571946694993958 -6.4282720968725725e-05 0 -0.0039422935630174264 -3.9407824585369323e-05 0 -0.0036530183744887062 -5.0122387263301714e-05 0 -0.0035364277271564947 -4.9286709978382863e-05 0 -0.0034288285273279921 -3.1292888848899124e-05 0 -0.0034204250829395922 -9.8821082154484856e-05 0 -0.003462810085573924 -7.9145044199381326e-05 0 -0.0039571946694993958 -6.4282720968725725e-05 0 -0.0039422935630174264 -3.9407824585369323e-05 0 -0.0039073012082636487 -5.6700317942652155e-05 0 -0.0034920535570606222 -4.2697292985969132e-05 0 -0.0034288285273279921 -3.1292888848899124e-05 0 -0.003462810085573924 -7.9145044199381326e-05 0 -0.0039085303953563218 -4.6341486022591363e-05 0 -0.0039422935630174264 -3.9407824585369323e-05 0 -0.0039073012082636487 -5.6700317942652155e-05 0 -0.0039085303953563218 -4.6341486022591363e-05 0 -0.0039422935630174264 -3.9407824585369323e-05 0 -0.0039265744663294772 -8.305365714760412e-06 0 -0.0039678237269170314 -1.7104204882455332e-05 0 -0.0039422935630174264 -3.9407824585369323e-05 0 -0.0039265744663294772 -8.305365714760412e-06 0 -0.0039075183748924205 2.9123271086099028e-06 0 -0.0038970932887093606 -3.4579551665843556e-05 0 -0.00387943573184552 -6.0969145580425258e-06 0 -0.0039085303953563218 -4.6341486022591363e-05 0 -0.0039265744663294772 -8.305365714760412e-06 0 -0.0038688307218369962 -5.004489528736521e-05 0 -0.0039075183748924205 2.9123271086099028e-06 0 -0.0039403358682963989 -2.3250401839673785e-06 0 -0.0038970932887093606 -3.4579551665843556e-05 0 -0.0038235120485955068 3.9143121432633176e-05 0 -0.0035733267019986926 -4.8409010437261065e-05 0 -0.0035364277271564947 -4.9286709978382863e-05 0 -0.0035733267019986926 -4.8409010437261065e-05 0 -0.0035364277271564947 -4.9286709978382863e-05 0 -0.0033736999828890423 -0.00012233842649517814 0 -0.0039085303953563218 -4.6341486022591363e-05 0 -0.0039071160053533362 -5.7178028001882375e-05 0 -0.0038688307218369962 -5.004489528736521e-05 0 -0.003294770739428337 -0.00010206937854979793 0 -0.0032867426197606396 -0.00011462756339600244 0 -0.0032910931205965923 -0.00013379974388953776 0 -0.003294770739428337 -0.00010206937854979793 0 -0.0032867426197606396 -0.00011462756339600244 0 -0.0032763703975737975 -0.00010073539146840093 0 -0.0035387341405390153 -4.8526447407843469e-05 0 -0.0035364277271564947 -4.9286709978382863e-05 0 -0.0032826231122754014 -0.00013007881051725411 0 -0.003304514928717701 -0.00013230590319068269 0 -0.0034133650684192137 -5.3823036929182331e-05 0 -0.003336629446888202 -4.0170040169280699e-05 0 -0.0033381150364699221 -0.00011015568988983962 0 -0.0032867426197606396 -0.00011462756339600244 0 -0.0032763703975737975 -0.00010073539146840093 0 -0.0032518649209732488 -0.00012015094609146611 0 -0.0035733267019986926 -4.8409010437261065e-05 0 -0.003304514928717701 -0.00013230590319068269 0 -0.00387943573184552 -6.0969145580425258e-06 0 -0.0038511140949596717 1.0670888143203553e-05 0 -0.0038538022975341405 -2.6718979478599726e-05 0 -0.0035733267019986926 -4.8409010437261065e-05 0 -0.0035784255761342702 -4.2767363452718265e-05 0 -0.0038970932887093606 -3.4579551665843556e-05 0 -0.00387943573184552 -6.0969145580425258e-06 0 -0.0038538022975341405 -2.6718979478599726e-05 0 -0.0041048707512547833 1.4722821989270103e-05 0 -0.0040759116066531754 1.5637033669919171e-05 0 -0.0040936454789708612 4.0469112406521125e-05 0 -0.0040759116066531754 1.5637033669919171e-05 0 -0.0040936454789708612 4.0469112406521125e-05 0 -0.0040654238530370068 2.9323618006564906e-05 0 -0.0041048707512547833 1.4722821989270103e-05 0 -0.0040759116066531754 1.5637033669919171e-05 0 -0.004067844348757876 -1.2191903197278624e-05 0 -0.0037966866014814923 0.00017824184608385564 0 -0.003599738854305104 0.00021710677148416079 0 -0.0037019776137614557 0.00033100275749647212 0 -0.0041048707512547833 1.4722821989270103e-05 0 -0.0041419726034444089 5.7196683956510947e-05 0 -0.0040936454789708612 4.0469112406521125e-05 0 -0.0041419726034444089 5.7196683956510947e-05 0 -0.0041023834000493533 6.7066397467650018e-05 0 -0.0040936454789708612 4.0469112406521125e-05 0 -0.0038164487149292357 0.00014957448179975875 0 -0.0038879451971734185 0.00025128185685837604 0 -0.0040936454789708612 4.0469112406521125e-05 0 -0.0040669626600613931 5.4746119757230019e-05 0 -0.0040654238530370068 2.9323618006564906e-05 0 -0.0041023834000493533 6.7066397467650018e-05 0 -0.0040936454789708612 4.0469112406521125e-05 0 -0.0040669626600613931 5.4746119757230019e-05 0 -0.0040669626600613931 5.4746119757230019e-05 0 -0.004024467015715104 4.8802752861928471e-05 0 -0.0040441002110427997 3.0036253731099318e-05 0 -0.0040570565187744234 7.7938368678266516e-05 0 -0.0040669626600613931 5.4746119757230019e-05 0 -0.004024467015715104 4.8802752861928471e-05 0 -0.0040669626600613931 5.4746119757230019e-05 0 -0.0040654238530370068 2.9323618006564906e-05 0 -0.0040441002110427997 3.0036253731099318e-05 0 -0.0040054971825385921 7.4002929299195295e-05 0 -0.0040570565187744234 7.7938368678266516e-05 0 -0.004024467015715104 4.8802752861928471e-05 0 -0.0040054971825385921 7.4002929299195295e-05 0 -0.00398328033679378 2.9421782248183104e-05 0 -0.004024467015715104 4.8802752861928471e-05 0 -0.00398328033679378 2.9421782248183104e-05 0 -0.004024467015715104 4.8802752861928471e-05 0 -0.0040226689389632215 7.8554839742878092e-06 0 -0.00398328033679378 2.9421782248183104e-05 0 -0.0040226689389632215 7.8554839742878092e-06 0 -0.0039986340414563514 -1.5290885737116113e-05 0 -0.004024467015715104 4.8802752861928471e-05 0 -0.0040226689389632215 7.8554839742878092e-06 0 -0.0040441002110427997 3.0036253731099318e-05 0 -0.0040759116066531754 1.5637033669919171e-05 0 -0.0040654238530370068 2.9323618006564906e-05 0 -0.0040520069520612028 9.0787524474237945e-06 0 -0.0040654238530370068 2.9323618006564906e-05 0 -0.0040441002110427997 3.0036253731099318e-05 0 -0.0040520069520612028 9.0787524474237945e-06 0 -0.0040226689389632215 7.8554839742878092e-06 0 -0.0040441002110427997 3.0036253731099318e-05 0 -0.0040520069520612028 9.0787524474237945e-06 0 -0.0040226689389632215 7.8554839742878092e-06 0 -0.0040520069520612028 9.0787524474237945e-06 0 -0.0040403282366043344 -1.1804606676232193e-05 0 -0.0040520069520612028 9.0787524474237945e-06 0 -0.0040403282366043344 -1.1804606676232193e-05 0 -0.004067844348757876 -1.2191903197278624e-05 0 -0.0040759116066531754 1.5637033669919171e-05 0 -0.0040520069520612028 9.0787524474237945e-06 0 -0.004067844348757876 -1.2191903197278624e-05 0 -0.0038419249364702243 2.2725007870280277e-05 0 -0.0038916723695871141 3.9528969148358081e-05 0 -0.0040403282366043344 -1.1804606676232193e-05 0 -0.0040373828082436126 -4.061245818832361e-05 0 -0.0040216227815715426 -2.0832348953570425e-05 0 -0.0040403282366043344 -1.1804606676232193e-05 0 -0.0040373828082436126 -4.061245818832361e-05 0 -0.004067844348757876 -1.2191903197278624e-05 0 -0.0040240589680646558 -4.6385623433651868e-05 0 -0.0040628967287379006 -3.2786328653063247e-05 0 -0.004067844348757876 -1.2191903197278624e-05 0 -0.0039986340414563514 -1.5290885737116113e-05 0 -0.0040216227815715426 -2.0832348953570425e-05 0 -0.0040097365779209887 -4.0431135093472975e-05 0 -0.0040226689389632215 7.8554839742878092e-06 0 -0.0039986340414563514 -1.5290885737116113e-05 0 -0.0040216227815715426 -2.0832348953570425e-05 0 -0.0040226689389632215 7.8554839742878092e-06 0 -0.0040403282366043344 -1.1804606676232193e-05 0 -0.0040216227815715426 -2.0832348953570425e-05 0 -0.0040373828082436126 -4.061245818832361e-05 0 -0.0040216227815715426 -2.0832348953570425e-05 0 -0.0040097365779209887 -4.0431135093472975e-05 0 -0.0039803111868358092 -4.1329444765308205e-05 0 -0.0039986340414563514 -1.5290885737116113e-05 0 -0.0040097365779209887 -4.0431135093472975e-05 0 -0.0039803111868358092 -4.1329444765308205e-05 0 -0.0040097365779209887 -4.0431135093472975e-05 0 -0.0040043218429288551 -7.1454594361718029e-05 0 -0.0038419249364702243 2.2725007870280277e-05 0 -0.0036749012029530233 -3.6474985116995522e-05 0 -0.0040373828082436126 -4.061245818832361e-05 0 -0.0040097365779209887 -4.0431135093472975e-05 0 -0.0040043218429288551 -7.1454594361718029e-05 0 -0.0040240589680646558 -4.6385623433651868e-05 0 -0.0040093549481498916 -9.0732936841553767e-05 0 -0.0039786717882607063 -8.5263744763322113e-05 0 -0.0036010349506530076 -1.711309036030194e-05 0 -0.0036749012029530233 -3.6474985116995522e-05 0 -0.0036139583597613024 -1.1673816597842951e-05 0 -0.0035530758083854061 -6.2481166515980303e-07 0 -0.0035756490671954469 -5.4608693205886745e-05 0 -0.003550066481558535 -2.3641689983713468e-05 0 -0.0035123021959864412 -5.7553357530078361e-05 0 -0.0035788021784447614 -3.9280501006995539e-06 0 -0.003601358554268054 -7.9832135399085489e-06 0 -0.0035499860540660257 -3.630536461415963e-05 0 -0.0036010349506530076 -1.711309036030194e-05 0 -0.0035123021959864412 -5.7553357530078361e-05 0 -0.003500596694209802 0.00010402457865712049 0 -0.0034038082228726881 -6.1598500267324403e-06 0 -0.0034703643656197897 1.0742861215580876e-05 0 -0.0034308506273995785 -1.0752887298805405e-05 0 -0.0034703643656197897 1.0742861215580876e-05 0 -0.0035875841322248552 -4.0206991022083692e-05 0 -0.0037294032303073405 6.7097260175350256e-05 0 -0.0036010349506530076 -1.711309036030194e-05 0 -0.0040240589680646558 -4.6385623433651868e-05 0 -0.0040628967287379006 -3.2786328653063247e-05 0 -0.0040093549481498916 -9.0732936841553767e-05 0 -0.003500596694209802 0.00010402457865712049 0 -0.0034703643656197897 1.0742861215580876e-05 0 -0.0035504709807379995 3.5552577237380332e-05 0 -0.0034038082228726881 -6.1598500267324403e-06 0 -0.0034310723026882255 -1.1026894631797398e-05 0 -0.0034703643656197897 1.0742861215580876e-05 0 -0.003550066481558535 -2.3641689983713468e-05 0 -0.0035444239833227835 -2.5060619041229004e-05 0 -0.0036010349506530076 -1.711309036030194e-05 0 -0.003550066481558535 -2.3641689983713468e-05 0 -0.0035504709807379995 3.5552577237380332e-05 0 -0.0036327179991036919 8.5254864916856351e-05 0 -0.0035875841322248552 -4.0206991022083692e-05 0 -0.0034703643656197897 1.0742861215580876e-05 0 -0.0035504709807379995 3.5552577237380332e-05 0 -0.0035875841322248552 -4.0206991022083692e-05 0 -0.003550066481558535 -2.3641689983713468e-05 0 -0.0035819004076525322 -3.3758617251419171e-05 0 -0.003500596694209802 0.00010402457865712049 0 -0.0035504709807379995 3.5552577237380332e-05 0 -0.0036327179991036919 8.5254864916856351e-05 0 -0.003599738854305104 0.00021710677148416079 0 -0.003500596694209802 0.00010402457865712049 0 -0.0036327179991036919 8.5254864916856351e-05 0 -0.0041048707512547833 1.4722821989270103e-05 0 -0.0040628967287379006 -3.2786328653063247e-05 0 -0.004067844348757876 -1.2191903197278624e-05 0 -0.0038164487149292357 0.00014957448179975875 0 -0.0037294032303073405 6.7097260175350256e-05 0 -0.0037966866014814923 0.00017824184608385564 0 -0.003599738854305104 0.00021710677148416079 0 -0.0036327179991036919 8.5254864916856351e-05 0 -0.0037397057254403474 4.4729266871443243e-05 0 -0.0035875841322248552 -4.0206991022083692e-05 0 -0.0037409641942783576 -7.0096546321944472e-05 0 -0.0037397057254403474 4.4729266871443243e-05 0 -0.0036327179991036919 8.5254864916856351e-05 0 -0.0035875841322248552 -4.0206991022083692e-05 0 -0.003609649310860569 -0.00014262277102422167 0 -0.003555253498059947 -3.2177358978882055e-05 0 -0.0037409641942783576 -7.0096546321944472e-05 0 -0.0035819004076525322 -3.3758617251419171e-05 0 -0.0036465490195103476 -4.7017419785289206e-05 0 -0.003609649310860569 -0.00014262277102422167 0 -0.0036270469540115252 -0.00023689081275909263 0 -0.0037405635189212512 -0.00018956618445824074 0 -0.003609649310860569 -0.00014262277102422167 0 -0.0036270469540115252 -0.00023689081275909263 0 -0.0035057632058203671 -0.00020717538577069006 0 -0.003609649310860569 -0.00014262277102422167 0 -0.0035057632058203671 -0.00020717538577069006 0 -0.0034878237036032648 -0.00011598182226012121 0 -0.0035057632058203671 -0.00020717538577069006 0 -0.003425799746765836 -0.00021709010657488569 0 -0.0035211610980675598 -0.00029175667324572675 0 -0.0035057632058203671 -0.00020717538577069006 0 -0.0034878237036032648 -0.00011598182226012121 0 -0.0034369407714932342 -0.00015939866595364647 0 -0.003609649310860569 -0.00014262277102422167 0 -0.0034878237036032648 -0.00011598182226012121 0 -0.003555253498059947 -3.2177358978882055e-05 0 -0.0033756126095052892 3.4641591493251297e-07 0 -0.0034878237036032648 -0.00011598182226012121 0 -0.003555253498059947 -3.2177358978882055e-05 0 -0.0033756126095052892 3.4641591493251297e-07 0 -0.0034878237036032648 -0.00011598182226012121 0 -0.0033887730670508838 -0.00010854247829678722 0 -0.0033756126095052892 3.4641591493251297e-07 0 -0.0033887730670508838 -0.00010854247829678722 0 -0.0033420514590043002 -6.1141722247496784e-05 0 -0.0034878237036032648 -0.00011598182226012121 0 -0.0033887730670508838 -0.00010854247829678722 0 -0.0034369407714932342 -0.00015939866595364647 0 -0.0035530758083854061 -6.2481166515980303e-07 0 -0.0035756490671954469 -5.4608693205886745e-05 0 -0.003455667837530233 -8.7235887895219304e-05 0 -0.0035123021959864412 -5.7553357530078361e-05 0 -0.0033858599676681246 -0.00012038819363494965 0 -0.0035123021959864412 -5.7553357530078361e-05 0 -0.0034721327619976843 -8.4506683221994232e-05 0 -0.0033756126095052892 3.4641591493251297e-07 0 -0.0033420514590043002 -6.1141722247496784e-05 0 -0.0033047928038202157 -3.8694772125237634e-05 0 -0.0033420514590043002 -6.1141722247496784e-05 0 -0.0033047928038202157 -3.8694772125237634e-05 0 -0.003303378921930296 -9.9338090437611166e-05 0 -0.0033887730670508838 -0.00010854247829678722 0 -0.0033420514590043002 -6.1141722247496784e-05 0 -0.003303378921930296 -9.9338090437611166e-05 0 -0.0033887730670508838 -0.00010854247829678722 0 -0.003303378921930296 -9.9338090437611166e-05 0 -0.003315177390514441 -0.00015457263781762726 0 -0.003303378921930296 -9.9338090437611166e-05 0 -0.0032701364047064154 -0.00014174803290262851 0 -0.003315177390514441 -0.00015457263781762726 0 -0.003303378921930296 -9.9338090437611166e-05 0 -0.0032701364047064154 -0.00014174803290262851 0 -0.0032415665769750411 -0.00010953911607193922 0 -0.0033047928038202157 -3.8694772125237634e-05 0 -0.003303378921930296 -9.9338090437611166e-05 0 -0.0032415665769750411 -0.00010953911607193922 0 -0.0032701364047064154 -0.00014174803290262851 0 -0.003315177390514441 -0.00015457263781762726 0 -0.0032572559074652988 -0.0001924180222875766 0 -0.0032701364047064154 -0.00014174803290262851 0 -0.0032572559074652988 -0.0001924180222875766 0 -0.0032146228328444036 -0.00015222749851449014 0 -0.003315177390514441 -0.00015457263781762726 0 -0.0033376105900560656 -0.00021029056979834847 0 -0.0033798819967482811 -0.00016712621185397043 0 -0.003315177390514441 -0.00015457263781762726 0 -0.0033376105900560656 -0.00021029056979834847 0 -0.0032572559074652988 -0.0001924180222875766 0 -0.0032572559074652988 -0.0001924180222875766 0 -0.0032902094334238689 -0.00025039709312740701 0 -0.003224872317346264 -0.00026627023430761962 0 -0.0033376105900560656 -0.00021029056979834847 0 -0.0032572559074652988 -0.0001924180222875766 0 -0.0032902094334238689 -0.00025039709312740701 0 -0.0034369407714932342 -0.00015939866595364647 0 -0.0033798819967482811 -0.00016712621185397043 0 -0.003425799746765836 -0.00021709010657488569 0 -0.0033887730670508838 -0.00010854247829678722 0 -0.003315177390514441 -0.00015457263781762726 0 -0.0033798819967482811 -0.00016712621185397043 0 -0.0033887730670508838 -0.00010854247829678722 0 -0.0034369407714932342 -0.00015939866595364647 0 -0.0033798819967482811 -0.00016712621185397043 0 -0.0033376105900560656 -0.00021029056979834847 0 -0.003425799746765836 -0.00021709010657488569 0 -0.003357802079954589 -0.000280129674844041 0 -0.0033376105900560656 -0.00021029056979834847 0 -0.0033798819967482811 -0.00016712621185397043 0 -0.003425799746765836 -0.00021709010657488569 0 -0.0035057632058203671 -0.00020717538577069006 0 -0.0034369407714932342 -0.00015939866595364647 0 -0.003425799746765836 -0.00021709010657488569 0 -0.003425799746765836 -0.00021709010657488569 0 -0.003357802079954589 -0.000280129674844041 0 -0.0034300918543131811 -0.00032948675830828561 0 -0.003425799746765836 -0.00021709010657488569 0 -0.0034300918543131811 -0.00032948675830828561 0 -0.0035211610980675598 -0.00029175667324572675 0 -0.003357802079954589 -0.000280129674844041 0 -0.0034300918543131811 -0.00032948675830828561 0 -0.0033528266366398391 -0.00035895983460821479 0 -0.0032902094334238689 -0.00025039709312740701 0 -0.0032756232377675262 -0.00032229985005554024 0 -0.003224872317346264 -0.00026627023430761962 0 -0.0033376105900560656 -0.00021029056979834847 0 -0.003357802079954589 -0.000280129674844041 0 -0.0032902094334238689 -0.00025039709312740701 0 -0.003357802079954589 -0.000280129674844041 0 -0.0032902094334238689 -0.00025039709312740701 0 -0.0032756232377675262 -0.00032229985005554024 0 -0.003357802079954589 -0.000280129674844041 0 -0.0032756232377675262 -0.00032229985005554024 0 -0.0033528266366398391 -0.00035895983460821479 0 -0.0033528266366398391 -0.00035895983460821479 0 -0.0032570911151554405 -0.00042894169347526334 0 -0.0034106985676215077 -0.00042673399879704133 0 -0.0032756232377675262 -0.00032229985005554024 0 -0.0033528266366398391 -0.00035895983460821479 0 -0.0032570911151554405 -0.00042894169347526334 0 -0.0034300918543131811 -0.00032948675830828561 0 -0.0034106985676215077 -0.00042673399879704133 0 -0.0035122269009912593 -0.00040151877866029869 0 -0.0034300918543131811 -0.00032948675830828561 0 -0.0033528266366398391 -0.00035895983460821479 0 -0.0034106985676215077 -0.00042673399879704133 0 -0.0035122269009912593 -0.00040151877866029869 0 -0.003491137440688504 -0.00049263439382794859 0 -0.003686962414793426 -0.00045961736915739346 0 -0.0034106985676215077 -0.00042673399879704133 0 -0.0035122269009912593 -0.00040151877866029869 0 -0.0034911718463760738 -0.00049132887353149873 0 -0.0026003320816057238 -0.00010563879612040669 0 -0.0025401998092043766 -5.1065628007616389e-05 0 -0.0036168321312285267 -0.00034206709045845062 0 -0.003686962414793426 -0.00045961736915739346 0 -0.0037362083076829954 -0.00032092844832250878 0 -0.0035122269009912593 -0.00040151877866029869 0 -0.0036168321312285267 -0.00034206709045845062 0 -0.003686962414793426 -0.00045961736915739346 0 -0.0036270469540115252 -0.00023689081275909263 0 -0.0036168321312285267 -0.00034206709045845062 0 -0.0037362083076829954 -0.00032092844832250878 0 -0.0036270469540115252 -0.00023689081275909263 0 -0.0036168321312285267 -0.00034206709045845062 0 -0.0035211610980675598 -0.00029175667324572675 0 -0.0035122269009912593 -0.00040151877866029869 0 -0.0036168321312285267 -0.00034206709045845062 0 -0.0035211610980675598 -0.00029175667324572675 0 -0.0034300918543131811 -0.00032948675830828561 0 -0.0035122269009912593 -0.00040151877866029869 0 -0.0035211610980675598 -0.00029175667324572675 0 -0.0036270469540115252 -0.00023689081275909263 0 -0.0035057632058203671 -0.00020717538577069006 0 -0.0035211610980675598 -0.00029175667324572675 0 -0.0032589731213581098 -0.00015949229594695771 0 -0.0032865086530299193 -0.00016997914500540412 0 -0.0032526839573933171 -0.00018814039614508017 0 -0.0032589731213581098 -0.00015949229594695771 0 -0.0032526839573933171 -0.00018814039614508017 0 -0.0032296471870533264 -0.00015868067638362412 0 -0.0032867426197606396 -0.00011462756339600244 0 -0.0032620068608118532 -0.00013056813912358273 0 -0.0032334420322693994 -0.00012191330406873545 0 -0.0032620068608118532 -0.00013056813912358273 0 -0.0032296471870533264 -0.00015868067638362412 0 -0.0032334420322693994 -0.00012191330406873545 0 -0.0032589731213581098 -0.00015949229594695771 0 -0.0032620068608118532 -0.00013056813912358273 0 -0.0032296471870533264 -0.00015868067638362412 0 -0.0032589731213581098 -0.00015949229594695771 0 -0.0032620068608118532 -0.00013056813912358273 0 -0.0032745254948286667 -0.00014605646869901226 0 -0.0032745254948286667 -0.00014605646869901226 0 -0.0032786396379677961 -0.00013114781276302157 0 -0.0032910931205965923 -0.00013379974388953776 0 -0.0032620068608118532 -0.00013056813912358273 0 -0.0032745254948286667 -0.00014605646869901226 0 -0.0032786396379677961 -0.00013114781276302157 0 -0.0032867426197606396 -0.00011462756339600244 0 -0.0032620068608118532 -0.00013056813912358273 0 -0.0032786396379677961 -0.00013114781276302157 0 -0.0032867426197606396 -0.00011462756339600244 0 -0.0032786396379677961 -0.00013114781276302157 0 -0.0032910931205965923 -0.00013379974388953776 0 -0.0034204250829395922 -9.8821082154484856e-05 0 -0.0034118782792537461 -0.00016658918922426224 0 -0.003454712378037766 -0.00014323689699689954 0 -0.0032745254948286667 -0.00014605646869901226 0 -0.0032910931205965923 -0.00013379974388953776 0 -0.0032865086530299193 -0.00016997914500540412 0 -0.0033736999828890423 -0.00012233842649517814 0 -0.0032163907326914704 -0.0002013411297361484 0 -0.0032589731213581098 -0.00015949229594695771 0 -0.0032745254948286667 -0.00014605646869901226 0 -0.0032865086530299193 -0.00016997914500540412 0 -0.002996038968389474 -0.00020738807137970176 0 -0.0030256719056417397 -0.00021014440890930336 0 -0.0030448830567492407 -0.00026654031947420155 0 -0.0030256719056417397 -0.00021014440890930336 0 -0.0031003216706305104 -0.00022546352499195011 0 -0.0030448830567492407 -0.00026654031947420155 0 -0.0030256719056417397 -0.00021014440890930336 0 -0.0031003216706305104 -0.00022546352499195011 0 -0.0030807298678009981 -0.0001612164247199302 0 -0.002996038968389474 -0.00020738807137970176 0 -0.0030256719056417397 -0.00021014440890930336 0 -0.0030821658700617093 -0.00016034489691598951 0 -0.0031003216706305104 -0.00022546352499195011 0 -0.0030807298678009981 -0.0001612164247199302 0 -0.0031535199598355956 -0.00016987176399487733 0 -0.0032827276728687794 -0.00018437767865352303 0 -0.0033146021235044036 -0.00016558323221349612 0 -0.0032163907326914704 -0.0002013411297361484 0 -0.0033146021235044036 -0.00016558323221349612 0 -0.0034204250829395922 -9.8821082154484856e-05 0 -0.003454712378037766 -0.00014323689699689954 0 -0.003462810085573924 -7.9145044199381326e-05 0 -0.003454712378037766 -0.00014323689699689954 0 -0.003462810085573924 -7.9145044199381326e-05 0 -0.0035051324768006894 -9.8691238323274006e-05 0 -0.0033146021235044036 -0.00016558323221349612 0 -0.0033858599676681246 -0.00012038819363494965 0 -0.0033146021235044036 -0.00016558323221349612 0 -0.0034916363873985661 -0.00010095517768535257 0 -0.0033063303576106964 -3.7828818803030374e-05 0 -0.0031923479789249766 -9.9955412587562518e-05 0 -0.0032415665769750411 -0.00010953911607193922 0 -0.0035756490671954469 -5.4608693205886745e-05 0 -0.0034669843610886787 -0.00011428812173757353 0 -0.003455667837530233 -8.7235887895219304e-05 0 -0.0033579910834311004 -0.00017409503559001624 0 -0.0034669843610886787 -0.00011428812173757353 0 -0.003455667837530233 -8.7235887895219304e-05 0 -0.0036749012029530233 -3.6474985116995522e-05 0 -0.0034916363873985661 -0.00010095517768535257 0 -0.0031923479789249766 -9.9955412587562518e-05 0 -0.0032415665769750411 -0.00010953911607193922 0 -0.0032146228328444036 -0.00015222749851449014 0 -0.0032701364047064154 -0.00014174803290262851 0 -0.0032415665769750411 -0.00010953911607193922 0 -0.0032146228328444036 -0.00015222749851449014 0 -0.0032572559074652988 -0.0001924180222875766 0 -0.0032146228328444036 -0.00015222749851449014 0 -0.0031798608340672034 -0.00021028446943940953 0 -0.0030807298678009981 -0.0001612164247199302 0 -0.0031923479789249766 -9.9955412587562518e-05 0 -0.0031535199598355956 -0.00016987176399487733 0 -0.0032146228328444036 -0.00015222749851449014 0 -0.0031535199598355956 -0.00016987176399487733 0 -0.0031798608340672034 -0.00021028446943940953 0 -0.0031923479789249766 -9.9955412587562518e-05 0 -0.0032146228328444036 -0.00015222749851449014 0 -0.0031535199598355956 -0.00016987176399487733 0 -0.0031003216706305104 -0.00022546352499195011 0 -0.0031535199598355956 -0.00016987176399487733 0 -0.0031798608340672034 -0.00021028446943940953 0 -0.0031003216706305104 -0.00022546352499195011 0 -0.0031798608340672034 -0.00021028446943940953 0 -0.0031614704259691419 -0.00027016769175984264 0 -0.0032572559074652988 -0.0001924180222875766 0 -0.0031798608340672034 -0.00021028446943940953 0 -0.003224872317346264 -0.00026627023430761962 0 -0.003224872317346264 -0.00026627023430761962 0 -0.0031614704259691419 -0.00027016769175984264 0 -0.003185029504498736 -0.00032966747502075728 0 -0.0031798608340672034 -0.00021028446943940953 0 -0.003224872317346264 -0.00026627023430761962 0 -0.0031614704259691419 -0.00027016769175984264 0 -0.0031614704259691419 -0.00027016769175984264 0 -0.003185029504498736 -0.00032966747502075728 0 -0.003103451953301787 -0.00030513405598159554 0 -0.0032756232377675262 -0.00032229985005554024 0 -0.003224872317346264 -0.00026627023430761962 0 -0.003185029504498736 -0.00032966747502075728 0 -0.0032570911151554405 -0.00042894169347526334 0 -0.003185029504498736 -0.00032966747502075728 0 -0.0030926778077777677 -0.00040013645419166935 0 -0.0032756232377675262 -0.00032229985005554024 0 -0.0032570911151554405 -0.00042894169347526334 0 -0.003185029504498736 -0.00032966747502075728 0 -0.0030926778077777677 -0.00040013645419166935 0 -0.0029754319776222581 -0.00037099013411886507 0 -0.0030246660815667144 -0.00048590298004701194 0 -0.0030926778077777677 -0.00040013645419166935 0 -0.0030532083165054277 -0.00033846228311256978 0 -0.0029754319776222581 -0.00037099013411886507 0 -0.0030926778077777677 -0.00040013645419166935 0 -0.0030532083165054277 -0.00033846228311256978 0 -0.003103451953301787 -0.00030513405598159554 0 -0.0030532083165054277 -0.00033846228311256978 0 -0.003103451953301787 -0.00030513405598159554 0 -0.0030448830567492407 -0.00026654031947420155 0 -0.003185029504498736 -0.00032966747502075728 0 -0.0030926778077777677 -0.00040013645419166935 0 -0.003103451953301787 -0.00030513405598159554 0 -0.0031003216706305104 -0.00022546352499195011 0 -0.0031614704259691419 -0.00027016769175984264 0 -0.003103451953301787 -0.00030513405598159554 0 -0.0031003216706305104 -0.00022546352499195011 0 -0.003103451953301787 -0.00030513405598159554 0 -0.0030448830567492407 -0.00026654031947420155 0 -0.002996038968389474 -0.00020738807137970176 0 -0.0030448830567492407 -0.00026654031947420155 0 -0.0029754319776222581 -0.00037099013411886507 0 -0.0032163907326914704 -0.0002013411297361484 0 -0.0031071909454218551 -0.00034871328540901782 0 -0.0029971046577890723 -0.0001708011999381795 0 -0.0029749898655369294 -0.00035194332293867376 0 -0.0028578903786452463 -0.00024662591050269618 0 -0.0032163907326914704 -0.0002013411297361484 0 -0.0030231419073348045 -0.00022048963298711697 0 -0.0030532083165054277 -0.00033846228311256978 0 -0.0030448830567492407 -0.00026654031947420155 0 -0.0029754319776222581 -0.00037099013411886507 0 -0.0031071909454218551 -0.00034871328540901782 0 -0.0030714388241272587 -0.0004277521551440108 0 -0.0029749898655369294 -0.00035194332293867376 0 -0.0028462275850677662 -0.00035225855834501973 0 -0.0028948345712940956 -0.00045366138816116554 0 -0.0028462275850677662 -0.00035225855834501973 0 -0.0028063006642671685 -0.00045082349296908389 0 -0.0028948345712940956 -0.00045366138816116554 0 -0.0029749898655369294 -0.00035194332293867376 0 -0.0028462275850677662 -0.00035225855834501973 0 -0.0028578903786452463 -0.00024662591050269618 0 -0.0028462275850677662 -0.00035225855834501973 0 -0.0028578903786452463 -0.00024662591050269618 0 -0.002718746777997794 -0.00032246882920295388 0 -0.0021887051581406377 -9.8652609133696571e-05 0 -0.002178377193419193 -8.3626019308223249e-05 0 -0.0020035135106215383 -0.00013092996718407077 0 -0.0012179702743789582 -0.00017192182101224567 0 -0.0011741110780087364 -6.3890379341101391e-05 0 -0.0012465801619534901 -0.00010888193693762543 0 -0.0021587173626560195 -6.4127220481231611e-05 0 -0.0018497029229575762 -7.4094031943771778e-05 0 -0.0012179702743789582 -0.00017192182101224567 0 -0.0012465801619534901 -0.00010888193693762543 0 -0.00131800776012635 -0.00015675426134801365 0 -0.001553428827386985 1.8031407617504621e-05 0 -0.0018497029229575762 -7.4094031943771778e-05 0 -0.0021587173626560195 -6.4127220481231611e-05 0 -0.0022289785131366117 -0.00010688384521510911 0 -0.0028943228235918574 -0.00057852724492978751 0 -0.0028948345712940956 -0.00045366138816116554 0 -0.0029528786511060189 -0.00053369977681263885 0 -0.0028943228235918574 -0.00057852724492978751 0 -0.0028063006642671685 -0.00045082349296908389 0 -0.0028948345712940956 -0.00045366138816116554 0 -0.0022289785131366117 -0.00010688384521510911 0 -0.002554055436076176 -0.00025320755087492839 0 -0.0023879011820252087 -0.00014988052108520336 0 -0.0024277593851917542 -0.00020784207657830405 0 -0.0024766373812404921 -0.00015222656554322788 0 -0.0029754319776222581 -0.00037099013411886507 0 -0.0029528786511060189 -0.00053369977681263885 0 -0.0030246660815667144 -0.00048590298004701194 0 -0.0029749898655369294 -0.00035194332293867376 0 -0.0028948345712940956 -0.00045366138816116554 0 -0.0029528786511060189 -0.00053369977681263885 0 -0.0029528786511060189 -0.00053369977681263885 0 -0.0030246660815667144 -0.00048590298004701194 0 -0.0029628736385349992 -0.00057816230924717107 0 -0.0021977381135336962 4.7806277385068463e-05 0 -0.0021924944412021414 4.7050651773032428e-05 0 -0.0021890252078596213 6.1287677380526546e-05 0 -0.0021924944412021414 4.7050651773032428e-05 0 -0.002183863289721599 5.4339461748405505e-05 0 -0.0021890252078596213 6.1287677380526546e-05 0 -0.0022832542052093536 -8.2057871224511944e-05 0 -0.0022263982961913983 -5.0770691143030885e-05 0 -0.0021587173626560195 -6.4127220481231611e-05 0 -0.0018473785017451116 4.689784614138599e-05 0 -0.0028943228235918574 -0.00057852724492978751 0 -0.0029528786511060189 -0.00053369977681263885 0 -0.0029628736385349992 -0.00057816230924717107 0 -0.0020940902570828531 -8.8129889926754043e-05 0 -0.0020671955215965619 -4.8900948167476868e-05 0 -0.0022968587537647704 -5.349774134659155e-05 0 -0.0022289785131366117 -0.00010688384521510911 0 -0.0022832542052093536 -8.2057871224511944e-05 0 -0.0021587173626560195 -6.4127220481231611e-05 0 -0.0022832542052093536 -8.2057871224511944e-05 0 -0.002190785154605782 4.6105267214215117e-05 0 -0.0021795426336445444 4.1697023956292818e-05 0 -0.0021726875238359763 4.7095144275500362e-05 0 -0.0022105775851402167 4.35711390688181e-05 0 -0.002190785154605782 4.6105267214215117e-05 0 -0.0021795426336445444 4.1697023956292818e-05 0 -0.0022832542052093536 -8.2057871224511944e-05 0 -0.0025767134204106533 -0.00012110264568594218 0 -0.0022263982961913983 -5.0770691143030885e-05 0 -0.0022098237356072332 -4.1049321051005557e-05 0 -0.0021774355123756937 5.3329222566587953e-05 0 -0.0021821250950881427 4.7593674534766235e-05 0 -0.0021726875238359763 4.7095144275500362e-05 0 -0.0021924944412021414 4.7050651773032428e-05 0 -0.002183863289721599 5.4339461748405505e-05 0 -0.0021821250950881427 4.7593674534766235e-05 0 -0.002183863289721599 5.4339461748405505e-05 0 -0.0021774355123756937 5.3329222566587953e-05 0 -0.0021821250950881427 4.7593674534766235e-05 0 -0.0030926778077777677 -0.00040013645419166935 0 -0.0030246660815667144 -0.00048590298004701194 0 -0.0031395425724050439 -0.00054861314340154453 0 -0.0030246660815667144 -0.00048590298004701194 0 -0.0029628736385349992 -0.00057816230924717107 0 -0.0031395425724050439 -0.00054861314340154453 0 -0.0021795426336445444 4.1697023956292818e-05 0 -0.0021726875238359763 4.7095144275500362e-05 0 -0.0021582208996734171 4.0420837735641073e-05 0 -0.0032570911151554405 -0.00042894169347526334 0 -0.0031395425724050439 -0.00054861314340154453 0 -0.0033153257129088505 -0.00052024736143350882 0 -0.0032570911151554405 -0.00042894169347526334 0 -0.0030926778077777677 -0.00040013645419166935 0 -0.0031395425724050439 -0.00054861314340154453 0 -0.0025767134204106533 -0.00012110264568594218 0 -0.0026579009439830379 -0.00011076395369100125 0 -0.0021774355123756937 5.3329222566587953e-05 0 -0.0021726875238359763 4.7095144275500362e-05 0 -0.0021698398575594356 5.6307855275217749e-05 0 -0.0021726875238359763 4.7095144275500362e-05 0 -0.0021698398575594356 5.6307855275217749e-05 0 -0.002162520293886503 5.1839589994860153e-05 0 -0.0021698398575594356 5.6307855275217749e-05 0 -0.0021682256508297518 6.7342944308018573e-05 0 -0.0021591965156279886 6.0962926611955612e-05 0 -0.0021774355123756937 5.3329222566587953e-05 0 -0.0021698398575594356 5.6307855275217749e-05 0 -0.0021780488785956556 6.1092220604320609e-05 0 -0.0021698398575594356 5.6307855275217749e-05 0 -0.0021682256508297518 6.7342944308018573e-05 0 -0.0021780488785956556 6.1092220604320609e-05 0 -0.0016737874514581878 0.00010466205274310622 0 -0.0017870385522793394 0.00018957537735482099 0 -0.0021682256508297518 6.7342944308018573e-05 0 -0.002179722284139408 7.5553528790765678e-05 0 -0.00216417356357679 7.9551631239366074e-05 0 -0.0021682256508297518 6.7342944308018573e-05 0 -0.002179722284139408 7.5553528790765678e-05 0 -0.0021780488785956556 6.1092220604320609e-05 0 -0.0016737874514581878 0.00010466205274310622 0 -0.0018473785017451116 4.689784614138599e-05 0 -0.0011360179376716669 -3.1372549872704102e-05 0 -0.0011503089520183253 -4.3098094109571657e-05 0 -0.0011532494580846757 -7.3241588364696006e-05 0 -0.0011360179376716669 -3.1372549872704102e-05 0 -0.0011459470031579522 -3.5438350784260846e-05 0 -0.0011503089520183253 -4.3098094109571657e-05 0 -0.0011359470251037056 -3.3505315328429856e-05 0 -0.0011459470031579522 -3.5438350784260846e-05 0 -0.0011403175720549605 -1.4743888222676556e-05 0 -0.0016737874514581878 0.00010466205274310622 0 -0.0016435000336734349 0.00010721983042237028 0 -0.002179722284139408 7.5553528790765678e-05 0 -0.0021780488785956556 6.1092220604320609e-05 0 -0.0021890252078596213 6.1287677380526546e-05 0 -0.002183863289721599 5.4339461748405505e-05 0 -0.0021780488785956556 6.1092220604320609e-05 0 -0.0021890252078596213 6.1287677380526546e-05 0 -0.002183863289721599 5.4339461748405505e-05 0 -0.0021774355123756937 5.3329222566587953e-05 0 -0.0021780488785956556 6.1092220604320609e-05 0 -0.0012179702743789582 -0.00017192182101224567 0 -0.0011532494580846757 -7.3241588364696006e-05 0 -0.0011741110780087364 -6.3890379341101391e-05 0 -0.0011741110780087364 -6.3890379341101391e-05 0 -0.0011706194408625517 -5.1828123617517128e-05 0 -0.0011808456040466005 -5.8545057325613348e-05 0 -0.0011741110780087364 -6.3890379341101391e-05 0 -0.0011646403117556031 -5.5934707766286615e-05 0 -0.0011706194408625517 -5.1828123617517128e-05 0 -0.0011532494580846757 -7.3241588364696006e-05 0 -0.0011646403117556031 -5.5934707766286615e-05 0 -0.0011580747263054056 -5.0550376084151413e-05 0 -0.0011503089520183253 -4.3098094109571657e-05 0 -0.0011532494580846757 -7.3241588364696006e-05 0 -0.0011580747263054056 -5.0550376084151413e-05 0 -0.0011532494580846757 -7.3241588364696006e-05 0 -0.0011741110780087364 -6.3890379341101391e-05 0 -0.0011646403117556031 -5.5934707766286615e-05 0 -0.0011646403117556031 -5.5934707766286615e-05 0 -0.0011580747263054056 -5.0550376084151413e-05 0 -0.0011631256612821335 -4.4967111402422421e-05 0 -0.0011631256612821335 -4.4967111402422421e-05 0 -0.0011576415213369099 -3.7865216270624562e-05 0 -0.0011700754985910623 -3.9441177258548704e-05 0 -0.0011580747263054056 -5.0550376084151413e-05 0 -0.0011631256612821335 -4.4967111402422421e-05 0 -0.0011576415213369099 -3.7865216270624562e-05 0 -0.0011503089520183253 -4.3098094109571657e-05 0 -0.0011580747263054056 -5.0550376084151413e-05 0 -0.0011576415213369099 -3.7865216270624562e-05 0 -0.0011459470031579522 -3.5438350784260846e-05 0 -0.0011503089520183253 -4.3098094109571657e-05 0 -0.0011576415213369099 -3.7865216270624562e-05 0 -0.0011576415213369099 -3.7865216270624562e-05 0 -0.0011653455993572777 -2.6378060575245572e-05 0 -0.0011539558459596787 -2.4723455503570122e-05 0 -0.0011459470031579522 -3.5438350784260846e-05 0 -0.0011576415213369099 -3.7865216270624562e-05 0 -0.0011539558459596787 -2.4723455503570122e-05 0 -0.00117633141374018 -2.9013726014470908e-05 0 -0.0011700754985910623 -3.9441177258548704e-05 0 -0.0011653455993572777 -2.6378060575245572e-05 0 -0.0011576415213369099 -3.7865216270624562e-05 0 -0.0011700754985910623 -3.9441177258548704e-05 0 -0.0011653455993572777 -2.6378060575245572e-05 0 -0.0011700754985910623 -3.9441177258548704e-05 0 -0.0011706194408625517 -5.1828123617517128e-05 0 -0.0011784218152499234 -4.7623307256149432e-05 0 -0.0011631256612821335 -4.4967111402422421e-05 0 -0.0011700754985910623 -3.9441177258548704e-05 0 -0.0011706194408625517 -5.1828123617517128e-05 0 -0.0011646403117556031 -5.5934707766286615e-05 0 -0.0011631256612821335 -4.4967111402422421e-05 0 -0.0011706194408625517 -5.1828123617517128e-05 0 -0.0011706194408625517 -5.1828123617517128e-05 0 -0.0011784218152499234 -4.7623307256149432e-05 0 -0.0011808456040466005 -5.8545057325613348e-05 0 -0.0011784218152499234 -4.7623307256149432e-05 0 -0.0011912121673331691 -5.4634945389002989e-05 0 -0.0011808456040466005 -5.8545057325613348e-05 0 -0.0011700754985910623 -3.9441177258548704e-05 0 -0.0011784218152499234 -4.7623307256149432e-05 0 -0.0011843371886192148 -3.9214098199810894e-05 0 -0.0011784218152499234 -4.7623307256149432e-05 0 -0.0011843371886192148 -3.9214098199810894e-05 0 -0.0011912121673331691 -5.4634945389002989e-05 0 -0.00117633141374018 -2.9013726014470908e-05 0 -0.0011843371886192148 -3.9214098199810894e-05 0 -0.0011874030118698481 -2.2595552254061644e-05 0 -0.00117633141374018 -2.9013726014470908e-05 0 -0.0011700754985910623 -3.9441177258548704e-05 0 -0.0011843371886192148 -3.9214098199810894e-05 0 -0.0011843371886192148 -3.9214098199810894e-05 0 -0.0012048212568270007 -3.9279414354374232e-05 0 -0.0011874030118698481 -2.2595552254061644e-05 0 -0.0011843371886192148 -3.9214098199810894e-05 0 -0.0011912121673331691 -5.4634945389002989e-05 0 -0.0012048212568270007 -3.9279414354374232e-05 0 -0.0011912121673331691 -5.4634945389002989e-05 0 -0.0012054755117200935 -6.4439503247256351e-05 0 -0.0012048212568270007 -3.9279414354374232e-05 0 -0.0011912121673331691 -5.4634945389002989e-05 0 -0.0011897494699948013 -7.663211042309964e-05 0 -0.0012054755117200935 -6.4439503247256351e-05 0 -0.0011897494699948013 -7.663211042309964e-05 0 -0.0012115972076069542 -9.3359173184307049e-05 0 -0.0012054755117200935 -6.4439503247256351e-05 0 -0.0011912121673331691 -5.4634945389002989e-05 0 -0.0011808456040466005 -5.8545057325613348e-05 0 -0.0011897494699948013 -7.663211042309964e-05 0 -0.0011741110780087364 -6.3890379341101391e-05 0 -0.0011808456040466005 -5.8545057325613348e-05 0 -0.0011897494699948013 -7.663211042309964e-05 0 -0.0014690608360373991 4.1417985928157034e-05 0 -0.001553428827386985 1.8031407617504621e-05 0 -0.0015692874341515898 0.00057417732032881853 0 -0.0015412427372923291 0.00056515549115786375 0 -0.0015536638081530222 0.00054775863717563351 0 -0.0015692874341515898 0.00057417732032881853 0 -0.0015480921296026093 0.00059264015502504745 0 -0.0015412427372923291 0.00056515549115786375 0 -0.0025401998092043766 -5.1065628007616389e-05 0 -0.0026381756550706023 5.4456360246529102e-05 0 -0.0015692874341515898 0.00057417732032881853 0 -0.0015480921296026093 0.00059264015502504745 0 -0.0015876042864976577 0.00060137002256964163 0 -0.0025401998092043766 -5.1065628007616389e-05 0 -0.0021759362828047911 0.00017947436635119805 0 -0.0025401998092043766 -5.1065628007616389e-05 0 -0.0026579009439830379 -0.00011076395369100125 0 -0.0034106985676215077 -0.00042673399879704133 0 -0.0034911718463760738 -0.00049132887353149873 0 -0.0033153257129088505 -0.00052024736143350882 0 -0.002141382582413517 3.7986607444149944e-05 0 -0.0021582208996734171 4.0420837735641073e-05 0 -0.0021434439002080787 5.2579227468399998e-05 0 -0.0032570911151554405 -0.00042894169347526334 0 -0.0034106985676215077 -0.00042673399879704133 0 -0.0033153257129088505 -0.00052024736143350882 0 -0.0021582208996734171 4.0420837735641073e-05 0 -0.002162520293886503 5.1839589994860153e-05 0 -0.0021535595899941223 5.4485464572123485e-05 0 -0.0021726875238359763 4.7095144275500362e-05 0 -0.0021582208996734171 4.0420837735641073e-05 0 -0.002162520293886503 5.1839589994860153e-05 0 -0.002162520293886503 5.1839589994860153e-05 0 -0.0021535595899941223 5.4485464572123485e-05 0 -0.0021591965156279886 6.0962926611955612e-05 0 -0.0021582208996734171 4.0420837735641073e-05 0 -0.0021434439002080787 5.2579227468399998e-05 0 -0.0021535595899941223 5.4485464572123485e-05 0 -0.0021434439002080787 5.2579227468399998e-05 0 -0.0021535595899941223 5.4485464572123485e-05 0 -0.002145409578855513 6.7958700755730829e-05 0 -0.0021535595899941223 5.4485464572123485e-05 0 -0.0021591965156279886 6.0962926611955612e-05 0 -0.002145409578855513 6.7958700755730829e-05 0 -0.0021759362828047911 0.00017947436635119805 0 -0.0019231821314399384 0.00027380895905722866 0 -0.0021591965156279886 6.0962926611955612e-05 0 -0.0021563614147601592 7.1310143777280114e-05 0 -0.002145409578855513 6.7958700755730829e-05 0 -0.0021682256508297518 6.7342944308018573e-05 0 -0.0021591965156279886 6.0962926611955612e-05 0 -0.0021563614147601592 7.1310143777280114e-05 0 -0.0021698398575594356 5.6307855275217749e-05 0 -0.002162520293886503 5.1839589994860153e-05 0 -0.0021591965156279886 6.0962926611955612e-05 0 -0.0021682256508297518 6.7342944308018573e-05 0 -0.0021563614147601592 7.1310143777280114e-05 0 -0.00216417356357679 7.9551631239366074e-05 0 -0.0021563614147601592 7.1310143777280114e-05 0 -0.0021477340177224976 8.3562084387107921e-05 0 -0.00216417356357679 7.9551631239366074e-05 0 -0.0019231821314399384 0.00027380895905722866 0 -0.0016983369704684651 0.00033588384811837645 0 -0.0015353542756023121 0.00054167245568982299 0 -0.0015448086859743246 0.00053137433119772337 0 -0.001530109575914574 0.00052150776258182358 0 -0.0021563614147601592 7.1310143777280114e-05 0 -0.002145409578855513 6.7958700755730829e-05 0 -0.0021477340177224976 8.3562084387107921e-05 0 -0.0015353542756023121 0.00054167245568982299 0 -0.0015448086859743246 0.00053137433119772337 0 -0.0015536638081530222 0.00054775863717563351 0 -0.0015448086859743246 0.00053137433119772337 0 -0.0015536638081530222 0.00054775863717563351 0 -0.0015556234179834351 0.00053316501899274254 0 -0.0015412427372923291 0.00056515549115786375 0 -0.0015353542756023121 0.00054167245568982299 0 -0.0015536638081530222 0.00054775863717563351 0 -0.0015692874341515898 0.00057417732032881853 0 -0.0015536638081530222 0.00054775863717563351 0 -0.0015820670424328079 0.00055095290825981529 0 -0.0015536638081530222 0.00054775863717563351 0 -0.0015556234179834351 0.00053316501899274254 0 -0.0015820670424328079 0.00055095290825981529 0 -0.0017999248073113719 0.00041460619864060834 0 -0.001875198020337122 0.00039555478982250921 0 -0.0015556234179834351 0.00053316501899274254 0 -0.0015713060521260818 0.00058454799428309481 0 -0.0015782657871455264 0.00052683595880347967 0 -0.0016154100712104937 0.00054277616193571833 0 -0.0015713060521260818 0.00058454799428309481 0 -0.0015782657871455264 0.00052683595880347967 0 -0.0016154100712104937 0.00054277616193571833 0 -0.0016519312707613211 0.00054010066470064463 0 -0.0016441868917316817 0.00051435975843170496 0 -0.0016154100712104937 0.00054277616193571833 0 -0.0016494954600216078 0.00056353898631392272 0 -0.0016519312707613211 0.00054010066470064463 0 -0.0016154100712104937 0.00054277616193571833 0 -0.0016139863609228792 0.00059083795015202106 0 -0.0016494954600216078 0.00056353898631392272 0 -0.0016139863609228792 0.00059083795015202106 0 -0.0016536450079488421 0.00059728138694444227 0 -0.0016494954600216078 0.00056353898631392272 0 -0.0016139863609228792 0.00059083795015202106 0 -0.0016391091227818996 0.0006245146372020748 0 -0.0016536450079488421 0.00059728138694444227 0 -0.0016154100712104937 0.00054277616193571833 0 -0.0016139863609228792 0.00059083795015202106 0 -0.0015713060521260818 0.00058454799428309481 0 -0.001875198020337122 0.00039555478982250921 0 -0.002131986412929401 0.00031229508206078425 0 -0.0015692874341515898 0.00057417732032881853 0 -0.0015820670424328079 0.00055095290825981529 0 -0.0016082989603926673 0.00057726522841657362 0 -0.0016139863609228792 0.00059083795015202106 0 -0.0015713060521260818 0.00058454799428309481 0 -0.0016017155661288665 0.0006474638958579703 0 -0.0016139863609228792 0.00059083795015202106 0 -0.0016017155661288665 0.0006474638958579703 0 -0.0016391091227818996 0.0006245146372020748 0 -0.0016017155661288665 0.0006474638958579703 0 -0.0016391091227818996 0.0006245146372020748 0 -0.0016601035161063332 0.00065934971731454093 0 -0.0016017155661288665 0.0006474638958579703 0 -0.0016601035161063332 0.00065934971731454093 0 -0.0016422210594315733 0.00071562568805263159 0 -0.002131986412929401 0.00031229508206078425 0 -0.0027287575973168393 0.00014692048385654257 0 -0.0016082989603926673 0.00057726522841657362 0 -0.0015876042864976577 0.00060137002256964163 0 -0.0016345354623345148 0.00060912168731046073 0 -0.0015692874341515898 0.00057417732032881853 0 -0.0016082989603926673 0.00057726522841657362 0 -0.0015876042864976577 0.00060137002256964163 0 -0.0017004628826286518 0.00068437515419359396 0 -0.0017586853852470737 0.00066964953579510167 0 -0.0017306950396466046 0.00073759364303294832 0 -0.0017004628826286518 0.00068437515419359396 0 -0.0017154512449705434 0.00063967362072974267 0 -0.0017586853852470737 0.00066964953579510167 0 -0.0017004628826286518 0.00068437515419359396 0 -0.0016601035161063332 0.00065934971731454093 0 -0.0017154512449705434 0.00063967362072974267 0 -0.0017004628826286518 0.00068437515419359396 0 -0.0016601035161063332 0.00065934971731454093 0 -0.0016422210594315733 0.00071562568805263159 0 -0.0016601035161063332 0.00065934971731454093 0 -0.0016790278325344431 0.00061883040449775626 0 -0.0017154512449705434 0.00063967362072974267 0 -0.0016391091227818996 0.0006245146372020748 0 -0.0016601035161063332 0.00065934971731454093 0 -0.0016790278325344431 0.00061883040449775626 0 -0.0016391091227818996 0.0006245146372020748 0 -0.0016790278325344431 0.00061883040449775626 0 -0.0016536450079488421 0.00059728138694444227 0 -0.0016790278325344431 0.00061883040449775626 0 -0.0017154512449705434 0.00063967362072974267 0 -0.001707941716093845 0.00060362119730766959 0 -0.0017154512449705434 0.00063967362072974267 0 -0.0017483678382696087 0.00063386315970296735 0 -0.0017586853852470737 0.00066964953579510167 0 -0.0017154512449705434 0.00063967362072974267 0 -0.0017483678382696087 0.00063386315970296735 0 -0.0017401861998816318 0.00060860219364433448 0 -0.0017154512449705434 0.00063967362072974267 0 -0.0017401861998816318 0.00060860219364433448 0 -0.001707941716093845 0.00060362119730766959 0 -0.0017401861998816318 0.00060860219364433448 0 -0.0017199502335396865 0.00059220602314726521 0 -0.0017288718052299432 0.00057734821004016917 0 -0.0017016728274556817 0.0005619414330722901 0 -0.001697732142513337 0.00056682629261572233 0 -0.0016798624081347606 0.00054713618286290997 0 -0.0017401861998816318 0.00060860219364433448 0 -0.0017199502335396865 0.00059220602314726521 0 -0.001707941716093845 0.00060362119730766959 0 -0.0017199502335396865 0.00059220602314726521 0 -0.0017035380986556937 0.00057978915119369324 0 -0.0017288718052299432 0.00057734821004016917 0 -0.0017199502335396865 0.00059220602314726521 0 -0.001707941716093845 0.00060362119730766959 0 -0.0017035380986556937 0.00057978915119369324 0 -0.001707941716093845 0.00060362119730766959 0 -0.0017035380986556937 0.00057978915119369324 0 -0.001680061991906241 0.00058333752267413495 0 -0.0017035380986556937 0.00057978915119369324 0 -0.0017288718052299432 0.00057734821004016917 0 -0.0016798624081347606 0.00054713618286290997 0 -0.0016790278325344431 0.00061883040449775626 0 -0.0016536450079488421 0.00059728138694444227 0 -0.001680061991906241 0.00058333752267413495 0 -0.0016790278325344431 0.00061883040449775626 0 -0.001707941716093845 0.00060362119730766959 0 -0.001680061991906241 0.00058333752267413495 0 -0.0017035380986556937 0.00057978915119369324 0 -0.001680061991906241 0.00058333752267413495 0 -0.0016798624081347606 0.00054713618286290997 0 -0.0016536450079488421 0.00059728138694444227 0 -0.001680061991906241 0.00058333752267413495 0 -0.0016494954600216078 0.00056353898631392272 0 -0.0016494954600216078 0.00056353898631392272 0 -0.0016798624081347606 0.00054713618286290997 0 -0.0016519312707613211 0.00054010066470064463 0 -0.001680061991906241 0.00058333752267413495 0 -0.0016494954600216078 0.00056353898631392272 0 -0.0016798624081347606 0.00054713618286290997 0 -0.0016798624081347606 0.00054713618286290997 0 -0.0016874245850308567 0.00053976629119886624 0 -0.0016695979743102142 0.0005305143241696559 0 -0.0016798624081347606 0.00054713618286290997 0 -0.0016519312707613211 0.00054010066470064463 0 -0.0016695979743102142 0.0005305143241696559 0 -0.0017016728274556817 0.0005619414330722901 0 -0.0016798624081347606 0.00054713618286290997 0 -0.0016874245850308567 0.00053976629119886624 0 -0.0017166237780146315 0.00062366098340717237 0 -0.0016874245850308567 0.00053976629119886624 0 -0.001727092985024883 0.00056883997034448415 0 -0.0018113124838719185 0.00055142764207019134 0 -0.00178678859306583 0.00054024601599551891 0 -0.0018026996386809389 0.00053627866934710352 0 -0.0017772622644151785 0.00052748291068820726 0 -0.0016874245850308567 0.00053976629119886624 0 -0.001727092985024883 0.00056883997034448415 0 -0.0017159902418283641 0.0005366081879820203 0 -0.0017614260071662205 0.00059642398174946125 0 -0.0017570900311939359 0.00055059133026781897 0 -0.0018330975425668253 0.00059144054698542564 0 -0.001727092985024883 0.00056883997034448415 0 -0.0017614260071662205 0.00059642398174946125 0 -0.0017570900311939359 0.00055059133026781897 0 -0.001727092985024883 0.00056883997034448415 0 -0.0017570900311939359 0.00055059133026781897 0 -0.0017159902418283641 0.0005366081879820203 0 -0.0017166237780146315 0.00062366098340717237 0 -0.001727092985024883 0.00056883997034448415 0 -0.0017614260071662205 0.00059642398174946125 0 -0.0017570900311939359 0.00055059133026781897 0 -0.0018330975425668253 0.00059144054698542564 0 -0.0017782376891619634 0.00050909267638186322 0 -0.0017614260071662205 0.00059642398174946125 0 -0.0018330975425668253 0.00059144054698542564 0 -0.0017812086900188112 0.00064873951839148052 0 -0.0018446766730891525 0.00059571670811372037 0 -0.0018363393155071915 0.00065398398486570181 0 -0.0018621716453561699 0.00060429111112330583 0 -0.001889520213321116 0.0007026547010824249 0 -0.0018332579327172455 0.00072305220885252649 0 -0.0018330975425668253 0.00059144054698542564 0 -0.0017812086900188112 0.00064873951839148052 0 -0.0018332579327172455 0.00072305220885252649 0 -0.0017016728274556817 0.0005619414330722901 0 -0.001697732142513337 0.00056682629261572233 0 -0.0017182044537392901 0.0005882001957406485 0 -0.0018113124838719185 0.00055142764207019134 0 -0.0018770354011803225 0.00055665650718222622 0 -0.0017166237780146315 0.00062366098340717237 0 -0.0017812086900188112 0.00064873951839148052 0 -0.0017644953452067777 0.00071791519501542456 0 -0.0018026996386809389 0.00053627866934710352 0 -0.0018770354011803225 0.00055665650718222622 0 -0.0017401861998816318 0.00060860219364433448 0 -0.0017288718052299432 0.00057734821004016917 0 -0.0017803079039481274 0.00061805138403274093 0 -0.0017166237780146315 0.00062366098340717237 0 -0.0017614260071662205 0.00059642398174946125 0 -0.0017812086900188112 0.00064873951839148052 0 -0.0019882273778706137 0.00060867746463456006 0 -0.0019356530830758258 0.00054471282516170257 0 -0.0020140588098039188 0.00053447502960133448 0 -0.0020550461003055282 0.0006030662313404304 0 -0.0019882273778706137 0.00060867746463456006 0 -0.0020140588098039188 0.00053447502960133448 0 -0.0020550461003055282 0.0006030662313404304 0 -0.0020430668552511308 0.00067135735959789576 0 -0.0019882273778706137 0.00060867746463456006 0 -0.0018621716453561699 0.00060429111112330583 0 -0.0019882273778706137 0.00060867746463456006 0 -0.0019356530830758258 0.00054471282516170257 0 -0.0018621716453561699 0.00060429111112330583 0 -0.0019882273778706137 0.00060867746463456006 0 -0.0019530043810849851 0.00067844624690986265 0 -0.0018621716453561699 0.00060429111112330583 0 -0.0019530043810849851 0.00067844624690986265 0 -0.001889520213321116 0.0007026547010824249 0 -0.0020430668552511308 0.00067135735959789576 0 -0.0019882273778706137 0.00060867746463456006 0 -0.0019530043810849851 0.00067844624690986265 0 -0.0020430668552511308 0.00067135735959789576 0 -0.0019530043810849851 0.00067844624690986265 0 -0.0020035660731132191 0.00073563752364524894 0 -0.0020035660731132191 0.00073563752364524894 0 -0.0019319674460327879 0.00074711712186828938 0 -0.0019856342630504252 0.00078957694418799922 0 -0.0019530043810849851 0.00067844624690986265 0 -0.0019319674460327879 0.00074711712186828938 0 -0.001889520213321116 0.0007026547010824249 0 -0.0019530043810849851 0.00067844624690986265 0 -0.0020035660731132191 0.00073563752364524894 0 -0.0019319674460327879 0.00074711712186828938 0 -0.0019319674460327879 0.00074711712186828938 0 -0.001889520213321116 0.0007026547010824249 0 -0.0018678030615925203 0.00076616417820864007 0 -0.0019319674460327879 0.00074711712186828938 0 -0.0019371930390595414 0.00081863815700260309 0 -0.0018678030615925203 0.00076616417820864007 0 -0.0019371930390595414 0.00081863815700260309 0 -0.0018678030615925203 0.00076616417820864007 0 -0.0018749193117618911 0.00083307775263906717 0 -0.0019319674460327879 0.00074711712186828938 0 -0.0019371930390595414 0.00081863815700260309 0 -0.0019856342630504252 0.00078957694418799922 0 -0.0020555002896285699 0.00080220615399635459 0 -0.0020496725209078626 0.00088572365321370312 0 -0.0019980431525498518 0.00084366839836293118 0 -0.0019371930390595414 0.00081863815700260309 0 -0.0019856342630504252 0.00078957694418799922 0 -0.0019980431525498518 0.00084366839836293118 0 -0.0020555002896285699 0.00080220615399635459 0 -0.0019856342630504252 0.00078957694418799922 0 -0.0019980431525498518 0.00084366839836293118 0 -0.0020555002896285699 0.00080220615399635459 0 -0.0020035660731132191 0.00073563752364524894 0 -0.0019856342630504252 0.00078957694418799922 0 -0.0018770354011803225 0.00055665650718222622 0 -0.0018780370950232834 0.00062193046558191366 0 -0.0017483678382696087 0.00063386315970296735 0 -0.0017803079039481274 0.00061805138403274093 0 -0.0017586853852470737 0.00066964953579510167 0 -0.0017483678382696087 0.00063386315970296735 0 -0.0017401861998816318 0.00060860219364433448 0 -0.0017803079039481274 0.00061805138403274093 0 -0.0017812086900188112 0.00064873951839148052 0 -0.0017644953452067777 0.00071791519501542456 0 -0.0018332579327172455 0.00072305220885252649 0 -0.0017644953452067777 0.00071791519501542456 0 -0.0018678030615925203 0.00076616417820864007 0 -0.0018749193117618911 0.00083307775263906717 0 -0.0017644953452067777 0.00071791519501542456 0 -0.0018332579327172455 0.00072305220885252649 0 -0.0018678030615925203 0.00076616417820864007 0 -0.001889520213321116 0.0007026547010824249 0 -0.0018332579327172455 0.00072305220885252649 0 -0.0018678030615925203 0.00076616417820864007 0 -0.0018770354011803225 0.00055665650718222622 0 -0.0022730449110768144 0.00046689698792733077 0 -0.0017741562501421006 0.00055288961415841692 0 -0.0018263986889302066 0.0006468272021096864 0 -0.0018785141154681198 0.00067156788255997256 0 -0.0018263986889302066 0.0006468272021096864 0 -0.0018785141154681198 0.00067156788255997256 0 -0.0018785356968187593 0.00074236850860953934 0 -0.0018238090093076944 0.0006747955439392392 0 -0.001795829841843333 0.00071245629342512034 0 -0.0018318860021712753 0.00071938965386935554 0 -0.0017803079039481274 0.00061805138403274093 0 -0.0018238090093076944 0.0006747955439392392 0 -0.0017586853852470737 0.00066964953579510167 0 -0.0017586853852470737 0.00066964953579510167 0 -0.001795829841843333 0.00071245629342512034 0 -0.0017306950396466046 0.00073759364303294832 0 -0.0018238090093076944 0.0006747955439392392 0 -0.0017586853852470737 0.00066964953579510167 0 -0.001795829841843333 0.00071245629342512034 0 -0.001795829841843333 0.00071245629342512034 0 -0.0018378017081636128 0.00076491084071024051 0 -0.0017306950396466046 0.00073759364303294832 0 -0.0030375822490757466 0.00024098670009193478 0 -0.0028909120165143834 0.00018574000552250104 0 -0.001795829841843333 0.00071245629342512034 0 -0.0018318860021712753 0.00071938965386935554 0 -0.0018378017081636128 0.00076491084071024051 0 -0.0018238090093076944 0.0006747955439392392 0 -0.0018318860021712753 0.00071938965386935554 0 -0.0018785356968187593 0.00074236850860953934 0 -0.0018780370950232834 0.00062193046558191366 0 -0.0018875424338317022 0.0006569630751965366 0 -0.0018318860021712753 0.00071938965386935554 0 -0.0018785356968187593 0.00074236850860953934 0 -0.0018378017081636128 0.00076491084071024051 0 -0.0042638499698392472 -0.00038609323679628696 0 -0.0043415984807988299 -0.00025703131939659577 0 -0.0042305970930549691 -0.00019875674967653601 0 -0.0042638499698392472 -0.00038609323679628696 0 -0.0041242484995361933 -0.00029479015943353616 0 -0.0040614060974934292 -0.00042040138944342493 0 -0.0042638499698392472 -0.00038609323679628696 0 -0.0041242484995361933 -0.00029479015943353616 0 -0.0042305970930549691 -0.00019875674967653601 0 -0.0020496725209078626 0.00088572365321370312 0 -0.0019980431525498518 0.00084366839836293118 0 -0.0019761054665574456 0.0009358635635082032 0 -0.0019371930390595414 0.00081863815700260309 0 -0.0019980431525498518 0.00084366839836293118 0 -0.0019761054665574456 0.0009358635635082032 0 -0.0022730449110768144 0.00046689698792733077 0 -0.0031389976433561736 0.00032603481298148319 0 -0.0019371930390595414 0.00081863815700260309 0 -0.0018749193117618911 0.00083307775263906717 0 -0.0019761054665574456 0.0009358635635082032 0 -0.0018785356968187593 0.00074236850860953934 0 -0.0018378017081636128 0.00076491084071024051 0 -0.0019870345279192356 0.00079248589452384399 0 -0.0018785141154681198 0.00067156788255997256 0 -0.0018785356968187593 0.00074236850860953934 0 -0.0019870345279192356 0.00079248589452384399 0 -0.0030375822490757466 0.00024098670009193478 0 -0.0031389976433561736 0.00032603481298148319 0 -0.0044659344508254989 -0.00035563296509190975 0 -0.0043415984807988299 -0.00025703131939659577 0 -0.0044363569814377902 -0.0001843997036261427 0 -0.0042638499698392472 -0.00038609323679628696 0 -0.0044659344508254989 -0.00035563296509190975 0 -0.0043415984807988299 -0.00025703131939659577 0 -0.0033828706659019539 0.00033236057244807394 0 -0.0031389976433561736 0.00032603481298148319 0 -0.0036745293122617483 0.00033773497588061976 0 -0.0031389976433561736 0.00032603481298148319 0 -0.0046186222463169401 -0.00019661829246226572 0 -0.0046438431655788344 -0.00022439669514188993 0 -0.004467862587424566 -0.00035893620425192041 0 -0.0046186222463169401 -0.00019661829246226572 0 -0.0044659344508254989 -0.00035563296509190975 0 -0.004523662174433409 -0.00021706793517132331 0 -0.0044659344508254989 -0.00035563296509190975 0 -0.004523662174433409 -0.00021706793517132331 0 -0.0044363569814377902 -0.0001843997036261427 0 -0.0045625838780299043 -0.00014597005361678507 0 -0.004523662174433409 -0.00021706793517132331 0 -0.0045036984535212808 -0.00015106268066285519 0 -0.0045821785336925885 -0.00017487148076376563 0 -0.0045625838780299043 -0.00014597005361678507 0 -0.004523662174433409 -0.00021706793517132331 0 -0.0045821785336925885 -0.00017487148076376563 0 -0.0046186222463169401 -0.00019661829246226572 0 -0.004523662174433409 -0.00021706793517132331 0 -0.004523662174433409 -0.00021706793517132331 0 -0.0045036984535212808 -0.00015106268066285519 0 -0.0044363569814377902 -0.0001843997036261427 0 -0.0043415984807988299 -0.00025703131939659577 0 -0.0044363569814377902 -0.0001843997036261427 0 -0.0043637777608085595 -9.925522214105052e-05 0 -0.0043422337093806012 5.0630072954514154e-07 0 -0.0043637777608085595 -9.925522214105052e-05 0 -0.0044076897249039409 -3.198695815579915e-05 0 -0.0043637777608085595 -9.925522214105052e-05 0 -0.0044076897249039409 -3.198695815579915e-05 0 -0.0044620468485649092 -8.5742850533994966e-05 0 -0.0044653487056831266 -9.5611260520933497e-06 0 -0.0044076897249039409 -3.198695815579915e-05 0 -0.0044620468485649092 -8.5742850533994966e-05 0 -0.0044363569814377902 -0.0001843997036261427 0 -0.0043637777608085595 -9.925522214105052e-05 0 -0.0044620468485649092 -8.5742850533994966e-05 0 -0.0045036984535212808 -0.00015106268066285519 0 -0.0044620468485649092 -8.5742850533994966e-05 0 -0.0045382136592269041 -9.4586651492059308e-05 0 -0.0045036984535212808 -0.00015106268066285519 0 -0.0044363569814377902 -0.0001843997036261427 0 -0.0044620468485649092 -8.5742850533994966e-05 0 -0.0044620468485649092 -8.5742850533994966e-05 0 -0.0045259688076567791 -3.2222817092266336e-05 0 -0.0045382136592269041 -9.4586651492059308e-05 0 -0.0044653487056831266 -9.5611260520933497e-06 0 -0.0044620468485649092 -8.5742850533994966e-05 0 -0.0045259688076567791 -3.2222817092266336e-05 0 -0.004582095093273229 -5.6354908547379958e-05 0 -0.0045844794250686416 -9.5940866422434828e-06 0 -0.0045259688076567791 -3.2222817092266336e-05 0 -0.004582095093273229 -5.6354908547379958e-05 0 -0.0045259688076567791 -3.2222817092266336e-05 0 -0.0045382136592269041 -9.4586651492059308e-05 0 -0.004582095093273229 -5.6354908547379958e-05 0 -0.0045865963182945861 -0.00010235240399834717 0 -0.0045382136592269041 -9.4586651492059308e-05 0 -0.0045865963182945861 -0.00010235240399834717 0 -0.0045625838780299043 -0.00014597005361678507 0 -0.0045382136592269041 -9.4586651492059308e-05 0 -0.0045625838780299043 -0.00014597005361678507 0 -0.0045036984535212808 -0.00015106268066285519 0 -0.0045382136592269041 -9.4586651492059308e-05 0 -0.0042305970930549691 -0.00019875674967653601 0 -0.0041306515514414515 -7.3856849100996957e-05 0 -0.0041079475115234389 -0.00018657325380146909 0 -0.0041242484995361933 -0.00029479015943353616 0 -0.0042305970930549691 -0.00019875674967653601 0 -0.0041079475115234389 -0.00018657325380146909 0 -0.0043415984807988299 -0.00025703131939659577 0 -0.0043637777608085595 -9.925522214105052e-05 0 -0.0042305970930549691 -0.00019875674967653601 0 -0.0043637777608085595 -9.925522214105052e-05 0 -0.0042305970930549691 -0.00019875674967653601 0 -0.0042541071578934449 -4.8682938819572029e-05 0 -0.0043422337093806012 5.0630072954514154e-07 0 -0.0043637777608085595 -9.925522214105052e-05 0 -0.0042541071578934449 -4.8682938819572029e-05 0 -0.0042305970930549691 -0.00019875674967653601 0 -0.0042541071578934449 -4.8682938819572029e-05 0 -0.0041306515514414515 -7.3856849100996957e-05 0 -0.0041949301805704661 1.7847900127481016e-05 0 -0.0042541071578934449 -4.8682938819572029e-05 0 -0.0041306515514414515 -7.3856849100996957e-05 0 -0.004006687862800405 1.5510164825008306e-05 0 -0.0040171006985200274 -5.0338505906582114e-05 0 -0.0040133515683725479 -2.7459006009299464e-06 0 -0.0041306515514414515 -7.3856849100996957e-05 0 -0.0040309647144743787 -0.00015692740893642653 0 -0.0041306515514414515 -7.3856849100996957e-05 0 -0.0041079475115234389 -0.00018657325380146909 0 -0.0040309647144743787 -0.00015692740893642653 0 -0.0041079475115234389 -0.00018657325380146909 0 -0.0040309647144743787 -0.00015692740893642653 0 -0.0040246751307132572 -0.00021101575726643174 0 -0.0040309647144743787 -0.00015692740893642653 0 -0.0040246751307132572 -0.00021101575726643174 0 -0.003950028456153074 -0.00017720112347017125 0 -0.0041242484995361933 -0.00029479015943353616 0 -0.0041079475115234389 -0.00018657325380146909 0 -0.0040246751307132572 -0.00021101575726643174 0 -0.0040246751307132572 -0.00021101575726643174 0 -0.003950028456153074 -0.00017720112347017125 0 -0.0039522384245533086 -0.000316046439528848 0 -0.0040309647144743787 -0.00015692740893642653 0 -0.003950028456153074 -0.00017720112347017125 0 -0.0039514120708462937 -0.00010611622614376762 0 -0.003950028456153074 -0.00017720112347017125 0 -0.0039514120708462937 -0.00010611622614376762 0 -0.0038655294651215154 -0.00016252658545610685 0 -0.0040045686514474273 -7.5422800678265343e-06 0 -0.0040309647144743787 -0.00015692740893642653 0 -0.0039514120708462937 -0.00010611622614376762 0 -0.0040045686514474273 -7.5422800678265343e-06 0 -0.0039514120708462937 -0.00010611622614376762 0 -0.0038681287297194504 -6.1601447680936696e-05 0 -0.0038681287297194504 -6.1601447680936696e-05 0 -0.0037409641942783576 -7.0096546321944472e-05 0 -0.0038655294651215154 -0.00016252658545610685 0 -0.0039514120708462937 -0.00010611622614376762 0 -0.0038681287297194504 -6.1601447680936696e-05 0 -0.0038655294651215154 -0.00016252658545610685 0 -0.003609649310860569 -0.00014262277102422167 0 -0.0037409641942783576 -7.0096546321944472e-05 0 -0.0037405635189212512 -0.00018956618445824074 0 -0.0037409641942783576 -7.0096546321944472e-05 0 -0.0037405635189212512 -0.00018956618445824074 0 -0.0038655294651215154 -0.00016252658545610685 0 -0.0037405635189212512 -0.00018956618445824074 0 -0.0038655294651215154 -0.00016252658545610685 0 -0.0038584622605310555 -0.00026551490192573809 0 -0.003950028456153074 -0.00017720112347017125 0 -0.0038655294651215154 -0.00016252658545610685 0 -0.0038584622605310555 -0.00026551490192573809 0 -0.0038584622605310555 -0.00026551490192573809 0 -0.0037362083076829954 -0.00032092844832250878 0 -0.0038780370896999644 -0.00042568077197619814 0 -0.0036270469540115252 -0.00023689081275909263 0 -0.0037405635189212512 -0.00018956618445824074 0 -0.0037362083076829954 -0.00032092844832250878 0 -0.0037405635189212512 -0.00018956618445824074 0 -0.0038584622605310555 -0.00026551490192573809 0 -0.0037362083076829954 -0.00032092844832250878 0 -0.0026381756550706023 5.4456360246529102e-05 0 -0.0027287575973168393 0.00014692048385654257 0 -0.003686962414793426 -0.00045961736915739346 0 -0.0037362083076829954 -0.00032092844832250878 0 -0.0038780370896999644 -0.00042568077197619814 0 -0.0017004628826286518 0.00068437515419359396 0 -0.0016422210594315733 0.00071562568805263159 0 -0.0017306950396466046 0.00073759364303294832 0 -0.0038477493904011156 -0.0004564263526912587 0 -0.0040614060974934292 -0.00042040138944342493 0 -0.003934730523881937 -0.00033247579707042506 0 -0.0027287575973168393 0.00014692048385654257 0 -0.0028909120165143834 0.00018574000552250104 0 -0.0027287575973168393 0.00014692048385654257 0 -0.0031729646111989494 9.2034772670759996e-05 0 -0.0041242484995361933 -0.00029479015943353616 0 -0.0040614060974934292 -0.00042040138944342493 0 -0.0040349767330642803 -0.00031227199633204582 0 -0.0040614060974934292 -0.00042040138944342493 0 -0.0040349767330642803 -0.00031227199633204582 0 -0.003934730523881937 -0.00033247579707042506 0 -0.0040246751307132572 -0.00021101575726643174 0 -0.0040349767330642803 -0.00031227199633204582 0 -0.003934730523881937 -0.00033247579707042506 0 -0.0041242484995361933 -0.00029479015943353616 0 -0.0040246751307132572 -0.00021101575726643174 0 -0.0040349767330642803 -0.00031227199633204582 0 -0.003950028456153074 -0.00017720112347017125 0 -0.0038584622605310555 -0.00026551490192573809 0 -0.0039522384245533086 -0.000316046439528848 0 -0.0033153574469496952 8.7844223986144974e-05 0 -0.0031729646111989494 9.2034772670759996e-05 0 -0.0038584622605310555 -0.00026551490192573809 0 -0.0038780370896999644 -0.00042568077197619814 0 -0.0039522384245533086 -0.000316046439528848 0 -0.0040586610514678698 -7.3996055006720142e-06 0 -0.0042084184722105842 -5.8936360910849105e-05 0 -0.0041417924450663397 -1.5846134509178149e-05 0 -0.0037818632529981796 -5.0211632950203837e-05 0 -0.0039364090012633263 -6.8017332152818728e-05 0 -0.0042084184722105842 -5.8936360910849105e-05 0 -0.0038027414178524359 -1.0902031891899456e-06 0 -0.0038626898848685798 -1.300992425193482e-05 0 -0.0037818632529981796 -5.0211632950203837e-05 0 -0.0039364090012633263 -6.8017332152818728e-05 0 -0.0037682742896246735 -1.730100183649608e-05 0 -0.0040586610514678698 -7.3996055006720142e-06 0 -0.0040027083195076215 -9.1614059222497955e-07 0 -0.0041417924450663397 -1.5846134509178149e-05 0 -0.0040521736051038161 -1.8826234364478785e-08 0 -0.0040027083195076215 -9.1614059222497955e-07 0 -0.0037790394797700775 -1.2259603795669666e-08 0 -0.0040521736051038161 -1.8826234364478785e-08 0 -0.0040027083195076215 -9.1614059222497955e-07 0 -0.0041417924450663397 -1.5846134509178149e-05 0 -0.0040586610514678698 -7.3996055006720142e-06 0 -0.0040027083195076215 -9.1614059222497955e-07 0 -0.0039153232132292451 -5.2102161465085243e-06 0 -0.0038027414178524359 -1.0902031891899456e-06 0 -0.0036774669668431263 2.2933452516838175e-05 0 -0.0040027083195076215 -9.1614059222497955e-07 0 -0.0039153232132292451 -5.2102161465085243e-06 0 -0.0037790394797700775 -1.2259603795669666e-08 0 -0.0040586610514678698 -7.3996055006720142e-06 0 -0.0039153232132292451 -5.2102161465085243e-06 0 -0.0038086258009398227 -1.7060846266975376e-05 0 -0.0039153232132292451 -5.2102161465085243e-06 0 -0.0037790394797700775 -1.2259603795669666e-08 0 -0.0038086258009398227 -1.7060846266975376e-05 0 -0.0037818632529981796 -5.0211632950203837e-05 0 -0.0036861624890311942 5.0887176204414126e-06 0 -0.0037283384679622391 -1.2020775670962497e-05 0 -0.0037818632529981796 -5.0211632950203837e-05 0 -0.0036861624890311942 5.0887176204414126e-06 0 -0.0036249875444388604 2.5061848588065843e-05 0 -0.0037283384679622391 -1.2020775670962497e-05 0 -0.0036944779792416724 6.6695896480175109e-06 0 -0.0037682742896246735 -1.730100183649608e-05 0 -0.0037818632529981796 -5.0211632950203837e-05 0 -0.0037283384679622391 -1.2020775670962497e-05 0 -0.0037682742896246735 -1.730100183649608e-05 0 -0.0036861624890311942 5.0887176204414126e-06 0 -0.0037283384679622391 -1.2020775670962497e-05 0 -0.0036944779792416724 6.6695896480175109e-06 0 -0.0036944779792416724 6.6695896480175109e-06 0 -0.0037143875610197129 -1.0680515524158906e-05 0 -0.0036670698927644975 1.0103854762197225e-05 0 -0.0036944779792416724 6.6695896480175109e-06 0 -0.0037143875610197129 -1.0680515524158906e-05 0 -0.0037682742896246735 -1.730100183649608e-05 0 -0.0036642876575419116 -1.5087743596380622e-05 0 -0.0036319829064401228 1.2371256076947798e-05 0 -0.0036670698927644975 1.0103854762197225e-05 0 -0.0037143875610197129 -1.0680515524158906e-05 0 -0.0036642876575419116 -1.5087743596380622e-05 0 -0.0036670698927644975 1.0103854762197225e-05 0 -0.0037143875610197129 -1.0680515524158906e-05 0 -0.0036642876575419116 -1.5087743596380622e-05 0 -0.0037103648087811261 -5.7610385752433745e-05 0 -0.0037103648087811261 -5.7610385752433745e-05 0 -0.0036796404445209748 -0.00010563501739654181 0 -0.0036490255186040202 -6.8015681928876545e-05 0 -0.0036642876575419116 -1.5087743596380622e-05 0 -0.0037103648087811261 -5.7610385752433745e-05 0 -0.0036490255186040202 -6.8015681928876545e-05 0 -0.0037103648087811261 -5.7610385752433745e-05 0 -0.0037780585085787355 -4.9838919979280947e-05 0 -0.0037157407216878283 -0.00016397526523955524 0 -0.0039364090012633263 -6.8017332152818728e-05 0 -0.0037780585085787355 -4.9838919979280947e-05 0 -0.0037157407216878283 -0.00016397526523955524 0 -0.0037143875610197129 -1.0680515524158906e-05 0 -0.0037682742896246735 -1.730100183649608e-05 0 -0.0037780585085787355 -4.9838919979280947e-05 0 -0.0039364090012633263 -6.8017332152818728e-05 0 -0.0037682742896246735 -1.730100183649608e-05 0 -0.0037780585085787355 -4.9838919979280947e-05 0 -0.0037143875610197129 -1.0680515524158906e-05 0 -0.0037103648087811261 -5.7610385752433745e-05 0 -0.0037780585085787355 -4.9838919979280947e-05 0 -0.0039364090012633263 -6.8017332152818728e-05 0 -0.0044642437565725708 -0.00012509203866708794 0 -0.0042084184722105842 -5.8936360910849105e-05 0 -0.0041429031650797102 -8.6499666328662073e-05 0 -0.0041670888963394465 -9.9056336804208229e-05 0 -0.0044642437565725708 -0.00012509203866708794 0 -0.0043887876297729264 -4.1586418342284016e-05 0 -0.0042084184722105842 -5.8936360910849105e-05 0 -0.0037157407216878283 -0.00016397526523955524 0 -0.003649321720360422 -0.00018141965005335909 0 -0.0036524635797629645 -0.00013403270516493444 0 -0.0037103648087811261 -5.7610385752433745e-05 0 -0.0037157407216878283 -0.00016397526523955524 0 -0.0036796404445209748 -0.00010563501739654181 0 -0.0036796404445209748 -0.00010563501739654181 0 -0.0036524635797629645 -0.00013403270516493444 0 -0.0036490255186040202 -6.8015681928876545e-05 0 -0.0037157407216878283 -0.00016397526523955524 0 -0.0036796404445209748 -0.00010563501739654181 0 -0.0036524635797629645 -0.00013403270516493444 0 -0.0044642437565725708 -0.00012509203866708794 0 -0.0045425101740427243 -4.8702353580194253e-05 0 -0.0047127109620018343 -8.5370608703883811e-05 0 -0.0041670888963394465 -9.9056336804208229e-05 0 -0.0042212040378092359 -0.00010925027217474055 0 -0.0045425101740427243 -4.8702353580194253e-05 0 -0.0046555230519941962 -1.8496787760528864e-05 0 -0.0047127109620018343 -8.5370608703883811e-05 0 -0.0045425101740427243 -4.8702353580194253e-05 0 -0.0043887876297729264 -4.1586418342284016e-05 0 -0.0045021250812387736 -3.3241236461592596e-06 0 -0.0043887876297729264 -4.1586418342284016e-05 0 -0.0043213932214303382 -2.0788873580252575e-05 0 -0.0045021250812387736 -3.3241236461592596e-06 0 -0.0044642437565725708 -0.00012509203866708794 0 -0.0045425101740427243 -4.8702353580194253e-05 0 -0.0043887876297729264 -4.1586418342284016e-05 0 -0.0043887876297729264 -4.1586418342284016e-05 0 -0.0043213932214303382 -2.0788873580252575e-05 0 -0.0042084184722105842 -5.8936360910849105e-05 0 -0.0043213932214303382 -2.0788873580252575e-05 0 -0.0042084184722105842 -5.8936360910849105e-05 0 -0.0041417924450663397 -1.5846134509178149e-05 0 -0.0040521736051038161 -1.8826234364478785e-08 0 -0.0041417924450663397 -1.5846134509178149e-05 0 -0.0043254549004038073 1.4612091932072168e-08 0 -0.0043213932214303382 -2.0788873580252575e-05 0 -0.0041417924450663397 -1.5846134509178149e-05 0 -0.0043254549004038073 1.4612091932072168e-08 0 -0.0043213932214303382 -2.0788873580252575e-05 0 -0.0043254549004038073 1.4612091932072168e-08 0 -0.0044567680873636613 2.0231955515451941e-05 0 -0.0043254549004038073 1.4612091932072168e-08 0 -0.0044567680873636613 2.0231955515451941e-05 0 -0.0045980011168896958 1.9367650116454364e-08 0 -0.0043213932214303382 -2.0788873580252575e-05 0 -0.0044567680873636613 2.0231955515451941e-05 0 -0.0045021250812387736 -3.3241236461592596e-06 0 -0.0044567680873636613 2.0231955515451941e-05 0 -0.0045231146293478481 6.6201915266723304e-05 0 -0.0045676862966829773 2.5943486105437148e-05 0 -0.0045986931877400961 4.8147460510386931e-08 0 -0.0047137116458670532 4.0092799720930267e-05 0 -0.0044567680873636613 2.0231955515451941e-05 0 -0.0045980011168896958 1.9367650116454364e-08 0 -0.0045231146293478481 6.6201915266723304e-05 0 -0.0049997563018616175 1.1223909161557881e-07 0 -0.0049200790012614041 2.248878519324232e-05 0 -0.0049994728079057853 6.4060746854922184e-08 0 -0.0045991934928193128 -1.6228039376149203e-07 0 -0.0049997563018616175 1.1223909161557881e-07 0 -0.0049200790012614041 2.248878519324232e-05 0 -0.0048924054619319344 6.4042533492859909e-05 0 -0.0049994728079057853 6.4060746854922184e-08 0 -0.0047942362598634939 9.701379611340186e-05 0 -0.0049998931210391449 6.0498796521303455e-08 0 -0.0049442837758470869 3.9883435425303551e-05 0 -0.0049200790012614041 2.248878519324232e-05 0 -0.0048924054619319344 6.4042533492859909e-05 0 -0.0049994728079057853 6.4060746854922184e-08 0 -0.0047137116458670532 4.0092799720930267e-05 0 -0.0047630535089175016 5.2801363891760493e-05 0 -0.0045231146293478481 6.6201915266723304e-05 0 -0.0048924054619319344 6.4042533492859909e-05 0 -0.0047405677625273366 6.156543959425474e-05 0 -0.0047405677625273366 6.156543959425474e-05 0 -0.0047716033852562177 5.1673999351740539e-05 0 -0.0047942362598634939 9.701379611340186e-05 0 -0.0048924054619319344 6.4042533492859909e-05 0 -0.0047405677625273366 6.156543959425474e-05 0 -0.0047942362598634939 9.701379611340186e-05 0 -0.0047405677625273366 6.156543959425474e-05 0 -0.0046957076419491105 3.1702847042967636e-05 0 -0.0047716033852562177 5.1673999351740539e-05 0 -0.0047405677625273366 6.156543959425474e-05 0 -0.0046957076419491105 3.1702847042967636e-05 0 -0.0045676862966829773 2.5943486105437148e-05 0 -0.0046957076419491105 3.1702847042967636e-05 0 -0.0047704830619552663 2.3135891355623501e-06 0 -0.0047716033852562177 5.1673999351740539e-05 0 -0.0045231146293478481 6.6201915266723304e-05 0 -0.0047405677625273366 6.156543959425474e-05 0 -0.0045676862966829773 2.5943486105437148e-05 0 -0.0046957076419491105 3.1702847042967636e-05 0 -0.0045676862966829773 2.5943486105437148e-05 0 -0.0045021250812387736 -3.3241236461592596e-06 0 -0.0044567680873636613 2.0231955515451941e-05 0 -0.0045676862966829773 2.5943486105437148e-05 0 -0.0045021250812387736 -3.3241236461592596e-06 0 -0.0045425101740427243 -4.8702353580194253e-05 0 -0.0045021250812387736 -3.3241236461592596e-06 0 -0.0046555230519941962 -1.8496787760528864e-05 0 -0.0046957076419491105 3.1702847042967636e-05 0 -0.0045021250812387736 -3.3241236461592596e-06 0 -0.0046555230519941962 -1.8496787760528864e-05 0 -0.0046555230519941962 -1.8496787760528864e-05 0 -0.0047704830619552663 2.3135891355623501e-06 0 -0.0047127109620018343 -8.5370608703883811e-05 0 -0.0046957076419491105 3.1702847042967636e-05 0 -0.0046555230519941962 -1.8496787760528864e-05 0 -0.0047704830619552663 2.3135891355623501e-06 0 -0.0043171338509142374 -9.164703307615195e-05 0 -0.0042212040378092359 -0.00010925027217474055 0 -0.0047704830619552663 2.3135891355623501e-06 0 -0.0049017814555932966 -1.0368805418337519e-05 0 -0.0047127109620018343 -8.5370608703883811e-05 0 -0.0047704830619552663 2.3135891355623501e-06 0 -0.0049017814555932966 -1.0368805418337519e-05 0 -0.0048885252841504639 2.8913534774936925e-05 0 -0.0036076738270782657 -0.00020698991562844674 0 -0.0035950603546899959 -0.00018249478143144302 0 -0.003649321720360422 -0.00018141965005335909 0 -0.0036076738270782657 -0.00020698991562844674 0 -0.0035888490751909675 -0.00020606486535627684 0 -0.0035950603546899959 -0.00018249478143144302 0 -0.0049017814555932966 -1.0368805418337519e-05 0 -0.0049263395718517188 2.5984680479122317e-05 0 -0.0049595951209814668 2.3907128708954485e-05 0 -0.0043171338509142374 -9.164703307615195e-05 0 -0.0045498166493468965 2.0634676372523899e-05 0 -0.0036076738270782657 -0.00020698991562844674 0 -0.0035888490751909675 -0.00020606486535627684 0 -0.0035763588406332184 -0.00023199366278643337 0 -0.0049017814555932966 -1.0368805418337519e-05 0 -0.0048885252841504639 2.8913534774936925e-05 0 -0.0049263395718517188 2.5984680479122317e-05 0 -0.0048885252841504639 2.8913534774936925e-05 0 -0.0049263395718517188 2.5984680479122317e-05 0 -0.0049359331566331448 2.5548331057515759e-05 0 -0.0049263395718517188 2.5984680479122317e-05 0 -0.0049535092176375096 2.2338149478810838e-05 0 -0.0049595951209814668 2.3907128708954485e-05 0 -0.0048885252841504639 2.8913534774936925e-05 0 -0.0049849451248834163 1.6817320763787644e-05 0 -0.0049359331566331448 2.5548331057515759e-05 0 -0.0048885252841504639 2.8913534774936925e-05 0 -0.0047716033852562177 5.1673999351740539e-05 0 -0.0047942362598634939 9.701379611340186e-05 0 -0.0049362786890738567 3.3417128284333015e-05 0 -0.0049442837758470869 3.9883435425303551e-05 0 -0.0047704830619552663 2.3135891355623501e-06 0 -0.0048885252841504639 2.8913534774936925e-05 0 -0.0047716033852562177 5.1673999351740539e-05 0 -0.0049849451248834163 1.6817320763787644e-05 0 -0.0049535092176375096 2.2338149478810838e-05 0 -0.0049844086025527092 8.2620407116666495e-06 0 -0.0049849451248834163 1.6817320763787644e-05 0 -0.0049359331566331448 2.5548331057515759e-05 0 -0.0049535092176375096 2.2338149478810838e-05 0 -0.0049263395718517188 2.5984680479122317e-05 0 -0.0049359331566331448 2.5548331057515759e-05 0 -0.0049535092176375096 2.2338149478810838e-05 0 -0.0049535092176375096 2.2338149478810838e-05 0 -0.0049802043256291246 9.2928646055384282e-06 0 -0.004970376381718683 1.6886123497825231e-05 0 -0.0049535092176375096 2.2338149478810838e-05 0 -0.0049802043256291246 9.2928646055384282e-06 0 -0.0049844086025527092 8.2620407116666495e-06 0 -0.0049802043256291246 9.2928646055384282e-06 0 -0.0049999559769913042 8.4036064139739978e-09 0 -0.0049999467691009486 1.2194848287105489e-08 0 -0.0049802043256291246 9.2928646055384282e-06 0 -0.0049999559769913042 8.4036064139739978e-09 0 -0.0049844086025527092 8.2620407116666495e-06 0 -0.0050000203490537841 -1.4609664255827515e-09 0 -0.0049849451248834163 1.6817320763787644e-05 0 -0.0049844086025527092 8.2620407116666495e-06 0 -0.0050000203490537841 -1.4609664255827515e-09 0 -0.0049999559769913042 8.4036064139739978e-09 0 -0.0049844086025527092 8.2620407116666495e-06 0 -0.0049974590210660787 -6.3134061445329714e-07 0 -0.0049999987145225499 -6.0837776158697433e-09 0 -0.004999987776191565 7.3736769994543569e-09 0 -0.0049974590210660787 -6.3134061445329714e-07 0 -0.0049974618528292863 2.0085148467058793e-06 0 -0.0049937902998222717 -1.6915643955136875e-06 0 -0.0049994485974922589 4.6595351819827219e-08 0 -0.0047988963669734919 1.5447211916598544e-05 0 -0.0049802043256291246 9.2928646055384282e-06 0 -0.0049999467691009486 1.2194848287105489e-08 0 -0.004970376381718683 1.6886123497825231e-05 0 -0.0049974590210660787 -6.3134061445329714e-07 0 -0.0049999987145225499 -6.0837776158697433e-09 0 -0.00499904322353051 1.0277373726916468e-06 0 -0.0047988963669734919 1.5447211916598544e-05 0 -0.0045498166493468965 2.0634676372523899e-05 0 -0.0049535092176375096 2.2338149478810838e-05 0 -0.004970376381718683 1.6886123497825231e-05 0 -0.0049595951209814668 2.3907128708954485e-05 0 -0.00499904322353051 1.0277373726916468e-06 0 -0.0049974618528292863 2.0085148467058793e-06 0 -0.0049981411246057053 3.2139244505753529e-06 0 -0.0047383705961128687 7.9472253850824327e-05 0 -0.0045498166493468965 2.0634676372523899e-05 0 -0.0049974590210660787 -6.3134061445329714e-07 0 -0.00499904322353051 1.0277373726916468e-06 0 -0.0049974618528292863 2.0085148467058793e-06 0 -0.0049591438910679877 -1.5707675232269774e-05 0 -0.0049821073645810836 -2.0742575513081909e-05 0 -0.0049937902998222717 -1.6915643955136875e-06 0 -0.0047383705961128687 7.9472253850824327e-05 0 -0.0047896788263760894 9.1435921643325048e-05 0 -0.0049716654349405464 -3.1376884249455801e-05 0 -0.0049844473848868831 -4.1359858448089274e-05 0 -0.0049821073645810836 -2.0742575513081909e-05 0 -0.0049591438910679877 -1.5707675232269774e-05 0 -0.0049716654349405464 -3.1376884249455801e-05 0 -0.0049821073645810836 -2.0742575513081909e-05 0 -0.0049716654349405464 -3.1376884249455801e-05 0 -0.0049601386919754286 -4.7068141766847695e-05 0 -0.0049844473848868831 -4.1359858448089274e-05 0 -0.0049591438910679877 -1.5707675232269774e-05 0 -0.0049716654349405464 -3.1376884249455801e-05 0 -0.0049601386919754286 -4.7068141766847695e-05 0 -0.0049591438910679877 -1.5707675232269774e-05 0 -0.0049601386919754286 -4.7068141766847695e-05 0 -0.0049277002797459722 -3.8513617883051956e-05 0 -0.0049601386919754286 -4.7068141766847695e-05 0 -0.0049429265005330814 -6.2484717246227926e-05 0 -0.0049576671024871913 -6.8470718682423523e-05 0 -0.0049601386919754286 -4.7068141766847695e-05 0 -0.0049576671024871913 -6.8470718682423523e-05 0 -0.0049793184821956054 -7.431335262754414e-05 0 -0.0049601386919754286 -4.7068141766847695e-05 0 -0.0049793184821956054 -7.431335262754414e-05 0 -0.0049844473848868831 -4.1359858448089274e-05 0 -0.0035888490751909675 -0.00020606486535627684 0 -0.0035763588406332184 -0.00023199366278643337 0 -0.0035763119678125376 -0.00020073634321686294 0 -0.0049277002797459722 -3.8513617883051956e-05 0 -0.0049429265005330814 -6.2484717246227926e-05 0 -0.0049229864496910932 -7.9188595011240882e-05 0 -0.0045498166493468965 2.0634676372523899e-05 0 -0.0043212124151264051 -0.00012104867886511088 0 -0.0049601386919754286 -4.7068141766847695e-05 0 -0.0049277002797459722 -3.8513617883051956e-05 0 -0.0049429265005330814 -6.2484717246227926e-05 0 -0.0049429265005330814 -6.2484717246227926e-05 0 -0.0049229864496910932 -7.9188595011240882e-05 0 -0.0049476513833176805 -8.1514578142825408e-05 0 -0.0049229864496910932 -7.9188595011240882e-05 0 -0.0049476513833176805 -8.1514578142825408e-05 0 -0.0049348453004579365 -9.940409337615792e-05 0 -0.0035888490751909675 -0.00020606486535627684 0 -0.0035763119678125376 -0.00020073634321686294 0 -0.0035950603546899959 -0.00018249478143144302 0 -0.0049576671024871913 -6.8470718682423523e-05 0 -0.0049611955727365108 -8.1433795956226186e-05 0 -0.0049793184821956054 -7.431335262754414e-05 0 -0.0049429265005330814 -6.2484717246227926e-05 0 -0.0049576671024871913 -6.8470718682423523e-05 0 -0.0049476513833176805 -8.1514578142825408e-05 0 -0.0049576671024871913 -6.8470718682423523e-05 0 -0.0049476513833176805 -8.1514578142825408e-05 0 -0.0049611955727365108 -8.1433795956226186e-05 0 -0.0049476513833176805 -8.1514578142825408e-05 0 -0.0049538143064936629 -9.2446166959576456e-05 0 -0.0049502618302138222 -0.00010793952675371172 0 -0.0043114576483164989 -0.00012080833142834116 0 -0.0042480648696038622 -0.00010736668377370201 0 -0.0049476513833176805 -8.1514578142825408e-05 0 -0.0049538143064936629 -9.2446166959576456e-05 0 -0.0049611955727365108 -8.1433795956226186e-05 0 -0.0049611955727365108 -8.1433795956226186e-05 0 -0.0049695472075017028 -9.2385208305922049e-05 0 -0.0049793184821956054 -7.431335262754414e-05 0 -0.0049538143064936629 -9.2446166959576456e-05 0 -0.0049611955727365108 -8.1433795956226186e-05 0 -0.0049695472075017028 -9.2385208305922049e-05 0 -0.0044576216087877998 -0.00011188140592831874 0 -0.0043890953595634745 -7.3733849549800131e-05 0 -0.0049538143064936629 -9.2446166959576456e-05 0 -0.0049657696910386118 -0.00010459385867445549 0 -0.0049502618302138222 -0.00010793952675371172 0 -0.0049538143064936629 -9.2446166959576456e-05 0 -0.0049695472075017028 -9.2385208305922049e-05 0 -0.0049712274980649807 -0.00010823213031203733 0 -0.0049695472075017028 -9.2385208305922049e-05 0 -0.0049712274980649807 -0.00010823213031203733 0 -0.0049809140305122311 -0.00010646290651785123 0 -0.0043890953595634745 -7.3733849549800131e-05 0 -0.0042480648696038622 -0.00010736668377370201 0 -0.0049476513833176805 -8.1514578142825408e-05 0 -0.0049503734448332103 -0.00011570315832251452 0 -0.0049348453004579365 -9.940409337615792e-05 0 -0.0035152169247690671 -0.00016236202630100387 0 -0.0035091214923991796 -0.00012112373168662811 0 -0.0035305947561831549 -0.00013890952671099659 0 -0.0042480648696038622 -0.00010736668377370201 0 -0.0040928755444338194 -9.8031845279535843e-05 0 -0.0041651733865318823 -0.00010601950807035394 0 -0.0041614440278777915 -0.00010208374624595012 0 -0.0041637096875337338 -9.7164483263961489e-05 0 -0.0041595585717260951 -0.0001069522979278353 0 -0.0041651733865318823 -0.00010601950807035394 0 -0.0041614440278777915 -0.00010208374624595012 0 -0.0041595585717260951 -0.0001069522979278353 0 -0.0041614440278777915 -0.00010208374624595012 0 -0.0041564368680765979 -0.00010410727118227608 0 -0.00411373600187173 -9.3618084394964565e-05 0 -0.0043307382371848852 -5.5016151060360797e-05 0 -0.0041614440278777915 -0.00010208374624595012 0 -0.0041605249474668702 -9.37863050323258e-05 0 -0.0041564368680765979 -0.00010410727118227608 0 -0.0041614440278777915 -0.00010208374624595012 0 -0.0041637096875337338 -9.7164483263961489e-05 0 -0.0041605249474668702 -9.37863050323258e-05 0 -0.0035091214923991796 -0.00012112373168662811 0 -0.0035344891117708747 -0.00010056539447153936 0 -0.0035305947561831549 -0.00013890952671099659 0 -0.0041637096875337338 -9.7164483263961489e-05 0 -0.0041618657182023976 -9.3495073305024525e-05 0 -0.0041620912166847497 -8.8473080658118657e-05 0 -0.0035091214923991796 -0.00012112373168662811 0 -0.0035344891117708747 -0.00010056539447153936 0 -0.003504385944387537 -7.9519040983082266e-05 0 -0.0040928755444338194 -9.8031845279535843e-05 0 -0.0039897729018586302 -0.0001003734068451155 0 -0.0038951089640867575 -8.7017856147024176e-05 0 -0.0039068759204689101 -5.4158905470007294e-05 0 -0.003860932739885658 -9.4595798992485602e-05 0 -0.0041142164245862277 -9.3539614539649217e-05 0 -0.00411373600187173 -9.3618084394964565e-05 0 -0.0041637096875337338 -9.7164483263961489e-05 0 -0.0041618657182023976 -9.3495073305024525e-05 0 -0.0041605249474668702 -9.37863050323258e-05 0 -0.0035344891117708747 -0.00010056539447153936 0 -0.0035525800701817741 -0.00012541946542994568 0 -0.0035680759018835756 -8.3042615153953569e-05 0 -0.0035305947561831549 -0.00013890952671099659 0 -0.0035525800701817741 -0.00012541946542994568 0 -0.003551791943145326 -0.0001557371240451211 0 -0.0035344891117708747 -0.00010056539447153936 0 -0.0035305947561831549 -0.00013890952671099659 0 -0.0035525800701817741 -0.00012541946542994568 0 -0.0040853647273244873 -0.00021841161725364127 0 -0.0041153263584114575 -0.00023204524781090039 0 -0.0043212124151264051 -0.00012104867886511088 0 -0.0041153263584114575 -0.00023204524781090039 0 -0.0049229864496910932 -7.9188595011240882e-05 0 -0.0049184646524677153 -0.00012121914219874343 0 -0.0049348453004579365 -9.940409337615792e-05 0 -0.0035763119678125376 -0.00020073634321686294 0 -0.0035759758045601558 -0.00016613361983308265 0 -0.0035950603546899959 -0.00018249478143144302 0 -0.0035152169247690671 -0.00016236202630100387 0 -0.0035305947561831549 -0.00013890952671099659 0 -0.003551791943145326 -0.0001557371240451211 0 -0.0042480648696038622 -0.00010736668377370201 0 -0.0041153263584114575 -0.00023204524781090039 0 -0.0049503734448332103 -0.00011570315832251452 0 -0.0049184646524677153 -0.00012121914219874343 0 -0.0049348453004579365 -9.940409337615792e-05 0 -0.0035950603546899959 -0.00018249478143144302 0 -0.0036066957192504713 -0.00015672301918092366 0 -0.003649321720360422 -0.00018141965005335909 0 -0.0035759758045601558 -0.00016613361983308265 0 -0.0035950603546899959 -0.00018249478143144302 0 -0.0036066957192504713 -0.00015672301918092366 0 -0.0035525800701817741 -0.00012541946542994568 0 -0.0035504953663387231 -0.00016449453530768975 0 -0.0036066957192504713 -0.00015672301918092366 0 -0.0041153263584114575 -0.00023204524781090039 0 -0.0039193075939688155 -0.00024618615855237524 0 -0.0036066957192504713 -0.00015672301918092366 0 -0.003649321720360422 -0.00018141965005335909 0 -0.0036524635797629645 -0.00013403270516493444 0 -0.0036066957192504713 -0.00015672301918092366 0 -0.0036524635797629645 -0.00013403270516493444 0 -0.0036115394068689374 -0.00010216818969683441 0 -0.0036524635797629645 -0.00013403270516493444 0 -0.0036115394068689374 -0.00010216818969683441 0 -0.0036490255186040202 -6.8015681928876545e-05 0 -0.0036066957192504713 -0.00015672301918092366 0 -0.0036115394068689374 -0.00010216818969683441 0 -0.0035846646124601928 -0.00011633265821500939 0 -0.0035525800701817741 -0.00012541946542994568 0 -0.0036066957192504713 -0.00015672301918092366 0 -0.0035846646124601928 -0.00011633265821500939 0 -0.0035525800701817741 -0.00012541946542994568 0 -0.0035846646124601928 -0.00011633265821500939 0 -0.0035680759018835756 -8.3042615153953569e-05 0 -0.0036115394068689374 -0.00010216818969683441 0 -0.0035846646124601928 -0.00011633265821500939 0 -0.0035680759018835756 -8.3042615153953569e-05 0 -0.0036115394068689374 -0.00010216818969683441 0 -0.0035680759018835756 -8.3042615153953569e-05 0 -0.0036090454332381367 -5.2628500841139691e-05 0 -0.0036115394068689374 -0.00010216818969683441 0 -0.0036090454332381367 -5.2628500841139691e-05 0 -0.0036490255186040202 -6.8015681928876545e-05 0 -0.0036090454332381367 -5.2628500841139691e-05 0 -0.0036490255186040202 -6.8015681928876545e-05 0 -0.0036316527183996054 -2.116836881511674e-05 0 -0.0036316527183996054 -2.116836881511674e-05 0 -0.0035921459667583831 -5.6440731700277875e-06 0 -0.0036319829064401228 1.2371256076947798e-05 0 -0.0036642876575419116 -1.5087743596380622e-05 0 -0.0036316527183996054 -2.116836881511674e-05 0 -0.0036319829064401228 1.2371256076947798e-05 0 -0.0036642876575419116 -1.5087743596380622e-05 0 -0.0036490255186040202 -6.8015681928876545e-05 0 -0.0036316527183996054 -2.116836881511674e-05 0 -0.0035680759018835756 -8.3042615153953569e-05 0 -0.0036090454332381367 -5.2628500841139691e-05 0 -0.0035921459667583831 -5.6440731700277875e-06 0 -0.0036090454332381367 -5.2628500841139691e-05 0 -0.0036316527183996054 -2.116836881511674e-05 0 -0.0035921459667583831 -5.6440731700277875e-06 0 -0.00360319735979245 -5.4821953595601032e-05 0 -0.0036147991182913881 -3.6634540364945669e-05 0 -0.0035801127026503774 -2.0981102327368192e-05 0 -0.0035257528704729425 -2.5135467329729686e-05 0 -0.0035439828492695577 -5.6339791972628947e-05 0 -0.0035680759018835756 -8.3042615153953569e-05 0 -0.0035801127026503774 -2.0981102327368192e-05 0 -0.0035439828492695577 -5.6339791972628947e-05 0 -0.0038317152622598166 -8.7633122811275912e-05 0 -0.0039897729018586302 -0.0001003734068451155 0 -0.0038025445487766259 -0.00011039744833121699 0 -0.0039897729018586302 -0.0001003734068451155 0 -0.0038181440181897287 -0.00010936580264384064 0 -0.0038003765092785476 -0.00011463406565135839 0 -0.0038147117462931316 -7.749074696732597e-05 0 -0.0035257528704729425 -2.5135467329729686e-05 0 -0.003504385944387537 -7.9519040983082266e-05 0 -0.0035439828492695577 -5.6339791972628947e-05 0 -0.0038982220762471087 9.0139075786791785e-06 0 -0.0039068759204689101 -5.4158905470007294e-05 0 -0.0038525418847399919 -2.5569447670067193e-05 0 -0.0041618657182023976 -9.3495073305024525e-05 0 -0.0041604284676060995 -9.3806620472773288e-05 0 -0.0041620912166847497 -8.8473080658118657e-05 0 -0.00411373600187173 -9.3618084394964565e-05 0 -0.0039897729018586302 -0.0001003734068451155 0 -0.0035344891117708747 -0.00010056539447153936 0 -0.0035680759018835756 -8.3042615153953569e-05 0 -0.0035439828492695577 -5.6339791972628947e-05 0 -0.0035344891117708747 -0.00010056539447153936 0 -0.003504385944387537 -7.9519040983082266e-05 0 -0.0035439828492695577 -5.6339791972628947e-05 0 -0.0037918463774956382 -2.0812638791986074e-05 0 -0.0038142800177686171 -4.394690869079198e-05 0 -0.0038152511421458255 -1.2283153116784255e-05 0 -0.0037918463774956382 -2.0812638791986074e-05 0 -0.0038142800177686171 -4.394690869079198e-05 0 -0.0037700252446664171 -4.4692573643209687e-05 0 -0.0038142800177686171 -4.394690869079198e-05 0 -0.0037700252446664171 -4.4692573643209687e-05 0 -0.0038181500242989775 -8.7519920829188331e-05 0 -0.0038142800177686171 -4.394690869079198e-05 0 -0.003835617504416492 -5.6403244825752121e-05 0 -0.0038180027758054859 -8.6906063566248278e-05 0 -0.0040659199727964938 -1.7241589467632478e-05 0 -0.0041731680024684279 -6.5433023127471762e-05 0 -0.003835617504416492 -5.6403244825752121e-05 0 -0.0038500000083194082 -1.7430761106836353e-05 0 -0.0038575906949579026 -7.8038301758038303e-05 0 -0.0039068759204689101 -5.4158905470007294e-05 0 -0.0038525418847399919 -2.5569447670067193e-05 0 -0.003860932739885658 -9.4595798992485602e-05 0 -0.0038142800177686171 -4.394690869079198e-05 0 -0.0038500000083194082 -1.7430761106836353e-05 0 -0.0038152511421458255 -1.2283153116784255e-05 0 -0.0038142800177686171 -4.394690869079198e-05 0 -0.003835617504416492 -5.6403244825752121e-05 0 -0.0038500000083194082 -1.7430761106836353e-05 0 -0.0038500000083194082 -1.7430761106836353e-05 0 -0.0038261288624231752 1.5194832275769821e-05 0 -0.0038152511421458255 -1.2283153116784255e-05 0 -0.0038500000083194082 -1.7430761106836353e-05 0 -0.0038261288624231752 1.5194832275769821e-05 0 -0.0038441641149033531 4.3610655271481069e-05 0 -0.0040659199727964938 -1.7241589467632478e-05 0 -0.0040325829829974099 7.4504051264027659e-06 0 -0.0038982220762471087 9.0139075786791785e-06 0 -0.0038525418847399919 -2.5569447670067193e-05 0 -0.0038441641149033531 4.3610655271481069e-05 0 -0.0038261288624231752 1.5194832275769821e-05 0 -0.0037945434473387637 9.2497477093456097e-06 0 -0.0038183401602618215 5.0274140134909787e-05 0 -0.0037945434473387637 9.2497477093456097e-06 0 -0.0037519015284223651 2.8240894603026949e-05 0 -0.0038183401602618215 5.0274140134909787e-05 0 -0.0038261288624231752 1.5194832275769821e-05 0 -0.0038152511421458255 -1.2283153116784255e-05 0 -0.0037945434473387637 9.2497477093456097e-06 0 -0.0037918463774956382 -2.0812638791986074e-05 0 -0.0038152511421458255 -1.2283153116784255e-05 0 -0.0037945434473387637 9.2497477093456097e-06 0 -0.0037918463774956382 -2.0812638791986074e-05 0 -0.0037945434473387637 9.2497477093456097e-06 0 -0.0037664716321549508 -6.0188535371831806e-06 0 -0.0037945434473387637 9.2497477093456097e-06 0 -0.0037519015284223651 2.8240894603026949e-05 0 -0.0037664716321549508 -6.0188535371831806e-06 0 -0.0037519015284223651 2.8240894603026949e-05 0 -0.0037664716321549508 -6.0188535371831806e-06 0 -0.0037274104542358581 -5.523274452978222e-07 0 -0.0036891033363909732 -3.8148557558420231e-05 0 -0.0036983115125791229 -2.9092266006150387e-05 0 -0.0037103440627582361 2.0140940193865557e-06 0 -0.0037296625271153487 6.8604582103827713e-06 0 -0.0036647168979934267 -7.3525726697358781e-05 0 -0.0037519015284223651 2.8240894603026949e-05 0 -0.0037103440627582361 2.0140940193865557e-06 0 -0.0037274104542358581 -5.523274452978222e-07 0 -0.0037103440627582361 2.0140940193865557e-06 0 -0.0037258864990619726 5.3781957484987159e-06 0 -0.0037296625271153487 6.8604582103827713e-06 0 -0.0037103440627582361 2.0140940193865557e-06 0 -0.0037274104542358581 -5.523274452978222e-07 0 -0.0037258864990619726 5.3781957484987159e-06 0 -0.0037274104542358581 -5.523274452978222e-07 0 -0.0037258864990619726 5.3781957484987159e-06 0 -0.0037257237730864059 4.8726708575532197e-06 0 -0.0037258864990619726 5.3781957484987159e-06 0 -0.0037257237730864059 4.8726708575532197e-06 0 -0.0037294463784670975 6.0822793435907169e-06 0 -0.0037257237730864059 4.8726708575532197e-06 0 -0.0037294463784670975 6.0822793435907169e-06 0 -0.0037204040813542303 1.0561446976491573e-05 0 -0.0037664716321549508 -6.0188535371831806e-06 0 -0.0037274104542358581 -5.523274452978222e-07 0 -0.0037700252446664171 -4.4692573643209687e-05 0 -0.0037918463774956382 -2.0812638791986074e-05 0 -0.0037664716321549508 -6.0188535371831806e-06 0 -0.0037700252446664171 -4.4692573643209687e-05 0 -0.0037274104542358581 -5.523274452978222e-07 0 -0.0037257237730864059 4.8726708575532197e-06 0 -0.0037172229206101802 5.9098905407497342e-06 0 -0.0039118228320370145 7.4778910668742057e-05 0 -0.0039796879439826238 5.4994686271634886e-05 0 -0.0037257237730864059 4.8726708575532197e-06 0 -0.0037172229206101802 5.9098905407497342e-06 0 -0.0037204040813542303 1.0561446976491573e-05 0 -0.0037204040813542303 1.0561446976491573e-05 0 -0.0037219581299157037 1.9700425513259506e-05 0 -0.0037095747212050056 1.3043175703816099e-05 0 -0.0042992183388055544 -2.3037924137121577e-05 0 -0.0042480589682809379 -4.774443280543288e-05 0 -0.0037294463784670975 6.0822793435907169e-06 0 -0.0037204040813542303 1.0561446976491573e-05 0 -0.0037219581299157037 1.9700425513259506e-05 0 -0.0037294463784670975 6.0822793435907169e-06 0 -0.0037219581299157037 1.9700425513259506e-05 0 -0.0037539412710682753 3.4638141889336803e-05 0 -0.0042992183388055544 -2.3037924137121577e-05 0 -0.004349168175711419 -1.5041462001237458e-06 0 -0.004871605782262224 -5.8788955985316103e-05 0 -0.0049195449617330149 7.8047911252813353e-06 0 -0.0049578586908841154 -3.4663842012647767e-05 0 -0.004871605782262224 -5.8788955985316103e-05 0 -0.0048105849978165019 -4.4274660788851842e-05 0 -0.0048481080232552105 3.170078583745247e-06 0 -0.004871605782262224 -5.8788955985316103e-05 0 -0.0048481080232552105 3.170078583745247e-06 0 -0.0049195449617330149 7.8047911252813353e-06 0 -0.0048105849978165019 -4.4274660788851842e-05 0 -0.0047704514109223684 -8.6373906731078307e-06 0 -0.0048481080232552105 3.170078583745247e-06 0 -0.0048105849978165019 -4.4274660788851842e-05 0 -0.0047824455641664087 -8.0105228510850859e-05 0 -0.0047704514109223684 -8.6373906731078307e-06 0 -0.0042480589682809379 -4.774443280543288e-05 0 -0.0045111179948949818 -2.0577955494103909e-05 0 -0.0045111179948949818 -2.0577955494103909e-05 0 -0.0046737134656169637 1.4089311061672919e-06 0 -0.0037172229206101802 5.9098905407497342e-06 0 -0.0037204040813542303 1.0561446976491573e-05 0 -0.0037095747212050056 1.3043175703816099e-05 0 -0.004871605782262224 -5.8788955985316103e-05 0 -0.0048105849978165019 -4.4274660788851842e-05 0 -0.0047824455641664087 -8.0105228510850859e-05 0 -0.004216238962141813 -4.5000223983376879e-05 0 -0.0042480589682809379 -4.774443280543288e-05 0 -0.0039796879439826238 5.4994686271634886e-05 0 -0.0042480589682809379 -4.774443280543288e-05 0 -0.0042380154191413869 -6.348640229330335e-06 0 -0.0042753468069956215 1.8589929544853081e-06 0 -0.0042806328940860061 -4.449043439288309e-05 0 -0.0041731680024684279 -6.5433023127471762e-05 0 -0.0043307382371848852 -5.5016151060360797e-05 0 -0.0042511996569868345 -6.5503477143859226e-05 0 -0.0042454023177578848 -6.6770810556625562e-05 0 -0.0042467085860890819 -7.6294639370822289e-05 0 -0.00411373600187173 -9.3618084394964565e-05 0 -0.0041731680024684279 -6.5433023127471762e-05 0 -0.003835617504416492 -5.6403244825752121e-05 0 -0.0038180027758054859 -8.6906063566248278e-05 0 -0.0038575906949579026 -7.8038301758038303e-05 0 -0.0042480589682809379 -4.774443280543288e-05 0 -0.0041731680024684279 -6.5433023127471762e-05 0 -0.0042480589682809379 -4.774443280543288e-05 0 -0.0043307382371848852 -5.5016151060360797e-05 0 -0.0043439935426538611 -3.3302789010321272e-05 0 -0.0043699306852437812 -8.0604653522115536e-05 0 -0.0043551766041583133 -9.7700067299530196e-05 0 -0.0043894716753042256 -7.3861796317854203e-05 0 -0.0043699306852437812 -8.0604653522115536e-05 0 -0.0043904989713040273 -8.2878175991761774e-05 0 -0.0043890953595634745 -7.3733849549800131e-05 0 -0.0043307382371848852 -5.5016151060360797e-05 0 -0.0043786738272926316 -0.00015306796000411166 0 -0.0043323988331481775 -0.00011161596958261738 0 -0.0043351930921294596 -0.000136488414689993 0 -0.0043307382371848852 -5.5016151060360797e-05 0 -0.0043817671072054745 -5.3385285624427231e-05 0 -0.0043439935426538611 -3.3302789010321272e-05 0 -0.0043894716753042256 -7.3861796317854203e-05 0 -0.0043699306852437812 -8.0604653522115536e-05 0 -0.0045111179948949818 -2.0577955494103909e-05 0 -0.0044302089491686314 -5.0463563634709361e-05 0 -0.0043699306852437812 -8.0604653522115536e-05 0 -0.0043551766041583133 -9.7700067299530196e-05 0 -0.0043914713321767654 -9.1449586431116163e-05 0 -0.0043890953595634745 -7.3733849549800131e-05 0 -0.0044302089491686314 -5.0463563634709361e-05 0 -0.0043786738272926316 -0.00015306796000411166 0 -0.0043378481687522969 -0.00016009852449559996 0 -0.0043351930921294596 -0.000136488414689993 0 -0.0044302089491686314 -5.0463563634709361e-05 0 -0.0043817671072054745 -5.3385285624427231e-05 0 -0.0043699306852437812 -8.0604653522115536e-05 0 -0.0043914713321767654 -9.1449586431116163e-05 0 -0.0043904989713040273 -8.2878175991761774e-05 0 -0.0049695472075017028 -9.2385208305922049e-05 0 -0.0049809140305122311 -0.00010646290651785123 0 -0.0049793184821956054 -7.431335262754414e-05 0 -0.0044302089491686314 -5.0463563634709361e-05 0 -0.0044831829466438176 -7.4414995999674984e-05 0 -0.0049815967558298748 -0.00010789475229974964 0 -0.0049793184821956054 -7.431335262754414e-05 0 -0.00500362027350714 -6.1517773401427537e-05 0 -0.0045111179948949818 -2.0577955494103909e-05 0 -0.0046234180951814519 2.4025910876030738e-05 0 -0.004545818922892509 -2.9980734714652914e-06 0 -0.0045536249590619159 -1.6743462350529435e-06 0 -0.0045477452877270581 -1.6012040086008875e-05 0 -0.0044302089491686314 -5.0463563634709361e-05 0 -0.0046234180951814519 2.4025910876030738e-05 0 -0.0047799959127262587 -8.4982055998789041e-06 0 -0.0048019317580611622 2.4869786626879081e-05 0 -0.0047725567250649307 5.1124406663226199e-05 0 -0.0048019317580611622 2.4869786626879081e-05 0 -0.0048188593639800223 5.6444675528735628e-05 0 -0.0048481080232552105 3.170078583745247e-06 0 -0.0047799959127262587 -8.4982055998789041e-06 0 -0.0048019317580611622 2.4869786626879081e-05 0 -0.0048481080232552105 3.170078583745247e-06 0 -0.0048019317580611622 2.4869786626879081e-05 0 -0.0048188593639800223 5.6444675528735628e-05 0 -0.0047725567250649307 5.1124406663226199e-05 0 -0.0048188593639800223 5.6444675528735628e-05 0 -0.0047872831694088991 9.0250879657738223e-05 0 -0.0047725567250649307 5.1124406663226199e-05 0 -0.0048188593639800223 5.6444675528735628e-05 0 -0.0047872831694088991 9.0250879657738223e-05 0 -0.0048253822874421556 9.8396527116882842e-05 0 -0.0046234180951814519 2.4025910876030738e-05 0 -0.0048048960670643752 2.9994446614455685e-05 0 -0.0047872831694088991 9.0250879657738223e-05 0 -0.0047724810634265768 5.0892930042905652e-05 0 -0.0047649909748535071 0.00011390155618625602 0 -0.00500362027350714 -6.1517773401427537e-05 0 -0.0049844473848868831 -4.1359858448089274e-05 0 -0.0049993859636761825 -1.8276569389315972e-05 0 -0.0049793184821956054 -7.431335262754414e-05 0 -0.00500362027350714 -6.1517773401427537e-05 0 -0.0049844473848868831 -4.1359858448089274e-05 0 -0.0046408295581835662 4.494553794890808e-05 0 -0.0046234180951814519 2.4025910876030738e-05 0 -0.0049844473848868831 -4.1359858448089274e-05 0 -0.0049821073645810836 -2.0742575513081909e-05 0 -0.0049993859636761825 -1.8276569389315972e-05 0 -0.0047649909748535071 0.00011390155618625602 0 -0.0048069134393705602 0.00013305072539346289 0 -0.0047573057182324976 0.00017656625962293856 0 -0.0049821073645810836 -2.0742575513081909e-05 0 -0.0049993859636761825 -1.8276569389315972e-05 0 -0.0049937902998222717 -1.6915643955136875e-06 0 -0.0047872831694088991 9.0250879657738223e-05 0 -0.0047649909748535071 0.00011390155618625602 0 -0.0048069134393705602 0.00013305072539346289 0 -0.0047872831694088991 9.0250879657738223e-05 0 -0.0048253822874421556 9.8396527116882842e-05 0 -0.0048069134393705602 0.00013305072539346289 0 -0.0048253822874421556 9.8396527116882842e-05 0 -0.0048069134393705602 0.00013305072539346289 0 -0.0048526232763295759 0.00013509587777726291 0 -0.0048069134393705602 0.00013305072539346289 0 -0.0048197511333492914 0.00018377905723577289 0 -0.0048526232763295759 0.00013509587777726291 0 -0.0049998543550635894 5.2991652069142399e-07 0 -0.0049999991405893836 -4.2348005472883717e-11 0 -0.0050000385699146008 4.7806491962301537e-08 0 -0.0048069134393705602 0.00013305072539346289 0 -0.0048197511333492914 0.00018377905723577289 0 -0.0047573057182324976 0.00017656625962293856 0 -0.00492884604071178 7.548212345969282e-05 0 -0.0049597457149256462 2.1990872791934064e-05 0 -0.0049999991405893836 -4.2348005472883717e-11 0 -0.0050000006359596453 1.5515901366848901e-10 0 -0.0050000385699146008 4.7806491962301537e-08 0 -0.0049993859636761825 -1.8276569389315972e-05 0 -0.0049976815550225777 2.2573372845762997e-06 0 -0.0049937902998222717 -1.6915643955136875e-06 0 -0.0048048960670643752 2.9994446614455685e-05 0 -0.0049597457149256462 2.1990872791934064e-05 0 -0.0049974590210660787 -6.3134061445329714e-07 0 -0.004999987776191565 7.3736769994543569e-09 0 -0.0049976815550225777 2.2573372845762997e-06 0 -0.004999639086423896 8.0465500927219359e-08 0 -0.0049597457149256462 2.1990872791934064e-05 0 -0.0049974590210660787 -6.3134061445329714e-07 0 -0.0049976815550225777 2.2573372845762997e-06 0 -0.0049937902998222717 -1.6915643955136875e-06 0 -0.0049287571844858274 0.00012578690600793178 0 -0.0049546070860677681 7.2172342708980931e-05 0 -0.0048825094960246868 0.00019091389990920929 0 -0.0048526232763295759 0.00013509587777726291 0 -0.0049167110039555397 0.00012805303401546919 0 -0.0049999976531925434 -3.0440797396478332e-10 0 -0.0049982100218401325 1.0201688622248546e-07 0 -0.0049987752635459676 -1.1937131904785814e-07 0 -0.0049999976531925434 -3.0440797396478332e-10 0 -0.0050001590193374653 8.1842451878158438e-08 0 -0.0049982100218401325 1.0201688622248546e-07 0 -0.0049997027122274185 9.9740783025232201e-07 0 -0.0049287571844858274 0.00012578690600793178 0 -0.00492884604071178 7.548212345969282e-05 0 -0.0049287571844858274 0.00012578690600793178 0 -0.0048197511333492914 0.00018377905723577289 0 -0.0048825094960246868 0.00019091389990920929 0 -0.0048526232763295759 0.00013509587777726291 0 -0.0049998543550635894 5.2991652069142399e-07 0 -0.0049999991405893836 -4.2348005472883717e-11 0 -0.0049929005729109858 1.1829780971260901e-10 0 -0.0048253822874421556 9.8396527116882842e-05 0 -0.0048526232763295759 0.00013509587777726291 0 -0.004861320989572409 7.7022502791844084e-05 0 -0.0048526232763295759 0.00013509587777726291 0 -0.0049167110039555397 0.00012805303401546919 0 -0.004861320989572409 7.7022502791844084e-05 0 -0.0049167110039555397 0.00012805303401546919 0 -0.0049049978158682058 5.8380057494335803e-05 0 -0.0049512401993514581 6.4428113282421448e-05 0 -0.0049167110039555397 0.00012805303401546919 0 -0.0049049978158682058 5.8380057494335803e-05 0 -0.004861320989572409 7.7022502791844084e-05 0 -0.0048188593639800223 5.6444675528735628e-05 0 -0.0048253822874421556 9.8396527116882842e-05 0 -0.004861320989572409 7.7022502791844084e-05 0 -0.0048188593639800223 5.6444675528735628e-05 0 -0.004861320989572409 7.7022502791844084e-05 0 -0.0048481080232552105 3.170078583745247e-06 0 -0.0049049978158682058 5.8380057494335803e-05 0 -0.004861320989572409 7.7022502791844084e-05 0 -0.0048481080232552105 3.170078583745247e-06 0 -0.0049049978158682058 5.8380057494335803e-05 0 -0.0048481080232552105 3.170078583745247e-06 0 -0.0049195449617330149 7.8047911252813353e-06 0 -0.0049049978158682058 5.8380057494335803e-05 0 -0.0049195449617330149 7.8047911252813353e-06 0 -0.0049512401993514581 6.4428113282421448e-05 0 -0.0049777945579106272 2.2914304816106073e-05 0 -0.0049704506840963494 3.8662128650336752e-05 0 -0.0049195449617330149 7.8047911252813353e-06 0 -0.0049837757341730368 -1.4076465481813715e-06 0 -0.0049512401993514581 6.4428113282421448e-05 0 -0.0049837757341730368 -1.4076465481813715e-06 0 -0.0049955341799436115 -2.5565918041006861e-06 0 -0.0050003495313455243 -4.7341006326704502e-06 0 -0.0049837757341730368 -1.4076465481813715e-06 0 -0.004993987294838062 -7.917856533307431e-07 0 -0.0049955341799436115 -2.5565918041006861e-06 0 -0.0049837757341730368 -1.4076465481813715e-06 0 -0.004993987294838062 -7.917856533307431e-07 0 -0.0049937036751310608 -2.9699446988333014e-07 0 -0.004993987294838062 -7.917856533307431e-07 0 -0.0049937036751310608 -2.9699446988333014e-07 0 -0.004996863329348256 -1.2874748472694526e-07 0 -0.0049546070860677681 7.2172342708980931e-05 0 -0.0049704506840963494 3.8662128650336752e-05 0 -0.0049982100218401325 1.0201688622248546e-07 0 -0.004996863329348256 -1.2874748472694526e-07 0 -0.0049987752635459676 -1.1937131904785814e-07 0 -0.0049982100218401325 1.0201688622248546e-07 0 -0.0049937036751310608 -2.9699446988333014e-07 0 -0.004996863329348256 -1.2874748472694526e-07 0 -0.004993987294838062 -7.917856533307431e-07 0 -0.004996863329348256 -1.2874748472694526e-07 0 -0.0049974256386953776 -2.5113597736525435e-07 0 -0.0049999964225320298 -1.7624068232461281e-10 0 -0.0049999970598169803 -1.1782629372941657e-10 0 -0.0049974256386953776 -2.5113597736525435e-07 0 -0.004996863329348256 -1.2874748472694526e-07 0 -0.0049999964225320298 -1.7624068232461281e-10 0 -0.0049974256386953776 -2.5113597736525435e-07 0 -0.004996863329348256 -1.2874748472694526e-07 0 -0.0049999964225320298 -1.7624068232461281e-10 0 -0.0049987752635459676 -1.1937131904785814e-07 0 -0.0049999976531925434 -3.0440797396478332e-10 0 -0.0049999964225320298 -1.7624068232461281e-10 0 -0.0049987752635459676 -1.1937131904785814e-07 0 -0.0049991662293920811 -3.7946773106510642e-07 0 -0.0049999977310525023 5.7449555197490577e-10 0 -0.0049986767254368526 -1.6367863153736199e-07 0 -0.0049999977310525023 5.7449555197490577e-10 0 -0.0049986767254368526 -1.6367863153736199e-07 0 -0.0049999970598169803 -1.1782629372941657e-10 0 -0.0049986767254368526 -1.6367863153736199e-07 0 -0.0049999970598169803 -1.1782629372941657e-10 0 -0.0049974256386953776 -2.5113597736525435e-07 0 -0.0049986767254368526 -1.6367863153736199e-07 0 -0.0049974256386953776 -2.5113597736525435e-07 0 -0.0049967894093724497 -1.0795490423877973e-06 0 -0.004993987294838062 -7.917856533307431e-07 0 -0.0049974256386953776 -2.5113597736525435e-07 0 -0.0049967894093724497 -1.0795490423877973e-06 0 -0.0049991662293920811 -3.7946773106510642e-07 0 -0.0049986767254368526 -1.6367863153736199e-07 0 -0.0049967894093724497 -1.0795490423877973e-06 0 -0.0049990371553141491 -2.8862108578511299e-06 0 -0.0049967894093724497 -1.0795490423877973e-06 0 -0.0049936812091576554 -4.9011645989021209e-06 0 -0.004993987294838062 -7.917856533307431e-07 0 -0.0049967894093724497 -1.0795490423877973e-06 0 -0.0049936812091576554 -4.9011645989021209e-06 0 -0.004993987294838062 -7.917856533307431e-07 0 -0.0049955341799436115 -2.5565918041006861e-06 0 -0.0049936812091576554 -4.9011645989021209e-06 0 -0.0049955341799436115 -2.5565918041006861e-06 0 -0.0049936812091576554 -4.9011645989021209e-06 0 -0.0050003495313455243 -4.7341006326704502e-06 0 -0.0049635448025676402 -1.0028814719299657e-05 0 -0.0049773609115917154 -6.8521670281209432e-06 0 -0.0049936812091576554 -4.9011645989021209e-06 0 -0.0049773238554303529 9.2253344851894635e-06 0 -0.0050003495313455243 -4.7341006326704502e-06 0 -0.0049429833332465985 -3.1110404596520924e-05 0 -0.0049936812091576554 -4.9011645989021209e-06 0 -0.0049773238554303529 9.2253344851894635e-06 0 -0.0038567007939202748 6.3203545709130727e-05 0 -0.0038511140949596717 1.0670888143203553e-05 0 -0.0038228153856835118 2.5293485007481872e-05 0 -0.0038511140949596717 1.0670888143203553e-05 0 -0.0038228153856835118 2.5293485007481872e-05 0 -0.00381052661664334 -1.9038551756009645e-05 0 -0.0038228153856835118 2.5293485007481872e-05 0 -0.003794393279988084 2.186852016809333e-05 0 -0.00381052661664334 -1.9038551756009645e-05 0 -0.0038228153856835118 2.5293485007481872e-05 0 -0.0038021512554050709 4.9475237120956025e-05 0 -0.003794393279988084 2.186852016809333e-05 0 -0.0044082648029162485 2.997969351158019e-05 0 -0.0043878801592038587 1.6932611592616164e-05 0 -0.0038567007939202748 6.3203545709130727e-05 0 -0.0038228153856835118 2.5293485007481872e-05 0 -0.0038021512554050709 4.9475237120956025e-05 0 -0.0049837757341730368 -1.4076465481813715e-06 0 -0.0050003495313455243 -4.7341006326704502e-06 0 -0.0049578586908841154 -3.4663842012647767e-05 0 -0.0038021512554050709 4.9475237120956025e-05 0 -0.0037539412710682753 3.4638141889336803e-05 0 -0.003794393279988084 2.186852016809333e-05 0 -0.0043878801592038587 1.6932611592616164e-05 0 -0.004349168175711419 -1.5041462001237458e-06 0 -0.0049195449617330149 7.8047911252813353e-06 0 -0.0049837757341730368 -1.4076465481813715e-06 0 -0.0049578586908841154 -3.4663842012647767e-05 0 -0.0037294463784670975 6.0822793435907169e-06 0 -0.0037539412710682753 3.4638141889336803e-05 0 -0.0037704819583191562 -4.151093917864967e-06 0 -0.0036367518400534774 9.4553353317342703e-06 0 -0.003569810772265463 -4.1078851935378453e-05 0 -0.0037539412710682753 3.4638141889336803e-05 0 -0.003794393279988084 2.186852016809333e-05 0 -0.0037704819583191562 -4.151093917864967e-06 0 -0.003794393279988084 2.186852016809333e-05 0 -0.003766473324479892 -1.132617356885464e-05 0 -0.00381052661664334 -1.9038551756009645e-05 0 -0.0031864679547134265 -1.4959393209830958e-05 0 -0.0031963199194741977 -7.724100173103078e-05 0 -0.0032607058370819251 -2.7322277565532235e-05 0 -0.003569810772265463 -4.1078851935378453e-05 0 -0.0035550229707751158 -3.6576103409927462e-05 0 -0.0037258864990619726 5.3781957484987159e-06 0 -0.0037294463784670975 6.0822793435907169e-06 0 -0.0037258964640714972 5.5231813395242254e-06 0 -0.003569810772265463 -4.1078851935378453e-05 0 -0.0034768578521765462 -8.0301755092406112e-05 0 -0.003667049026105363 -4.1983144760831632e-05 0 -0.003569810772265463 -4.1078851935378453e-05 0 -0.0037258864990619726 5.3781957484987159e-06 0 -0.0037258964640714972 5.5231813395242254e-06 0 -0.0037296625271153487 6.8604582103827713e-06 0 -0.0031349969502300623 -8.0832047492701139e-05 0 -0.0031963199194741977 -7.724100173103078e-05 0 -0.0031392610156089633 -0.00013580234015866613 0 -0.0031864679547134265 -1.4959393209830958e-05 0 -0.0031349969502300623 -8.0832047492701139e-05 0 -0.0031963199194741977 -7.724100173103078e-05 0 -0.0031963199194741977 -7.724100173103078e-05 0 -0.0032441143383158829 -7.6755573323419833e-05 0 -0.0032607058370819251 -2.7322277565532235e-05 0 -0.0031963199194741977 -7.724100173103078e-05 0 -0.0032441143383158829 -7.6755573323419833e-05 0 -0.0032373746605360914 -0.00012505414878962264 0 -0.0032441143383158829 -7.6755573323419833e-05 0 -0.0032821871317537188 -7.7132090397293715e-05 0 -0.0032373746605360914 -0.00012505414878962264 0 -0.0032821871317537188 -7.7132090397293715e-05 0 -0.0033381150364699221 -0.00011015568988983962 0 -0.0032373746605360914 -0.00012505414878962264 0 -0.0032441143383158829 -7.6755573323419833e-05 0 -0.0032821871317537188 -7.7132090397293715e-05 0 -0.0032607058370819251 -2.7322277565532235e-05 0 -0.0032821871317537188 -7.7132090397293715e-05 0 -0.003336629446888202 -4.0170040169280699e-05 0 -0.0033381150364699221 -0.00011015568988983962 0 -0.0035784255761342702 -4.2767363452718265e-05 0 -0.0035550229707751158 -3.6576103409927462e-05 0 -0.0038511140949596717 1.0670888143203553e-05 0 -0.0038538022975341405 -2.6718979478599726e-05 0 -0.00381052661664334 -1.9038551756009645e-05 0 -0.0032821871317537188 -7.7132090397293715e-05 0 -0.003336629446888202 -4.0170040169280699e-05 0 -0.0032607058370819251 -2.7322277565532235e-05 0 -0.003193920179007131 -0.00015211405813571707 0 -0.0031862475787807821 -0.0001762612033262751 0 -0.0031732091381896132 -0.00016603563027476012 0 -0.003193920179007131 -0.00015211405813571707 0 -0.0031862475787807821 -0.0001762612033262751 0 -0.0032090884893049235 -0.00017206349842011765 0 -0.0032090884893049235 -0.00017206349842011765 0 -0.0032296471870533264 -0.00015868067638362412 0 -0.0032233518746021964 -0.00018253267202981684 0 -0.0032526839573933171 -0.00018814039614508017 0 -0.0032296471870533264 -0.00015868067638362412 0 -0.0032233518746021964 -0.00018253267202981684 0 -0.003193920179007131 -0.00015211405813571707 0 -0.0032090884893049235 -0.00017206349842011765 0 -0.0032296471870533264 -0.00015868067638362412 0 -0.0032524378716776428 -0.00015576140647076503 0 -0.003304514928717701 -0.00013230590319068269 0 -0.003193920179007131 -0.00015211405813571707 0 -0.0032296471870533264 -0.00015868067638362412 0 -0.0032334420322693994 -0.00012191330406873545 0 -0.003304514928717701 -0.00013230590319068269 0 -0.0032229490490476419 -0.00013558839993831211 0 -0.003193920179007131 -0.00015211405813571707 0 -0.0032321283801515846 -0.00012377950822490584 0 -0.0031842349324095048 -0.00013149499641129555 0 -0.0032229490490476419 -0.00013558839993831211 0 -0.0031835036174139562 -0.00013887177656606123 0 -0.0031963199194741977 -7.724100173103078e-05 0 -0.0032373746605360914 -0.00012505414878962264 0 -0.0031392610156089633 -0.00013580234015866613 0 -0.003193920179007131 -0.00015211405813571707 0 -0.0031842349324095048 -0.00013149499641129555 0 -0.003166750226085716 -0.00014984691680989057 0 -0.0031842349324095048 -0.00013149499641129555 0 -0.0031392610156089633 -0.00013580234015866613 0 -0.003166750226085716 -0.00014984691680989057 0 -0.0031392610156089633 -0.00013580234015866613 0 -0.0031482993508777871 -0.00015455637960172416 0 -0.003166750226085716 -0.00014984691680989057 0 -0.0031392610156089633 -0.00013580234015866613 0 -0.0031482993508777871 -0.00015455637960172416 0 -0.0031239269493487576 -0.00015242756287396416 0 -0.0031482993508777871 -0.00015455637960172416 0 -0.003129805466191701 -0.00016702698666490567 0 -0.0031239269493487576 -0.00015242756287396416 0 -0.0031482993508777871 -0.00015455637960172416 0 -0.0031444435368908207 -0.00017120938053392441 0 -0.0031599781153091827 -0.0001614538718449422 0 -0.0031444435368908207 -0.00017120938053392441 0 -0.0031605527087960909 -0.00017389128188244265 0 -0.0031537410796936144 -0.00018682100845290991 0 -0.0031444435368908207 -0.00017120938053392441 0 -0.0031599781153091827 -0.0001614538718449422 0 -0.0031605527087960909 -0.00017389128188244265 0 -0.0031444435368908207 -0.00017120938053392441 0 -0.0031351813761356429 -0.00017642885769022696 0 -0.0031402005186697414 -0.00018603042475553254 0 -0.0031482993508777871 -0.00015455637960172416 0 -0.0031444435368908207 -0.00017120938053392441 0 -0.003129805466191701 -0.00016702698666490567 0 -0.0031444435368908207 -0.00017120938053392441 0 -0.0031351813761356429 -0.00017642885769022696 0 -0.003129805466191701 -0.00016702698666490567 0 -0.0031351813761356429 -0.00017642885769022696 0 -0.003129805466191701 -0.00016702698666490567 0 -0.0031262150154853677 -0.00018136325650325855 0 -0.003193920179007131 -0.00015211405813571707 0 -0.003166750226085716 -0.00014984691680989057 0 -0.0031732091381896132 -0.00016603563027476012 0 -0.0031482993508777871 -0.00015455637960172416 0 -0.003166750226085716 -0.00014984691680989057 0 -0.0031599781153091827 -0.0001614538718449422 0 -0.003166750226085716 -0.00014984691680989057 0 -0.0031599781153091827 -0.0001614538718449422 0 -0.0031732091381896132 -0.00016603563027476012 0 -0.0031599781153091827 -0.0001614538718449422 0 -0.0031605527087960909 -0.00017389128188244265 0 -0.0031732091381896132 -0.00016603563027476012 0 -0.0031605527087960909 -0.00017389128188244265 0 -0.0031732091381896132 -0.00016603563027476012 0 -0.0031705841400116804 -0.0001836563604991852 0 -0.0031862475787807821 -0.0001762612033262751 0 -0.0031732091381896132 -0.00016603563027476012 0 -0.0031705841400116804 -0.0001836563604991852 0 -0.0031862475787807821 -0.0001762612033262751 0 -0.0031705841400116804 -0.0001836563604991852 0 -0.0031871501603192623 -0.00019856508705529659 0 -0.0031705841400116804 -0.0001836563604991852 0 -0.0031616996820127297 -0.00019954384861288019 0 -0.0031537410796936144 -0.00018682100845290991 0 -0.0031605527087960909 -0.00017389128188244265 0 -0.0031705841400116804 -0.0001836563604991852 0 -0.0031537410796936144 -0.00018682100845290991 0 -0.0031616996820127297 -0.00019954384861288019 0 -0.0031743886676892305 -0.00021423495067850954 0 -0.0031871501603192623 -0.00019856508705529659 0 -0.0031705841400116804 -0.0001836563604991852 0 -0.0031616996820127297 -0.00019954384861288019 0 -0.0031871501603192623 -0.00019856508705529659 0 -0.0031323141668025043 -0.00019146690647094979 0 -0.0031262150154853677 -0.00018136325650325855 0 -0.003120090969963274 -0.00019650446049539999 0 -0.0031323141668025043 -0.00019146690647094979 0 -0.0031262150154853677 -0.00018136325650325855 0 -0.0031402005186697414 -0.00018603042475553254 0 -0.0031351813761356429 -0.00017642885769022696 0 -0.0031262150154853677 -0.00018136325650325855 0 -0.0031402005186697414 -0.00018603042475553254 0 -0.0031323141668025043 -0.00019146690647094979 0 -0.0031402005186697414 -0.00018603042475553254 0 -0.0031382944124709621 -0.00019712808454804784 0 -0.0031402005186697414 -0.00018603042475553254 0 -0.0031537410796936144 -0.00018682100845290991 0 -0.0031382944124709621 -0.00019712808454804784 0 -0.0031444435368908207 -0.00017120938053392441 0 -0.0031402005186697414 -0.00018603042475553254 0 -0.0031537410796936144 -0.00018682100845290991 0 -0.0031616996820127297 -0.00019954384861288019 0 -0.0031382944124709621 -0.00019712808454804784 0 -0.0031423073505969642 -0.00021741387536098106 0 -0.0031616996820127297 -0.00019954384861288019 0 -0.0031537410796936144 -0.00018682100845290991 0 -0.0031382944124709621 -0.00019712808454804784 0 -0.0031323141668025043 -0.00019146690647094979 0 -0.0031382944124709621 -0.00019712808454804784 0 -0.003120090969963274 -0.00019650446049539999 0 -0.0031382944124709621 -0.00019712808454804784 0 -0.0031423073505969642 -0.00021741387536098106 0 -0.0031162777809291163 -0.00020111557692658718 0 -0.0022488870391477551 -0.00018702122501123357 0 -0.0022792060647719523 -0.00016885767721118479 0 -0.0022822409425899428 -0.00020974629735178571 0 -0.0022488870391477551 -0.00018702122501123357 0 -0.0022172889637502189 -0.00016483273039124256 0 -0.0022520031023698806 -0.00014452556079358068 0 -0.0022488870391477551 -0.00018702122501123357 0 -0.0022520031023698806 -0.00014452556079358068 0 -0.0022792060647719523 -0.00016885767721118479 0 -0.0027156817572441695 -0.00021816663719189557 0 -0.0028588881584973021 -0.00022592363483035709 0 -0.0031616996820127297 -0.00019954384861288019 0 -0.0031423073505969642 -0.00021741387536098106 0 -0.0031743886676892305 -0.00021423495067850954 0 -0.0031423073505969642 -0.00021741387536098106 0 -0.0031743886676892305 -0.00021423495067850954 0 -0.003167186198711704 -0.00023419936181811519 0 -0.0027156817572441695 -0.00021816663719189557 0 -0.00259589887004215 -0.00022695451784570411 0 -0.00259589887004215 -0.00022695451784570411 0 -0.0027359204841977524 -0.00022563067231332244 0 -0.0031743886676892305 -0.00021423495067850954 0 -0.003167186198711704 -0.00023419936181811519 0 -0.0031930599972237982 -0.00022002837304732398 0 -0.0025159832193089051 -0.00023885262593778404 0 -0.0024676172903274306 -0.00026539192004992532 0 -0.0024817411112388536 -0.000209389650528601 0 -0.0031930599972237982 -0.00022002837304732398 0 -0.0031871501603192623 -0.00019856508705529659 0 -0.0032183998614450085 -0.00020593496752606194 0 -0.0025643879954549004 -0.00021253416018629192 0 -0.0025159832193089051 -0.00023885262593778404 0 -0.0025205796978993817 -0.00018247196219519119 0 -0.0027359204841977524 -0.00022563067231332244 0 -0.0027805776135271239 -0.00026126058650458598 0 -0.0031743886676892305 -0.00021423495067850954 0 -0.0031930599972237982 -0.00022002837304732398 0 -0.0031871501603192623 -0.00019856508705529659 0 -0.0031871501603192623 -0.00019856508705529659 0 -0.0032066105367478549 -0.00018762322736569473 0 -0.0032183998614450085 -0.00020593496752606194 0 -0.0031862475787807821 -0.0001762612033262751 0 -0.0032090884893049235 -0.00017206349842011765 0 -0.0032066105367478549 -0.00018762322736569473 0 -0.0031862475787807821 -0.0001762612033262751 0 -0.0031871501603192623 -0.00019856508705529659 0 -0.0032066105367478549 -0.00018762322736569473 0 -0.0032526839573933171 -0.00018814039614508017 0 -0.0032233518746021964 -0.00018253267202981684 0 -0.0032188965661115771 -0.00020625121624014736 0 -0.0030231419073348045 -0.00022048963298711697 0 -0.0027805776135271239 -0.00026126058650458598 0 -0.0032090884893049235 -0.00017206349842011765 0 -0.0032066105367478549 -0.00018762322736569473 0 -0.0032233518746021964 -0.00018253267202981684 0 -0.0032066105367478549 -0.00018762322736569473 0 -0.0032233518746021964 -0.00018253267202981684 0 -0.0032188965661115771 -0.00020625121624014736 0 -0.0028219918437493519 -0.0002807454838906476 0 -0.0027805776135271239 -0.00026126058650458598 0 -0.002554055436076176 -0.00025320755087492839 0 -0.0027805776135271239 -0.00026126058650458598 0 -0.0024277593851917542 -0.00020784207657830405 0 -0.0024676172903274306 -0.00026539192004992532 0 -0.0024817411112388536 -0.000209389650528601 0 -0.0028462275850677662 -0.00035225855834501973 0 -0.0028063006642671685 -0.00045082349296908389 0 -0.002718746777997794 -0.00032246882920295388 0 -0.0024277593851917542 -0.00020784207657830405 0 -0.0024817411112388536 -0.000209389650528601 0 -0.0024766373812404921 -0.00015222656554322788 0 -0.0021787241674465631 -0.00014420003848558877 0 -0.0021477373821239629 -0.00012285281812282362 0 -0.0022042161821188878 -0.00012385088710009304 0 -0.0024817411112388536 -0.000209389650528601 0 -0.0025205796978993817 -0.00018247196219519119 0 -0.0024766373812404921 -0.00015222656554322788 0 -0.0025159832193089051 -0.00023885262593778404 0 -0.0024817411112388536 -0.000209389650528601 0 -0.0025205796978993817 -0.00018247196219519119 0 -0.0023566640727098265 -0.00017814723149143542 0 -0.0021267859116527801 -0.00013774268731160528 0 -0.0012115972076069542 -9.3359173184307049e-05 0 -0.0012313915442329507 -5.8629747650758595e-05 0 -0.0012567958988054418 -8.7895717955744916e-05 0 -0.0021267859116527801 -0.00013774268731160528 0 -0.002158221013293579 -0.00013545044974189481 0 -0.0021375177939007405 -0.00012286322097500258 0 -0.0022042161821188878 -0.00012385088710009304 0 -0.0021908206729688647 -9.584842403349001e-05 0 -0.0021148033802412393 -0.00010713059941759317 0 -0.0021375177939007405 -0.00012286322097500258 0 -0.0021908206729688647 -9.584842403349001e-05 0 -0.0018497029229575762 -7.4094031943771778e-05 0 -0.001752228517725391 -9.7422717854406835e-05 0 -0.0022289785131366117 -0.00010688384521510911 0 -0.0021267859116527801 -0.00013774268731160528 0 -0.002178377193419193 -8.3626019308223249e-05 0 -0.0020035135106215383 -0.00013092996718407077 0 -0.0019277369683506551 -7.9557970449323071e-05 0 -0.0018497029229575762 -7.4094031943771778e-05 0 -0.0021267859116527801 -0.00013774268731160528 0 -0.0012115972076069542 -9.3359173184307049e-05 0 -0.0012054755117200935 -6.4439503247256351e-05 0 -0.0012313915442329507 -5.8629747650758595e-05 0 -0.0012054755117200935 -6.4439503247256351e-05 0 -0.0012313915442329507 -5.8629747650758595e-05 0 -0.0012048212568270007 -3.9279414354374232e-05 0 -0.0012313915442329507 -5.8629747650758595e-05 0 -0.0012709148742958841 -4.8335902577644281e-05 0 -0.0012567958988054418 -8.7895717955744916e-05 0 -0.0014139917769695543 8.1748966703988046e-06 0 -0.0013001267596725111 2.3906352677311062e-05 0 -0.0012313915442329507 -5.8629747650758595e-05 0 -0.0012709148742958841 -4.8335902577644281e-05 0 -0.0012359749499349828 -1.8360152103175338e-05 0 -0.0012313915442329507 -5.8629747650758595e-05 0 -0.0012048212568270007 -3.9279414354374232e-05 0 -0.0012359749499349828 -1.8360152103175338e-05 0 -0.0012369257359719909 -5.1558061430796888e-05 0 -0.001278482998914402 -4.4883368630535606e-05 0 -0.0012503521139261209 -1.36908308227763e-05 0 -0.0012709148742958841 -4.8335902577644281e-05 0 -0.001305618688058829 -8.07433529856721e-05 0 -0.0012567958988054418 -8.7895717955744916e-05 0 -0.0014139917769695543 8.1748966703988046e-06 0 -0.001759024990885358 -0.00010977883363178835 0 -0.0012369257359719909 -5.1558061430796888e-05 0 -0.0012654210923374325 -8.0552440465513493e-05 0 -0.001278482998914402 -4.4883368630535606e-05 0 -0.0022595379122953368 -8.6631231335926982e-05 0 -0.0022042161821188878 -0.00012385088710009304 0 -0.0022520031023698806 -0.00014452556079358068 0 -0.0022595379122953368 -8.6631231335926982e-05 0 -0.0022042161821188878 -0.00012385088710009304 0 -0.0021908206729688647 -9.584842403349001e-05 0 -0.001759024990885358 -0.00010977883363178835 0 -0.001752228517725391 -9.7422717854406835e-05 0 -0.0022108056949494085 -0.00016672867891697816 0 -0.0022042161821188878 -0.00012385088710009304 0 -0.0022520031023698806 -0.00014452556079358068 0 -0.0022108056949494085 -0.00016672867891697816 0 -0.0021787241674465631 -0.00014420003848558877 0 -0.0022042161821188878 -0.00012385088710009304 0 -0.00259589887004215 -0.00022695451784570411 0 -0.0023566640727098265 -0.00017814723149143542 0 -0.00259589887004215 -0.00022695451784570411 0 -0.0024855882151351232 -0.00025377610757724235 0 -0.0022520031023698806 -0.00014452556079358068 0 -0.002304583957253904 -0.00013314688328771584 0 -0.0022792060647719523 -0.00016885767721118479 0 -0.002304583957253904 -0.00013314688328771584 0 -0.0023155342263969439 -0.00016757266482425132 0 -0.0022792060647719523 -0.00016885767721118479 0 -0.0035360521749452875 -0.00036113205816916025 0 -0.0035329731845781163 -0.00029168767998953939 0 -0.0035942842458963893 -0.00028925502665590067 0 -0.0027820429023010162 -0.00016333268555023821 0 -0.002858588233236654 -0.00018499785853175071 0 -0.002304583957253904 -0.00013314688328771584 0 -0.00234959421964657 -0.00012490020431372639 0 -0.0023155342263969439 -0.00016757266482425132 0 -0.002304583957253904 -0.00013314688328771584 0 -0.0023171407801388902 -7.9318132580951482e-05 0 -0.00234959421964657 -0.00012490020431372639 0 -0.0023171407801388902 -7.9318132580951482e-05 0 -0.00234959421964657 -0.00012490020431372639 0 -0.0023548215450936538 -9.1960138078453138e-05 0 -0.0022595379122953368 -8.6631231335926982e-05 0 -0.0022520031023698806 -0.00014452556079358068 0 -0.002304583957253904 -0.00013314688328771584 0 -0.001759024990885358 -0.00010977883363178835 0 -0.0019934424166917035 -0.00022007784043910262 0 -0.0022569969317384076 -8.8766565720619937e-05 0 -0.002304583957253904 -0.00013314688328771584 0 -0.0023171407801388902 -7.9318132580951482e-05 0 -0.0012654210923374325 -8.0552440465513493e-05 0 -0.0013036035141938251 -7.5251036940049979e-05 0 -0.001278482998914402 -4.4883368630535606e-05 0 -0.001759024990885358 -0.00010977883363178835 0 -0.0019087669396191053 -0.00011109910068485112 0 -0.0013036035141938251 -7.5251036940049979e-05 0 -0.001278482998914402 -4.4883368630535606e-05 0 -0.0013206841552365416 -3.9070288527378947e-05 0 -0.0014820993035131662 -0.00024019787794938121 0 -0.001532030168405136 -0.0002137795355349654 0 -0.0015125893914906246 -0.00026141558932703371 0 -0.0014820993035131662 -0.00024019787794938121 0 -0.001532030168405136 -0.0002137795355349654 0 -0.0014822699644338791 -0.00018917435079883525 0 -0.0017752377073048818 2.214323114688771e-05 0 -0.0023228947901470821 -9.440608421543083e-05 0 -0.0014820993035131662 -0.00024019787794938121 0 -0.0014109707472493575 -0.00021011445071911439 0 -0.0014822699644338791 -0.00018917435079883525 0 -0.0014820993035131662 -0.00024019787794938121 0 -0.0014109707472493575 -0.00021011445071911439 0 -0.0014651787512108671 -0.00028403291567139936 0 -0.0019087669396191053 -0.00011109910068485112 0 -0.0023228947901470821 -9.440608421543083e-05 0 -0.0023171407801388902 -7.9318132580951482e-05 0 -0.0023751845160945432 -7.0378839851934549e-05 0 -0.0023548215450936538 -9.1960138078453138e-05 0 -0.0013036035141938251 -7.5251036940049979e-05 0 -0.0013206841552365416 -3.9070288527378947e-05 0 -0.0013444463149779136 -6.940891987931562e-05 0 -0.0023751845160945432 -7.0378839851934549e-05 0 -0.0023834672529995313 -8.2218845699865678e-05 0 -0.0023548215450936538 -9.1960138078453138e-05 0 -0.0023228947901470821 -9.440608421543083e-05 0 -0.0025837341886682298 -0.00016345355513318869 0 -0.0026878553750058873 -0.00016437704809344359 0 -0.0026866473249870411 -0.00016565996454414165 0 -0.0026865375339266066 -0.00016215059267664974 0 -0.0025498760608405691 -0.00011040327233192853 0 -0.0028401811390587448 -0.00025418174005482593 0 -0.003496939077955492 -4.6515999510926266e-05 0 -0.0035039676749830406 -8.7711657647283894e-05 0 -0.0035188342956805011 -6.8220264588907012e-05 0 -0.0028458680952515658 -0.00023867513164443004 0 -0.0026617451440117379 2.804301389078612e-05 0 -0.0023874162442523426 -0.00031648904092807358 0 -0.0025837341886682298 -0.00016345355513318869 0 -0.0025498760608405691 -0.00011040327233192853 0 -0.0014820993035131662 -0.00024019787794938121 0 -0.0014651787512108671 -0.00028403291567139936 0 -0.0014994768660855898 -0.0002780487844257246 0 -0.0014820993035131662 -0.00024019787794938121 0 -0.0014994768660855898 -0.0002780487844257246 0 -0.0015125893914906246 -0.00026141558932703371 0 -0.0023228947901470821 -9.440608421543083e-05 0 -0.0025498760608405691 -0.00011040327233192853 0 -0.0025498760608405691 -0.00011040327233192853 0 -0.0025217984616811885 -0.00013240385433390669 0 -0.003496939077955492 -4.6515999510926266e-05 0 -0.0035188342956805011 -6.8220264588907012e-05 0 -0.0035273414345086069 -5.8926458072340257e-05 0 -0.0035039676749830406 -8.7711657647283894e-05 0 -0.0035211906892441448 -8.1726284386113857e-05 0 -0.0035188342956805011 -6.8220264588907012e-05 0 -0.0025837341886682298 -0.00016345355513318869 0 -0.0028401811390587448 -0.00025418174005482593 0 -0.0035141722990628581 -0.00010202804315138121 0 -0.0035039676749830406 -8.7711657647283894e-05 0 -0.0035211906892441448 -8.1726284386113857e-05 0 -0.002863342657885389 -0.00026346033591701369 0 -0.0028401811390587448 -0.00025418174005482593 0 -0.0025837341886682298 -0.00016345355513318869 0 -0.0027820429023010162 -0.00016333268555023821 0 -0.0023834672529995313 -8.2218845699865678e-05 0 -0.00234959421964657 -0.00012490020431372639 0 -0.0023548215450936538 -9.1960138078453138e-05 0 -0.0034467252378765018 -0.00038582166811205104 0 -0.0035360521749452875 -0.00036113205816916025 0 -0.0034806335001748337 -0.00033315109834144632 0 -0.0034776020858187451 -0.00043169730778675641 0 -0.0034467252378765018 -0.00038582166811205104 0 -0.0035360521749452875 -0.00036113205816916025 0 -0.0035360521749452875 -0.00036113205816916025 0 -0.0034806335001748337 -0.00033315109834144632 0 -0.0035329731845781163 -0.00029168767998953939 0 -0.0028401811390587448 -0.00025418174005482593 0 -0.0032169612365714659 -0.00023588899572633099 0 -0.0034467252378765018 -0.00038582166811205104 0 -0.0034806335001748337 -0.00033315109834144632 0 -0.0034362187881146504 -0.00029018709692632679 0 -0.0035141722990628581 -0.00010202804315138121 0 -0.0035029533550193542 -8.6968857744151854e-05 0 -0.0035128279472193625 -0.0001481861196143015 0 -0.0034806335001748337 -0.00033315109834144632 0 -0.0034362187881146504 -0.00029018709692632679 0 -0.0034930930089074387 -0.0002484109432912734 0 -0.0034362187881146504 -0.00029018709692632679 0 -0.0034930930089074387 -0.0002484109432912734 0 -0.0034230020528161712 -0.0001927718180282817 0 -0.0032169612365714659 -0.00023588899572633099 0 -0.003450927564586839 -0.00019160441571676703 0 -0.0034815541928251777 -0.00018998630646236482 0 -0.0034930930089074387 -0.0002484109432912734 0 -0.0034230020528161712 -0.0001927718180282817 0 -0.0034815541928251777 -0.00018998630646236482 0 -0.0034628887311296732 -0.00014616247720793604 0 -0.0034230020528161712 -0.0001927718180282817 0 -0.0035231318926524655 -0.00019565623489092927 0 -0.0034930930089074387 -0.0002484109432912734 0 -0.0035607964628190363 -0.00022654404171750938 0 -0.0035231318926524655 -0.00019565623489092927 0 -0.0035607964628190363 -0.00022654404171750938 0 -0.0035546239208945753 -0.00017920345203082313 0 -0.0035231318926524655 -0.00019565623489092927 0 -0.0035066630443170367 -0.00016304084106330286 0 -0.0035348491392078823 -0.0001663765606109551 0 -0.0035231318926524655 -0.00019565623489092927 0 -0.0035546239208945753 -0.00017920345203082313 0 -0.0035348491392078823 -0.0001663765606109551 0 -0.0034815541928251777 -0.00018998630646236482 0 -0.0035231318926524655 -0.00019565623489092927 0 -0.0035066630443170367 -0.00016304084106330286 0 -0.0034815541928251777 -0.00018998630646236482 0 -0.0035231318926524655 -0.00019565623489092927 0 -0.0034930930089074387 -0.0002484109432912734 0 -0.0035329731845781163 -0.00029168767998953939 0 -0.0034930930089074387 -0.0002484109432912734 0 -0.0035607964628190363 -0.00022654404171750938 0 -0.0034806335001748337 -0.00033315109834144632 0 -0.0035329731845781163 -0.00029168767998953939 0 -0.0034930930089074387 -0.0002484109432912734 0 -0.0035942842458963893 -0.00028925502665590067 0 -0.0036488183882861327 -0.00021905155262438465 0 -0.0035607964628190363 -0.00022654404171750938 0 -0.0035329731845781163 -0.00029168767998953939 0 -0.0035942842458963893 -0.00028925502665590067 0 -0.0035607964628190363 -0.00022654404171750938 0 -0.002858588233236654 -0.00018499785853175071 0 -0.0028588881584973021 -0.00022592363483035709 0 -0.0023155342263969439 -0.00016757266482425132 0 -0.0022792060647719523 -0.00016885767721118479 0 -0.0022822409425899428 -0.00020974629735178571 0 -0.003120090969963274 -0.00019650446049539999 0 -0.0031159329916052359 -0.00020167442400861445 0 -0.0031085600569200193 -0.00017165840992228079 0 -0.0031159329916052359 -0.00020167442400861445 0 -0.0030721810350583696 -0.000173289580210196 0 -0.0031085600569200193 -0.00017165840992228079 0 -0.0031382944124709621 -0.00019712808454804784 0 -0.003120090969963274 -0.00019650446049539999 0 -0.0031162777809291163 -0.00020111557692658718 0 -0.0028614859718506169 -0.00022395708529783447 0 -0.0028588881584973021 -0.00022592363483035709 0 -0.0031262150154853677 -0.00018136325650325855 0 -0.003120090969963274 -0.00019650446049539999 0 -0.0031085600569200193 -0.00017165840992228079 0 -0.0028588881584973021 -0.00022592363483035709 0 -0.0033404211799075083 -0.00021988678390488328 0 -0.0036488183882861327 -0.00021905155262438465 0 -0.0035607964628190363 -0.00022654404171750938 0 -0.0035681545697825359 -0.00016149263199381652 0 -0.0035607964628190363 -0.00022654404171750938 0 -0.0035546239208945753 -0.00017920345203082313 0 -0.0035681545697825359 -0.00016149263199381652 0 -0.0030721810350583696 -0.000173289580210196 0 -0.0031085600569200193 -0.00017165840992228079 0 -0.0030989729211948376 -0.00013646934472582594 0 -0.0035546239208945753 -0.00017920345203082313 0 -0.003559532410358981 -0.00014907235729432906 0 -0.0035734442747217213 -0.00016022507857749532 0 -0.0035819092184997065 -0.00016466732894451915 0 -0.0035859003151867516 -0.00010767914252019834 0 -0.0036647168979934267 -7.3525726697358781e-05 0 -0.0033404211799075083 -0.00021988678390488328 0 -0.0034082442704613906 -0.00013547478582615221 0 -0.0033485680779331869 -0.00021322895626766161 0 -0.0033404211799075083 -0.00021988678390488328 0 -0.003345977149573074 -0.00022157110099002445 0 -0.0033404211799075083 -0.00021988678390488328 0 -0.003559532410358981 -0.00014907235729432906 0 -0.0035859003151867516 -0.00010767914252019834 0 -0.003543224268158993 -0.00011452262730371314 0 -0.003559532410358981 -0.00014907235729432906 0 -0.0035819092184997065 -0.00016466732894451915 0 -0.0035859003151867516 -0.00010767914252019834 0 -0.0031085600569200193 -0.00017165840992228079 0 -0.0031239269493487576 -0.00015242756287396416 0 -0.0030989729211948376 -0.00013646934472582594 0 -0.003129805466191701 -0.00016702698666490567 0 -0.0031262150154853677 -0.00018136325650325855 0 -0.0031085600569200193 -0.00017165840992228079 0 -0.003129805466191701 -0.00016702698666490567 0 -0.0031085600569200193 -0.00017165840992228079 0 -0.0031239269493487576 -0.00015242756287396416 0 -0.0031349969502300623 -8.0832047492701139e-05 0 -0.0031392610156089633 -0.00013580234015866613 0 -0.0030989729211948376 -0.00013646934472582594 0 -0.0031392610156089633 -0.00013580234015866613 0 -0.0031239269493487576 -0.00015242756287396416 0 -0.0030989729211948376 -0.00013646934472582594 0 -0.0036021104481676466 -2.1444798340691301e-05 0 -0.0037103440627582361 2.0140940193865557e-06 0 -0.0036647168979934267 -7.3525726697358781e-05 0 -0.0034768578521765462 -8.0301755092406112e-05 0 -0.0034082442704613906 -0.00013547478582615221 0 -0.0035859003151867516 -0.00010767914252019834 0 -0.0036090950573346181 -6.8960591850857823e-05 0 -0.0035598092144757771 -7.6602049669504738e-05 0 -0.0035859003151867516 -0.00010767914252019834 0 -0.0035598092144757771 -7.6602049669504738e-05 0 -0.003543224268158993 -0.00011452262730371314 0 -0.0035859003151867516 -0.00010767914252019834 0 -0.0036647168979934267 -7.3525726697358781e-05 0 -0.0036090950573346181 -6.8960591850857823e-05 0 -0.0036021104481676466 -2.1444798340691301e-05 0 -0.0036647168979934267 -7.3525726697358781e-05 0 -0.0036090950573346181 -6.8960591850857823e-05 0 -0.0036021104481676466 -2.1444798340691301e-05 0 -0.0036090950573346181 -6.8960591850857823e-05 0 -0.0035598092144757771 -7.6602049669504738e-05 0 -0.0036021104481676466 -2.1444798340691301e-05 0 -0.0035598092144757771 -7.6602049669504738e-05 0 -0.0034971905750885352 -5.5897619241400728e-05 0 -0.0036891033363909732 -3.8148557558420231e-05 0 -0.0036776790576957957 -6.5288401832910441e-05 0 -0.0035598092144757771 -7.6602049669504738e-05 0 -0.0035181016078899641 -9.1338635706331514e-05 0 -0.003543224268158993 -0.00011452262730371314 0 -0.0035598092144757771 -7.6602049669504738e-05 0 -0.0035181016078899641 -9.1338635706331514e-05 0 -0.0034971905750885352 -5.5897619241400728e-05 0 -0.0034932387205505689 -9.0118657821644575e-05 0 -0.0035181016078899641 -9.1338635706331514e-05 0 -0.0035026520534271271 -0.00012029528061209118 0 -0.0034932387205505689 -9.0118657821644575e-05 0 -0.0035181016078899641 -9.1338635706331514e-05 0 -0.0034971905750885352 -5.5897619241400728e-05 0 -0.0036776790576957957 -6.5288401832910441e-05 0 -0.0036705407812615302 -0.00011864557176256009 0 -0.0038183401602618215 5.0274140134909787e-05 0 -0.0038441641149033531 4.3610655271481069e-05 0 -0.0038891697119639496 7.143812425600829e-05 0 -0.0034971905750885352 -5.5897619241400728e-05 0 -0.0034620017262880698 -9.6053463216705929e-05 0 -0.00340697911621275 -8.6940865269786964e-05 0 -0.0038982220762471087 9.0139075786791785e-06 0 -0.0038441641149033531 4.3610655271481069e-05 0 -0.0038891697119639496 7.143812425600829e-05 0 -0.0038261288624231752 1.5194832275769821e-05 0 -0.0038183401602618215 5.0274140134909787e-05 0 -0.0038441641149033531 4.3610655271481069e-05 0 -0.0034932387205505689 -9.0118657821644575e-05 0 -0.0034620017262880698 -9.6053463216705929e-05 0 -0.0035026520534271271 -0.00012029528061209118 0 -0.0034932387205505689 -9.0118657821644575e-05 0 -0.0034971905750885352 -5.5897619241400728e-05 0 -0.0034620017262880698 -9.6053463216705929e-05 0 -0.0034620017262880698 -9.6053463216705929e-05 0 -0.0034628887311296732 -0.00014616247720793604 0 -0.0035026520534271271 -0.00012029528061209118 0 -0.0034628887311296732 -0.00014616247720793604 0 -0.00340697911621275 -8.6940865269786964e-05 0 -0.0034230020528161712 -0.0001927718180282817 0 -0.0034620017262880698 -9.6053463216705929e-05 0 -0.0034628887311296732 -0.00014616247720793604 0 -0.00340697911621275 -8.6940865269786964e-05 0 -0.0034815541928251777 -0.00018998630646236482 0 -0.0034628887311296732 -0.00014616247720793604 0 -0.0035066630443170367 -0.00016304084106330286 0 -0.0034628887311296732 -0.00014616247720793604 0 -0.0035066630443170367 -0.00016304084106330286 0 -0.0035026520534271271 -0.00012029528061209118 0 -0.0035066630443170367 -0.00016304084106330286 0 -0.0035304102219447567 -0.00014252576265343642 0 -0.0035026520534271271 -0.00012029528061209118 0 -0.0035066630443170367 -0.00016304084106330286 0 -0.0035348491392078823 -0.0001663765606109551 0 -0.0035304102219447567 -0.00014252576265343642 0 -0.0035546239208945753 -0.00017920345203082313 0 -0.003559532410358981 -0.00014907235729432906 0 -0.0035348491392078823 -0.0001663765606109551 0 -0.003559532410358981 -0.00014907235729432906 0 -0.0035348491392078823 -0.0001663765606109551 0 -0.0035304102219447567 -0.00014252576265343642 0 -0.0035304102219447567 -0.00014252576265343642 0 -0.003543224268158993 -0.00011452262730371314 0 -0.0035026520534271271 -0.00012029528061209118 0 -0.003559532410358981 -0.00014907235729432906 0 -0.0035304102219447567 -0.00014252576265343642 0 -0.003543224268158993 -0.00011452262730371314 0 -0.0035181016078899641 -9.1338635706331514e-05 0 -0.003543224268158993 -0.00011452262730371314 0 -0.0035026520534271271 -0.00012029528061209118 0 -0.0036816234000637323 -0.00011990651299462857 0 -0.0036551215014558125 -0.00013594774630987905 0 -0.0035784880838869771 -0.00025445801184009747 0 -0.0035296315888712457 -0.00026881065335185246 0 -0.0035215492913607265 -0.0002087410440424857 0 -0.0036705407812615302 -0.00011864557176256009 0 -0.003450927564586839 -0.00019160441571676703 0 -0.0038181440181897287 -0.00010936580264384064 0 -0.0038003765092785476 -0.00011463406565135839 0 -0.0038218463146422492 -0.00014138893743217358 0 -0.0038003765092785476 -0.00011463406565135839 0 -0.0037863366773833109 -0.00015195376806869293 0 -0.0038218463146422492 -0.00014138893743217358 0 -0.0036816234000637323 -0.00011990651299462857 0 -0.0036705407812615302 -0.00011864557176256009 0 -0.0038317152622598166 -8.7633122811275912e-05 0 -0.0036705407812615302 -0.00011864557176256009 0 -0.0035801127026503774 -2.0981102327368192e-05 0 -0.0035257528704729425 -2.5135467329729686e-05 0 -0.003545384685584099 2.6623815399673579e-05 0 -0.0038025445487766259 -0.00011039744833121699 0 -0.0036816234000637323 -0.00011990651299462857 0 -0.0035921459667583831 -5.6440731700277875e-06 0 -0.0036319829064401228 1.2371256076947798e-05 0 -0.003615570142148871 2.4462213667432716e-05 0 -0.0035801127026503774 -2.0981102327368192e-05 0 -0.003545384685584099 2.6623815399673579e-05 0 -0.0035926375306329877 4.0526976393784399e-05 0 -0.0036147991182913881 -3.6634540364945669e-05 0 -0.0036377763288462082 -5.3225658951025113e-05 0 -0.0036319829064401228 1.2371256076947798e-05 0 -0.003615570142148871 2.4462213667432716e-05 0 -0.0036299977604996527 1.4117067991463446e-05 0 -0.0036377763288462082 -5.3225658951025113e-05 0 -0.0036436440284706366 -3.2127774047214013e-05 0 -0.0036573650847040104 -7.8757455627583004e-05 0 -0.003654076514884118 -7.962200737304711e-05 0 -0.0036561098887406907 -8.2195199928503327e-05 0 -0.0036816234000637323 -0.00011990651299462857 0 -0.0036377763288462082 -5.3225658951025113e-05 0 -0.003654076514884118 -7.962200737304711e-05 0 -0.0036532014521922151 -8.3214919855441132e-05 0 -0.0036561098887406907 -8.2195199928503327e-05 0 -0.0036377763288462082 -5.3225658951025113e-05 0 -0.0036474146498062655 -5.3623425998663589e-05 0 -0.0036532014521922151 -8.3214919855441132e-05 0 -0.0036549510288257704 -8.6183382028074741e-05 0 -0.0036561098887406907 -8.2195199928503327e-05 0 -0.0036939406281955851 2.724049614213243e-05 0 -0.0036827010475163026 -2.570506397296034e-05 0 -0.0036299977604996527 1.4117067991463446e-05 0 -0.0036827010475163026 -2.570506397296034e-05 0 -0.0036396110126400471 -4.903186871878072e-05 0 -0.0036299977604996527 1.4117067991463446e-05 0 -0.0036827010475163026 -2.570506397296034e-05 0 -0.0036517114842569429 -8.763996517358532e-05 0 -0.0036396110126400471 -4.903186871878072e-05 0 -0.0036474146498062655 -5.3623425998663589e-05 0 -0.0036481512433914568 -6.1468045885856816e-05 0 -0.0036517114842569429 -8.763996517358532e-05 0 -0.003637013487770352 -9.5447231564730535e-05 0 -0.0036396110126400471 -4.903186871878072e-05 0 -0.0036167082395714956 -0.00015373357950481775 0 -0.0035844959356701291 -0.00016682244007585348 0 -0.0035970602903207709 -0.00020450639442617564 0 -0.0036532014521922151 -8.3214919855441132e-05 0 -0.0036549510288257704 -8.6183382028074741e-05 0 -0.0036517114842569429 -8.763996517358532e-05 0 -0.0036494505139760703 -0.00012366143735952073 0 -0.0036551215014558125 -0.00013594774630987905 0 -0.0036167082395714956 -0.00015373357950481775 0 -0.0035844959356701291 -0.00016682244007585348 0 -0.0035879359581713339 -0.00013221489375597571 0 -0.0035606751700368207 -0.0001522323964521274 0 -0.0035844959356701291 -0.00016682244007585348 0 -0.0035879359581713339 -0.00013221489375597571 0 -0.0035606751700368207 -0.0001522323964521274 0 -0.0035844959356701291 -0.00016682244007585348 0 -0.0035603158470786391 -0.00019041080321118917 0 -0.0035784880838869771 -0.00025445801184009747 0 -0.0035603158470786391 -0.00019041080321118917 0 -0.0035970602903207709 -0.00020450639442617564 0 -0.0035844959356701291 -0.00016682244007585348 0 -0.0035603158470786391 -0.00019041080321118917 0 -0.0035970602903207709 -0.00020450639442617564 0 -0.0035784880838869771 -0.00025445801184009747 0 -0.0035603158470786391 -0.00019041080321118917 0 -0.0035215492913607265 -0.0002087410440424857 0 -0.0035128279472193625 -0.0001481861196143015 0 -0.0035603158470786391 -0.00019041080321118917 0 -0.0035215492913607265 -0.0002087410440424857 0 -0.0035128279472193625 -0.0001481861196143015 0 -0.0035606751700368207 -0.0001522323964521274 0 -0.0035603158470786391 -0.00019041080321118917 0 -0.0035141722990628581 -0.00010202804315138121 0 -0.0035128279472193625 -0.0001481861196143015 0 -0.0035367360036262898 -0.00012722479506776632 0 -0.0035128279472193625 -0.0001481861196143015 0 -0.0035606751700368207 -0.0001522323964521274 0 -0.0035367360036262898 -0.00012722479506776632 0 -0.0035606751700368207 -0.0001522323964521274 0 -0.0035367360036262898 -0.00012722479506776632 0 -0.0035632985831826141 -0.00012768995098157753 0 -0.0035367360036262898 -0.00012722479506776632 0 -0.0035487370407348813 -0.00010658765822031594 0 -0.0035632985831826141 -0.00012768995098157753 0 -0.0035141722990628581 -0.00010202804315138121 0 -0.0035367360036262898 -0.00012722479506776632 0 -0.0035487370407348813 -0.00010658765822031594 0 -0.0035606751700368207 -0.0001522323964521274 0 -0.0035879359581713339 -0.00013221489375597571 0 -0.0035632985831826141 -0.00012768995098157753 0 -0.0035879359581713339 -0.00013221489375597571 0 -0.0035632985831826141 -0.00012768995098157753 0 -0.0035848304570899846 -0.0001027978675297328 0 -0.0035487370407348813 -0.00010658765822031594 0 -0.0035632985831826141 -0.00012768995098157753 0 -0.0035848304570899846 -0.0001027978675297328 0 -0.0035879359581713339 -0.00013221489375597571 0 -0.0035848304570899846 -0.0001027978675297328 0 -0.0036068692702591618 -0.00010655778539415226 0 -0.0035848304570899846 -0.0001027978675297328 0 -0.0035977945978754628 -8.8860141316319106e-05 0 -0.0035828219935766592 -7.9733307541753745e-05 0 -0.0035848304570899846 -0.0001027978675297328 0 -0.0035977945978754628 -8.8860141316319106e-05 0 -0.0036068692702591618 -0.00010655778539415226 0 -0.0035848304570899846 -0.0001027978675297328 0 -0.0035713083963017232 -9.0362587036562888e-05 0 -0.0035828219935766592 -7.9733307541753745e-05 0 -0.0035487370407348813 -0.00010658765822031594 0 -0.0035848304570899846 -0.0001027978675297328 0 -0.0035713083963017232 -9.0362587036562888e-05 0 -0.0035713083963017232 -9.0362587036562888e-05 0 -0.0035674265306783397 -7.4117955548484233e-05 0 -0.0035828219935766592 -7.9733307541753745e-05 0 -0.0035977945978754628 -8.8860141316319106e-05 0 -0.0035828219935766592 -7.9733307541753745e-05 0 -0.0036006907913378725 -7.1853572072172692e-05 0 -0.0035487370407348813 -0.00010658765822031594 0 -0.0035713083963017232 -9.0362587036562888e-05 0 -0.0035674265306783397 -7.4117955548484233e-05 0 -0.0035487370407348813 -0.00010658765822031594 0 -0.0035528807704136951 -7.0208836104702172e-05 0 -0.0035360984208389228 -8.4729846816829191e-05 0 -0.0029251973966851938 2.3315295218415686e-06 0 -0.0028486759282661143 -1.3445622699708843e-05 0 -0.0035141722990628581 -0.00010202804315138121 0 -0.0035487370407348813 -0.00010658765822031594 0 -0.0035360984208389228 -8.4729846816829191e-05 0 -0.0035141722990628581 -0.00010202804315138121 0 -0.0035360984208389228 -8.4729846816829191e-05 0 -0.0035211906892441448 -8.1726284386113857e-05 0 -0.0035528807704136951 -7.0208836104702172e-05 0 -0.0035358044266331464 -6.986874840733219e-05 0 -0.0035360984208389228 -8.4729846816829191e-05 0 -0.0035358044266331464 -6.986874840733219e-05 0 -0.0035360984208389228 -8.4729846816829191e-05 0 -0.0035211906892441448 -8.1726284386113857e-05 0 -0.0035358044266331464 -6.986874840733219e-05 0 -0.0035211906892441448 -8.1726284386113857e-05 0 -0.0035188342956805011 -6.8220264588907012e-05 0 -0.0025498760608405691 -0.00011040327233192853 0 -0.0025877406713522232 -0.00011442611617114199 0 -0.003496939077955492 -4.6515999510926266e-05 0 -0.0035273414345086069 -5.8926458072340257e-05 0 -0.0035378826089424165 -4.9584935770951021e-05 0 -0.003496939077955492 -4.6515999510926266e-05 0 -0.0035378826089424165 -4.9584935770951021e-05 0 -0.0035612107638746233 -3.6453671478711465e-05 0 -0.0015000459045523148 -0.00027756047322660449 0 -0.0015125893914906246 -0.00026141558932703371 0 -0.0016128815231455894 -0.00025820693808180904 0 -0.0035358044266331464 -6.986874840733219e-05 0 -0.0035188342956805011 -6.8220264588907012e-05 0 -0.0035273414345086069 -5.8926458072340257e-05 0 -0.0035378826089424165 -4.9584935770951021e-05 0 -0.0035444015052732642 -5.8599662028491115e-05 0 -0.0035612107638746233 -3.6453671478711465e-05 0 -0.0035528807704136951 -7.0208836104702172e-05 0 -0.0035358044266331464 -6.986874840733219e-05 0 -0.0035444015052732642 -5.8599662028491115e-05 0 -0.0035273414345086069 -5.8926458072340257e-05 0 -0.0035378826089424165 -4.9584935770951021e-05 0 -0.0035444015052732642 -5.8599662028491115e-05 0 -0.0035358044266331464 -6.986874840733219e-05 0 -0.0035273414345086069 -5.8926458072340257e-05 0 -0.0035444015052732642 -5.8599662028491115e-05 0 -0.0035528807704136951 -7.0208836104702172e-05 0 -0.0035444015052732642 -5.8599662028491115e-05 0 -0.0035612107638746233 -3.6453671478711465e-05 0 -0.0035674265306783397 -7.4117955548484233e-05 0 -0.0035734236099919155 -6.8643811266927266e-05 0 -0.0035729839545932136 -5.932967536667006e-05 0 -0.0035674265306783397 -7.4117955548484233e-05 0 -0.0035828219935766592 -7.9733307541753745e-05 0 -0.0035734236099919155 -6.8643811266927266e-05 0 -0.0028486759282661143 -1.3445622699708843e-05 0 -0.0025877406713522232 -0.00011442611617114199 0 -0.0035828219935766592 -7.9733307541753745e-05 0 -0.0035734236099919155 -6.8643811266927266e-05 0 -0.0035893573151292569 -6.8011036461759674e-05 0 -0.0035828219935766592 -7.9733307541753745e-05 0 -0.0035893573151292569 -6.8011036461759674e-05 0 -0.0036006907913378725 -7.1853572072172692e-05 0 -0.0035893573151292569 -6.8011036461759674e-05 0 -0.0036005690318096613 -5.2077192738812265e-05 0 -0.0036006907913378725 -7.1853572072172692e-05 0 -0.0035734236099919155 -6.8643811266927266e-05 0 -0.0035893573151292569 -6.8011036461759674e-05 0 -0.0036005690318096613 -5.2077192738812265e-05 0 -0.0035734236099919155 -6.8643811266927266e-05 0 -0.0035729839545932136 -5.932967536667006e-05 0 -0.0035798659646823386 -5.8202901158293904e-05 0 -0.0029245964283251599 2.1660419146500493e-05 0 -0.0027171606407352827 -9.4484697607408836e-05 0 -0.0016128815231455894 -0.00025820693808180904 0 -0.0015758621029272374 -0.00018799067992703264 0 -0.0016354100099751324 -0.00017299862543540269 0 -0.0016407179613029765 -0.00020198424755074048 0 -0.0016711237293594648 -0.00016779931188350307 0 -0.0016524691525757452 -0.00014951195078764153 0 -0.0025877406713522232 -0.00011442611617114199 0 -0.0021880549112165454 -0.00022834038201320397 0 -0.0025877406713522232 -0.00011442611617114199 0 -0.0027171606407352827 -9.4484697607408836e-05 0 -0.0016407179613029765 -0.00020198424755074048 0 -0.0016711237293594648 -0.00016779931188350307 0 -0.0016671835027422368 -0.0001975387214198687 0 -0.001532030168405136 -0.0002137795355349654 0 -0.0016128815231455894 -0.00025820693808180904 0 -0.0015758621029272374 -0.00018799067992703264 0 -0.001532030168405136 -0.0002137795355349654 0 -0.0015125893914906246 -0.00026141558932703371 0 -0.0016128815231455894 -0.00025820693808180904 0 -0.0029025273644950346 -7.626629975807202e-05 0 -0.0027862905547211296 -0.00010147711066896774 0 -0.0036258056481762793 -5.6458547852727831e-05 0 -0.0036353085078680899 -6.9321397433578393e-05 0 -0.0036406996218456673 -5.9130599653966983e-05 0 -0.002644968605966675 -7.1547508725274293e-05 0 -0.0026104657770248114 -7.7764110360091084e-05 0 -0.0026391215868748624 -0.00010675015462385377 0 -0.0027862905547211296 -0.00010147711066896774 0 -0.0024240174717485127 -5.6815210412431054e-05 0 -0.0029025273644950346 -7.626629975807202e-05 0 -0.0027171606407352827 -9.4484697607408836e-05 0 -0.002644968605966675 -7.1547508725274293e-05 0 -0.0026796339071524875 -6.5395183030888521e-05 0 -0.0026391215868748624 -0.00010675015462385377 0 -0.0027171606407352827 -9.4484697607408836e-05 0 -0.0024240174717485127 -5.6815210412431054e-05 0 -0.0016711237293594648 -0.00016779931188350307 0 -0.0016671835027422368 -0.0001975387214198687 0 -0.0017191919461827668 -0.00014693434379061743 0 -0.0036258056481762793 -5.6458547852727831e-05 0 -0.0036005690318096613 -5.2077192738812265e-05 0 -0.0036198845698507229 -6.8345487223972631e-05 0 -0.0036005690318096613 -5.2077192738812265e-05 0 -0.0036006907913378725 -7.1853572072172692e-05 0 -0.0036198845698507229 -6.8345487223972631e-05 0 -0.0036006907913378725 -7.1853572072172692e-05 0 -0.0036198845698507229 -6.8345487223972631e-05 0 -0.0036178618239497097 -8.3360645107204433e-05 0 -0.0036198845698507229 -6.8345487223972631e-05 0 -0.0036353085078680899 -6.9321397433578393e-05 0 -0.0036315227900761203 -8.1541942095582573e-05 0 -0.0036258056481762793 -5.6458547852727831e-05 0 -0.0036198845698507229 -6.8345487223972631e-05 0 -0.0036353085078680899 -6.9321397433578393e-05 0 -0.0036353085078680899 -6.9321397433578393e-05 0 -0.0036315227900761203 -8.1541942095582573e-05 0 -0.0036395817814951436 -8.1938763085271092e-05 0 -0.0036315227900761203 -8.1541942095582573e-05 0 -0.0036379996632897337 -9.2726155040279978e-05 0 -0.0036395817814951436 -8.1938763085271092e-05 0 -0.0036315227900761203 -8.1541942095582573e-05 0 -0.0036379996632897337 -9.2726155040279978e-05 0 -0.0036361976121099928 -9.5638271839459466e-05 0 -0.0035977945978754628 -8.8860141316319106e-05 0 -0.0036006907913378725 -7.1853572072172692e-05 0 -0.0036178618239497097 -8.3360645107204433e-05 0 -0.0036198845698507229 -6.8345487223972631e-05 0 -0.0036315227900761203 -8.1541942095582573e-05 0 -0.0036178618239497097 -8.3360645107204433e-05 0 -0.0036315227900761203 -8.1541942095582573e-05 0 -0.0036178618239497097 -8.3360645107204433e-05 0 -0.0036361976121099928 -9.5638271839459466e-05 0 -0.0036178618239497097 -8.3360645107204433e-05 0 -0.0036361976121099928 -9.5638271839459466e-05 0 -0.0036068692702591618 -0.00010655778539415226 0 -0.0035977945978754628 -8.8860141316319106e-05 0 -0.0036178618239497097 -8.3360645107204433e-05 0 -0.0036068692702591618 -0.00010655778539415226 0 -0.0036167082395714956 -0.00015373357950481775 0 -0.0036361976121099928 -9.5638271839459466e-05 0 -0.0036068692702591618 -0.00010655778539415226 0 -0.0036549510288257704 -8.6183382028074741e-05 0 -0.0036361976121099928 -9.5638271839459466e-05 0 -0.0036517114842569429 -8.763996517358532e-05 0 -0.0036494505139760703 -0.00012366143735952073 0 -0.003649454881107018 -0.00011415362484613402 0 -0.0036167082395714956 -0.00015373357950481775 0 -0.0035879359581713339 -0.00013221489375597571 0 -0.0036068692702591618 -0.00010655778539415226 0 -0.0036379996632897337 -9.2726155040279978e-05 0 -0.0036517114842569429 -8.763996517358532e-05 0 -0.003637013487770352 -9.5447231564730535e-05 0 -0.0036379996632897337 -9.2726155040279978e-05 0 -0.0036361976121099928 -9.5638271839459466e-05 0 -0.0036517114842569429 -8.763996517358532e-05 0 -0.0036379996632897337 -9.2726155040279978e-05 0 -0.003637013487770352 -9.5447231564730535e-05 0 -0.0036449217721362362 -8.8092298919441713e-05 0 -0.0035588539966312661 -5.4747496577518237e-05 0 -0.0034839793838165687 -4.6107183448324379e-05 0 -0.003637013487770352 -9.5447231564730535e-05 0 -0.0036511216651298308 -9.3031155624166099e-05 0 -0.0036449217721362362 -8.8092298919441713e-05 0 -0.003637013487770352 -9.5447231564730535e-05 0 -0.0035490909231699675 -0.00013044044290925902 0 -0.0035887282280614692 -4.2156221381886145e-05 0 -0.0036511216651298308 -9.3031155624166099e-05 0 -0.0036449217721362362 -8.8092298919441713e-05 0 -0.0036552786763921607 -8.4666490903721663e-05 0 -0.0036449217721362362 -8.8092298919441713e-05 0 -0.0036496246582817765 -7.4020993505494371e-05 0 -0.0036552786763921607 -8.4666490903721663e-05 0 -0.0036449217721362362 -8.8092298919441713e-05 0 -0.0036395817814951436 -8.1938763085271092e-05 0 -0.0036496246582817765 -7.4020993505494371e-05 0 -0.0036379996632897337 -9.2726155040279978e-05 0 -0.0036449217721362362 -8.8092298919441713e-05 0 -0.0036395817814951436 -8.1938763085271092e-05 0 -0.0036353085078680899 -6.9321397433578393e-05 0 -0.0036395817814951436 -8.1938763085271092e-05 0 -0.0036496246582817765 -7.4020993505494371e-05 0 -0.0036353085078680899 -6.9321397433578393e-05 0 -0.0036496246582817765 -7.4020993505494371e-05 0 -0.0036406996218456673 -5.9130599653966983e-05 0 -0.0029679712745666075 -8.2958172383592102e-05 0 -0.0027862905547211296 -0.00010147711066896774 0 -0.0029679712745666075 -8.2958172383592102e-05 0 -0.0030803106154801987 -5.6086963128065668e-05 0 -0.0024793731487760167 9.683824236426934e-06 0 -0.0024592371338375053 4.5437074856804991e-05 0 -0.0024457909257625705 3.5238224826930528e-05 0 -0.0024793731487760167 9.683824236426934e-06 0 -0.0024592371338375053 4.5437074856804991e-05 0 -0.0025853848668409901 2.9321848796933356e-05 0 -0.0026294838860182377 -9.4662569731678009e-05 0 -0.0027862905547211296 -0.00010147711066896774 0 -0.0024592371338375053 4.5437074856804991e-05 0 -0.0024061758233154358 3.5261126071653646e-05 0 -0.002409432767991384 5.3481586107007903e-05 0 -0.0025079751663605733 5.8577777429873643e-08 0 -0.0025853848668409901 2.9321848796933356e-05 0 -0.0024474004186389336 3.8330603952975705e-05 0 -0.0025079751663605733 5.8577777429873643e-08 0 -0.0025853848668409901 2.9321848796933356e-05 0 -0.0027705359408557533 1.1651019679887919e-07 0 -0.0024592371338375053 4.5437074856804991e-05 0 -0.0025853848668409901 2.9321848796933356e-05 0 -0.0024474004186389336 3.8330603952975705e-05 0 -0.0024793731487760167 9.683824236426934e-06 0 -0.0025853848668409901 2.9321848796933356e-05 0 -0.0026097851532973755 -3.4762068263690453e-05 0 -0.0025853848668409901 2.9321848796933356e-05 0 -0.0027705359408557533 1.1651019679887919e-07 0 -0.0027638513877083874 -9.4391466794194486e-06 0 -0.0027705359408557533 1.1651019679887919e-07 0 -0.0027638513877083874 -9.4391466794194486e-06 0 -0.0030327629583300872 -3.422287114618788e-07 0 -0.0025853848668409901 2.9321848796933356e-05 0 -0.0027638513877083874 -9.4391466794194486e-06 0 -0.0026097851532973755 -3.4762068263690453e-05 0 -0.0027638513877083874 -9.4391466794194486e-06 0 -0.0026097851532973755 -3.4762068263690453e-05 0 -0.0028263713701336857 -8.8516025089118775e-05 0 -0.0030803106154801987 -5.6086963128065668e-05 0 -0.0031558343466483178 -1.4274242514658758e-05 0 -0.0034839793838165687 -4.6107183448324379e-05 0 -0.0031558343466483178 -1.4274242514658758e-05 0 -0.0035490909231699675 -0.00013044044290925902 0 -0.0033355808808147058 -0.00017337230505773131 0 -0.0033720175323478387 -4.3786603706787263e-05 0 -0.0036511216651298308 -9.3031155624166099e-05 0 -0.0036552786763921607 -8.4666490903721663e-05 0 -0.0036600789211030695 -9.1640453096555945e-05 0 -0.0030333837172082392 -8.2606134053587263e-08 0 -0.0031558343466483178 -1.4274242514658758e-05 0 -0.0027638513877083874 -9.4391466794194486e-06 0 -0.0030327629583300872 -3.422287114618788e-07 0 -0.0028263713701336857 -8.8516025089118775e-05 0 -0.0033355808808147058 -0.00017337230505773131 0 -0.0031498532727765143 -3.7384047997271989e-07 0 -0.0033720175323478387 -4.3786603706787263e-05 0 -0.0030334845534527493 4.5716967424487686e-11 0 -0.0030393559523185362 7.1389602819635248e-08 0 -0.0031490976265194101 1.2277749026663115e-10 0 -0.0031558343466483178 -1.4274242514658758e-05 0 -0.0031494233062896032 -2.6486536711307516e-08 0 -0.0033720175323478387 -4.3786603706787263e-05 0 -0.0033276004765792392 1.374271823079906e-07 0 -0.0034753486743443912 -1.7341444750702035e-05 0 -0.0031498532727765143 -3.7384047997271989e-07 0 -0.0033720175323478387 -4.3786603706787263e-05 0 -0.0033276004765792392 1.374271823079906e-07 0 -0.0033276004765792392 1.374271823079906e-07 0 -0.003500414967281438 1.7570851809208448e-05 0 -0.0034753486743443912 -1.7341444750702035e-05 0 -0.0033276004765792392 1.374271823079906e-07 0 -0.003500414967281438 1.7570851809208448e-05 0 -0.0035055939170998049 3.1424034338581431e-08 0 -0.003500414967281438 1.7570851809208448e-05 0 -0.0034753486743443912 -1.7341444750702035e-05 0 -0.003553763628305675 1.9692831814037893e-06 0 -0.003500414967281438 1.7570851809208448e-05 0 -0.003553763628305675 1.9692831814037893e-06 0 -0.0035964328096818269 2.1504959968960504e-05 0 -0.0035490909231699675 -0.00013044044290925902 0 -0.0033720175323478387 -4.3786603706787263e-05 0 -0.0034753486743443912 -1.7341444750702035e-05 0 -0.0035490909231699675 -0.00013044044290925902 0 -0.0034753486743443912 -1.7341444750702035e-05 0 -0.0035887282280614692 -4.2156221381886145e-05 0 -0.003637013487770352 -9.5447231564730535e-05 0 -0.0035887282280614692 -4.2156221381886145e-05 0 -0.0036396110126400471 -4.903186871878072e-05 0 -0.0035887282280614692 -4.2156221381886145e-05 0 -0.0036396110126400471 -4.903186871878072e-05 0 -0.0036299977604996527 1.4117067991463446e-05 0 -0.0035887282280614692 -4.2156221381886145e-05 0 -0.0036299977604996527 1.4117067991463446e-05 0 -0.003553763628305675 1.9692831814037893e-06 0 -0.0034753486743443912 -1.7341444750702035e-05 0 -0.0035887282280614692 -4.2156221381886145e-05 0 -0.003553763628305675 1.9692831814037893e-06 0 -0.0035964328096818269 2.1504959968960504e-05 0 -0.0036421676527485509 1.9868941735623589e-05 0 -0.0036478873986844967 1.9036134809525737e-05 0 -0.0036299977604996527 1.4117067991463446e-05 0 -0.0035964328096818269 2.1504959968960504e-05 0 -0.0036421676527485509 1.9868941735623589e-05 0 -0.0036299977604996527 1.4117067991463446e-05 0 -0.003553763628305675 1.9692831814037893e-06 0 -0.0035964328096818269 2.1504959968960504e-05 0 -0.0036319829064401228 1.2371256076947798e-05 0 -0.0036299977604996527 1.4117067991463446e-05 0 -0.0036421676527485509 1.9868941735623589e-05 0 -0.0036319829064401228 1.2371256076947798e-05 0 -0.0036421676527485509 1.9868941735623589e-05 0 -0.0036670698927644975 1.0103854762197225e-05 0 -0.0036944779792416724 6.6695896480175109e-06 0 -0.0036670698927644975 1.0103854762197225e-05 0 -0.0036478873986844967 1.9036134809525737e-05 0 -0.0036421676527485509 1.9868941735623589e-05 0 -0.0036670698927644975 1.0103854762197225e-05 0 -0.0036478873986844967 1.9036134809525737e-05 0 -0.0036311407995355759 1.8237900440854967e-05 0 -0.0036249875444388604 2.5061848588065843e-05 0 -0.0035659948546326609 1.3512256202380412e-05 0 -0.0036944779792416724 6.6695896480175109e-06 0 -0.0036478873986844967 1.9036134809525737e-05 0 -0.0036311407995355759 1.8237900440854967e-05 0 -0.0036861624890311942 5.0887176204414126e-06 0 -0.0036944779792416724 6.6695896480175109e-06 0 -0.0036311407995355759 1.8237900440854967e-05 0 -0.0035964328096818269 2.1504959968960504e-05 0 -0.0036478873986844967 1.9036134809525737e-05 0 -0.0036311407995355759 1.8237900440854967e-05 0 -0.0036861624890311942 5.0887176204414126e-06 0 -0.0036311407995355759 1.8237900440854967e-05 0 -0.0036249875444388604 2.5061848588065843e-05 0 -0.0036249875444388604 2.5061848588065843e-05 0 -0.0035055939170998049 3.1424034338581431e-08 0 -0.0035659948546326609 1.3512256202380412e-05 0 -0.0037790394797700775 -1.2259603795669666e-08 0 -0.0038086258009398227 -1.7060846266975376e-05 0 -0.003505865637662019 -7.3136257135987229e-08 0 -0.0036774669668431263 2.2933452516838175e-05 0 -0.0035060763443085907 -1.4238919033204747e-09 0 -0.003500414967281438 1.7570851809208448e-05 0 -0.0035055939170998049 3.1424034338581431e-08 0 -0.0035659948546326609 1.3512256202380412e-05 0 -0.003500414967281438 1.7570851809208448e-05 0 -0.0035964328096818269 2.1504959968960504e-05 0 -0.0035659948546326609 1.3512256202380412e-05 0 -0.0035964328096818269 2.1504959968960504e-05 0 -0.0036311407995355759 1.8237900440854967e-05 0 -0.0035659948546326609 1.3512256202380412e-05 0 -0.001266951858343063 -1.6438968284573955e-05 0 -0.001226028402953197 -3.938351570552282e-05 0 -0.0011755595699048638 -1.6966295589451604e-05 0 -0.001266951858343063 -1.6438968284573955e-05 0 -0.001226028402953197 -3.938351570552282e-05 0 -0.0013661497799778747 -2.8943187197012446e-05 0 -0.001226028402953197 -3.938351570552282e-05 0 -0.0011755595699048638 -1.6966295589451604e-05 0 -0.0011407147970070274 -4.5353168582768843e-05 0 -0.001226028402953197 -3.938351570552282e-05 0 -0.0011407147970070274 -4.5353168582768843e-05 0 -0.0012220769534570376 -0.00010230102191268396 0 -0.001226028402953197 -3.938351570552282e-05 0 -0.0013661497799778747 -2.8943187197012446e-05 0 -0.0012220769534570376 -0.00010230102191268396 0 -0.001266951858343063 -1.6438968284573955e-05 0 -0.0013661497799778747 -2.8943187197012446e-05 0 -0.0013803502659800405 1.0736804197867301e-07 0 -0.0013661497799778747 -2.8943187197012446e-05 0 -0.0013803502659800405 1.0736804197867301e-07 0 -0.0016626805742183904 -3.9771739323049038e-07 0 -0.001266951858343063 -1.6438968284573955e-05 0 -0.0013803502659800405 1.0736804197867301e-07 0 -0.0011623637949833342 2.8339074283174193e-07 0 -0.0013803502659800405 1.0736804197867301e-07 0 -0.0011623637949833342 2.8339074283174193e-07 0 -0.0011090480562817577 6.3815827425305123e-07 0 -0.001266951858343063 -1.6438968284573955e-05 0 -0.0011623637949833342 2.8339074283174193e-07 0 -0.0011755595699048638 -1.6966295589451604e-05 0 -0.0011623637949833342 2.8339074283174193e-07 0 -0.0011755595699048638 -1.6966295589451604e-05 0 -0.0011158505007370448 -1.2901079424434027e-05 0 -0.0011623637949833342 2.8339074283174193e-07 0 -0.0011158505007370448 -1.2901079424434027e-05 0 -0.0010852877741627852 -2.3751792416579846e-06 0 -0.0011158505007370448 -1.2901079424434027e-05 0 -0.0010764471678786725 -3.523147034789193e-05 0 -0.0010705358496025242 -1.3337129184750411e-05 0 -0.0011158505007370448 -1.2901079424434027e-05 0 -0.0010764471678786725 -3.523147034789193e-05 0 -0.0011407147970070274 -4.5353168582768843e-05 0 -0.0011755595699048638 -1.6966295589451604e-05 0 -0.0011158505007370448 -1.2901079424434027e-05 0 -0.0011407147970070274 -4.5353168582768843e-05 0 -0.0010764471678786725 -3.523147034789193e-05 0 -0.0010215173950034082 -5.5190912081474839e-05 0 -0.0010252245957959546 -3.3778877977652387e-05 0 -0.0010764471678786725 -3.523147034789193e-05 0 -0.0010252245957959546 -3.3778877977652387e-05 0 -0.0010705358496025242 -1.3337129184750411e-05 0 -0.0014887327503945592 4.2893486840211906e-05 0 -0.0013740813474356873 0.00011060481371495913 0 -0.0010764471678786725 -3.523147034789193e-05 0 -0.0011023794069508273 -7.6880338715066163e-05 0 -0.0010215173950034082 -5.5190912081474839e-05 0 -0.0015259533121811948 8.1823812355925278e-05 0 -0.0015106881219648647 8.9218928656142611e-05 0 -0.0015143066174809971 0.00010684449134770084 0 -0.0015400295706907061 9.3231427179031408e-05 0 -0.0015259533121811948 8.1823812355925278e-05 0 -0.0015143066174809971 0.00010684449134770084 0 -0.0014887327503945592 4.2893486840211906e-05 0 -0.0015792601520098078 6.2396099921146542e-05 0 -0.0014561164281699066 2.2204571677308359e-05 0 -0.0014887327503945592 4.2893486840211906e-05 0 -0.0010764471678786725 -3.523147034789193e-05 0 -0.0011407147970070274 -4.5353168582768843e-05 0 -0.0011023794069508273 -7.6880338715066163e-05 0 -0.0011407147970070274 -4.5353168582768843e-05 0 -0.0011044281021617838 -7.5320406773588544e-05 0 -0.0012220769534570376 -0.00010230102191268396 0 -0.0017948906324013879 -1.3462851861744836e-05 0 -0.0017894247689043434 -8.2172574136019944e-06 0 -0.0017829808590051591 -9.1249686630302156e-06 0 -0.0014887327503945592 4.2893486840211906e-05 0 -0.0015574618191147528 2.1367655598776453e-05 0 -0.0017934257105096817 -6.8844121720329015e-06 0 -0.0018005668765761484 -4.4049607065215255e-06 0 -0.0017860509159291257 -2.2290355444344995e-06 0 -0.0018005668765761484 -4.4049607065215255e-06 0 -0.0018071833070667615 -8.6399700062541659e-06 0 -0.0018145637688493079 -8.4981836191765845e-06 0 -0.0017696345207269711 -5.0230992889915698e-07 0 -0.0017494196159911913 3.6284838376880533e-07 0 -0.0017894247689043434 -8.2172574136019944e-06 0 -0.0017934257105096817 -6.8844121720329015e-06 0 -0.0017860509159291257 -2.2290355444344995e-06 0 -0.0017948906324013879 -1.3462851861744836e-05 0 -0.0017894247689043434 -8.2172574136019944e-06 0 -0.0017934257105096817 -6.8844121720329015e-06 0 -0.0017948906324013879 -1.3462851861744836e-05 0 -0.0017934257105096817 -6.8844121720329015e-06 0 -0.0018014172488807028 -5.8933156400162621e-06 0 -0.0018014172488807028 -5.8933156400162621e-06 0 -0.0018005668765761484 -4.4049607065215255e-06 0 -0.0017986477044083851 -5.0659512043850145e-06 0 -0.0017934257105096817 -6.8844121720329015e-06 0 -0.0018014172488807028 -5.8933156400162621e-06 0 -0.0018005668765761484 -4.4049607065215255e-06 0 -0.0015792601520098078 6.2396099921146542e-05 0 -0.0016275159580574304 6.6103085113807116e-05 0 -0.0018005668765761484 -4.4049607065215255e-06 0 -0.0017954420568035302 -9.1100648849537747e-06 0 -0.0017986477044083851 -5.0659512043850145e-06 0 -0.0017088267416155651 8.3849492359432515e-09 0 -0.0016275159580574304 6.6103085113807116e-05 0 -0.0017954420568035302 -9.1100648849537747e-06 0 -0.0017435711356786219 1.5901148841942036e-05 0 -0.0017398664269157543 7.4832298420950404e-05 0 -0.0018005668765761484 -4.4049607065215255e-06 0 -0.0018071833070667615 -8.6399700062541659e-06 0 -0.0017954420568035302 -9.1100648849537747e-06 0 -0.0018071833070667615 -8.6399700062541659e-06 0 -0.0018148720309105377 -1.1204211876232611e-05 0 -0.0018145637688493079 -8.4981836191765845e-06 0 -0.0018071833070667615 -8.6399700062541659e-06 0 -0.0018111103339823662 -1.2657731277255116e-05 0 -0.0017954420568035302 -9.1100648849537747e-06 0 -0.0018071833070667615 -8.6399700062541659e-06 0 -0.0018148720309105377 -1.1204211876232611e-05 0 -0.0018111103339823662 -1.2657731277255116e-05 0 -0.0018148720309105377 -1.1204211876232611e-05 0 -0.0018214089443134118 -1.1792688765341399e-05 0 -0.0018111103339823662 -1.2657731277255116e-05 0 -0.0018176264229634617 -1.4769818398144005e-05 0 -0.0018148720309105377 -1.1204211876232611e-05 0 -0.0018214089443134118 -1.1792688765341399e-05 0 -0.0018176264229634617 -1.4769818398144005e-05 0 -0.0018148720309105377 -1.1204211876232611e-05 0 -0.0018145637688493079 -8.4981836191765845e-06 0 -0.0017494196159911913 3.6284838376880533e-07 0 -0.0016662725311653204 4.1822226982027402e-06 0 -0.0017860509159291257 -2.2290355444344995e-06 0 -0.0017829808590051591 -9.1249686630302156e-06 0 -0.0017679052537872123 -1.9806051522267369e-06 0 -0.0018176264229634617 -1.4769818398144005e-05 0 -0.0018145637688493079 -8.4981836191765845e-06 0 -0.0018189867860859312 -3.1667486845652171e-05 0 -0.0013661497799778747 -2.8943187197012446e-05 0 -0.0012220769534570376 -0.00010230102191268396 0 -0.0014348541133758596 -0.0001117694547461873 0 -0.0015574618191147528 2.1367655598776453e-05 0 -0.0016662725311653204 4.1822226982027402e-06 0 -0.0017894247689043434 -8.2172574136019944e-06 0 -0.0017860509159291257 -2.2290355444344995e-06 0 -0.0017829808590051591 -9.1249686630302156e-06 0 -0.0013661497799778747 -2.8943187197012446e-05 0 -0.0014348541133758596 -0.0001117694547461873 0 -0.0016626805742183904 -3.9771739323049038e-07 0 -0.0016662725311653204 4.1822226982027402e-06 0 -0.0017201805182474165 -2.7840874465907125e-08 0 -0.0016618520392832688 9.8710576769892783e-08 0 -0.0016634517670620582 -9.8813090148585283e-11 0 -0.0017199648022412906 1.9693938714681782e-10 0 -0.0016662725311653204 4.1822226982027402e-06 0 -0.0016630746735802884 1.4396867065561236e-08 0 -0.0018189867860859312 -3.1667486845652171e-05 0 -0.0017988342074978722 -1.0614486136417844e-05 0 -0.0017207061497519658 -2.2014665842844281e-07 0 -0.0017988342074978722 -1.0614486136417844e-05 0 -0.0017207061497519658 -2.2014665842844281e-07 0 -0.0019828960148317943 3.5823160735622982e-08 0 -0.0018176264229634617 -1.4769818398144005e-05 0 -0.0017988342074978722 -1.0614486136417844e-05 0 -0.0018214089443134118 -1.1792688765341399e-05 0 -0.00200146968169672 -3.5157157846122738e-05 0 -0.0020422892542188878 -3.4197839793586889e-05 0 -0.0018176264229634617 -1.4769818398144005e-05 0 -0.0018189867860859312 -3.1667486845652171e-05 0 -0.0017988342074978722 -1.0614486136417844e-05 0 -0.0017988342074978722 -1.0614486136417844e-05 0 -0.0019828960148317943 3.5823160735622982e-08 0 -0.0021343666930404787 -4.6526931166264593e-05 0 -0.0019828960148317943 3.5823160735622982e-08 0 -0.0021343666930404787 -4.6526931166264593e-05 0 -0.0022277757300892482 1.9044483457209127e-05 0 -0.0020422892542188878 -3.4197839793586889e-05 0 -0.0021101566011745439 -4.9614033110253434e-05 0 -0.0021343666930404787 -4.6526931166264593e-05 0 -0.0022277757300892482 1.9044483457209127e-05 0 -0.0023361638392139709 -5.6201269222105155e-06 0 -0.0019828960148317943 3.5823160735622982e-08 0 -0.0022277757300892482 1.9044483457209127e-05 0 -0.0022455026242922654 7.5205573836939707e-08 0 -0.0022455026242922654 7.5205573836939707e-08 0 -0.0023416445866620401 3.5272733664048049e-05 0 -0.0024474004186389336 3.8330603952975705e-05 0 -0.0022277757300892482 1.9044483457209127e-05 0 -0.0022455026242922654 7.5205573836939707e-08 0 -0.0023416445866620401 3.5272733664048049e-05 0 -0.0022277757300892482 1.9044483457209127e-05 0 -0.0023416445866620401 3.5272733664048049e-05 0 -0.0023620376540430615 3.6888898755299062e-05 0 -0.0024592371338375053 4.5437074856804991e-05 0 -0.0024474004186389336 3.8330603952975705e-05 0 -0.0024003931701837345 5.3976714255533556e-05 0 -0.0023416445866620401 3.5272733664048049e-05 0 -0.0024474004186389336 3.8330603952975705e-05 0 -0.0024003931701837345 5.3976714255533556e-05 0 -0.0025079751663605733 5.8577777429873643e-08 0 -0.0022455026242922654 7.5205573836939707e-08 0 -0.0024474004186389336 3.8330603952975705e-05 0 -0.002409432767991384 5.3481586107007903e-05 0 -0.0024078181611419036 4.5357351075191792e-05 0 -0.0024029009933645303 5.1556846543962045e-05 0 -0.002409432767991384 5.3481586107007903e-05 0 -0.0024003931701837345 5.3976714255533556e-05 0 -0.0024078181611419036 4.5357351075191792e-05 0 -0.0024061758233154358 3.5261126071653646e-05 0 -0.002409432767991384 5.3481586107007903e-05 0 -0.0024029009933645303 5.1556846543962045e-05 0 -0.0024592371338375053 4.5437074856804991e-05 0 -0.002409432767991384 5.3481586107007903e-05 0 -0.0024003931701837345 5.3976714255533556e-05 0 -0.0023416445866620401 3.5272733664048049e-05 0 -0.0024003931701837345 5.3976714255533556e-05 0 -0.0023620376540430615 3.6888898755299062e-05 0 -0.0024003931701837345 5.3976714255533556e-05 0 -0.0023620376540430615 3.6888898755299062e-05 0 -0.0024078181611419036 4.5357351075191792e-05 0 -0.0023620376540430615 3.6888898755299062e-05 0 -0.0024078181611419036 4.5357351075191792e-05 0 -0.0023361638392139709 -5.6201269222105155e-06 0 -0.0017734887912607348 -9.6042950226004516e-05 0 -0.0017749319862928057 -4.5498914053007007e-05 0 -0.0017464177981512941 -6.440876663747686e-05 0 -0.0017734887912607348 -9.6042950226004516e-05 0 -0.0017749319862928057 -4.5498914053007007e-05 0 -0.0018131234932518966 -4.18425711800073e-05 0 -0.0022016110966581672 -7.7969034724380135e-05 0 -0.0021101566011745439 -4.9614033110253434e-05 0 -0.0022277757300892482 1.9044483457209127e-05 0 -0.0023620376540430615 3.6888898755299062e-05 0 -0.0023361638392139709 -5.6201269222105155e-06 0 -0.0018214089443134118 -1.1792688765341399e-05 0 -0.0018131234932518966 -4.18425711800073e-05 0 -0.0018111103339823662 -1.2657731277255116e-05 0 -0.0018131234932518966 -4.18425711800073e-05 0 -0.0018111103339823662 -1.2657731277255116e-05 0 -0.0017954420568035302 -9.1100648849537747e-06 0 -0.0017749319862928057 -4.5498914053007007e-05 0 -0.0017954420568035302 -9.1100648849537747e-06 0 -0.0017435711356786219 1.5901148841942036e-05 0 -0.0017749319862928057 -4.5498914053007007e-05 0 -0.0018131234932518966 -4.18425711800073e-05 0 -0.0017954420568035302 -9.1100648849537747e-06 0 -0.001711193408303571 4.481679214879958e-06 0 -0.0017236243135362653 -3.3807973999313105e-05 0 -0.0017435711356786219 1.5901148841942036e-05 0 -0.0017749319862928057 -4.5498914053007007e-05 0 -0.0017236243135362653 -3.3807973999313105e-05 0 -0.0017435711356786219 1.5901148841942036e-05 0 -0.001711193408303571 4.481679214879958e-06 0 -0.0016866311767983731 -8.3938193392021308e-06 0 -0.0017236243135362653 -3.3807973999313105e-05 0 -0.0016866311767983731 -8.3938193392021308e-06 0 -0.0016351095046439647 3.108328381714974e-06 0 -0.0016896147455510698 3.5646302589570192e-05 0 -0.0016429135411465295 4.8985521445500975e-05 0 -0.001649711248675987 6.1198827323648343e-05 0 -0.001711193408303571 4.481679214879958e-06 0 -0.0016866311767983731 -8.3938193392021308e-06 0 -0.0016896147455510698 3.5646302589570192e-05 0 -0.0016866311767983731 -8.3938193392021308e-06 0 -0.0016844153355739491 -4.2655395438064554e-05 0 -0.0017236243135362653 -3.3807973999313105e-05 0 -0.0016866311767983731 -8.3938193392021308e-06 0 -0.0016844153355739491 -4.2655395438064554e-05 0 -0.0016351095046439647 3.108328381714974e-06 0 -0.0016844153355739491 -4.2655395438064554e-05 0 -0.0017126429177019029 -8.1429633965534606e-05 0 -0.0016584206194779638 -8.9661191728324116e-05 0 -0.0016844153355739491 -4.2655395438064554e-05 0 -0.0016584206194779638 -8.9661191728324116e-05 0 -0.0016351095046439647 3.108328381714974e-06 0 -0.0017749319862928057 -4.5498914053007007e-05 0 -0.0017236243135362653 -3.3807973999313105e-05 0 -0.0017464177981512941 -6.440876663747686e-05 0 -0.0016844153355739491 -4.2655395438064554e-05 0 -0.0017236243135362653 -3.3807973999313105e-05 0 -0.0017126429177019029 -8.1429633965534606e-05 0 -0.0017236243135362653 -3.3807973999313105e-05 0 -0.0017464177981512941 -6.440876663747686e-05 0 -0.0017126429177019029 -8.1429633965534606e-05 0 -0.0022016110966581672 -7.7969034724380135e-05 0 -0.0024240174717485127 -5.6815210412431054e-05 0 -0.0017734887912607348 -9.6042950226004516e-05 0 -0.0017214764209493773 -0.00011526226148694964 0 -0.0017219592227854148 -0.00014943711738228557 0 -0.0017734887912607348 -9.6042950226004516e-05 0 -0.0017464177981512941 -6.440876663747686e-05 0 -0.0017126429177019029 -8.1429633965534606e-05 0 -0.0017734887912607348 -9.6042950226004516e-05 0 -0.0017214764209493773 -0.00011526226148694964 0 -0.0017126429177019029 -8.1429633965534606e-05 0 -0.0017214764209493773 -0.00011526226148694964 0 -0.0017126429177019029 -8.1429633965534606e-05 0 -0.0016903712601714013 -0.00011290435148434688 0 -0.0017214764209493773 -0.00011526226148694964 0 -0.0016903712601714013 -0.00011290435148434688 0 -0.00170965118440231 -0.00013730051958733098 0 -0.0017126429177019029 -8.1429633965534606e-05 0 -0.0016584206194779638 -8.9661191728324116e-05 0 -0.0016903712601714013 -0.00011290435148434688 0 -0.0016584206194779638 -8.9661191728324116e-05 0 -0.0016903712601714013 -0.00011290435148434688 0 -0.0016796488998303087 -0.00014231635122722238 0 -0.0016711237293594648 -0.00016779931188350307 0 -0.0016796488998303087 -0.00014231635122722238 0 -0.0017191919461827668 -0.00014693434379061743 0 -0.0016796488998303087 -0.00014231635122722238 0 -0.0017191919461827668 -0.00014693434379061743 0 -0.00170965118440231 -0.00013730051958733098 0 -0.0016584206194779638 -8.9661191728324116e-05 0 -0.0016796488998303087 -0.00014231635122722238 0 -0.0016524691525757452 -0.00014951195078764153 0 -0.0016903712601714013 -0.00011290435148434688 0 -0.0016796488998303087 -0.00014231635122722238 0 -0.00170965118440231 -0.00013730051958733098 0 -0.0016711237293594648 -0.00016779931188350307 0 -0.0016796488998303087 -0.00014231635122722238 0 -0.0016524691525757452 -0.00014951195078764153 0 -0.0017214764209493773 -0.00011526226148694964 0 -0.0017219592227854148 -0.00014943711738228557 0 -0.00170965118440231 -0.00013730051958733098 0 -0.0024240174717485127 -5.6815210412431054e-05 0 -0.002405441585933271 -4.7313357736502475e-05 0 -0.001532030168405136 -0.0002137795355349654 0 -0.0015758621029272374 -0.00018799067992703264 0 -0.0015263165766557524 -0.00014747341578859232 0 -0.0015839888018303557 -0.00014492090595199169 0 -0.0015758621029272374 -0.00018799067992703264 0 -0.0015263165766557524 -0.00014747341578859232 0 -0.0015839888018303557 -0.00014492090595199169 0 -0.0015758621029272374 -0.00018799067992703264 0 -0.0016354100099751324 -0.00017299862543540269 0 -0.0020845151159049283 -0.00021809628452134757 0 -0.0021880549112165454 -0.00022834038201320397 0 -0.0016584206194779638 -8.9661191728324116e-05 0 -0.0015839888018303557 -0.00014492090595199169 0 -0.0015534072916228317 -9.1754656295467491e-05 0 -0.0016584206194779638 -8.9661191728324116e-05 0 -0.0015839888018303557 -0.00014492090595199169 0 -0.0016354100099751324 -0.00017299862543540269 0 -0.0015839888018303557 -0.00014492090595199169 0 -0.0015534072916228317 -9.1754656295467491e-05 0 -0.0015263165766557524 -0.00014747341578859232 0 -0.0015534072916228317 -9.1754656295467491e-05 0 -0.0015791022194261957 -3.3307813858336258e-05 0 -0.0014985729760849261 -1.2873506373828629e-05 0 -0.0016584206194779638 -8.9661191728324116e-05 0 -0.0015534072916228317 -9.1754656295467491e-05 0 -0.0015791022194261957 -3.3307813858336258e-05 0 -0.0016584206194779638 -8.9661191728324116e-05 0 -0.0015791022194261957 -3.3307813858336258e-05 0 -0.0016351095046439647 3.108328381714974e-06 0 -0.0015791022194261957 -3.3307813858336258e-05 0 -0.0016351095046439647 3.108328381714974e-06 0 -0.0015601313989305773 3.1971357118820792e-05 0 -0.0015791022194261957 -3.3307813858336258e-05 0 -0.0015601313989305773 3.1971357118820792e-05 0 -0.0014985729760849261 -1.2873506373828629e-05 0 -0.0015601313989305773 3.1971357118820792e-05 0 -0.0015629867133974658 0.00012557619131907749 0 -0.0016117762618233222 7.2631307566237035e-05 0 -0.0015601313989305773 3.1971357118820792e-05 0 -0.0015629867133974658 0.00012557619131907749 0 -0.0015107176680317701 8.1696167203633519e-05 0 -0.0015629867133974658 0.00012557619131907749 0 -0.0016332204762079872 0.00012195947352921466 0 -0.0015967214243549342 0.00019389277675135191 0 -0.0015629867133974658 0.00012557619131907749 0 -0.0016332204762079872 0.00012195947352921466 0 -0.0016117762618233222 7.2631307566237035e-05 0 -0.0016351095046439647 3.108328381714974e-06 0 -0.0016117762618233222 7.2631307566237035e-05 0 -0.0016515936305484251 6.7326440740486153e-05 0 -0.0016351095046439647 3.108328381714974e-06 0 -0.0015601313989305773 3.1971357118820792e-05 0 -0.0016117762618233222 7.2631307566237035e-05 0 -0.0016332204762079872 0.00012195947352921466 0 -0.0016117762618233222 7.2631307566237035e-05 0 -0.0016515936305484251 6.7326440740486153e-05 0 -0.0016351095046439647 3.108328381714974e-06 0 -0.0016888748902584691 5.1322443145762152e-05 0 -0.0016515936305484251 6.7326440740486153e-05 0 -0.0016888748902584691 5.1322443145762152e-05 0 -0.0016884402369443997 8.7264846500279388e-05 0 -0.0016515936305484251 6.7326440740486153e-05 0 -0.001711193408303571 4.481679214879958e-06 0 -0.0016896147455510698 3.5646302589570192e-05 0 -0.0017435711356786219 1.5901148841942036e-05 0 -0.0016896147455510698 3.5646302589570192e-05 0 -0.0017435711356786219 1.5901148841942036e-05 0 -0.0017398664269157543 7.4832298420950404e-05 0 -0.001649711248675987 6.1198827323648343e-05 0 -0.0016275159580574304 6.6103085113807116e-05 0 -0.0016888748902584691 5.1322443145762152e-05 0 -0.0016884402369443997 8.7264846500279388e-05 0 -0.0017435813203861283 9.6786847051356931e-05 0 -0.0015259533121811948 8.1823812355925278e-05 0 -0.00151186513034432 7.0309918341955046e-05 0 -0.0015106881219648647 8.9218928656142611e-05 0 -0.00151186513034432 7.0309918341955046e-05 0 -0.0014905887999549241 9.7917986332976358e-05 0 -0.0015106881219648647 8.9218928656142611e-05 0 -0.0016275159580574304 6.6103085113807116e-05 0 -0.0015601064117737496 0.00014773703783653298 0 -0.0016884402369443997 8.7264846500279388e-05 0 -0.0017435813203861283 9.6786847051356931e-05 0 -0.0016793704439806102 0.00017989997405351991 0 -0.0015901958927265405 0.00012519627424811632 0 -0.0015601064117737496 0.00014773703783653298 0 -0.0016332204762079872 0.00012195947352921466 0 -0.0016884402369443997 8.7264846500279388e-05 0 -0.0016779625553144163 0.00018576432012014604 0 -0.0016332204762079872 0.00012195947352921466 0 -0.0016884402369443997 8.7264846500279388e-05 0 -0.0016515936305484251 6.7326440740486153e-05 0 -0.0014905887999549241 9.7917986332976358e-05 0 -0.0015106881219648647 8.9218928656142611e-05 0 -0.0015143066174809971 0.00010684449134770084 0 -0.0013740813474356873 0.00011060481371495913 0 -0.0014273724127632636 0.00016403165848513342 0 -0.0014905887999549241 9.7917986332976358e-05 0 -0.0015143066174809971 0.00010684449134770084 0 -0.0014883670281889833 0.0001205146069228151 0 -0.0010215173950034082 -5.5190912081474839e-05 0 -0.00098474736978814586 -4.3012229389178958e-05 0 -0.0010252245957959546 -3.3778877977652387e-05 0 -0.0016766467536512804 0.0001827064337326508 0 -0.0016701612885085424 0.00025738266003364786 0 -0.0016165261517402092 0.00026163947096096655 0 -0.0015601064117737496 0.00014773703783653298 0 -0.0015715486363201768 0.0001738305541210819 0 -0.0015601064117737496 0.00014773703783653298 0 -0.0014273724127632636 0.00016403165848513342 0 -0.0016779625553144163 0.00018576432012014604 0 -0.0016165261517402092 0.00026163947096096655 0 -0.0015967214243549342 0.00019389277675135191 0 -0.0016165261517402092 0.00026163947096096655 0 -0.0015620846572561463 0.00025491036212247747 0 -0.0015967214243549342 0.00019389277675135191 0 -0.0015266917989664713 0.00021119937767236102 0 -0.0015620846572561463 0.00025491036212247747 0 -0.001502234197967151 0.00028646368657807048 0 -0.0015266917989664713 0.00021119937767236102 0 -0.0015620846572561463 0.00025491036212247747 0 -0.0015967214243549342 0.00019389277675135191 0 -0.0015629867133974658 0.00012557619131907749 0 -0.0015266917989664713 0.00021119937767236102 0 -0.0014810330983082956 0.00014640964056082472 0 -0.0015629867133974658 0.00012557619131907749 0 -0.0015266917989664713 0.00021119937767236102 0 -0.0015967214243549342 0.00019389277675135191 0 -0.0016332204762079872 0.00012195947352921466 0 -0.0016779625553144163 0.00018576432012014604 0 -0.0015967214243549342 0.00019389277675135191 0 -0.0014577323048813571 0.00022331068861602271 0 -0.0013850961313669325 0.00023424060436505321 0 -0.0013851411090909534 0.00016223795595756232 0 -0.0014577323048813571 0.00022331068861602271 0 -0.0013851411090909534 0.00016223795595756232 0 -0.0014810330983082956 0.00014640964056082472 0 -0.0015266917989664713 0.00021119937767236102 0 -0.0014577323048813571 0.00022331068861602271 0 -0.0014810330983082956 0.00014640964056082472 0 -0.0015266917989664713 0.00021119937767236102 0 -0.0014577323048813571 0.00022331068861602271 0 -0.001502234197967151 0.00028646368657807048 0 -0.0014577323048813571 0.00022331068861602271 0 -0.0013850961313669325 0.00023424060436505321 0 -0.0014288884144003447 0.00029517626400433523 0 -0.0013850961313669325 0.00023424060436505321 0 -0.0013178356104875907 0.00026140714217347076 0 -0.0013688992059911187 0.00029374411533785501 0 -0.0013850961313669325 0.00023424060436505321 0 -0.0013178356104875907 0.00026140714217347076 0 -0.0012987785553754904 0.00017258050388932743 0 -0.0013178356104875907 0.00026140714217347076 0 -0.0012987785553754904 0.00017258050388932743 0 -0.0012590715078133737 0.00024081244132812088 0 -0.0013850961313669325 0.00023424060436505321 0 -0.0012987785553754904 0.00017258050388932743 0 -0.0013851411090909534 0.00016223795595756232 0 -0.0013851411090909534 0.00016223795595756232 0 -0.0013304235545524845 0.00010182850261853351 0 -0.001434788622813111 8.7106902663781913e-05 0 -0.0012987785553754904 0.00017258050388932743 0 -0.0013304235545524845 0.00010182850261853351 0 -0.0012379801264508345 0.00010430443027696492 0 -0.0012987785553754904 0.00017258050388932743 0 -0.0013851411090909534 0.00016223795595756232 0 -0.0013304235545524845 0.00010182850261853351 0 -0.0013304235545524845 0.00010182850261853351 0 -0.0013559660333063986 3.2317524605028312e-05 0 -0.0012575108763401555 2.8414517072216362e-05 0 -0.0013304235545524845 0.00010182850261853351 0 -0.001434788622813111 8.7106902663781913e-05 0 -0.0013559660333063986 3.2317524605028312e-05 0 -0.0013851411090909534 0.00016223795595756232 0 -0.0014410793150037449 7.2974958545545058e-05 0 -0.0014810330983082956 0.00014640964056082472 0 -0.0014195129694393666 0.00011381785695042033 0 -0.001445515843170164 7.2261655675614556e-05 0 -0.0014410793150037449 7.2974958545545058e-05 0 -0.0014810330983082956 0.00014640964056082472 0 -0.0015107176680317701 8.1696167203633519e-05 0 -0.0015629867133974658 0.00012557619131907749 0 -0.0014810330983082956 0.00014640964056082472 0 -0.0015107176680317701 8.1696167203633519e-05 0 -0.0015601313989305773 3.1971357118820792e-05 0 -0.0015107176680317701 8.1696167203633519e-05 0 -0.0014985729760849261 -1.2873506373828629e-05 0 -0.0014410793150037449 7.2974958545545058e-05 0 -0.0015107176680317701 8.1696167203633519e-05 0 -0.0014985729760849261 -1.2873506373828629e-05 0 -0.001445515843170164 7.2261655675614556e-05 0 -0.0014900397281000944 1.8755043749937569e-06 0 -0.001434788622813111 8.7106902663781913e-05 0 -0.0014229000361349394 -2.4881391923564296e-06 0 -0.0013559660333063986 3.2317524605028312e-05 0 -0.001434788622813111 8.7106902663781913e-05 0 -0.0014943591869880232 3.7450998626328696e-06 0 -0.0014229000361349394 -2.4881391923564296e-06 0 -0.0014943591869880232 3.7450998626328696e-06 0 -0.0014229000361349394 -2.4881391923564296e-06 0 -0.0014514045340199174 -9.6381245280713042e-05 0 -0.0014229000361349394 -2.4881391923564296e-06 0 -0.0014514045340199174 -9.6381245280713042e-05 0 -0.0013783076373637946 -4.7512845645375958e-05 0 -0.0015167243896237097 -4.0655422691409641e-05 0 -0.0014900397281000944 1.8755043749937569e-06 0 -0.0015534072916228317 -9.1754656295467491e-05 0 -0.0014943591869880232 3.7450998626328696e-06 0 -0.0014514045340199174 -9.6381245280713042e-05 0 -0.0015534072916228317 -9.1754656295467491e-05 0 -0.0014514045340199174 -9.6381245280713042e-05 0 -0.0015263165766557524 -0.00014747341578859232 0 -0.0014109707472493575 -0.00021011445071911439 0 -0.0014514045340199174 -9.6381245280713042e-05 0 -0.0014822699644338791 -0.00018917435079883525 0 -0.0014514045340199174 -9.6381245280713042e-05 0 -0.0014822699644338791 -0.00018917435079883525 0 -0.0015263165766557524 -0.00014747341578859232 0 -0.001532030168405136 -0.0002137795355349654 0 -0.0014822699644338791 -0.00018917435079883525 0 -0.0015263165766557524 -0.00014747341578859232 0 -0.001278482998914402 -4.4883368630535606e-05 0 -0.0012969066587356552 -1.1237855330304089e-05 0 -0.0012503521139261209 -1.36908308227763e-05 0 -0.0014109707472493575 -0.00021011445071911439 0 -0.0014514045340199174 -9.6381245280713042e-05 0 -0.0013566405523056854 -0.00013424119602782101 0 -0.0017752377073048818 2.214323114688771e-05 0 -0.0015335937848898423 3.1340740061206708e-05 0 -0.001278482998914402 -4.4883368630535606e-05 0 -0.0013206841552365416 -3.9070288527378947e-05 0 -0.0012969066587356552 -1.1237855330304089e-05 0 -0.0013566405523056854 -0.00013424119602782101 0 -0.0013052663368635599 -5.5375804129903064e-05 0 -0.0013783076373637946 -4.7512845645375958e-05 0 -0.0014514045340199174 -9.6381245280713042e-05 0 -0.0013566405523056854 -0.00013424119602782101 0 -0.0013783076373637946 -4.7512845645375958e-05 0 -0.0012969066587356552 -1.1237855330304089e-05 0 -0.0012741804799327704 1.2835589553119812e-05 0 -0.0012503521139261209 -1.36908308227763e-05 0 -0.0015335937848898423 3.1340740061206708e-05 0 -0.0014180028338721799 4.1012772778311502e-05 0 -0.0013052663368635599 -5.5375804129903064e-05 0 -0.0013783076373637946 -4.7512845645375958e-05 0 -0.0013559660333063986 3.2317524605028312e-05 0 -0.0014229000361349394 -2.4881391923564296e-06 0 -0.0013783076373637946 -4.7512845645375958e-05 0 -0.0013559660333063986 3.2317524605028312e-05 0 -0.0013052663368635599 -5.5375804129903064e-05 0 -0.0013559660333063986 3.2317524605028312e-05 0 -0.0012575108763401555 2.8414517072216362e-05 0 -0.0012575108763401555 2.8414517072216362e-05 0 -0.0012065691433829086 3.1171397641571658e-05 0 -0.0012137106494082941 6.2263996085175995e-05 0 -0.0012575108763401555 2.8414517072216362e-05 0 -0.0012414061066306377 1.1705086575958124e-05 0 -0.0012065691433829086 3.1171397641571658e-05 0 -0.0012741804799327704 1.2835589553119812e-05 0 -0.0012575108763401555 2.8414517072216362e-05 0 -0.0012414061066306377 1.1705086575958124e-05 0 -0.0014180028338721799 4.1012772778311502e-05 0 -0.0013790688492548045 5.1881537773230759e-05 0 -0.0012741804799327704 1.2835589553119812e-05 0 -0.0012414061066306377 1.1705086575958124e-05 0 -0.0012503521139261209 -1.36908308227763e-05 0 -0.0012414061066306377 1.1705086575958124e-05 0 -0.0012503521139261209 -1.36908308227763e-05 0 -0.0012123556166728036 6.272997152212306e-06 0 -0.0012369257359719909 -5.1558061430796888e-05 0 -0.0012503521139261209 -1.36908308227763e-05 0 -0.0012104207274849618 -2.170239469769552e-05 0 -0.0012503521139261209 -1.36908308227763e-05 0 -0.0012104207274849618 -2.170239469769552e-05 0 -0.0012123556166728036 6.272997152212306e-06 0 -0.0012048212568270007 -3.9279414354374232e-05 0 -0.0012002296599314497 -1.4384802394622042e-05 0 -0.0012359749499349828 -1.8360152103175338e-05 0 -0.0012002296599314497 -1.4384802394622042e-05 0 -0.0012359749499349828 -1.8360152103175338e-05 0 -0.001197026632317978 6.126403237632898e-06 0 -0.0013001267596725111 2.3906352677311062e-05 0 -0.0012673328816929835 2.9305005005216837e-05 0 -0.0012104207274849618 -2.170239469769552e-05 0 -0.0012123556166728036 6.272997152212306e-06 0 -0.001197026632317978 6.126403237632898e-06 0 -0.0012123556166728036 6.272997152212306e-06 0 -0.001197026632317978 6.126403237632898e-06 0 -0.0011915551413432593 2.1752945451944064e-05 0 -0.0012065691433829086 3.1171397641571658e-05 0 -0.0011736503608673488 5.7474817648519582e-05 0 -0.0011645537112901006 3.627247055663239e-05 0 -0.0011925323430985663 3.3061110300445448e-05 0 -0.0011773333337402176 2.9625800062472143e-05 0 -0.0012123556166728036 6.272997152212306e-06 0 -0.0012065691433829086 3.1171397641571658e-05 0 -0.0011915551413432593 2.1752945451944064e-05 0 -0.0012414061066306377 1.1705086575958124e-05 0 -0.0012123556166728036 6.272997152212306e-06 0 -0.0012065691433829086 3.1171397641571658e-05 0 -0.0012065691433829086 3.1171397641571658e-05 0 -0.0011736503608673488 5.7474817648519582e-05 0 -0.0012137106494082941 6.2263996085175995e-05 0 -0.0011736503608673488 5.7474817648519582e-05 0 -0.0011737512129565159 9.4541259895516527e-05 0 -0.0011467777177097756 7.0730485737536086e-05 0 -0.0011736503608673488 5.7474817648519582e-05 0 -0.0011737512129565159 9.4541259895516527e-05 0 -0.0012137106494082941 6.2263996085175995e-05 0 -0.0011737512129565159 9.4541259895516527e-05 0 -0.0012379801264508345 0.00010430443027696492 0 -0.0011992530103643215 0.00012652569001750212 0 -0.0011737512129565159 9.4541259895516527e-05 0 -0.0012137106494082941 6.2263996085175995e-05 0 -0.0012379801264508345 0.00010430443027696492 0 -0.0012575108763401555 2.8414517072216362e-05 0 -0.0012137106494082941 6.2263996085175995e-05 0 -0.0012379801264508345 0.00010430443027696492 0 -0.0013304235545524845 0.00010182850261853351 0 -0.0012575108763401555 2.8414517072216362e-05 0 -0.0012379801264508345 0.00010430443027696492 0 -0.0011620475840308881 0.00011224739703278867 0 -0.0011153993360786829 0.00015097613652270459 0 -0.0012987785553754904 0.00017258050388932743 0 -0.0012379801264508345 0.00010430443027696492 0 -0.0011827105246769412 0.00020421604002333115 0 -0.0012987785553754904 0.00017258050388932743 0 -0.0011827105246769412 0.00020421604002333115 0 -0.0012590715078133737 0.00024081244132812088 0 -0.0013178356104875907 0.00026140714217347076 0 -0.0012590715078133737 0.00024081244132812088 0 -0.0012726457509935434 0.00029448690969210631 0 -0.0011827105246769412 0.00020421604002333115 0 -0.0012590715078133737 0.00024081244132812088 0 -0.0012179465416660693 0.00028356803366102416 0 -0.0011827105246769412 0.00020421604002333115 0 -0.0011754262206112116 0.00028583660086863076 0 -0.0012179465416660693 0.00028356803366102416 0 -0.0011827105246769412 0.00020421604002333115 0 -0.0011298696412168985 0.00030127203529212946 0 -0.0011754262206112116 0.00028583660086863076 0 -0.0011153993360786829 0.00015097613652270459 0 -0.00095494779692955332 0.00028017738143496152 0 -0.0011443267966851868 0.0001345572406361693 0 -0.0011680073083496847 0.00012206437824162131 0 -0.0011671972290699273 0.00015941794994214485 0 -0.0011992530103643215 0.00012652569001750212 0 -0.0011680073083496847 0.00012206437824162131 0 -0.0011671972290699273 0.00015941794994214485 0 -0.0011443267966851868 0.0001345572406361693 0 -0.0011474725444226457 0.00011750297783844749 0 -0.0011680073083496847 0.00012206437824162131 0 -0.0011443267966851868 0.0001345572406361693 0 -0.0011474725444226457 0.00011750297783844749 0 -0.0011316109315446551 0.00012871423690850531 0 -0.0011737512129565159 9.4541259895516527e-05 0 -0.0011474725444226457 0.00011750297783844749 0 -0.0011680073083496847 0.00012206437824162131 0 -0.0011737512129565159 9.4541259895516527e-05 0 -0.0011992530103643215 0.00012652569001750212 0 -0.0011680073083496847 0.00012206437824162131 0 -0.00086682724388124693 0.00033896469880126439 0 -0.00088164440716041455 0.00032428021301409614 0 -0.00086690902515138902 0.00027364791776301225 0 -0.00089399519711613122 0.00030446544951314282 0 -0.00088578287028636456 0.00034460478829782099 0 -0.00094160144692081256 0.00027524088635774512 0 -0.00089157580903490041 0.00036750567170843433 0 -0.00088578287028636456 0.00034460478829782099 0 -0.00094160144692081256 0.00027524088635774512 0 -0.00089399519711613122 0.00030446544951314282 0 -0.00086690902515138902 0.00027364791776301225 0 -0.00094160144692081256 0.00027524088635774512 0 -0.00088164440716041455 0.00032428021301409614 0 -0.00089399519711613122 0.00030446544951314282 0 -0.00088578287028636456 0.00034460478829782099 0 -0.00086281345926255727 0.00034267195124140765 0 -0.00086340477576271233 0.00034280238325816404 0 -0.00086682724388124693 0.00033896469880126439 0 -0.00088164440716041455 0.00032428021301409614 0 -0.00088578287028636456 0.00034460478829782099 0 -0.00088164440716041455 0.00032428021301409614 0 -0.00089399519711613122 0.00030446544951314282 0 -0.00086690902515138902 0.00027364791776301225 0 -0.00095494779692955332 0.00028017738143496152 0 -0.0010100416700686557 0.00019441005282490819 0 -0.0011246638690533533 0.00012475572405360071 0 -0.0011242570303242835 0.00012734926743287201 0 -0.001111816715024876 0.00011769849504367437 0 -0.0011246638690533533 0.00012475572405360071 0 -0.0011332305107083342 0.00012966024764845857 0 -0.0011242570303242835 0.00012734926743287201 0 -0.0011443267966851868 0.0001345572406361693 0 -0.0011332305107083342 0.00012966024764845857 0 -0.0011316109315446551 0.00012871423690850531 0 -0.0011246638690533533 0.00012475572405360071 0 -0.0011332305107083342 0.00012966024764845857 0 -0.0011316109315446551 0.00012871423690850531 0 -0.0011443267966851868 0.0001345572406361693 0 -0.0011332305107083342 0.00012966024764845857 0 -0.0011242570303242835 0.00012734926743287201 0 -0.00097781230476585881 0.00026612041039256803 0 -0.00095494779692955332 0.00028017738143496152 0 -0.0011531923426295622 0.0003282934374840993 0 -0.0011298696412168985 0.00030127203529212946 0 -0.0011754262206112116 0.00028583660086863076 0 -0.00086697629449183564 0.00033887298567264278 0 -0.00089157580903490041 0.00036750567170843433 0 -0.00088578287028636456 0.00034460478829782099 0 -0.00086281345926255727 0.00034267195124140765 0 -0.00095494779692955332 0.00028017738143496152 0 -0.0011531923426295622 0.0003282934374840993 0 -0.0012179465416660693 0.00028356803366102416 0 -0.0012524693971158614 0.0003580232882243854 0 -0.0011531923426295622 0.0003282934374840993 0 -0.0011754262206112116 0.00028583660086863076 0 -0.0012179465416660693 0.00028356803366102416 0 -0.0012179465416660693 0.00028356803366102416 0 -0.0012726457509935434 0.00029448690969210631 0 -0.0012524693971158614 0.0003580232882243854 0 -0.0012590715078133737 0.00024081244132812088 0 -0.0012179465416660693 0.00028356803366102416 0 -0.0012726457509935434 0.00029448690969210631 0 -0.0012726457509935434 0.00029448690969210631 0 -0.0012524693971158614 0.0003580232882243854 0 -0.0013156518434698137 0.00032860331667303405 0 -0.00086682724388124693 0.00033896469880126439 0 -0.00079721921712024902 0.00025858180245443799 0 -0.00086690902515138902 0.00027364791776301225 0 -0.00042945944562371131 0.0004907682898160397 0 -0.00032536275942693144 0.00045918573492684868 0 -0.00036022741693337868 0.00041352602958284306 0 -0.00086281345926255727 0.00034267195124140765 0 -0.00081152158880385707 0.00036639120056562372 0 -0.00086281345926255727 0.00034267195124140765 0 -0.00062994257142701257 0.00030404561542268115 0 -0.00079721921712024902 0.00025858180245443799 0 -0.00083593113526875859 0.00022250634179365715 0 -0.00086690902515138902 0.00027364791776301225 0 -0.00079721921712024902 0.00025858180245443799 0 -0.00077890522287931286 0.00019483999931620643 0 -0.00080147130214758137 0.00021553222324564595 0 -0.00079721921712024902 0.00025858180245443799 0 -0.00083593113526875859 0.00022250634179365715 0 -0.00080147130214758137 0.00021553222324564595 0 -0.00036022741693337868 0.00041352602958284306 0 -0.0002939204361389382 0.00041123852416619658 0 -0.00030175022245230028 0.00038897869076441512 0 -0.00062994257142701257 0.00030404561542268115 0 -0.00044296445140903917 0.00026206845429367599 0 -0.00032536275942693144 0.00045918573492684868 0 -0.00036022741693337868 0.00041352602958284306 0 -0.0002939204361389382 0.00041123852416619658 0 -0.00036022741693337868 0.00041352602958284306 0 -0.00030175022245230028 0.00038897869076441512 0 -0.00029316846744193299 0.0003495212700622442 0 -0.00036022741693337868 0.00041352602958284306 0 -0.00029338609582655375 0.00034408230523494556 0 -0.00029316846744193299 0.0003495212700622442 0 -0.00079721921712024902 0.00025858180245443799 0 -0.00077890522287931286 0.00019483999931620643 0 -0.00072813355353025131 0.00017821318956502436 0 -0.00077890522287931286 0.00019483999931620643 0 -0.00078600990785436227 0.00016164390136987256 0 -0.00076097105842135417 0.00016081707599430547 0 -0.00077890522287931286 0.00019483999931620643 0 -0.00076097105842135417 0.00016081707599430547 0 -0.00072813355353025131 0.00017821318956502436 0 -0.00044296445140903917 0.00026206845429367599 0 -0.00044280640108407992 0.00026241668538301924 0 -0.00083593113526875859 0.00022250634179365715 0 -0.00080715914228181339 0.00018696076267236082 0 -0.00085192504167459142 0.00017468589050494024 0 -0.00083593113526875859 0.00022250634179365715 0 -0.00080147130214758137 0.00021553222324564595 0 -0.00080715914228181339 0.00018696076267236082 0 -0.00077890522287931286 0.00019483999931620643 0 -0.00080147130214758137 0.00021553222324564595 0 -0.00080715914228181339 0.00018696076267236082 0 -0.00078600990785436227 0.00016164390136987256 0 -0.00080715914228181339 0.00018696076267236082 0 -0.00081346926206329602 0.00014404033748147986 0 -0.00077890522287931286 0.00019483999931620643 0 -0.00078600990785436227 0.00016164390136987256 0 -0.00080715914228181339 0.00018696076267236082 0 -0.00080715914228181339 0.00018696076267236082 0 -0.00085192504167459142 0.00017468589050494024 0 -0.00081346926206329602 0.00014404033748147986 0 -0.00083593113526875859 0.00022250634179365715 0 -0.00089900006550751939 0.00021382195408154079 0 -0.00085192504167459142 0.00017468589050494024 0 -0.00089900006550751939 0.00021382195408154079 0 -0.00085192504167459142 0.00017468589050494024 0 -0.00090783854981505558 0.00014512590077047976 0 -0.00083593113526875859 0.00022250634179365715 0 -0.00089900006550751939 0.00021382195408154079 0 -0.00086690902515138902 0.00027364791776301225 0 -0.00089900006550751939 0.00021382195408154079 0 -0.00086690902515138902 0.00027364791776301225 0 -0.00094160144692081256 0.00027524088635774512 0 -0.0010100416700686557 0.00019441005282490819 0 -0.0010382257704215985 0.0001399486025691765 0 -0.00089900006550751939 0.00021382195408154079 0 -0.00094160144692081256 0.00027524088635774512 0 -0.00099321426775215516 0.00018312815286751469 0 -0.00089900006550751939 0.00021382195408154079 0 -0.00090783854981505558 0.00014512590077047976 0 -0.00099321426775215516 0.00018312815286751469 0 -0.00095730258924400986 9.3683177838304362e-05 0 -0.00090783854981505558 0.00014512590077047976 0 -0.00099321426775215516 0.00018312815286751469 0 -0.00095730258924400986 9.3683177838304362e-05 0 -0.00090783854981505558 0.00014512590077047976 0 -0.00088890559256479026 7.1614437639661743e-05 0 -0.00085683942503077671 0.00012612599607232186 0 -0.00090783854981505558 0.00014512590077047976 0 -0.00088890559256479026 7.1614437639661743e-05 0 -0.00085683942503077671 0.00012612599607232186 0 -0.00088890559256479026 7.1614437639661743e-05 0 -0.00081504095413084069 8.2634724317953877e-05 0 -0.00085192504167459142 0.00017468589050494024 0 -0.00085683942503077671 0.00012612599607232186 0 -0.00090783854981505558 0.00014512590077047976 0 -0.00088890559256479026 7.1614437639661743e-05 0 -0.00094272234034824503 1.9762779711493597e-05 0 -0.00088870848853043387 8.5833593093627744e-06 0 -0.00088890559256479026 7.1614437639661743e-05 0 -0.00088870848853043387 8.5833593093627744e-06 0 -0.00084572172425835914 3.0006033144614505e-05 0 -0.00095730258924400986 9.3683177838304362e-05 0 -0.00088890559256479026 7.1614437639661743e-05 0 -0.00094272234034824503 1.9762779711493597e-05 0 -0.00095730258924400986 9.3683177838304362e-05 0 -0.00094272234034824503 1.9762779711493597e-05 0 -0.00099455037732032871 3.8856062588151792e-05 0 -0.00094272234034824503 1.9762779711493597e-05 0 -0.00093261540718777344 -5.8464161721958783e-06 0 -0.00097301717672551363 -2.3875973078844276e-06 0 -0.00077406603542665153 4.8244608230473468e-05 0 -0.00084888599108921413 4.5669425247283438e-05 0 -0.00094272234034824503 1.9762779711493597e-05 0 -0.00088870848853043387 8.5833593093627744e-06 0 -0.00092267634711904096 -3.2975156351667387e-05 0 -0.00078736864370551238 4.8461285787445516e-05 0 -0.00077406603542665153 4.8244608230473468e-05 0 -0.00088870848853043387 8.5833593093627744e-06 0 -0.00083308292096618511 -4.4654168400567074e-05 0 -0.00084572172425835914 3.0006033144614505e-05 0 -0.00088870848853043387 8.5833593093627744e-06 0 -0.00092267634711904096 -3.2975156351667387e-05 0 -0.00083308292096618511 -4.4654168400567074e-05 0 -0.00065100684397883699 0.00014265273865517772 0 -0.00073479870039134902 0.00022359923125824972 0 -0.00060229071551032342 0.00020703083251583822 0 -0.00077406603542665153 4.8244608230473468e-05 0 -0.00067890218114767076 6.2185793260371861e-05 0 -0.00078300792655383003 -0.00010552432849436158 0 -0.0007773105261761785 -2.2398798610520624e-05 0 -0.00073341862083447682 -0.00015179415452291041 0 -0.00065100684397883699 0.00014265273865517772 0 -0.00073479870039134902 0.00022359923125824972 0 -0.00067886208813203294 7.0959448668770915e-05 0 -0.00077406603542665153 4.8244608230473468e-05 0 -0.00070942993404070841 -5.7680870895203836e-05 0 -0.00087309796704665085 -6.0968386325531722e-05 0 -0.0007773105261761785 -2.2398798610520624e-05 0 -0.00097301717672551363 -2.3875973078844276e-06 0 -0.00078300792655383003 -0.00010552432849436158 0 -0.00087309796704665085 -6.0968386325531722e-05 0 -0.00079997493224594446 -0.00013531068728956153 0 -0.00078300792655383003 -0.00010552432849436158 0 -0.00087309796704665085 -6.0968386325531722e-05 0 -0.0007773105261761785 -2.2398798610520624e-05 0 -0.00046760937383719537 0.00018940868164454266 0 -0.00060229071551032342 0.00020703083251583822 0 -0.00053482352637739135 0.00011147270743367793 0 -0.00049392845318343948 5.8401106058371035e-05 0 -0.00067890218114767076 6.2185793260371861e-05 0 -0.00060229071551032342 0.00020703083251583822 0 -0.00060016223418737132 0.00012031418042478756 0 -0.00053482352637739135 0.00011147270743367793 0 -0.00065100684397883699 0.00014265273865517772 0 -0.00060229071551032342 0.00020703083251583822 0 -0.00060016223418737132 0.00012031418042478756 0 -0.00074384351067100364 -5.6013284239461233e-05 0 -0.00083308292096618511 -4.4654168400567074e-05 0 -0.00079480250684613467 1.4543304538411286e-05 0 -0.00083308292096618511 -4.4654168400567074e-05 0 -0.00084572172425835914 3.0006033144614505e-05 0 -0.00079480250684613467 1.4543304538411286e-05 0 -0.00074384351067100364 -5.6013284239461233e-05 0 -0.00079480250684613467 1.4543304538411286e-05 0 -0.00073634747637933923 6.075311930397873e-05 0 -0.00049392845318343948 5.8401106058371035e-05 0 -0.00048473804476783562 0.00015456378669685732 0 -0.00079480250684613467 1.4543304538411286e-05 0 -0.00073634747637933923 6.075311930397873e-05 0 -0.00081504095413084069 8.2634724317953877e-05 0 -0.00073634747637933923 6.075311930397873e-05 0 -0.00081504095413084069 8.2634724317953877e-05 0 -0.00076961439381886376 0.00012176439304635609 0 -0.00084572172425835914 3.0006033144614505e-05 0 -0.00079480250684613467 1.4543304538411286e-05 0 -0.00081504095413084069 8.2634724317953877e-05 0 -0.00088890559256479026 7.1614437639661743e-05 0 -0.00084572172425835914 3.0006033144614505e-05 0 -0.00081504095413084069 8.2634724317953877e-05 0 -0.00085683942503077671 0.00012612599607232186 0 -0.00081504095413084069 8.2634724317953877e-05 0 -0.00081346926206329602 0.00014404033748147986 0 -0.00081504095413084069 8.2634724317953877e-05 0 -0.00081346926206329602 0.00014404033748147986 0 -0.00076961439381886376 0.00012176439304635609 0 -0.00078600990785436227 0.00016164390136987256 0 -0.00081346926206329602 0.00014404033748147986 0 -0.00076961439381886376 0.00012176439304635609 0 -0.00085192504167459142 0.00017468589050494024 0 -0.00085683942503077671 0.00012612599607232186 0 -0.00081346926206329602 0.00014404033748147986 0 -0.00044296445140903917 0.00026206845429367599 0 -0.00048473804476783562 0.00015456378669685732 0 -0.00072813355353025131 0.00017821318956502436 0 -0.00073634747637933923 6.075311930397873e-05 0 -0.00076961439381886376 0.00012176439304635609 0 -0.00078600990785436227 0.00016164390136987256 0 -0.00076097105842135417 0.00016081707599430547 0 -0.00076961439381886376 0.00012176439304635609 0 -0.00076097105842135417 0.00016081707599430547 0 -0.00072813355353025131 0.00017821318956502436 0 -0.00076961439381886376 0.00012176439304635609 0 -0.00030540407875114342 0.00036820368076290335 0 -0.00031325790634685396 0.00024910874288121466 0 -0.00025481997684001089 0.00031007822325250511 0 -0.00044296445140903917 0.00026206845429367599 0 -0.00035956563303678451 0.0002459090957237218 0 -0.00020123768358871143 0.00031699857280736185 0 -0.00017528626777197644 0.00032022131495763981 0 -0.00018168161790147732 0.00034633661671995027 0 -0.00024914674143404887 0.00029901996695174624 0 -0.00020123768358871143 0.00031699857280736185 0 -0.00024342329903752767 0.0003456074404890144 0 -0.00024914674143404887 0.00029901996695174624 0 -0.00020123768358871143 0.00031699857280736185 0 -0.00019527561253182085 0.00028635718917135018 0 -0.00024914674143404887 0.00029901996695174624 0 -0.00019527561253182085 0.00028635718917135018 0 -0.00020383300242646411 0.0002511975299916918 0 -0.00020123768358871143 0.00031699857280736185 0 -0.00019527561253182085 0.00028635718917135018 0 -0.00016907069119291682 0.00029736830506835957 0 -0.00019527561253182085 0.00028635718917135018 0 -0.00020383300242646411 0.0002511975299916918 0 -0.00016000556072997475 0.00027436775625087911 0 -0.00025481997684001089 0.00031007822325250511 0 -0.00020383300242646411 0.0002511975299916918 0 -0.00025536750071638133 0.00025128019568700381 0 -0.00035956563303678451 0.0002459090957237218 0 -0.00032751343365890461 0.0002332684774243968 0 -0.00020383300242646411 0.0002511975299916918 0 -0.00025536750071638133 0.00025128019568700381 0 -0.00019864096438762765 0.00019504657272970068 0 -0.00020383300242646411 0.0002511975299916918 0 -0.00019864096438762765 0.00019504657272970068 0 -0.0001646481371776512 0.00023294794277025339 0 -0.00031325790634685396 0.00024910874288121466 0 -0.00025481997684001089 0.00031007822325250511 0 -0.00025536750071638133 0.00025128019568700381 0 -0.00031325790634685396 0.00024910874288121466 0 -0.00025536750071638133 0.00025128019568700381 0 -0.00026119684739537809 0.00018879735808960955 0 -0.00032249791722425037 0.00012666261679817692 0 -0.00031325790634685396 0.00024910874288121466 0 -0.00026119684739537809 0.00018879735808960955 0 -0.00026119684739537809 0.00018879735808960955 0 -0.00019864096438762765 0.00019504657272970068 0 -0.00020837461833708349 0.00011114766399574317 0 -0.00025536750071638133 0.00025128019568700381 0 -0.00026119684739537809 0.00018879735808960955 0 -0.00019864096438762765 0.00019504657272970068 0 -0.00020837461833708349 0.00011114766399574317 0 -0.00015138325633374153 0.00012003467186699019 0 -0.0001636352486154696 4.0723039511738854e-05 0 -0.00019864096438762765 0.00019504657272970068 0 -0.00020837461833708349 0.00011114766399574317 0 -0.00015138325633374153 0.00012003467186699019 0 -0.0003490155236480933 0.00012969179003278453 0 -0.00020837461833708349 0.00011114766399574317 0 -0.00026780885597492508 3.3092372288724311e-05 0 -0.00049392845318343948 5.8401106058371035e-05 0 -0.00033768374898468246 6.0422060096234628e-05 0 -0.00032249791722425037 0.00012666261679817692 0 -0.00026119684739537809 0.00018879735808960955 0 -0.00020837461833708349 0.00011114766399574317 0 -4.1692302319655075e-05 0.00011516540137223848 0 2.5242942612976351e-05 0.00013931909939411059 0 -5.2245653113546018e-05 4.3261482845074563e-05 0 -4.1692302319655075e-05 0.00011516540137223848 0 -9.8770485260745003e-05 0.00020202924623835225 0 2.5242942612976351e-05 0.00013931909939411059 0 -4.7443057290274995e-05 0.00014272813710131406 0 -5.6830064055554362e-05 0.00011490279915424066 0 -0.00015138325633374153 0.00012003467186699019 0 -0.00012085161728333088 0.00017262800321653893 0 -9.8034479071879094e-05 6.5681643187806113e-05 0 -0.00011989375653562947 0.00019315869255119992 0 -0.00011548747372295511 0.00014143605995122909 0 -4.1692302319655075e-05 0.00011516540137223848 0 -9.8770485260745003e-05 0.00020202924623835225 0 -9.8034479071879094e-05 6.5681643187806113e-05 0 -0.00019864096438762765 0.00019504657272970068 0 -0.00012085161728333088 0.00017262800321653893 0 -0.0001646481371776512 0.00023294794277025339 0 -0.00019864096438762765 0.00019504657272970068 0 -0.00015138325633374153 0.00012003467186699019 0 -0.00012085161728333088 0.00017262800321653893 0 -9.8770485260745003e-05 0.00020202924623835225 0 1.0390648519629213e-06 0.00028403150270505875 0 2.5242942612976351e-05 0.00013931909939411059 0 -9.8770485260745003e-05 0.00020202924623835225 0 1.0390648519629213e-06 0.00028403150270505875 0 -0.00010229882017120504 0.00033479692769088667 0 -0.00017120363620847724 0.00037951479905635549 0 -0.00016411896844593341 0.0003607294422579069 0 -0.0001856218238684524 0.00035003639636177892 0 -0.00010951409394658534 0.00024415485000986377 0 -0.00013002887114818464 0.0002755270637602181 0 -0.00017120363620847724 0.00037951479905635549 0 -0.00014694088330210193 0.00036404701288106372 0 -0.00016411896844593341 0.0003607294422579069 0 -0.00011989375653562947 0.00019315869255119992 0 -0.00013002887114818464 0.0002755270637602181 0 -0.00012085161728333088 0.00017262800321653893 0 -0.0001646481371776512 0.00023294794277025339 0 -0.00013592275609200987 0.00026487215626970283 0 -0.00013002887114818464 0.0002755270637602181 0 -0.00013096276409738919 0.00027575707698486169 0 -0.00020383300242646411 0.0002511975299916918 0 -0.0001646481371776512 0.00023294794277025339 0 -0.00016000556072997475 0.00027436775625087911 0 -0.0001646481371776512 0.00023294794277025339 0 -0.00013592275609200987 0.00026487215626970283 0 -0.00016000556072997475 0.00027436775625087911 0 -0.00014271891275719471 0.00026554514901616145 0 -0.00016907069119291682 0.00029736830506835957 0 -0.00014975183891572294 0.00032004620270995867 0 -0.00014694088330210193 0.00036404701288106372 0 -0.00015363821218970832 0.00034774138849095863 0 -0.00015385074789251254 0.00035430155485400102 0 -0.00013002887114818464 0.0002755270637602181 0 -0.00013650824580237176 0.00031495604965115935 0 -0.00014271891275719471 0.00026554514901616145 0 -0.00016000556072997475 0.00027436775625087911 0 -0.00016907069119291682 0.00029736830506835957 0 -0.00019527561253182085 0.00028635718917135018 0 -0.00016000556072997475 0.00027436775625087911 0 -0.00016907069119291682 0.00029736830506835957 0 -0.00015363821218970832 0.00034774138849095863 0 -0.00015385074789251254 0.00035430155485400102 0 -0.00015157107086694968 0.00034737508809248131 0 -0.00020123768358871143 0.00031699857280736185 0 -0.00016907069119291682 0.00029736830506835957 0 -0.00017528626777197644 0.00032022131495763981 0 -0.00016907069119291682 0.00029736830506835957 0 -0.00014975183891572294 0.00032004620270995867 0 -0.00017528626777197644 0.00032022131495763981 0 -0.00016411896844593341 0.0003607294422579069 0 -0.00016002758343834552 0.00035183612348738472 0 -0.00016969553464571996 0.00034578143426095974 0 -0.00016411896844593341 0.0003607294422579069 0 -0.00016969553464571996 0.00034578143426095974 0 -0.0001856218238684524 0.00035003639636177892 0 -0.00014694088330210193 0.00036404701288106372 0 -0.00016411896844593341 0.0003607294422579069 0 -0.00015385074789251254 0.00035430155485400102 0 -0.00016411896844593341 0.0003607294422579069 0 -0.00015385074789251254 0.00035430155485400102 0 -0.00016002758343834552 0.00035183612348738472 0 -0.00016002758343834552 0.00035183612348738472 0 -0.00015157107086694968 0.00034737508809248131 0 -0.00016969553464571996 0.00034578143426095974 0 -0.00015385074789251254 0.00035430155485400102 0 -0.00016002758343834552 0.00035183612348738472 0 -0.00015157107086694968 0.00034737508809248131 0 -0.00015157107086694968 0.00034737508809248131 0 -0.00016969553464571996 0.00034578143426095974 0 -0.00018809625603884666 0.00031588122999461516 0 -0.00015157107086694968 0.00034737508809248131 0 -0.00014676717541363578 0.00036490675658691694 0 -0.00011408729385679017 0.00037192304071568004 0 -0.00014676717541363578 0.00036490675658691694 0 -0.00015234109174080539 0.00039030428343489194 0 -0.00011408729385679017 0.00037192304071568004 0 -0.00037454995649934615 0.00040854331818357414 0 -0.00068927122882462178 0.00025642789429443179 0 -0.0014491715756963226 0.00041550432161413845 0 -0.0015243199502110196 0.00039581612574485784 0 -0.0015443827716446448 0.0004425030908577056 0 -0.00079456366984024444 0.00034655015131037194 0 -0.00068927122882462178 0.00025642789429443179 0 -0.0014802854889858792 0.00038192219660186302 0 -0.0014491715756963226 0.00041550432161413845 0 -0.0015243199502110196 0.00039581612574485784 0 -0.00015234109174080539 0.00039030428343489194 0 -0.00015864397944392937 0.00037354100557394768 0 -0.0001998363573250612 0.00038624366972244372 0 -0.0014491715756963226 0.00041550432161413845 0 -0.0013511358404221382 0.00038726586534446972 0 -0.001427799460425938 0.00037624949049076454 0 -0.0014802854889858792 0.00038192219660186302 0 -0.0014491715756963226 0.00041550432161413845 0 -0.001427799460425938 0.00037624949049076454 0 -0.00015363821218970832 0.00034774138849095863 0 -0.00014676717541363578 0.00036490675658691694 0 -0.00015864397944392937 0.00037354100557394768 0 -0.00015864397944392937 0.00037354100557394768 0 -0.00018168161790147732 0.00034633661671995027 0 -0.0001998363573250612 0.00038624366972244372 0 -0.00014975183891572294 0.00032004620270995867 0 -0.00015864397944392937 0.00037354100557394768 0 -0.00018168161790147732 0.00034633661671995027 0 -0.00013650824580237176 0.00031495604965115935 0 -0.00013889263140702212 0.00033046877856360838 0 -0.00014676717541363578 0.00036490675658691694 0 -0.00015234109174080539 0.00039030428343489194 0 -0.00015864397944392937 0.00037354100557394768 0 -0.00015363821218970832 0.00034774138849095863 0 -0.00015157107086694968 0.00034737508809248131 0 -0.00014676717541363578 0.00036490675658691694 0 -0.00014975183891572294 0.00032004620270995867 0 -0.00017528626777197644 0.00032022131495763981 0 -0.00018168161790147732 0.00034633661671995027 0 -0.00024342329903752767 0.0003456074404890144 0 -0.00026108845967849951 0.00038160646897541963 0 -0.0001998363573250612 0.00038624366972244372 0 -0.00018168161790147732 0.00034633661671995027 0 -0.00024342329903752767 0.0003456074404890144 0 -0.0001998363573250612 0.00038624366972244372 0 -0.00020123768358871143 0.00031699857280736185 0 -0.00018168161790147732 0.00034633661671995027 0 -0.00024342329903752767 0.0003456074404890144 0 -0.00029331878282869638 0.00034462240432047499 0 -0.00029316846744193299 0.0003495212700622442 0 -0.00024342329903752767 0.0003456074404890144 0 -0.00029331878282869638 0.00034462240432047499 0 -0.00024914674143404887 0.00029901996695174624 0 -0.00024342329903752767 0.0003456074404890144 0 -0.00030175022245230028 0.00038897869076441512 0 -0.00029316846744193299 0.0003495212700622442 0 -0.00026108845967849951 0.00038160646897541963 0 -0.00029316846744193299 0.0003495212700622442 0 -0.00024342329903752767 0.0003456074404890144 0 -0.00026108845967849951 0.00038160646897541963 0 -0.0002939204361389382 0.00041123852416619658 0 -0.00026108845967849951 0.00038160646897541963 0 -0.00022976682950449039 0.00042552147222523715 0 -0.00032536275942693144 0.00045918573492684868 0 -0.0002939204361389382 0.00041123852416619658 0 -0.00022976682950449039 0.00042552147222523715 0 -0.0002939204361389382 0.00041123852416619658 0 -0.00030175022245230028 0.00038897869076441512 0 -0.00026108845967849951 0.00038160646897541963 0 -0.00079456366984024444 0.00034655015131037194 0 -0.00080272542865638427 0.00036985939017283414 0 -0.00026108845967849951 0.00038160646897541963 0 -0.00022976682950449039 0.00042552147222523715 0 -0.0001998363573250612 0.00038624366972244372 0 -0.00015234109174080539 0.00039030428343489194 0 -0.00022976682950449039 0.00042552147222523715 0 -0.0001998363573250612 0.00038624366972244372 0 -0.0013511358404221382 0.00038726586534446972 0 -0.0013936412066882157 0.0003412938655594061 0 -0.001427799460425938 0.00037624949049076454 0 -0.0013511358404221382 0.00038726586534446972 0 -0.0013936412066882157 0.0003412938655594061 0 -0.0013156518434698137 0.00032860331667303405 0 -0.00081152158880385707 0.00036639120056562372 0 -0.00080272542865638427 0.00036985939017283414 0 -0.0012524693971158614 0.0003580232882243854 0 -0.0013511358404221382 0.00038726586534446972 0 -0.0013156518434698137 0.00032860331667303405 0 -0.0013178356104875907 0.00026140714217347076 0 -0.0012726457509935434 0.00029448690969210631 0 -0.0013156518434698137 0.00032860331667303405 0 -0.0013178356104875907 0.00026140714217347076 0 -0.0013156518434698137 0.00032860331667303405 0 -0.0013688992059911187 0.00029374411533785501 0 -0.0013850961313669325 0.00023424060436505321 0 -0.0013688992059911187 0.00029374411533785501 0 -0.0014288884144003447 0.00029517626400433523 0 -0.0013936412066882157 0.0003412938655594061 0 -0.0013156518434698137 0.00032860331667303405 0 -0.0013688992059911187 0.00029374411533785501 0 -0.0013936412066882157 0.0003412938655594061 0 -0.0013688992059911187 0.00029374411533785501 0 -0.0014288884144003447 0.00029517626400433523 0 -0.0014288884144003447 0.00029517626400433523 0 -0.001502234197967151 0.00028646368657807048 0 -0.0014607704526807086 0.00034736690684657369 0 -0.0014577323048813571 0.00022331068861602271 0 -0.0014288884144003447 0.00029517626400433523 0 -0.001502234197967151 0.00028646368657807048 0 -0.001502234197967151 0.00028646368657807048 0 -0.0014607704526807086 0.00034736690684657369 0 -0.0015152769439607896 0.00035742004732730229 0 -0.0014802854889858792 0.00038192219660186302 0 -0.0015152769439607896 0.00035742004732730229 0 -0.0015243199502110196 0.00039581612574485784 0 -0.0014802854889858792 0.00038192219660186302 0 -0.0014607704526807086 0.00034736690684657369 0 -0.0015152769439607896 0.00035742004732730229 0 -0.0013936412066882157 0.0003412938655594061 0 -0.0014607704526807086 0.00034736690684657369 0 -0.001427799460425938 0.00037624949049076454 0 -0.0014802854889858792 0.00038192219660186302 0 -0.0014607704526807086 0.00034736690684657369 0 -0.001427799460425938 0.00037624949049076454 0 -0.0013936412066882157 0.0003412938655594061 0 -0.0014288884144003447 0.00029517626400433523 0 -0.0014607704526807086 0.00034736690684657369 0 -0.0015968412235477347 0.0003533803556004803 0 -0.0015635220931747721 0.00030960703622670257 0 -0.0016183911551038671 0.00031407434613146519 0 -0.0015968412235477347 0.0003533803556004803 0 -0.0015599687057217318 0.00037459351709711615 0 -0.0015635220931747721 0.00030960703622670257 0 -0.0015968412235477347 0.0003533803556004803 0 -0.0016183911551038671 0.00031407434613146519 0 -0.0016433184597585324 0.00036420735378484985 0 -0.0015968412235477347 0.0003533803556004803 0 -0.0016433184597585324 0.00036420735378484985 0 -0.0015949974256165122 0.00040309987341681481 0 -0.0015968412235477347 0.0003533803556004803 0 -0.0015599687057217318 0.00037459351709711615 0 -0.0015949974256165122 0.00040309987341681481 0 -0.0015152769439607896 0.00035742004732730229 0 -0.0015599687057217318 0.00037459351709711615 0 -0.0015635220931747721 0.00030960703622670257 0 -0.0015152769439607896 0.00035742004732730229 0 -0.0015599687057217318 0.00037459351709711615 0 -0.0015243199502110196 0.00039581612574485784 0 -0.001502234197967151 0.00028646368657807048 0 -0.0015152769439607896 0.00035742004732730229 0 -0.0015635220931747721 0.00030960703622670257 0 -0.0015620846572561463 0.00025491036212247747 0 -0.001502234197967151 0.00028646368657807048 0 -0.0015635220931747721 0.00030960703622670257 0 -0.0016165261517402092 0.00026163947096096655 0 -0.0015620846572561463 0.00025491036212247747 0 -0.0015635220931747721 0.00030960703622670257 0 -0.0014273724127632636 0.00016403165848513342 0 -0.001512696749517975 0.00018300819217019785 0 -0.0016701612885085424 0.00025738266003364786 0 -0.0016165261517402092 0.00026163947096096655 0 -0.0015635220931747721 0.00030960703622670257 0 -0.0016516590282734693 0.00026350924922986877 0 -0.0015635220931747721 0.00030960703622670257 0 -0.0016183911551038671 0.00031407434613146519 0 -0.0016516590282734693 0.00026350924922986877 0 -0.0016183911551038671 0.00031407434613146519 0 -0.0016433184597585324 0.00036420735378484985 0 -0.00098474736978814586 -4.3012229389178958e-05 0 -0.00099342680958689161 -3.5239160754186159e-05 0 -0.00098356358378588835 -2.6943912921901655e-05 0 -0.0014273724127632636 0.00016403165848513342 0 -0.0010847037278437072 8.3039327374515492e-05 0 -0.00098474736978814586 -4.3012229389178958e-05 0 -0.00099342680958689161 -3.5239160754186159e-05 0 -0.0010252245957959546 -3.3778877977652387e-05 0 -0.00099342680958689161 -3.5239160754186159e-05 0 -0.00090324933372083911 1.5615375395640898e-05 0 -0.00098809219214329421 1.7054556655066076e-05 0 -0.00099342680958689161 -3.5239160754186159e-05 0 -0.00098809219214329421 1.7054556655066076e-05 0 -0.0010210292645176683 -4.6028538536368102e-06 0 -0.0010394342505894933 7.5190431951281062e-05 0 -0.0010847037278437072 8.3039327374515492e-05 0 -0.00099342680958689161 -3.5239160754186159e-05 0 -0.00090324933372083911 1.5615375395640898e-05 0 -0.00080746661679016935 -6.5025488454951925e-06 0 -0.00090324933372083911 1.5615375395640898e-05 0 -0.00080746661679016935 -6.5025488454951925e-06 0 -0.00078386926831263922 3.6942339783007584e-05 0 -0.0010847037278437072 8.3039327374515492e-05 0 -0.0010786781740472239 8.1135206112386925e-05 0 -0.00090324933372083911 1.5615375395640898e-05 0 -0.00078386926831263922 3.6942339783007584e-05 0 -0.00092374653847411504 9.6000780011954606e-05 0 -0.00078386926831263922 3.6942339783007584e-05 0 -0.00076206431463850775 6.6219460862506846e-05 0 -0.00092374653847411504 9.6000780011954606e-05 0 -0.00069145742721765733 4.6739521689384855e-05 0 -0.00070076109781208379 4.9413781644835055e-05 0 -0.00076206431463850775 6.6219460862506846e-05 0 -0.00092374653847411504 9.6000780011954606e-05 0 -0.00068373649517689352 8.4857391420855815e-05 0 -0.00078804536702737065 -1.2323198090536953e-05 0 -0.00078386926831263922 3.6942339783007584e-05 0 -0.00069727680666841938 7.0293944966586601e-05 0 -0.00090324933372083911 1.5615375395640898e-05 0 -0.00098809219214329421 1.7054556655066076e-05 0 -0.00092374653847411504 9.6000780011954606e-05 0 -0.00029778883442651931 9.5106216904128007e-05 0 -0.00029633208869576472 3.2342049235897758e-05 0 -0.0002937095720162986 2.5060762768399431e-05 0 -0.00029778883442651931 9.5106216904128007e-05 0 -0.00029633208869576472 3.2342049235897758e-05 0 -0.00032689405550699732 2.6347429721930332e-05 0 -0.00029633208869576472 3.2342049235897758e-05 0 -0.0002937095720162986 2.5060762768399431e-05 0 -0.0002716580151831948 7.9379122288818584e-06 0 -0.00029778883442651931 9.5106216904128007e-05 0 -0.0002937095720162986 2.5060762768399431e-05 0 -0.00035185082685173976 3.5484068516950923e-05 0 -0.00029778883442651931 9.5106216904128007e-05 0 -0.00035185082685173976 3.5484068516950923e-05 0 -0.00047467677284801865 4.3207916588102599e-05 0 -0.0002937095720162986 2.5060762768399431e-05 0 -0.00032829096396978872 8.3037705711532267e-06 0 -0.00028424498240325327 -2.3276450372162119e-05 0 -0.0002937095720162986 2.5060762768399431e-05 0 -0.00035185082685173976 3.5484068516950923e-05 0 -0.00032829096396978872 8.3037705711532267e-06 0 -0.00035185082685173976 3.5484068516950923e-05 0 -0.00032829096396978872 8.3037705711532267e-06 0 -0.0004016678166537046 -7.8482786290076633e-06 0 -0.00033649016976760975 -2.6854302403817469e-05 0 -0.00033721602506837629 -0.00010325686479803216 0 -0.0004016678166537046 -7.8482786290076633e-06 0 -0.00032829096396978872 8.3037705711532267e-06 0 -0.00033649016976760975 -2.6854302403817469e-05 0 -0.00028424498240325327 -2.3276450372162119e-05 0 -0.00032829096396978872 8.3037705711532267e-06 0 -0.00033649016976760975 -2.6854302403817469e-05 0 -0.0004016678166537046 -7.8482786290076633e-06 0 -0.00033649016976760975 -2.6854302403817469e-05 0 -0.00033721602506837629 -0.00010325686479803216 0 -0.00028424498240325327 -2.3276450372162119e-05 0 -0.0003111808303220419 0.00018075929919725983 0 -0.00031319220789179797 0.0001767685126456317 0 -0.00028424498240325327 -2.3276450372162119e-05 0 -0.00026254115671445584 -8.0379078806931359e-06 0 -0.00023589035278632212 -1.2671944205944474e-05 0 -0.00027666797024607052 -2.3626718542206438e-05 0 -0.00028424498240325327 -2.3276450372162119e-05 0 -0.00023589035278632212 -1.2671944205944474e-05 0 -0.0003111808303220419 0.00018075929919725983 0 -0.00030777286379563522 0.00017786695135821881 0 -0.0002937095720162986 2.5060762768399431e-05 0 -0.00028424498240325327 -2.3276450372162119e-05 0 -0.00026254115671445584 -8.0379078806931359e-06 0 -0.0002937095720162986 2.5060762768399431e-05 0 -0.00026254115671445584 -8.0379078806931359e-06 0 -0.0002716580151831948 7.9379122288818584e-06 0 -0.00026254115671445584 -8.0379078806931359e-06 0 -0.00024995135410988068 -3.6489215759297036e-07 0 -0.00023589035278632212 -1.2671944205944474e-05 0 -0.00026254115671445584 -8.0379078806931359e-06 0 -0.00024995135410988068 -3.6489215759297036e-07 0 -0.0002716580151831948 7.9379122288818584e-06 0 -0.00033721602506837629 -0.00010325686479803216 0 -0.0004016678166537046 -7.8482786290076633e-06 0 -0.00067316085411962671 3.2930314295664166e-05 0 -0.00047467677284801865 4.3207916588102599e-05 0 -0.0004016678166537046 -7.8482786290076633e-06 0 -0.00067316085411962671 3.2930314295664166e-05 0 -0.00025106396249545551 0.00033423332286016896 0 -0.00021937862951617115 0.00032504864415603036 0 -0.00022575436947032984 0.00034229249401427096 0 -0.0003111808303220419 0.00018075929919725983 0 -0.00045595517818411164 0.00020133595000094664 0 -0.00029778883442651931 9.5106216904128007e-05 0 -0.00047467677284801865 4.3207916588102599e-05 0 -0.00068373649517689352 8.4857391420855815e-05 0 -0.00047467677284801865 4.3207916588102599e-05 0 -0.00067316085411962671 3.2930314295664166e-05 0 -0.00068373649517689352 8.4857391420855815e-05 0 -0.00035185082685173976 3.5484068516950923e-05 0 -0.00047467677284801865 4.3207916588102599e-05 0 -0.0004016678166537046 -7.8482786290076633e-06 0 -0.00021937862951617115 0.00032504864415603036 0 -0.00020025460003068421 0.00033407153614967372 0 -0.00018809625603884666 0.00031588122999461516 0 -0.00067316085411962671 3.2930314295664166e-05 0 -0.00068373649517689352 8.4857391420855815e-05 0 -0.00073248526525963073 8.2124892169204997e-05 0 -0.00045595517818411164 0.00020133595000094664 0 -0.00068927122882462178 0.00025642789429443179 0 -0.00021937862951617115 0.00032504864415603036 0 -0.00020025460003068421 0.00033407153614967372 0 -0.00020773931960267299 0.00034540561880576912 0 -0.00068373649517689352 8.4857391420855815e-05 0 -0.00069727680666841938 7.0293944966586601e-05 0 -0.00073248526525963073 8.2124892169204997e-05 0 -0.00076206431463850775 6.6219460862506846e-05 0 -0.00068373649517689352 8.4857391420855815e-05 0 -0.00069727680666841938 7.0293944966586601e-05 0 -0.0010847037278437072 8.3039327374515492e-05 0 -0.00095688290389028428 0.00014724209355406289 0 -0.00078386926831263922 3.6942339783007584e-05 0 -0.00076206431463850775 6.6219460862506846e-05 0 -0.00069727680666841938 7.0293944966586601e-05 0 -0.0015949974256165122 0.00040309987341681481 0 -0.0015243199502110196 0.00039581612574485784 0 -0.0015443827716446448 0.0004425030908577056 0 -0.0015599687057217318 0.00037459351709711615 0 -0.0015949974256165122 0.00040309987341681481 0 -0.0015243199502110196 0.00039581612574485784 0 -0.00095688290389028428 0.00014724209355406289 0 -0.00068927122882462178 0.00025642789429443179 0 -0.00020025460003068421 0.00033407153614967372 0 -0.00018809625603884666 0.00031588122999461516 0 -0.0001856218238684524 0.00035003639636177892 0 -0.00016969553464571996 0.00034578143426095974 0 -0.00018809625603884666 0.00031588122999461516 0 -0.0001856218238684524 0.00035003639636177892 0 -0.00020025460003068421 0.00033407153614967372 0 -0.0001856218238684524 0.00035003639636177892 0 -0.00020773931960267299 0.00034540561880576912 0 -0.0001856218238684524 0.00035003639636177892 0 -0.00020773931960267299 0.00034540561880576912 0 -0.00019877705409758456 0.00036766206018238088 0 -0.00020773931960267299 0.00034540561880576912 0 -0.00019877705409758456 0.00036766206018238088 0 -0.00022482597002918296 0.00036441623746531331 0 -0.00021937862951617115 0.00032504864415603036 0 -0.00020773931960267299 0.00034540561880576912 0 -0.00022575436947032984 0.00034229249401427096 0 -0.00020773931960267299 0.00034540561880576912 0 -0.00022482597002918296 0.00036441623746531331 0 -0.00022575436947032984 0.00034229249401427096 0 -7.6216333615725354e-05 0.00017191705587849871 0 -0.00017965803713507151 0.00019298459676415027 0 -0.00019877705409758456 0.00036766206018238088 0 -0.00019882223540558164 0.0003934945423245919 0 -0.00022482597002918296 0.00036441623746531331 0 -0.00017120363620847724 0.00037951479905635549 0 -0.0001856218238684524 0.00035003639636177892 0 -0.00019877705409758456 0.00036766206018238088 0 -0.00017120363620847724 0.00037951479905635549 0 -0.00019877705409758456 0.00036766206018238088 0 -0.00019882223540558164 0.0003934945423245919 0 -0.00010951409394658534 0.00024415485000986377 0 -7.6216333615725354e-05 0.00017191705587849871 0 1.0390648519629213e-06 0.00028403150270505875 0 0.00010446874696344996 0.00023283306755393261 0 2.5242942612976351e-05 0.00013931909939411059 0 -7.6216333615725354e-05 0.00017191705587849871 0 -4.7443057290274995e-05 0.00014272813710131406 0 -7.6216333615725354e-05 0.00017191705587849871 0 -2.6087709273186725e-05 0.00011677420163085153 0 -0.00010014501442503655 5.8262744311870986e-05 0 -0.00010328680867271302 6.0940681270297123e-05 0 -0.00010726203271870591 5.2724073456567935e-05 0 7.0860807361076454e-05 7.4622629256964397e-05 0 7.518163476536146e-05 6.1060634600233136e-05 0 8.2352999172658213e-05 7.268175372792288e-05 0 6.4868744708520561e-05 9.479868180134407e-05 0 7.0860807361076454e-05 7.4622629256964397e-05 0 7.518163476536146e-05 6.1060634600233136e-05 0 6.4868744708520561e-05 9.479868180134407e-05 0 7.0860807361076454e-05 7.4622629256964397e-05 0 2.7348352013161729e-05 8.5978051782004651e-05 0 7.0860807361076454e-05 7.4622629256964397e-05 0 2.7348352013161729e-05 8.5978051782004651e-05 0 1.8426758629925077e-05 4.9433362603597924e-05 0 -1.6948695885392083e-05 0.00010369399756726065 0 -2.6087709273186725e-05 0.00011677420163085153 0 3.590616065757071e-06 5.9726746853953523e-05 0 -0.00010328680867271302 6.0940681270297123e-05 0 -0.00010192025022338738 6.7433008024618475e-05 0 3.590616065757071e-06 5.9726746853953523e-05 0 7.518163476536146e-05 6.1060634600233136e-05 0 8.2352999172658213e-05 7.268175372792288e-05 0 -0.00010328680867271302 6.0940681270297123e-05 0 -0.00010192025022338738 6.7433008024618475e-05 0 -0.00010726203271870591 5.2724073456567935e-05 0 3.590616065757071e-06 5.9726746853953523e-05 0 -0.00010192025022338738 6.7433008024618475e-05 0 -0.00010627417713500193 5.9801910716993205e-05 0 -0.00010192025022338738 6.7433008024618475e-05 0 -0.00014959923879779682 5.0209365380519507e-05 0 -0.00010627417713500193 5.9801910716993205e-05 0 -0.00014959923879779682 5.0209365380519507e-05 0 -0.00019848548687669403 3.1779424529333022e-05 0 -0.00016824138724685922 4.4993180129808789e-05 0 -0.00010192025022338738 6.7433008024618475e-05 0 -0.00014959923879779682 5.0209365380519507e-05 0 -0.00010726203271870591 5.2724073456567935e-05 0 -0.00014959923879779682 5.0209365380519507e-05 0 -0.00010726203271870591 5.2724073456567935e-05 0 -0.00016620201857893576 2.5913405447211291e-05 0 -0.00025106396249545551 0.00033423332286016896 0 -0.00022482597002918296 0.00036441623746531331 0 -0.00022575436947032984 0.00034229249401427096 0 -0.00018606540074319941 -2.2593752948625817e-05 0 -0.00010726203271870591 5.2724073456567935e-05 0 -0.00016620201857893576 2.5913405447211291e-05 0 -0.0003111808303220419 0.00018075929919725983 0 -0.00017965803713507151 0.00019298459676415027 0 -0.00020558583484616289 1.861785146375932e-05 0 -0.00023994644961003667 1.460548110223094e-05 0 -0.00019848548687669403 3.1779424529333022e-05 0 -0.00014959923879779682 5.0209365380519507e-05 0 -0.00020558583484616289 1.861785146375932e-05 0 -0.00019848548687669403 3.1779424529333022e-05 0 -0.00014959923879779682 5.0209365380519507e-05 0 -0.00020558583484616289 1.861785146375932e-05 0 -0.00016620201857893576 2.5913405447211291e-05 0 -0.00020558583484616289 1.861785146375932e-05 0 -0.00016620201857893576 2.5913405447211291e-05 0 -0.00023589035278632212 -1.2671944205944474e-05 0 -0.00018606540074319941 -2.2593752948625817e-05 0 -0.00016620201857893576 2.5913405447211291e-05 0 -0.00023589035278632212 -1.2671944205944474e-05 0 -0.00024995135410988068 -3.6489215759297036e-07 0 -0.00020558583484616289 1.861785146375932e-05 0 -0.00023589035278632212 -1.2671944205944474e-05 0 -0.00024995135410988068 -3.6489215759297036e-07 0 -0.00020558583484616289 1.861785146375932e-05 0 -0.00023994644961003667 1.460548110223094e-05 0 -0.00024995135410988068 -3.6489215759297036e-07 0 -0.00023994644961003667 1.460548110223094e-05 0 -0.00026885565071566915 8.995706737998913e-06 0 -0.00023994644961003667 1.460548110223094e-05 0 -0.00027629970446399536 1.313843111284819e-05 0 -0.00026885565071566915 8.995706737998913e-06 0 -0.00023994644961003667 1.460548110223094e-05 0 -0.00027629970446399536 1.313843111284819e-05 0 -0.00022650162554998252 2.8617386341453435e-05 0 -0.00023994644961003667 1.460548110223094e-05 0 -0.00022650162554998252 2.8617386341453435e-05 0 -0.00019848548687669403 3.1779424529333022e-05 0 -0.00027629970446399536 1.313843111284819e-05 0 -0.00026941727991740548 2.7718223438842777e-05 0 -0.0003353724485451463 1.1738147202115421e-05 0 -0.00027629970446399536 1.313843111284819e-05 0 -0.00022650162554998252 2.8617386341453435e-05 0 -0.00026941727991740548 2.7718223438842777e-05 0 -0.00026941727991740548 2.7718223438842777e-05 0 -0.00018589519866732057 4.6402290990893064e-05 0 -0.00032502825944756661 3.3321812209448286e-05 0 -0.00022650162554998252 2.8617386341453435e-05 0 -0.00026941727991740548 2.7718223438842777e-05 0 -0.00018589519866732057 4.6402290990893064e-05 0 -0.00018589519866732057 4.6402290990893064e-05 0 -0.00016824138724685922 4.4993180129808789e-05 0 -0.00010627417713500193 5.9801910716993205e-05 0 -0.00022650162554998252 2.8617386341453435e-05 0 -0.00019848548687669403 3.1779424529333022e-05 0 -0.00016824138724685922 4.4993180129808789e-05 0 -0.00022650162554998252 2.8617386341453435e-05 0 -0.00018589519866732057 4.6402290990893064e-05 0 -0.00016824138724685922 4.4993180129808789e-05 0 -0.00014959923879779682 5.0209365380519507e-05 0 -0.00016824138724685922 4.4993180129808789e-05 0 -0.00010627417713500193 5.9801910716993205e-05 0 -0.00018589519866732057 4.6402290990893064e-05 0 -0.00010627417713500193 5.9801910716993205e-05 0 -7.6670074177482742e-05 5.6239321500857222e-05 0 3.590616065757071e-06 5.9726746853953523e-05 0 -0.00010627417713500193 5.9801910716993205e-05 0 -7.6670074177482742e-05 5.6239321500857222e-05 0 -0.00018589519866732057 4.6402290990893064e-05 0 -7.6670074177482742e-05 5.6239321500857222e-05 0 -0.00016007481354899216 3.3995299004028956e-05 0 -7.6670074177482742e-05 5.6239321500857222e-05 0 -2.326905639762064e-05 5.6926856854243845e-05 0 4.976012452316779e-05 6.7380588487523762e-05 0 -7.6670074177482742e-05 5.6239321500857222e-05 0 -2.326905639762064e-05 5.6926856854243845e-05 0 -0.00016007481354899216 3.3995299004028956e-05 0 3.590616065757071e-06 5.9726746853953523e-05 0 -7.6670074177482742e-05 5.6239321500857222e-05 0 4.976012452316779e-05 6.7380588487523762e-05 0 -2.326905639762064e-05 5.6926856854243845e-05 0 -0.00016007481354899216 3.3995299004028956e-05 0 8.7959140571249725e-05 4.8252567700918032e-05 0 -0.00016007481354899216 3.3995299004028956e-05 0 -0.00021421519196229913 6.48699061661716e-08 0 8.7959140571249725e-05 4.8252567700918032e-05 0 -0.00021421519196229913 6.48699061661716e-08 0 8.7959140571249725e-05 4.8252567700918032e-05 0 8.6028091183741869e-05 6.3083749480517159e-08 0 -0.00016007481354899216 3.3995299004028956e-05 0 -0.00021421519196229913 6.48699061661716e-08 0 -0.00032502825944756661 3.3321812209448286e-05 0 -0.00021421519196229913 6.48699061661716e-08 0 -0.00032502825944756661 3.3321812209448286e-05 0 -0.00051457420068266684 1.6723560636013575e-07 0 -0.00018589519866732057 4.6402290990893064e-05 0 -0.00016007481354899216 3.3995299004028956e-05 0 -0.00032502825944756661 3.3321812209448286e-05 0 -0.00032502825944756661 3.3321812209448286e-05 0 -0.00048024821670653169 1.6016653932813851e-05 0 -0.0003353724485451463 1.1738147202115421e-05 0 -0.00026941727991740548 2.7718223438842777e-05 0 -0.00032502825944756661 3.3321812209448286e-05 0 -0.0003353724485451463 1.1738147202115421e-05 0 -0.00032502825944756661 3.3321812209448286e-05 0 -0.00051457420068266684 1.6723560636013575e-07 0 -0.00048024821670653169 1.6016653932813851e-05 0 -0.00051457420068266684 1.6723560636013575e-07 0 -0.00081434816682019221 -3.4816190283460346e-07 0 -0.00048024821670653169 1.6016653932813851e-05 0 -0.00081434816682019221 -3.4816190283460346e-07 0 -0.0004177337689616012 -9.269266274797835e-05 0 -0.00048024821670653169 1.6016653932813851e-05 0 -0.00081538372436073647 1.127146137846498e-08 0 -0.00098193304048541921 8.8311342887735622e-05 0 -0.0010186496949933686 1.520451691572438e-05 0 -0.00081477484234636442 8.7675113341193598e-09 0 -0.00068972197111194912 -6.1539410797255279e-06 0 -0.0004177337689616012 -9.269266274797835e-05 0 -0.00038183498321465813 -2.7641700642678219e-05 0 -0.00048024821670653169 1.6016653932813851e-05 0 -0.00038183498321465813 -2.7641700642678219e-05 0 -0.00048024821670653169 1.6016653932813851e-05 0 -0.0003353724485451463 1.1738147202115421e-05 0 -0.0003353724485451463 1.1738147202115421e-05 0 -0.00035167168798693149 -6.5904800254850472e-06 0 -0.00031463373035136601 6.4047760103974474e-06 0 -0.00027629970446399536 1.313843111284819e-05 0 -0.0003353724485451463 1.1738147202115421e-05 0 -0.00031463373035136601 6.4047760103974474e-06 0 -0.00035167168798693149 -6.5904800254850472e-06 0 -0.00031463373035136601 6.4047760103974474e-06 0 -0.00034927648270130003 1.2379600917516062e-05 0 -0.00038183498321465813 -2.7641700642678219e-05 0 -0.0003353724485451463 1.1738147202115421e-05 0 -0.00035167168798693149 -6.5904800254850472e-06 0 -0.00038183498321465813 -2.7641700642678219e-05 0 -0.00035167168798693149 -6.5904800254850472e-06 0 -0.00038582800562635106 -1.5590442223170509e-05 0 -0.0002716580151831948 7.9379122288818584e-06 0 -0.00026885565071566915 8.995706737998913e-06 0 -0.00029949868706912489 1.4285079794004227e-05 0 -0.00024995135410988068 -3.6489215759297036e-07 0 -0.0002716580151831948 7.9379122288818584e-06 0 -0.00026885565071566915 8.995706737998913e-06 0 -0.00027629970446399536 1.313843111284819e-05 0 -0.00026885565071566915 8.995706737998913e-06 0 -0.00029949868706912489 1.4285079794004227e-05 0 -0.00027629970446399536 1.313843111284819e-05 0 -0.00031463373035136601 6.4047760103974474e-06 0 -0.00029949868706912489 1.4285079794004227e-05 0 -0.00031463373035136601 6.4047760103974474e-06 0 -0.00029949868706912489 1.4285079794004227e-05 0 -0.00034927648270130003 1.2379600917516062e-05 0 -0.00029949868706912489 1.4285079794004227e-05 0 -0.00031749229257928432 2.2244556793981526e-05 0 -0.00034927648270130003 1.2379600917516062e-05 0 -0.00029633208869576472 3.2342049235897758e-05 0 -0.0002716580151831948 7.9379122288818584e-06 0 -0.00029949868706912489 1.4285079794004227e-05 0 -0.00029633208869576472 3.2342049235897758e-05 0 -0.00029949868706912489 1.4285079794004227e-05 0 -0.00031749229257928432 2.2244556793981526e-05 0 -0.00098809219214329421 1.7054556655066076e-05 0 -0.00092374653847411504 9.6000780011954606e-05 0 -0.0010670496284783343 1.1440069707421392e-05 0 -0.00069145742721765733 4.6739521689384855e-05 0 -0.00073411321505736796 1.9071383618146395e-05 0 -0.00029778883442651931 9.5106216904128007e-05 0 -0.00032689405550699732 2.6347429721930332e-05 0 -0.00036733897592327149 -6.0677052883487278e-05 0 -0.00032689405550699732 2.6347429721930332e-05 0 -0.00031749229257928432 2.2244556793981526e-05 0 -0.00034927648270130003 1.2379600917516062e-05 0 -0.00029633208869576472 3.2342049235897758e-05 0 -0.00032689405550699732 2.6347429721930332e-05 0 -0.00031749229257928432 2.2244556793981526e-05 0 -0.00032689405550699732 2.6347429721930332e-05 0 -0.00034927648270130003 1.2379600917516062e-05 0 -0.00036296759896486372 8.6340495413104434e-06 0 -0.00034927648270130003 1.2379600917516062e-05 0 -0.00037993168584321107 1.2768875758291972e-05 0 -0.00036296759896486372 8.6340495413104434e-06 0 -0.00032689405550699732 2.6347429721930332e-05 0 -0.00036296759896486372 8.6340495413104434e-06 0 -0.00036733897592327149 -6.0677052883487278e-05 0 -0.00037993168584321107 1.2768875758291972e-05 0 -0.00036296759896486372 8.6340495413104434e-06 0 -0.00041843683742407507 2.8504543680661364e-05 0 -0.00036296759896486372 8.6340495413104434e-06 0 -0.00041843683742407507 2.8504543680661364e-05 0 -0.00036733897592327149 -6.0677052883487278e-05 0 -0.0004177337689616012 -9.269266274797835e-05 0 -0.00038183498321465813 -2.7641700642678219e-05 0 -0.00038582800562635106 -1.5590442223170509e-05 0 -0.00068972197111194912 -6.1539410797255279e-06 0 -0.000604754180063841 -1.0912181913648265e-05 0 -0.00098193304048541921 8.8311342887735622e-05 0 -0.00041843683742407507 2.8504543680661364e-05 0 -0.00071562875159138987 3.4067951862396492e-06 0 -0.0004177337689616012 -9.269266274797835e-05 0 -0.00038582800562635106 -1.5590442223170509e-05 0 -0.00041843683742407507 2.8504543680661364e-05 0 -0.00034927648270130003 1.2379600917516062e-05 0 -0.00037993168584321107 1.2768875758291972e-05 0 -0.00038582800562635106 -1.5590442223170509e-05 0 -0.00035167168798693149 -6.5904800254850472e-06 0 -0.00034927648270130003 1.2379600917516062e-05 0 -0.00038582800562635106 -1.5590442223170509e-05 0 -0.00041843683742407507 2.8504543680661364e-05 0 -0.00071562875159138987 3.4067951862396492e-06 0 -0.00036733897592327149 -6.0677052883487278e-05 0 -0.00037993168584321107 1.2768875758291972e-05 0 -0.00038582800562635106 -1.5590442223170509e-05 0 -0.00041843683742407507 2.8504543680661364e-05 0 -0.00071562875159138987 3.4067951862396492e-06 0 -0.00036733897592327149 -6.0677052883487278e-05 0 -0.0010096671051958511 -4.9747458939315468e-05 0 -0.00073411321505736796 1.9071383618146395e-05 0 -0.00079742519531285079 -4.0556460383403066e-06 0 -0.00106442892593319 -9.532875217131778e-06 0 -0.0010670496284783343 1.1440069707421392e-05 0 -0.0010096671051958511 -4.9747458939315468e-05 0 -0.00099342680958689161 -3.5239160754186159e-05 0 -0.0010432323867059054 -1.3167800480471382e-05 0 -0.0010210292645176683 -4.6028538536368102e-06 0 -0.00098809219214329421 1.7054556655066076e-05 0 -0.0010670496284783343 1.1440069707421392e-05 0 -0.0010210292645176683 -4.6028538536368102e-06 0 -0.00106442892593319 -9.532875217131778e-06 0 -0.0010670496284783343 1.1440069707421392e-05 0 -0.0010432323867059054 -1.3167800480471382e-05 0 -0.0010670496284783343 1.1440069707421392e-05 0 -0.0010432323867059054 -1.3167800480471382e-05 0 -0.0010210292645176683 -4.6028538536368102e-06 0 -0.00099342680958689161 -3.5239160754186159e-05 0 -0.0010432323867059054 -1.3167800480471382e-05 0 -0.0010252245957959546 -3.3778877977652387e-05 0 -0.0010432323867059054 -1.3167800480471382e-05 0 -0.0010252245957959546 -3.3778877977652387e-05 0 -0.0010705358496025242 -1.3337129184750411e-05 0 -0.00106442892593319 -9.532875217131778e-06 0 -0.0010852877741627852 -2.3751792416579846e-06 0 -0.0010096671051958511 -4.9747458939315468e-05 0 -0.00106442892593319 -9.532875217131778e-06 0 -0.0010705358496025242 -1.3337129184750411e-05 0 -0.0010852877741627852 -2.3751792416579846e-06 0 -0.00106442892593319 -9.532875217131778e-06 0 -0.0010432323867059054 -1.3167800480471382e-05 0 -0.0010705358496025242 -1.3337129184750411e-05 0 -0.0011158505007370448 -1.2901079424434027e-05 0 -0.0010705358496025242 -1.3337129184750411e-05 0 -0.0010852877741627852 -2.3751792416579846e-06 0 -0.0011623637949833342 2.8339074283174193e-07 0 -0.0010852877741627852 -2.3751792416579846e-06 0 -0.0011090480562817577 6.3815827425305123e-07 0 -0.0010852877741627852 -2.3751792416579846e-06 0 -0.0011090480562817577 6.3815827425305123e-07 0 -0.0010096671051958511 -4.9747458939315468e-05 0 -0.0013803502659800405 1.0736804197867301e-07 0 -0.0010975377552302102 2.0625013541964729e-08 0 -0.0011090480562817577 6.3815827425305123e-07 0 -0.0010975377552302102 2.0625013541964729e-08 0 -0.0011090480562817577 6.3815827425305123e-07 0 -0.0010186496949933686 1.520451691572438e-05 0 -0.00081538372436073647 1.127146137846498e-08 0 -0.0010975377552302102 2.0625013541964729e-08 0 -0.0010186496949933686 1.520451691572438e-05 0 -0.00098193304048541921 8.8311342887735622e-05 0 -0.00071562875159138987 3.4067951862396492e-06 0 -0.0010096671051958511 -4.9747458939315468e-05 0 -0.00098193304048541921 8.8311342887735622e-05 0 -0.0010186496949933686 1.520451691572438e-05 0 -0.0010096671051958511 -4.9747458939315468e-05 0 -0.0011090480562817577 6.3815827425305123e-07 0 -0.0010186496949933686 1.520451691572438e-05 0 -0.0010096671051958511 -4.9747458939315468e-05 0 -0.00163917269298834 0.00023865462454988222 0 -0.0016353025305392008 0.00030692414635211926 0 -0.0015912078718936596 0.00023099501768347503 0 -0.0016031270676697233 0.00028744001468383756 0 -0.0016534677848539148 0.0003157346559731911 0 -0.0016079518242828655 0.00022908041180015601 0 -0.0016331564072922247 0.00029902544620564678 0 -0.0015988079954290342 0.00023115676949549829 0 -0.00163917269298834 0.00023865462454988222 0 -0.001663324547320101 0.00027278530009000726 0 -0.0016353025305392008 0.00030692414635211926 0 -0.00163917269298834 0.00023865462454988222 0 -0.0016800253764807848 0.00023504165826367554 0 -0.001663324547320101 0.00027278530009000726 0 -0.001663324547320101 0.00027278530009000726 0 -0.0016792352466001464 0.00031687623611658105 0 -0.0016353025305392008 0.00030692414635211926 0 -0.001663324547320101 0.00027278530009000726 0 -0.0016792352466001464 0.00031687623611658105 0 -0.0017336415279573573 0.00031955409040853325 0 -0.0016792352466001464 0.00031687623611658105 0 -0.0016353025305392008 0.00030692414635211926 0 -0.0016885554866131434 0.00038795119689105233 0 -0.0016792352466001464 0.00031687623611658105 0 -0.0017336415279573573 0.00031955409040853325 0 -0.0017084781168122114 0.00034127292207136148 0 -0.0016031270676697233 0.00028744001468383756 0 -0.0016525789924880386 0.00033703941299198064 0 -0.0015461307720141221 0.00030482214956609991 0 -0.0016031270676697233 0.00028744001468383756 0 -0.0016525789924880386 0.00033703941299198064 0 -0.0016534677848539148 0.0003157346559731911 0 -0.0016525789924880386 0.00033703941299198064 0 -0.0015461307720141221 0.00030482214956609991 0 -0.0015447108070492965 0.00038920720016118068 0 -0.0015461307720141221 0.00030482214956609991 0 -0.0014796983494579071 0.00025970687722451363 0 -0.0014647591203141074 0.00031582379468532841 0 -0.0015461307720141221 0.00030482214956609991 0 -0.0015447108070492965 0.00038920720016118068 0 -0.0014647591203141074 0.00031582379468532841 0 -0.0014796983494579071 0.00025970687722451363 0 -0.0015564785373111784 0.00024973234756929823 0 -0.0015100606290487685 0.00022008903730625626 0 -0.0015461307720141221 0.00030482214956609991 0 -0.0014796983494579071 0.00025970687722451363 0 -0.0015564785373111784 0.00024973234756929823 0 -0.0016031270676697233 0.00028744001468383756 0 -0.0015461307720141221 0.00030482214956609991 0 -0.0015564785373111784 0.00024973234756929823 0 -0.0016031270676697233 0.00028744001468383756 0 -0.0015564785373111784 0.00024973234756929823 0 -0.0016079518242828655 0.00022908041180015601 0 -0.0015564785373111784 0.00024973234756929823 0 -0.0015624309256041301 0.00014884766772113456 0 -0.0016079518242828655 0.00022908041180015601 0 -0.0015564785373111784 0.00024973234756929823 0 -0.0015100606290487685 0.00022008903730625626 0 -0.0015624309256041301 0.00014884766772113456 0 -0.0015645693890774953 0.00016480476137797735 0 -0.0015988079954290342 0.00023115676949549829 0 -0.0015100606290487685 0.00022008903730625626 0 -0.0015086639184535584 0.00017031650626236677 0 -0.0014234495085005093 0.00022429831055249442 0 -0.0015100606290487685 0.00022008903730625626 0 -0.0015086639184535584 0.00017031650626236677 0 -0.0015624309256041301 0.00014884766772113456 0 -0.0015086639184535584 0.00017031650626236677 0 -0.0015054594609242393 0.00012475883577161545 0 -0.0014754409287126855 0.0001349215481280647 0 -0.0015086639184535584 0.00017031650626236677 0 -0.0015054594609242393 0.00012475883577161545 0 -0.0015624309256041301 0.00014884766772113456 0 -0.0015476982817275383 0.00015622664835114911 0 -0.001588657830059668 0.00013292719513921303 0 -0.0016115156889442137 0.00017995712959504909 0 -0.001588657830059668 0.00013292719513921303 0 -0.0016115156889442137 0.00017995712959504909 0 -0.0016296060470865018 0.00013161779483999422 0 -0.00163917269298834 0.00023865462454988222 0 -0.0016115156889442137 0.00017995712959504909 0 -0.0015912078718936596 0.00023099501768347503 0 -0.0015476982817275383 0.00015622664835114911 0 -0.0016115156889442137 0.00017995712959504909 0 -0.0015912078718936596 0.00023099501768347503 0 -0.00163917269298834 0.00023865462454988222 0 -0.0016115156889442137 0.00017995712959504909 0 -0.0016536397160138851 0.00020255339369257689 0 -0.0016800253764807848 0.00023504165826367554 0 -0.0016536397160138851 0.00020255339369257689 0 -0.0016955215952500276 0.00020077465613377689 0 -0.00163917269298834 0.00023865462454988222 0 -0.0016800253764807848 0.00023504165826367554 0 -0.0016536397160138851 0.00020255339369257689 0 -0.0016115156889442137 0.00017995712959504909 0 -0.0016536397160138851 0.00020255339369257689 0 -0.00165804196382136 0.00016460393056438714 0 -0.0016536397160138851 0.00020255339369257689 0 -0.00165804196382136 0.00016460393056438714 0 -0.0016955215952500276 0.00020077465613377689 0 -0.0016115156889442137 0.00017995712959504909 0 -0.00165804196382136 0.00016460393056438714 0 -0.0016296060470865018 0.00013161779483999422 0 -0.00165804196382136 0.00016460393056438714 0 -0.0016296060470865018 0.00013161779483999422 0 -0.0016707838508566077 0.0001225193151909275 0 -0.00165804196382136 0.00016460393056438714 0 -0.0016707838508566077 0.0001225193151909275 0 -0.0017006909094217646 0.0001477170654576059 0 -0.0017006909094217646 0.0001477170654576059 0 -0.0016990703152043071 0.0001018174802546208 0 -0.0017257319665135134 0.00011833812927946467 0 -0.0016707838508566077 0.0001225193151909275 0 -0.0017006909094217646 0.0001477170654576059 0 -0.0016990703152043071 0.0001018174802546208 0 -0.00165804196382136 0.00016460393056438714 0 -0.0017006909094217646 0.0001477170654576059 0 -0.0016955215952500276 0.00020077465613377689 0 -0.0017006909094217646 0.0001477170654576059 0 -0.0017511596375918517 0.00014184102352325149 0 -0.0017361314783858764 0.00018684334149154854 0 -0.0017006909094217646 0.0001477170654576059 0 -0.0017511596375918517 0.00014184102352325149 0 -0.0017257319665135134 0.00011833812927946467 0 -0.0017511596375918517 0.00014184102352325149 0 -0.0017802508133460658 0.00018028587782999516 0 -0.0018082212359411842 0.00011263112369399089 0 -0.0017511596375918517 0.00014184102352325149 0 -0.0018082212359411842 0.00011263112369399089 0 -0.0017582713369942355 0.00010366210646989643 0 -0.0017511596375918517 0.00014184102352325149 0 -0.0017582713369942355 0.00010366210646989643 0 -0.0017257319665135134 0.00011833812927946467 0 -0.0017511596375918517 0.00014184102352325149 0 -0.0017802508133460658 0.00018028587782999516 0 -0.0017361314783858764 0.00018684334149154854 0 -0.0017802508133460658 0.00018028587782999516 0 -0.0018187157162876785 0.00021508057668343205 0 -0.0017442066123981692 0.00025776198415686577 0 -0.0017802508133460658 0.00018028587782999516 0 -0.0017361314783858764 0.00018684334149154854 0 -0.0017442066123981692 0.00025776198415686577 0 -0.0016800253764807848 0.00023504165826367554 0 -0.0016955215952500276 0.00020077465613377689 0 -0.0017442066123981692 0.00025776198415686577 0 -0.0016955215952500276 0.00020077465613377689 0 -0.0017361314783858764 0.00018684334149154854 0 -0.0017442066123981692 0.00025776198415686577 0 -0.0017006909094217646 0.0001477170654576059 0 -0.0016955215952500276 0.00020077465613377689 0 -0.0017361314783858764 0.00018684334149154854 0 -0.0019217122179450128 0.00010321874631405362 0 -0.0018505727618527389 0.00013605321749930052 0 -0.0018082212359411842 0.00011263112369399089 0 -0.0019217122179450128 0.00010321874631405362 0 -0.0018897610094474461 0.00014108333714825524 0 -0.0018505727618527389 0.00013605321749930052 0 -0.0019210212431675982 0.00016007279014067314 0 -0.0018897610094474461 0.00014108333714825524 0 -0.0018663818567229663 0.00016501528695460254 0 -0.0019217122179450128 0.00010321874631405362 0 -0.0019210212431675982 0.00016007279014067314 0 -0.0018897610094474461 0.00014108333714825524 0 -0.0018897610094474461 0.00014108333714825524 0 -0.0018663818567229663 0.00016501528695460254 0 -0.0018505727618527389 0.00013605321749930052 0 -0.0017802508133460658 0.00018028587782999516 0 -0.0018243334764686172 0.00017006508673698709 0 -0.0018082212359411842 0.00011263112369399089 0 -0.0018663818567229663 0.00016501528695460254 0 -0.0018243334764686172 0.00017006508673698709 0 -0.0018505727618527389 0.00013605321749930052 0 -0.0018243334764686172 0.00017006508673698709 0 -0.0018505727618527389 0.00013605321749930052 0 -0.0018082212359411842 0.00011263112369399089 0 -0.0017802508133460658 0.00018028587782999516 0 -0.0018243334764686172 0.00017006508673698709 0 -0.0018187157162876785 0.00021508057668343205 0 -0.0018187157162876785 0.00021508057668343205 0 -0.0018458588862496023 0.00021796534657959668 0 -0.0018503654557219106 0.00019710297322518368 0 -0.0018187157162876785 0.00021508057668343205 0 -0.0018442989691222207 0.00024281593881337444 0 -0.0018454577829039502 0.00023713808329605567 0 -0.0018187157162876785 0.00021508057668343205 0 -0.0018458588862496023 0.00021796534657959668 0 -0.0018454577829039502 0.00023713808329605567 0 -0.0018546046655744783 0.00022771382270988337 0 -0.0018458588862496023 0.00021796534657959668 0 -0.0018454577829039502 0.00023713808329605567 0 -0.0018663818567229663 0.00016501528695460254 0 -0.0018243334764686172 0.00017006508673698709 0 -0.0018503654557219106 0.00019710297322518368 0 -0.0018243334764686172 0.00017006508673698709 0 -0.0018187157162876785 0.00021508057668343205 0 -0.0018503654557219106 0.00019710297322518368 0 -0.0019417324949525814 0.00022966362733111255 0 -0.0019210212431675982 0.00016007279014067314 0 -0.0018885206603228609 0.00019474140313060614 0 -0.0019508660502247021 0.00023836276931406389 0 -0.0018735612127341423 0.00025589623402129261 0 -0.0019417324949525814 0.00022966362733111255 0 -0.0018705852556389038 0.00021825746704457084 0 -0.0018442122856801003 0.00024381133000940576 0 -0.0019417324949525814 0.00022966362733111255 0 -0.0018705852556389038 0.00021825746704457084 0 -0.0018885206603228609 0.00019474140313060614 0 -0.0018663818567229663 0.00016501528695460254 0 -0.0018503654557219106 0.00019710297322518368 0 -0.0018885206603228609 0.00019474140313060614 0 -0.0018503654557219106 0.00019710297322518368 0 -0.0018705852556389038 0.00021825746704457084 0 -0.0018885206603228609 0.00019474140313060614 0 -0.0018458588862496023 0.00021796534657959668 0 -0.0018503654557219106 0.00019710297322518368 0 -0.0018705852556389038 0.00021825746704457084 0 -0.0018546046655744783 0.00022771382270988337 0 -0.0018705852556389038 0.00021825746704457084 0 -0.0018442122856801003 0.00024381133000940576 0 -0.0018546046655744783 0.00022771382270988337 0 -0.0018458588862496023 0.00021796534657959668 0 -0.0018705852556389038 0.00021825746704457084 0 -0.0019210212431675982 0.00016007279014067314 0 -0.0018663818567229663 0.00016501528695460254 0 -0.0018885206603228609 0.00019474140313060614 0 -0.0019731652439218634 0.00024271412177871298 0 -0.0019417197614118302 0.00028835614359590326 0 -0.0019192834359076129 0.00026578746804108031 0 -0.0019417197614118302 0.00028835614359590326 0 -0.0019192834359076129 0.00026578746804108031 0 -0.0019270477614616937 0.00029197419319289334 0 -0.0018761915437839683 0.00023151430894240019 0 -0.0018311570054047599 0.00027745907218668895 0 -0.0018582931567939752 0.00032663212734628834 0 -0.0018761915437839683 0.00023151430894240019 0 -0.0018311570054047599 0.00027745907218668895 0 -0.001776927865676975 0.00024982284947676651 0 -0.0018187157162876785 0.00021508057668343205 0 -0.0018442989691222207 0.00024281593881337444 0 -0.0017442066123981692 0.00025776198415686577 0 -0.0018735612127341423 0.00025589623402129261 0 -0.0018763106719546483 0.0003225319607094119 0 -0.0018546046655744783 0.00022771382270988337 0 -0.0018442122856801003 0.00024381133000940576 0 -0.0018454577829039502 0.00023713808329605567 0 -0.0018735612127341423 0.00025589623402129261 0 -0.0018735379630241673 0.00025584213987296981 0 -0.0019192834359076129 0.00026578746804108031 0 -0.001919823867156863 0.00030999650071786598 0 -0.0019270477614616937 0.00029197419319289334 0 -0.0018311570054047599 0.00027745907218668895 0 -0.0018582931567939752 0.00032663212734628834 0 -0.0018040923979458854 0.00031719546865742698 0 -0.001919823867156863 0.00030999650071786598 0 -0.0019290521371506863 0.00030198633672011009 0 -0.001937418322578776 0.00031189318688257597 0 -0.001919823867156863 0.00030999650071786598 0 -0.0019270477614616937 0.00029197419319289334 0 -0.0019290521371506863 0.00030198633672011009 0 -0.0019809552194480187 0.00032986303951606654 0 -0.0019417197614118302 0.00028835614359590326 0 -0.0019492838841287127 0.00038936645732659325 0 -0.0019931465000426057 0.00033431758264147976 0 -0.0020143888117732729 0.00037369481932703188 0 -0.0019417197614118302 0.00028835614359590326 0 -0.001937418322578776 0.00031189318688257597 0 -0.001955744999577663 0.00032170335811817542 0 -0.0019417197614118302 0.00028835614359590326 0 -0.0019290521371506863 0.00030198633672011009 0 -0.001937418322578776 0.00031189318688257597 0 -0.0019417197614118302 0.00028835614359590326 0 -0.0019270477614616937 0.00029197419319289334 0 -0.0019290521371506863 0.00030198633672011009 0 -0.001663324547320101 0.00027278530009000726 0 -0.001776927865676975 0.00024982284947676651 0 -0.0017336415279573573 0.00031955409040853325 0 -0.0016800253764807848 0.00023504165826367554 0 -0.001663324547320101 0.00027278530009000726 0 -0.0017442066123981692 0.00025776198415686577 0 -0.0017233054767834273 0.00027081899576905004 0 -0.0017750829329670039 0.00026382765237796779 0 -0.0018735612127341423 0.00025589623402129261 0 -0.0017750829329670039 0.00026382765237796779 0 -0.0018311570054047599 0.00027745907218668895 0 -0.001776927865676975 0.00024982284947676651 0 -0.0018040923979458854 0.00031719546865742698 0 -0.0018040923979458854 0.00031719546865742698 0 -0.0017336415279573573 0.00031955409040853325 0 -0.0017750949359047581 0.00036551209433297857 0 -0.001776927865676975 0.00024982284947676651 0 -0.0018040923979458854 0.00031719546865742698 0 -0.0017336415279573573 0.00031955409040853325 0 -0.0018582931567939752 0.00032663212734628834 0 -0.0018040923979458854 0.00031719546865742698 0 -0.0018143430690396546 0.00036624269400113447 0 -0.0017283924542866947 0.00037029769752783953 0 -0.0017446742923614095 0.00041200521870180293 0 -0.0016885554866131434 0.00038795119689105233 0 -0.0017336415279573573 0.00031955409040853325 0 -0.0017283924542866947 0.00037029769752783953 0 -0.0017084781168122114 0.00034127292207136148 0 -0.0017283924542866947 0.00037029769752783953 0 -0.0017750949359047581 0.00036551209433297857 0 -0.0017446742923614095 0.00041200521870180293 0 -0.0017336415279573573 0.00031955409040853325 0 -0.0017283924542866947 0.00037029769752783953 0 -0.0017750949359047581 0.00036551209433297857 0 -0.0018040923979458854 0.00031719546865742698 0 -0.0017750949359047581 0.00036551209433297857 0 -0.0018143430690396546 0.00036624269400113447 0 -0.0017750949359047581 0.00036551209433297857 0 -0.0018143430690396546 0.00036624269400113447 0 -0.0017933783575407015 0.00040383931315797798 0 -0.0017933783575407015 0.00040383931315797798 0 -0.0018406036072089716 0.00041555695619475383 0 -0.0017866929653193087 0.00044987171801950102 0 -0.0018143430690396546 0.00036624269400113447 0 -0.0017933783575407015 0.00040383931315797798 0 -0.0018406036072089716 0.00041555695619475383 0 -0.0017933783575407015 0.00040383931315797798 0 -0.0017446742923614095 0.00041200521870180293 0 -0.0017866929653193087 0.00044987171801950102 0 -0.0017446742923614095 0.00041200521870180293 0 -0.0017359325863385534 0.00046825428675598222 0 -0.0016915644508580993 0.00044022814292517812 0 -0.0017750949359047581 0.00036551209433297857 0 -0.0017933783575407015 0.00040383931315797798 0 -0.0017446742923614095 0.00041200521870180293 0 -0.0020139430312035656 0.000392817592689344 0 -0.001948766051496446 0.00036138301422293208 0 -0.0019952573119580118 0.00033508976117152609 0 -0.001937418322578776 0.00031189318688257597 0 -0.001948766051496446 0.00036138301422293208 0 -0.0019952573119580118 0.00033508976117152609 0 -0.0019907392409029235 0.00035882294458740316 0 -0.0020143888117732729 0.00037369481932703188 0 -0.0018763106719546483 0.0003225319607094119 0 -0.0018691755824044424 0.0004061761927225435 0 -0.001919823867156863 0.00030999650071786598 0 -0.001937418322578776 0.00031189318688257597 0 -0.001948766051496446 0.00036138301422293208 0 -0.001919823867156863 0.00030999650071786598 0 -0.001948766051496446 0.00036138301422293208 0 -0.0019075062173139448 0.00038966751843408576 0 -0.0018582931567939752 0.00032663212734628834 0 -0.0018143430690396546 0.00036624269400113447 0 -0.0018406036072089716 0.00041555695619475383 0 -0.001948766051496446 0.00036138301422293208 0 -0.0019075062173139448 0.00038966751843408576 0 -0.001975350415932785 0.00041186102990767705 0 -0.0020139430312035656 0.000392817592689344 0 -0.001948766051496446 0.00036138301422293208 0 -0.001975350415932785 0.00041186102990767705 0 -0.0020295070296211313 0.00044931319369765651 0 -0.001975350415932785 0.00041186102990767705 0 -0.0019718044112436227 0.00046345438793406901 0 -0.0020697059555900834 0.00048493250137936916 0 -0.0020415954703664999 0.00048502273467709628 0 -0.0019075062173139448 0.00038966751843408576 0 -0.001975350415932785 0.00041186102990767705 0 -0.0019718044112436227 0.00046345438793406901 0 -0.0018691755824044424 0.0004061761927225435 0 -0.001857679176451804 0.00049920104187850989 0 -0.0019075062173139448 0.00038966751843408576 0 -0.0019718044112436227 0.00046345438793406901 0 -0.0018870519063549558 0.00048657741218699593 0 -0.0019718044112436227 0.00046345438793406901 0 -0.0019356530830758258 0.00054471282516170257 0 -0.0018870519063549558 0.00048657741218699593 0 -0.0018621716453561699 0.00060429111112330583 0 -0.0019356530830758258 0.00054471282516170257 0 -0.0018870519063549558 0.00048657741218699593 0 -0.0019718044112436227 0.00046345438793406901 0 -0.0019356530830758258 0.00054471282516170257 0 -0.0020140588098039188 0.00053447502960133448 0 -0.0020699438854787995 0.00044051466763832752 0 -0.0019718044112436227 0.00046345438793406901 0 -0.0020140588098039188 0.00053447502960133448 0 -0.0017446742923614095 0.00041200521870180293 0 -0.0017359325863385534 0.00046825428675598222 0 -0.0017866929653193087 0.00044987171801950102 0 -0.0017359325863385534 0.00046825428675598222 0 -0.0017866929653193087 0.00044987171801950102 0 -0.0017782376891619634 0.00050909267638186322 0 -0.0017866929653193087 0.00044987171801950102 0 -0.001831879419584949 0.00049763794924539474 0 -0.0017782376891619634 0.00050909267638186322 0 -0.0018406036072089716 0.00041555695619475383 0 -0.0017866929653193087 0.00044987171801950102 0 -0.001831879419584949 0.00049763794924539474 0 -0.0018446766730891525 0.00059571670811372037 0 -0.001857679176451804 0.00049920104187850989 0 -0.0018330975425668253 0.00059144054698542564 0 -0.001831879419584949 0.00049763794924539474 0 -0.0017782376891619634 0.00050909267638186322 0 -0.0017570900311939359 0.00055059133026781897 0 -0.0017782376891619634 0.00050909267638186322 0 -0.001731691884776081 0.00051130096410604393 0 -0.0017359325863385534 0.00046825428675598222 0 -0.0017782376891619634 0.00050909267638186322 0 -0.001731691884776081 0.00051130096410604393 0 -0.0017570900311939359 0.00055059133026781897 0 -0.001731691884776081 0.00051130096410604393 0 -0.0017159902418283641 0.0005366081879820203 0 -0.0017359325863385534 0.00046825428675598222 0 -0.001731691884776081 0.00051130096410604393 0 -0.0016850748311897697 0.00050234945127993781 0 -0.001731691884776081 0.00051130096410604393 0 -0.0017159902418283641 0.0005366081879820203 0 -0.0016850748311897697 0.00050234945127993781 0 -0.0016874245850308567 0.00053976629119886624 0 -0.0016850748311897697 0.00050234945127993781 0 -0.0016695979743102142 0.0005305143241696559 0 -0.0016874245850308567 0.00053976629119886624 0 -0.0017159902418283641 0.0005366081879820203 0 -0.0016850748311897697 0.00050234945127993781 0 -0.0016850748311897697 0.00050234945127993781 0 -0.0016441868917316817 0.00051435975843170496 0 -0.0016553676546602043 0.00046809803105348321 0 -0.0016519312707613211 0.00054010066470064463 0 -0.0016441868917316817 0.00051435975843170496 0 -0.0016695979743102142 0.0005305143241696559 0 -0.0016850748311897697 0.00050234945127993781 0 -0.0016441868917316817 0.00051435975843170496 0 -0.0016695979743102142 0.0005305143241696559 0 -0.0017359325863385534 0.00046825428675598222 0 -0.0016850748311897697 0.00050234945127993781 0 -0.0016915644508580993 0.00044022814292517812 0 -0.0016850748311897697 0.00050234945127993781 0 -0.0016553676546602043 0.00046809803105348321 0 -0.0016915644508580993 0.00044022814292517812 0 -0.0017446742923614095 0.00041200521870180293 0 -0.0016915644508580993 0.00044022814292517812 0 -0.0016885554866131434 0.00038795119689105233 0 -0.0016915644508580993 0.00044022814292517812 0 -0.0016467013441114234 0.00040144772089062208 0 -0.0016885554866131434 0.00038795119689105233 0 -0.0016553676546602043 0.00046809803105348321 0 -0.0016915644508580993 0.00044022814292517812 0 -0.0016467013441114234 0.00040144772089062208 0 -0.0016553676546602043 0.00046809803105348321 0 -0.0016467013441114234 0.00040144772089062208 0 -0.0016115624620264804 0.00043601605316314875 0 -0.0016525789924880386 0.00033703941299198064 0 -0.0016467013441114234 0.00040144772089062208 0 -0.0016885554866131434 0.00038795119689105233 0 -0.0016525789924880386 0.00033703941299198064 0 -0.0016467013441114234 0.00040144772089062208 0 -0.0015884879260653129 0.00038171485140709891 0 -0.0016331564072922247 0.00029902544620564678 0 -0.0016513039761877674 0.0003356824886893086 0 -0.0016525789924880386 0.00033703941299198064 0 -0.0016534677848539148 0.0003157346559731911 0 -0.0016885554866131434 0.00038795119689105233 0 -0.0016792352466001464 0.00031687623611658105 0 -0.0017084781168122114 0.00034127292207136148 0 -0.0016885554866131434 0.00038795119689105233 0 -0.0017283924542866947 0.00037029769752783953 0 -0.0017084781168122114 0.00034127292207136148 0 -0.0016885554866131434 0.00038795119689105233 0 -0.0015884879260653129 0.00038171485140709891 0 -0.0016115624620264804 0.00043601605316314875 0 -0.0014957277963670206 0.00042436679544770176 0 -0.0015447108070492965 0.00038920720016118068 0 -0.0014730966058112203 0.00037839424096354929 0 -0.0014647591203141074 0.00031582379468532841 0 -0.0016083714316759553 0.00035945013102909608 0 -0.0015600672584018011 0.00038602314909094135 0 -0.0016467013441114234 0.00040144772089062208 0 -0.0015884879260653129 0.00038171485140709891 0 -0.0016115624620264804 0.00043601605316314875 0 -0.0015600672584018011 0.00038602314909094135 0 -0.0014783188923569389 0.00043019632343806153 0 -0.0015447108070492965 0.00038920720016118068 0 -0.0014730966058112203 0.00037839424096354929 0 -0.0014544596410425671 0.00043418676041758988 0 -0.0016115624620264804 0.00043601605316314875 0 -0.0015932945911204496 0.00049169382982412605 0 -0.0014957277963670206 0.00042436679544770176 0 -0.0016441868917316817 0.00051435975843170496 0 -0.0016553676546602043 0.00046809803105348321 0 -0.0015932945911204496 0.00049169382982412605 0 -0.0016553676546602043 0.00046809803105348321 0 -0.0016115624620264804 0.00043601605316314875 0 -0.0015932945911204496 0.00049169382982412605 0 -0.0016154100712104937 0.00054277616193571833 0 -0.0016441868917316817 0.00051435975843170496 0 -0.0015932945911204496 0.00049169382982412605 0 -0.0016154100712104937 0.00054277616193571833 0 -0.0015932945911204496 0.00049169382982412605 0 -0.0015782657871455264 0.00052683595880347967 0 -0.0015932945911204496 0.00049169382982412605 0 -0.0015782657871455264 0.00052683595880347967 0 -0.0015563860882867007 0.00051267505741479545 0 -0.0015548213499908287 0.00045638195092371949 0 -0.0015403827893878891 0.00044158340227540071 0 -0.0015556234179834351 0.00053316501899274254 0 -0.0015782657871455264 0.00052683595880347967 0 -0.0015563860882867007 0.00051267505741479545 0 -0.0015932945911204496 0.00049169382982412605 0 -0.0014767060920308959 0.00052410016038041381 0 -0.0014957277963670206 0.00042436679544770176 0 -0.0014767060920308959 0.00052410016038041381 0 -0.001375459694276586 0.00048413218328644523 0 -0.0014957277963670206 0.00042436679544770176 0 -0.0014262811240953858 0.00045875812762489473 0 -0.0014783188923569389 0.00043019632343806153 0 -0.0015448086859743246 0.00053137433119772337 0 -0.0015563860882867007 0.00051267505741479545 0 -0.001530109575914574 0.00052150776258182358 0 -0.0014767060920308959 0.00052410016038041381 0 -0.0013498379658690488 0.00054935566683668598 0 -0.001375459694276586 0.00048413218328644523 0 -0.0015448086859743246 0.00053137433119772337 0 -0.0015556234179834351 0.00053316501899274254 0 -0.0015563860882867007 0.00051267505741479545 0 -0.0015403827893878891 0.00044158340227540071 0 -0.0016983369704684651 0.00033588384811837645 0 -0.00152728115649999 0.00019476769367318862 0 -0.0015619665560649037 0.00021606157982991388 0 -0.0015369409064682363 0.00024119542566110075 0 -0.00152728115649999 0.00019476769367318862 0 -0.0015765273780317592 0.00018356269868166552 0 -0.0015619665560649037 0.00021606157982991388 0 -0.0016983369704684651 0.00033588384811837645 0 -0.0017870385522793394 0.00018957537735482099 0 -0.0015619665560649037 0.00021606157982991388 0 -0.0015730694987516063 0.00024953333454902555 0 -0.0015369409064682363 0.00024119542566110075 0 -0.0013498379658690488 0.00054935566683668598 0 -0.0013352301217392894 0.0004640996689804826 0 -0.001375459694276586 0.00048413218328644523 0 -0.0013352301217392894 0.0004640996689804826 0 -0.001375459694276586 0.00048413218328644523 0 -0.0013808862385862152 0.00041874819516438008 0 -0.0016983369704684651 0.00033588384811837645 0 -0.0015365331344770307 0.00031566752467128694 0 -0.0013352301217392894 0.0004640996689804826 0 -0.0013193264557276891 0.00039507697718445489 0 -0.0013808862385862152 0.00041874819516438008 0 -0.0013193264557276891 0.00039507697718445489 0 -0.0013808862385862152 0.00041874819516438008 0 -0.0013712343684442853 0.00031251620305912983 0 -0.0015365331344770307 0.00031566752467128694 0 -0.0014083011895375222 0.0002551216406194463 0 -0.0015730694987516063 0.00024953333454902555 0 -0.0015369409064682363 0.00024119542566110075 0 -0.0015465539209657258 0.00028768711459312168 0 -0.0014386934517258559 0.00020224887863139787 0 -0.0014083011895375222 0.0002551216406194463 0 -0.0010944124277855974 2.9750099855138631e-05 0 -0.001076365875460505 5.6956894943440672e-05 0 -0.0011053228694327889 5.2162432813980036e-05 0 -0.0014083011895375222 0.0002551216406194463 0 -0.0012306265772766569 0.00016717417669094334 0 -0.001076365875460505 5.6956894943440672e-05 0 -0.0011090418395943453 7.8421758029045621e-05 0 -0.0010861191999776919 0.00010161503244385334 0 -0.001076365875460505 5.6956894943440672e-05 0 -0.0011053228694327889 5.2162432813980036e-05 0 -0.0011090418395943453 7.8421758029045621e-05 0 -0.0014083011895375222 0.0002551216406194463 0 -0.0013920394110274528 0.00027058949946079727 0 -0.0014295108217536863 0.00037267839808025489 0 -0.0013808862385862152 0.00041874819516438008 0 -0.0013712343684442853 0.00031251620305912983 0 -0.0014730966058112203 0.00037839424096354929 0 -0.0014295108217536863 0.00037267839808025489 0 -0.0014647591203141074 0.00031582379468532841 0 -0.0014730966058112203 0.00037839424096354929 0 -0.0014295108217536863 0.00037267839808025489 0 -0.0014544596410425671 0.00043418676041758988 0 -0.001375459694276586 0.00048413218328644523 0 -0.0014544596410425671 0.00043418676041758988 0 -0.0013808862385862152 0.00041874819516438008 0 -0.0014295108217536863 0.00037267839808025489 0 -0.0014544596410425671 0.00043418676041758988 0 -0.0013808862385862152 0.00041874819516438008 0 -0.0011808504310499069 -6.5953418120051959e-07 0 -0.0011609384730168857 1.8815968295773453e-05 0 -0.0011915551413432593 2.1752945451944064e-05 0 -0.001197026632317978 6.126403237632898e-06 0 -0.0011808504310499069 -6.5953418120051959e-07 0 -0.0011915551413432593 2.1752945451944064e-05 0 -0.0012002296599314497 -1.4384802394622042e-05 0 -0.001197026632317978 6.126403237632898e-06 0 -0.0011808504310499069 -6.5953418120051959e-07 0 -0.0012002296599314497 -1.4384802394622042e-05 0 -0.0011808504310499069 -6.5953418120051959e-07 0 -0.0011874030118698481 -2.2595552254061644e-05 0 -0.0012048212568270007 -3.9279414354374232e-05 0 -0.0012002296599314497 -1.4384802394622042e-05 0 -0.0011874030118698481 -2.2595552254061644e-05 0 -0.00117633141374018 -2.9013726014470908e-05 0 -0.0011874030118698481 -2.2595552254061644e-05 0 -0.0011740939761437778 -1.7735814248973116e-05 0 -0.0011808504310499069 -6.5953418120051959e-07 0 -0.0011874030118698481 -2.2595552254061644e-05 0 -0.0011740939761437778 -1.7735814248973116e-05 0 -0.0011808504310499069 -6.5953418120051959e-07 0 -0.0011740939761437778 -1.7735814248973116e-05 0 -0.0011604636754599883 -9.6578665727751391e-06 0 -0.0011740939761437778 -1.7735814248973116e-05 0 -0.0011653455993572777 -2.6378060575245572e-05 0 -0.0011604636754599883 -9.6578665727751391e-06 0 -0.00117633141374018 -2.9013726014470908e-05 0 -0.0011740939761437778 -1.7735814248973116e-05 0 -0.0011653455993572777 -2.6378060575245572e-05 0 -0.0011653455993572777 -2.6378060575245572e-05 0 -0.0011539558459596787 -2.4723455503570122e-05 0 -0.0011604636754599883 -9.6578665727751391e-06 0 -0.0011539558459596787 -2.4723455503570122e-05 0 -0.0011604636754599883 -9.6578665727751391e-06 0 -0.0011403175720549605 -1.4743888222676556e-05 0 -0.0011604636754599883 -9.6578665727751391e-06 0 -0.0011609384730168857 1.8815968295773453e-05 0 -0.0011423561304332206 2.0631059326802747e-06 0 -0.0011808504310499069 -6.5953418120051959e-07 0 -0.0011604636754599883 -9.6578665727751391e-06 0 -0.0011609384730168857 1.8815968295773453e-05 0 -0.0011430767398307885 3.4001291515074343e-05 0 -0.001116452850879955 1.6001273785276173e-05 0 -0.0011236702591817995 4.5135624027341188e-05 0 -0.0011609384730168857 1.8815968295773453e-05 0 -0.0011423561304332206 2.0631059326802747e-06 0 -0.001116452850879955 1.6001273785276173e-05 0 -0.0011509994180057331 2.3408463621751724e-05 0 -0.0011339482131534281 1.8885709577379337e-05 0 -0.0011423561304332206 2.0631059326802747e-06 0 -0.0011278819404403461 1.0479489195654001e-06 0 -0.001116452850879955 1.6001273785276173e-05 0 -0.0016737874514581878 0.00010466205274310622 0 -0.001512673407667925 0.00016461944638056352 0 -0.0011604636754599883 -9.6578665727751391e-06 0 -0.0011423561304332206 2.0631059326802747e-06 0 -0.0011403175720549605 -1.4743888222676556e-05 0 -0.0011359470251037056 -3.3505315328429856e-05 0 -0.0011403175720549605 -1.4743888222676556e-05 0 -0.0011144679238387764 -2.6153378666955196e-06 0 -0.0011459470031579522 -3.5438350784260846e-05 0 -0.0011539558459596787 -2.4723455503570122e-05 0 -0.0011403175720549605 -1.4743888222676556e-05 0 -0.0011403175720549605 -1.4743888222676556e-05 0 -0.0011278819404403461 1.0479489195654001e-06 0 -0.0011144679238387764 -2.6153378666955196e-06 0 -0.0011423561304332206 2.0631059326802747e-06 0 -0.0011403175720549605 -1.4743888222676556e-05 0 -0.0011278819404403461 1.0479489195654001e-06 0 -0.0016262024694161522 0.0001722617286291183 0 -0.0015765273780317592 0.00018356269868166552 0 -0.0015996416301733284 0.00021114078777031376 0 -0.0015765273780317592 0.00018356269868166552 0 -0.0015619665560649037 0.00021606157982991388 0 -0.0015996416301733284 0.00021114078777031376 0 -0.0014386934517258559 0.00020224887863139787 0 -0.001512673407667925 0.00016461944638056352 0 -0.0010944124277855974 2.9750099855138631e-05 0 -0.0011144679238387764 -2.6153378666955196e-06 0 -0.001116452850879955 1.6001273785276173e-05 0 -0.0015619665560649037 0.00021606157982991388 0 -0.0015730694987516063 0.00024953333454902555 0 -0.0015996416301733284 0.00021114078777031376 0 -0.0011278819404403461 1.0479489195654001e-06 0 -0.0011144679238387764 -2.6153378666955196e-06 0 -0.001116452850879955 1.6001273785276173e-05 0 -0.0010944124277855974 2.9750099855138631e-05 0 -0.001116452850879955 1.6001273785276173e-05 0 -0.0011100441645995535 3.6083178924000202e-05 0 -0.001116452850879955 1.6001273785276173e-05 0 -0.0011100441645995535 3.6083178924000202e-05 0 -0.0011236702591817995 4.5135624027341188e-05 0 -0.0010944124277855974 2.9750099855138631e-05 0 -0.0011100441645995535 3.6083178924000202e-05 0 -0.0011053228694327889 5.2162432813980036e-05 0 -0.0011100441645995535 3.6083178924000202e-05 0 -0.0011053228694327889 5.2162432813980036e-05 0 -0.0011236702591817995 4.5135624027341188e-05 0 -0.0011053228694327889 5.2162432813980036e-05 0 -0.0011219178367053843 6.3395846206861796e-05 0 -0.0011236702591817995 4.5135624027341188e-05 0 -0.0011053228694327889 5.2162432813980036e-05 0 -0.0011090418395943453 7.8421758029045621e-05 0 -0.0011219178367053843 6.3395846206861796e-05 0 -0.0011090418395943453 7.8421758029045621e-05 0 -0.0011219178367053843 6.3395846206861796e-05 0 -0.0011286536389362176 8.1932188453401932e-05 0 -0.0011219178367053843 6.3395846206861796e-05 0 -0.0011364003334718013 6.1221237245445324e-05 0 -0.0011236702591817995 4.5135624027341188e-05 0 -0.0011219178367053843 6.3395846206861796e-05 0 -0.0011364003334718013 6.1221237245445324e-05 0 -0.0011286536389362176 8.1932188453401932e-05 0 -0.0011364003334718013 6.1221237245445324e-05 0 -0.0011351493220471574 7.9161213777662642e-05 0 -0.0011286536389362176 8.1932188453401932e-05 0 -0.0011430767398307885 3.4001291515074343e-05 0 -0.0011364003334718013 6.1221237245445324e-05 0 -0.0011236702591817995 4.5135624027341188e-05 0 -0.0011430767398307885 3.4001291515074343e-05 0 -0.0011364003334718013 6.1221237245445324e-05 0 -0.0011505885073733518 5.0514810945168267e-05 0 -0.0011364003334718013 6.1221237245445324e-05 0 -0.0011467777177097756 7.0730485737536086e-05 0 -0.0011351493220471574 7.9161213777662642e-05 0 -0.0011364003334718013 6.1221237245445324e-05 0 -0.0011505885073733518 5.0514810945168267e-05 0 -0.0011467777177097756 7.0730485737536086e-05 0 -0.0011736503608673488 5.7474817648519582e-05 0 -0.0011505885073733518 5.0514810945168267e-05 0 -0.0011467777177097756 7.0730485737536086e-05 0 -0.0011736503608673488 5.7474817648519582e-05 0 -0.0011505885073733518 5.0514810945168267e-05 0 -0.0011645537112901006 3.627247055663239e-05 0 -0.0011509994180057331 2.3408463621751724e-05 0 -0.0011773333337402176 2.9625800062472143e-05 0 -0.0011430767398307885 3.4001291515074343e-05 0 -0.0011505885073733518 5.0514810945168267e-05 0 -0.0011645537112901006 3.627247055663239e-05 0 -0.0011737512129565159 9.4541259895516527e-05 0 -0.0011467777177097756 7.0730485737536086e-05 0 -0.0011349397729238132 0.0001012511306969813 0 -0.0011737512129565159 9.4541259895516527e-05 0 -0.0011474725444226457 0.00011750297783844749 0 -0.0011349397729238132 0.0001012511306969813 0 -0.0011385400412007327 8.8320751889121326e-05 0 -0.001136272008242762 9.9191730441345775e-05 0 -0.0011467777177097756 7.0730485737536086e-05 0 -0.0011351493220471574 7.9161213777662642e-05 0 -0.0011423388970967755 9.7652432881859271e-05 0 -0.0011423388970967755 9.7652432881859271e-05 0 -0.001130283451832892 9.276038018660129e-05 0 -0.0011270465747086618 0.00010879772723386268 0 -0.0011351493220471574 7.9161213777662642e-05 0 -0.0011423388970967755 9.7652432881859271e-05 0 -0.001130283451832892 9.276038018660129e-05 0 -0.001130283451832892 9.276038018660129e-05 0 -0.0011198078163576406 0.0001007732566813954 0 -0.0011270465747086618 0.00010879772723386268 0 -0.001130283451832892 9.276038018660129e-05 0 -0.0011286536389362176 8.1932188453401932e-05 0 -0.0011198078163576406 0.0001007732566813954 0 -0.0011351493220471574 7.9161213777662642e-05 0 -0.001130283451832892 9.276038018660129e-05 0 -0.0011286536389362176 8.1932188453401932e-05 0 -0.0011286536389362176 8.1932188453401932e-05 0 -0.0011126501044617821 0.00011955051452813709 0 -0.0011232258837132246 0.00016645311080799294 0 -0.0011090418395943453 7.8421758029045621e-05 0 -0.0011286536389362176 8.1932188453401932e-05 0 -0.0011126501044617821 0.00011955051452813709 0 -0.0011090418395943453 7.8421758029045621e-05 0 -0.0011126501044617821 0.00011955051452813709 0 -0.0010818026068806661 0.00011975720139988302 0 -0.0011126501044617821 0.00011955051452813709 0 -0.0011122925620067365 0.0001474297793961323 0 -0.0010818026068806661 0.00011975720139988302 0 -0.0011263252959220398 0.00010857322208863319 0 -0.001123901032688662 0.00012276649463062602 0 -0.0011126501044617821 0.00011955051452813709 0 -0.0011122925620067365 0.0001474297793961323 0 -0.0011232258837132246 0.00016645311080799294 0 -0.0011122925620067365 0.0001474297793961323 0 -0.0011232258837132246 0.00016645311080799294 0 -0.0011179788178119863 0.00017110419716153316 0 -0.0011232258837132246 0.00016645311080799294 0 -0.0011184677130702389 0.00014618464910964635 0 -0.0011179788178119863 0.00017110419716153316 0 -0.0011198078163576406 0.0001007732566813954 0 -0.0011215143338718654 0.00011895417142421612 0 -0.0011270465747086618 0.00010879772723386268 0 -0.001123901032688662 0.00012276649463062602 0 -0.0011255397290320351 0.00012300120565460421 0 -0.0011215143338718654 0.00011895417142421612 0 -0.0011270465747086618 0.00010879772723386268 0 -0.0011238869392937991 0.00011813751232861729 0 -0.0011423388970967755 9.7652432881859271e-05 0 -0.0011270465747086618 0.00010879772723386268 0 -0.0011331902828963223 0.00011415330316987816 0 -0.001136272008242762 9.9191730441345775e-05 0 -0.0011324243832511573 0.00011295614643143522 0 -0.0011270465747086618 0.00010879772723386268 0 -0.0011331902828963223 0.00011415330316987816 0 -0.0011238869392937991 0.00011813751232861729 0 -0.0011474725444226457 0.00011750297783844749 0 -0.0011284512868384524 0.0001245878570987236 0 -0.0011316109315446551 0.00012871423690850531 0 -0.0011474725444226457 0.00011750297783844749 0 -0.0011349397729238132 0.0001012511306969813 0 -0.0011284512868384524 0.0001245878570987236 0 -0.0013885346881852892 0.00025657038064982456 0 -0.0013815685966585085 0.00020397261461065807 0 -0.0014300358599112456 0.00019823941231594092 0 -0.0014647591203141074 0.00031582379468532841 0 -0.0013712343684442853 0.00031251620305912983 0 -0.0014234495085005093 0.00022429831055249442 0 -0.0013920394110274528 0.00027058949946079727 0 -0.0014276312883825901 0.00021359286927773584 0 -0.0014796983494579071 0.00025970687722451363 0 -0.0015100606290487685 0.00022008903730625626 0 -0.0014234495085005093 0.00022429831055249442 0 -0.0014796983494579071 0.00025970687722451363 0 -0.0014647591203141074 0.00031582379468532841 0 -0.0014234495085005093 0.00022429831055249442 0 -0.0014295108217536863 0.00037267839808025489 0 -0.0014647591203141074 0.00031582379468532841 0 -0.0013712343684442853 0.00031251620305912983 0 -0.0013493630983237299 0.0003134906651635444 0 -0.0013885346881852892 0.00025657038064982456 0 -0.0013353222673829122 0.00025019708432380349 0 -0.0012048461909116243 0.0001630085234515925 0 -0.0012306265772766569 0.00016717417669094334 0 -0.0011122925620067365 0.0001474297793961323 0 -0.0010818026068806661 0.00011975720139988302 0 -0.0011179788178119863 0.00017110419716153316 0 -0.0012306265772766569 0.00016717417669094334 0 -0.0012116844852558051 0.00015728493877229956 0 -0.0011260462354881319 0.00020915597436406137 0 -0.0011179788178119863 0.00017110419716153316 0 -0.0011629102789687121 0.00018258146877268128 0 -0.0013885346881852892 0.00025657038064982456 0 -0.0013353222673829122 0.00025019708432380349 0 -0.0013815685966585085 0.00020397261461065807 0 -0.0012306265772766569 0.00016717417669094334 0 -0.0012705495172268375 0.00017380186918784679 0 -0.0011629102789687121 0.00018258146877268128 0 -0.0011432159806439087 0.00016074127442307487 0 -0.0011700383384249593 0.00016154333844578111 0 -0.0011179788178119863 0.00017110419716153316 0 -0.0011629102789687121 0.00018258146877268128 0 -0.0011432159806439087 0.00016074127442307487 0 -0.0011184677130702389 0.00014618464910964635 0 -0.0011179788178119863 0.00017110419716153316 0 -0.0011432159806439087 0.00016074127442307487 0 -0.0011184677130702389 0.00014618464910964635 0 -0.0011432159806439087 0.00016074127442307487 0 -0.0011528232404684998 0.00013856767807723832 0 -0.0011432159806439087 0.00016074127442307487 0 -0.0011700383384249593 0.00016154333844578111 0 -0.0011528232404684998 0.00013856767807723832 0 -0.0011700383384249593 0.00016154333844578111 0 -0.0011807694238720043 0.00014059247779154289 0 -0.0011528232404684998 0.00013856767807723832 0 -0.0011700383384249593 0.00016154333844578111 0 -0.0012094987510170704 0.00017452229748188026 0 -0.0011807694238720043 0.00014059247779154289 0 -0.0012705495172268375 0.00017380186918784679 0 -0.0013284922987743309 0.00014644444196718412 0 -0.0013815685966585085 0.00020397261461065807 0 -0.0014304628477032212 0.00015460709764333059 0 -0.0014300358599112456 0.00019823941231594092 0 -0.0011629102789687121 0.00018258146877268128 0 -0.0011700383384249593 0.00016154333844578111 0 -0.0012094987510170704 0.00017452229748188026 0 -0.0014529359050458777 0.00017459240425154462 0 -0.0014276312883825901 0.00021359286927773584 0 -0.0015086639184535584 0.00017031650626236677 0 -0.0014754409287126855 0.0001349215481280647 0 -0.0014234495085005093 0.00022429831055249442 0 -0.0013284922987743309 0.00014644444196718412 0 -0.0013981844096329842 9.8771178734284094e-05 0 -0.0014754409287126855 0.0001349215481280647 0 -0.0014304628477032212 0.00015460709764333059 0 -0.0014832812851090958 0.00010123501665723552 0 -0.0014754409287126855 0.0001349215481280647 0 -0.0014304628477032212 0.00015460709764333059 0 -0.0014300358599112456 0.00019823941231594092 0 -0.0012094987510170704 0.00017452229748188026 0 -0.0012556235897846304 0.00013007037598357753 0 -0.0012085862712694797 0.00011972810725979453 0 -0.0012094987510170704 0.00017452229748188026 0 -0.0012556235897846304 0.00013007037598357753 0 -0.0013069750182599458 0.00015116583692590033 0 -0.0012556235897846304 0.00013007037598357753 0 -0.0012634046029763482 8.3981819512929937e-05 0 -0.0012085862712694797 0.00011972810725979453 0 -0.0012556235897846304 0.00013007037598357753 0 -0.0012634046029763482 8.3981819512929937e-05 0 -0.0013129311578257302 8.8515081593732085e-05 0 -0.0012634046029763482 8.3981819512929937e-05 0 -0.0011938770703547488 5.9837869262206327e-05 0 -0.0013503813524387619 1.4663821179033719e-06 0 -0.0012634046029763482 8.3981819512929937e-05 0 -0.0012085862712694797 0.00011972810725979453 0 -0.0011938770703547488 5.9837869262206327e-05 0 -0.0011696617032743869 0.00010543514968385907 0 -0.0011659700537473045 7.9502096483788392e-05 0 -0.0011938770703547488 5.9837869262206327e-05 0 -0.0012085862712694797 0.00011972810725979453 0 -0.0011696617032743869 0.00010543514968385907 0 -0.0011938770703547488 5.9837869262206327e-05 0 -0.0012094987510170704 0.00017452229748188026 0 -0.0012085862712694797 0.00011972810725979453 0 -0.0011807694238720043 0.00014059247779154289 0 -0.0012085862712694797 0.00011972810725979453 0 -0.0011807694238720043 0.00014059247779154289 0 -0.0011696617032743869 0.00010543514968385907 0 -0.0011528232404684998 0.00013856767807723832 0 -0.0011343738178072943 9.4327356828950197e-05 0 -0.0011696617032743869 0.00010543514968385907 0 -0.0011807694238720043 0.00014059247779154289 0 -0.0011528232404684998 0.00013856767807723832 0 -0.0011696617032743869 0.00010543514968385907 0 -0.0011184677130702389 0.00014618464910964635 0 -0.0011528232404684998 0.00013856767807723832 0 -0.0011343738178072943 9.4327356828950197e-05 0 -0.0011343738178072943 9.4327356828950197e-05 0 -0.0011696617032743869 0.00010543514968385907 0 -0.0011659700537473045 7.9502096483788392e-05 0 -0.0011659700537473045 7.9502096483788392e-05 0 -0.0011491009062226645 7.9269787637174777e-05 0 -0.0011703861268479946 7.2941385674445063e-05 0 -0.0011343738178072943 9.4327356828950197e-05 0 -0.0011659700537473045 7.9502096483788392e-05 0 -0.0011491009062226645 7.9269787637174777e-05 0 -0.0011327298422123616 0.00010567970019127047 0 -0.0011378518190637364 9.2614563938560554e-05 0 -0.0011491009062226645 7.9269787637174777e-05 0 -0.0011703861268479946 7.2941385674445063e-05 0 -0.0011648836252134533 6.5993186111120388e-05 0 -0.0011703861268479946 7.2941385674445063e-05 0 -0.0011749792924303907 6.9844246159997351e-05 0 -0.0011648836252134533 6.5993186111120388e-05 0 -0.0011703861268479946 7.2941385674445063e-05 0 -0.0011749792924303907 6.9844246159997351e-05 0 -0.0011783249565585695 7.1525192934920621e-05 0 -0.0011703861268479946 7.2941385674445063e-05 0 -0.0011783249565585695 7.1525192934920621e-05 0 -0.0011801913781935135 7.038586649102731e-05 0 -0.0011783249565585695 7.1525192934920621e-05 0 -0.0011797108271959958 7.2679150010899847e-05 0 -0.0011806066556167463 7.0173838569132502e-05 0 -0.0011749792924303907 6.9844246159997351e-05 0 -0.0011783249565585695 7.1525192934920621e-05 0 -0.0011797108271959958 7.2679150010899847e-05 0 -0.0011749792924303907 6.9844246159997351e-05 0 -0.0011797108271959958 7.2679150010899847e-05 0 -0.0011722154155806186 6.4026441389159706e-05 0 -0.00055520572989107458 0.00033542869196272478 0 -0.00067862033965243281 0.00028898803035129901 0 -0.0011673728343825828 9.7077726130410417e-05 0 -0.0011658571068104051 6.6880340065552876e-05 0 -0.0011578096590394201 8.5460829498061396e-05 0 -0.0011673728343825828 9.7077726130410417e-05 0 -0.0011616247949928007 0.00010100344143758659 0 -0.0011578096590394201 8.5460829498061396e-05 0 -0.0011658571068104051 6.6880340065552876e-05 0 -0.0011938770703547488 5.9837869262206327e-05 0 -0.0011500527508704883 5.7951105617144826e-05 0 -0.0011797108271959958 7.2679150010899847e-05 0 -0.0011806066556167463 7.0173838569132502e-05 0 -0.0011658571068104051 6.6880340065552876e-05 0 -0.0012075180374720355 9.0888277322238268e-05 0 -0.0011790213083655607 0.00010113989478432961 0 -0.0011806066556167463 7.0173838569132502e-05 0 -0.0011658571068104051 6.6880340065552876e-05 0 -0.0011938770703547488 5.9837869262206327e-05 0 -0.0011659700537473045 7.9502096483788392e-05 0 -0.0011938770703547488 5.9837869262206327e-05 0 -0.0011801913781935135 7.038586649102731e-05 0 -0.0011659700537473045 7.9502096483788392e-05 0 -0.0011703861268479946 7.2941385674445063e-05 0 -0.0011801913781935135 7.038586649102731e-05 0 -0.0011783249565585695 7.1525192934920621e-05 0 -0.0011806066556167463 7.0173838569132502e-05 0 -0.0011801913781935135 7.038586649102731e-05 0 -0.0011806066556167463 7.0173838569132502e-05 0 -0.0011938770703547488 5.9837869262206327e-05 0 -0.0011801913781935135 7.038586649102731e-05 0 -0.0011246638690533533 0.00012475572405360071 0 -0.0011205294644766241 0.00012187198115146053 0 -0.0011085068282821393 0.0001154480328019993 0 -0.0011246638690533533 0.00012475572405360071 0 -0.001111816715024876 0.00011769849504367437 0 -0.0011085068282821393 0.0001154480328019993 0 -0.0011284512868384524 0.0001245878570987236 0 -0.0011316109315446551 0.00012871423690850531 0 -0.0011205294644766241 0.00012187198115146053 0 -0.0011246638690533533 0.00012475572405360071 0 -0.0011316109315446551 0.00012871423690850531 0 -0.0011205294644766241 0.00012187198115146053 0 -0.0011324243832511573 0.00011295614643143522 0 -0.0011302945977531874 0.00011763068510175549 0 -0.0011331902828963223 0.00011415330316987816 0 -0.0011205294644766241 0.00012187198115146053 0 -0.0011238869392937991 0.00011813751232861729 0 -0.0011205294644766241 0.00012187198115146053 0 -0.0011202961780472794 0.0001182226727940005 0 -0.0011085068282821393 0.0001154480328019993 0 -0.0011205294644766241 0.00012187198115146053 0 -0.0011202961780472794 0.0001182226727940005 0 -0.0011238869392937991 0.00011813751232861729 0 -0.0011215143338718654 0.00011895417142421612 0 -0.0011202961780472794 0.0001182226727940005 0 -0.0011238869392937991 0.00011813751232861729 0 -0.0011255397290320351 0.00012300120565460421 0 -0.0011327298422123616 0.00010567970019127047 0 -0.0011215143338718654 0.00011895417142421612 0 -0.0011333742128727441 0.00011618806603741746 0 -0.0011202961780472794 0.0001182226727940005 0 -0.0011333742128727441 0.00011618806603741746 0 -0.0011491009062226645 7.9269787637174777e-05 0 -0.0011115481776152881 0.00010271919439555883 0 -0.0011491009062226645 7.9269787637174777e-05 0 -0.0011115481776152881 0.00010271919439555883 0 -0.0011322297518432741 7.3615625229941827e-05 0 -0.0011333742128727441 0.00011618806603741746 0 -0.0011202961780472794 0.0001182226727940005 0 -0.0011115481776152881 0.00010271919439555883 0 -0.0011115481776152881 0.00010271919439555883 0 -0.0010930429380454625 8.5334135546433323e-05 0 -0.0011322297518432741 7.3615625229941827e-05 0 -0.0011202961780472794 0.0001182226727940005 0 -0.0011115481776152881 0.00010271919439555883 0 -0.0011085068282821393 0.0001154480328019993 0 -0.0011115481776152881 0.00010271919439555883 0 -0.0010865108847381202 0.0001036436897657176 0 -0.0011085068282821393 0.0001154480328019993 0 -0.0011115481776152881 0.00010271919439555883 0 -0.0010865108847381202 0.0001036436897657176 0 -0.0010930429380454625 8.5334135546433323e-05 0 -0.001111816715024876 0.00011769849504367437 0 -0.0010865108847381202 0.0001036436897657176 0 -0.0011085068282821393 0.0001154480328019993 0 -0.00099455037732032871 3.8856062588151792e-05 0 -0.0010529768484345179 7.9115630199594323e-05 0 -0.0010454697094076418 2.0211803050388465e-05 0 -0.00095730258924400986 9.3683177838304362e-05 0 -0.00099455037732032871 3.8856062588151792e-05 0 -0.0010529768484345179 7.9115630199594323e-05 0 -0.00095730258924400986 9.3683177838304362e-05 0 -0.00099321426775215516 0.00018312815286751469 0 -0.0010529768484345179 7.9115630199594323e-05 0 -0.0010382257704215985 0.0001399486025691765 0 -0.0010513898655344445 0.00011070561312621486 0 -0.0010865108847381202 0.0001036436897657176 0 -0.0010529768484345179 7.9115630199594323e-05 0 -0.0010930429380454625 8.5334135546433323e-05 0 -0.0010529768484345179 7.9115630199594323e-05 0 -0.0010923630929707674 4.9506385458064288e-05 0 -0.0010454697094076418 2.0211803050388465e-05 0 -0.0010529768484345179 7.9115630199594323e-05 0 -0.0010923630929707674 4.9506385458064288e-05 0 -0.0010930429380454625 8.5334135546433323e-05 0 -0.0010923630929707674 4.9506385458064288e-05 0 -0.0010930429380454625 8.5334135546433323e-05 0 -0.0011181235486747996 5.9082939638607931e-05 0 -0.0010923630929707674 4.9506385458064288e-05 0 -0.0011181235486747996 5.9082939638607931e-05 0 -0.0011253721408671995 3.6069499728484237e-05 0 -0.0010930429380454625 8.5334135546433323e-05 0 -0.0011322297518432741 7.3615625229941827e-05 0 -0.0011181235486747996 5.9082939638607931e-05 0 -0.0011322297518432741 7.3615625229941827e-05 0 -0.0011399747269400194 5.0161736657817276e-05 0 -0.0011181235486747996 5.9082939638607931e-05 0 -0.0011399747269400194 5.0161736657817276e-05 0 -0.0011253721408671995 3.6069499728484237e-05 0 -0.0011486806770026571 3.162671119010387e-05 0 -0.0011399747269400194 5.0161736657817276e-05 0 -0.0011181235486747996 5.9082939638607931e-05 0 -0.0011253721408671995 3.6069499728484237e-05 0 -0.00081559330961948617 6.6776743954255024e-05 0 -0.00069361593401960132 0.00021999060809014444 0 -0.0011253721408671995 3.6069499728484237e-05 0 -0.0011127334505660088 -3.8682809448141327e-06 0 -0.0011486806770026571 3.162671119010387e-05 0 -0.00067739515546420001 -0.00012305137385149587 0 -0.0006660330503117281 -0.00013101616760555801 0 -0.00067527666846887427 -0.00012017768583218659 0 -0.00067739515546420001 -0.00012305137385149587 0 -0.00069152823463671236 -0.00012007180641119431 0 -0.00067105751580923937 -0.00011815198710544727 0 -0.00067739515546420001 -0.00012305137385149587 0 -0.00069152823463671236 -0.00012007180641119431 0 -0.00066487143150903471 -0.00012727956231359757 0 -0.00069152823463671236 -0.00012007180641119431 0 -0.00066487143150903471 -0.00012727956231359757 0 -0.00063585965692828457 -0.00014473476916714942 0 -0.00067739515546420001 -0.00012305137385149587 0 -0.00066487143150903471 -0.00012727956231359757 0 -0.0006660330503117281 -0.00013101616760555801 0 -0.00067059270119654909 -0.0001378535145883143 0 -0.0006660330503117281 -0.00013101616760555801 0 -0.00071232476858712208 -0.00015419911890485571 0 -0.00066487143150903471 -0.00012727956231359757 0 -0.00067059270119654909 -0.0001378535145883143 0 -0.0006660330503117281 -0.00013101616760555801 0 -0.00066487143150903471 -0.00012727956231359757 0 -0.00067059270119654909 -0.0001378535145883143 0 -0.00063585965692828457 -0.00014473476916714942 0 -0.0010923630929707674 4.9506385458064288e-05 0 -0.0011127334505660088 -3.8682809448141327e-06 0 -0.0010454697094076418 2.0211803050388465e-05 0 -0.0010923630929707674 4.9506385458064288e-05 0 -0.0011253721408671995 3.6069499728484237e-05 0 -0.0011127334505660088 -3.8682809448141327e-06 0 -0.0011127334505660088 -3.8682809448141327e-06 0 -0.0010454697094076418 2.0211803050388465e-05 0 -0.0010280986096146995 -6.5766380081991386e-05 0 -0.00081559330961948617 6.6776743954255024e-05 0 -0.00083054361131691006 -1.901008448588465e-05 0 -0.00067059270119654909 -0.0001378535145883143 0 -0.00071232476858712208 -0.00015419911890485571 0 -0.0006898091134701134 -0.00012847168663250133 0 -0.00071232476858712208 -0.00015419911890485571 0 -0.00076698846663933657 -0.00013204842621589573 0 -0.00079997493224594446 -0.00013531068728956153 0 -0.00083054361131691006 -1.901008448588465e-05 0 -0.00081564544238804367 -5.0727087644997173e-05 0 -0.00087309796704665085 -6.0968386325531722e-05 0 -0.0010280986096146995 -6.5766380081991386e-05 0 -0.00097301717672551363 -2.3875973078844276e-06 0 -0.00087309796704665085 -6.0968386325531722e-05 0 -0.0010280986096146995 -6.5766380081991386e-05 0 -0.00079997493224594446 -0.00013531068728956153 0 -0.0010454697094076418 2.0211803050388465e-05 0 -0.0010280986096146995 -6.5766380081991386e-05 0 -0.00097301717672551363 -2.3875973078844276e-06 0 -0.00094272234034824503 1.9762779711493597e-05 0 -0.00099455037732032871 3.8856062588151792e-05 0 -0.00097301717672551363 -2.3875973078844276e-06 0 -0.00099455037732032871 3.8856062588151792e-05 0 -0.0010454697094076418 2.0211803050388465e-05 0 -0.00097301717672551363 -2.3875973078844276e-06 0 0.00093317853006760407 0.0017055436955728091 0 0.00094006947899871014 0.0013888869776497942 0 0.00070697982067570941 0.0011870499643600954 0 0.00093317853006760407 0.0017055436955728091 0 0.00094006947899871014 0.0013888869776497942 0 0.0011147124795671674 0.0013298036567441552 0 0.00091357438122512081 0.0017596926852855026 0 0.0010496714703189193 0.0016097243478551083 0 0.0011089200543822225 0.0013593100777065249 0 2.2028797945746912e-05 0.00033580624326066369 0 -5.5510108733074008e-06 0.00032565546083272885 0 -1.1778139165479555e-05 0.00025740641036974926 0 -5.4743507428120458e-05 0.00045525290872734691 0 0.00026195045953856394 0.00077137673802951461 0 -5.4743507428120458e-05 0.00045525290872734691 0 0.00054537412640156635 0.00061859699978059036 0 -5.4743507428120458e-05 0.00045525290872734691 0 -0.00012445502847529676 0.00042908064599511767 0 -0.0011756306024202285 5.5717397979726596e-05 0 -0.0011681061135598754 5.7473847535991092e-05 0 -0.0011691650145048695 4.8366240670919619e-05 0 0.00091357438122512081 0.0017596926852855026 0 0.0010496714703189193 0.0016097243478551083 0 0.0011447653774542342 0.0015733182242601311 0 0.0010496714703189193 0.0016097243478551083 0 0.0011456114814109631 0.0015744154884145671 0 0.0011089200543822225 0.0013593100777065249 0 -0.00010217372118467419 0.00043205427367633433 0 -0.00012445502847529676 0.00042908064599511767 0 -3.5481913523595739e-05 0.00031197644299469794 0 -5.5510108733074008e-06 0.00032565546083272885 0 -1.1778139165479555e-05 0.00025740641036974926 0 -3.5481913523595739e-05 0.00031197644299469794 0 -4.4143812895374915e-05 0.00028179231929213386 0 -5.9336057866415668e-05 0.00030213280052504343 0 -3.5481913523595739e-05 0.00031197644299469794 0 -2.9923127185570172e-05 0.00034670236338904981 0 -7.3689053281088328e-05 0.00034397744254843174 0 -3.5481913523595739e-05 0.00031197644299469794 0 -5.5510108733074008e-06 0.00032565546083272885 0 -2.9923127185570172e-05 0.00034670236338904981 0 2.2028797945746912e-05 0.00033580624326066369 0 -5.5510108733074008e-06 0.00032565546083272885 0 -2.9923127185570172e-05 0.00034670236338904981 0 -0.0011673728343825828 9.7077726130410417e-05 0 -0.0011671880699486274 0.00011222424889086788 0 -0.0011616247949928007 0.00010100344143758659 0 -5.4743507428120458e-05 0.00045525290872734691 0 -0.00044563198991980047 0.00034906725971069452 0 2.2028797945746912e-05 0.00033580624326066369 0 -2.9923127185570172e-05 0.00034670236338904981 0 -4.3035186164654856e-05 0.0003966775608181544 0 -2.9923127185570172e-05 0.00034670236338904981 0 -4.3035186164654856e-05 0.0003966775608181544 0 -7.3689053281088328e-05 0.00034397744254843174 0 -0.0011797108271959958 7.2679150010899847e-05 0 -0.0011733137918064876 5.9240254782527401e-05 0 -0.0011722154155806186 6.4026441389159706e-05 0 -0.00055520572989107458 0.00033542869196272478 0 -5.4743507428120458e-05 0.00045525290872734691 0 -5.4743507428120458e-05 0.00045525290872734691 0 -0.00014510839566660538 0.00034715264001805173 0 -0.0011756306024202285 5.5717397979726596e-05 0 -0.0011722154155806186 6.4026441389159706e-05 0 -0.0011681061135598754 5.7473847535991092e-05 0 -0.0011749792924303907 6.9844246159997351e-05 0 -0.0011722154155806186 6.4026441389159706e-05 0 -0.0011648836252134533 6.5993186111120388e-05 0 -0.0011648836252134533 6.5993186111120388e-05 0 -0.0011505525125246683 6.177497825451584e-05 0 -0.0011614855488234974 5.586930028646013e-05 0 -0.0011722154155806186 6.4026441389159706e-05 0 -0.0011648836252134533 6.5993186111120388e-05 0 -0.0011681061135598754 5.7473847535991092e-05 0 -0.0011648836252134533 6.5993186111120388e-05 0 -0.0011681061135598754 5.7473847535991092e-05 0 -0.0011614855488234974 5.586930028646013e-05 0 -0.0011491009062226645 7.9269787637174777e-05 0 -0.0011322297518432741 7.3615625229941827e-05 0 -0.0011505525125246683 6.177497825451584e-05 0 -0.0011491009062226645 7.9269787637174777e-05 0 -0.0011648836252134533 6.5993186111120388e-05 0 -0.0011505525125246683 6.177497825451584e-05 0 -0.0011322297518432741 7.3615625229941827e-05 0 -0.0011399747269400194 5.0161736657817276e-05 0 -0.0011505525125246683 6.177497825451584e-05 0 -0.0011399747269400194 5.0161736657817276e-05 0 -0.0011505525125246683 6.177497825451584e-05 0 -0.0011547934290178441 4.9335096635072924e-05 0 -0.0011505525125246683 6.177497825451584e-05 0 -0.0011547934290178441 4.9335096635072924e-05 0 -0.0011614855488234974 5.586930028646013e-05 0 -0.0011399747269400194 5.0161736657817276e-05 0 -0.0011547934290178441 4.9335096635072924e-05 0 -0.0011486806770026571 3.162671119010387e-05 0 -0.0011547934290178441 4.9335096635072924e-05 0 -0.0011691650145048695 4.8366240670919619e-05 0 -0.0011486806770026571 3.162671119010387e-05 0 -0.00012445502847529676 0.00042908064599511767 0 -0.00069361593401960132 0.00021999060809014444 0 -0.0011547934290178441 4.9335096635072924e-05 0 -0.0011614855488234974 5.586930028646013e-05 0 -0.0011691650145048695 4.8366240670919619e-05 0 -0.0011681061135598754 5.7473847535991092e-05 0 -0.0011614855488234974 5.586930028646013e-05 0 -0.0011691650145048695 4.8366240670919619e-05 0 0.0016303774902276036 0.001152667714138154 0 0.0013069809652927001 0.00095253333545793832 0 0.0011089200543822225 0.0013593100777065249 0 0.00040220452307331304 0.00077556803653876477 0 0.00026195045953856394 0.00077137673802951461 0 -0.00012445502847529676 0.00042908064599511767 0 0.00033382496392781748 0.0003573461292590506 0 0.0011456114814109631 0.0015744154884145671 0 0.0016303774902276036 0.001152667714138154 0 0.0011089200543822225 0.0013593100777065249 0 -0.00067739515546420001 -0.00012305137385149587 0 -0.00067105751580923937 -0.00011815198710544727 0 -0.00067527666846887427 -0.00012017768583218659 0 -0.00065728356887510006 -0.00012174817958375623 0 -0.00067105751580923937 -0.00011815198710544727 0 -0.00067527666846887427 -0.00012017768583218659 0 0.0016303774902276036 0.001152667714138154 0 0.0013069809652927001 0.00095253333545793832 0 0.0016647065137631732 0.00067874092865547852 0 0.0021268227419884763 0.00073032312945660912 0 0.0016303774902276036 0.001152667714138154 0 0.0016647065137631732 0.00067874092865547852 0 0.00068246148991361866 0.00020615011244930355 0 0.00033382496392781748 0.0003573461292590506 0 0.0013069809652927001 0.00095253333545793832 0 0.0011269710741100825 0.00065028858854729559 0 0.0016647065137631732 0.00067874092865547852 0 0.00098447077105053731 0.0010528539823585863 0 0.0006478155257178623 0.0010607348200864096 0 0.0011269710741100825 0.00065028858854729559 0 0.0013836590302710107 0.00084475048237021117 0 0.0017311686305296556 0.00055372601899535091 0 0.001491004849713062 0.00038703332831585557 0 0.0013069809652927001 0.00095253333545793832 0 0.00098447077105053731 0.0010528539823585863 0 0.0011269710741100825 0.00065028858854729559 0 0.0006144766739095926 0.00057284396863457269 0 0.0012689022279536765 0.00041751798866735405 0 0.00098447077105053731 0.0010528539823585863 0 0.0009563859519036371 0.0012281147612209946 0 0.0011147124795671674 0.0013298036567441552 0 0.0013069809652927001 0.00095253333545793832 0 0.00098447077105053731 0.0010528539823585863 0 0.0011147124795671674 0.0013298036567441552 0 0.00098447077105053731 0.0010528539823585863 0 0.0009563859519036371 0.0012281147612209946 0 0.0007050019017221206 0.0011887734427554254 0 0.00098447077105053731 0.0010528539823585863 0 0.0007050019017221206 0.0011887734427554254 0 0.0006478155257178623 0.0010607348200864096 0 0.00066130288513781504 0.00074939459735456253 0 0.00054537412640156635 0.00061859699978059036 0 0.0009563859519036371 0.0012281147612209946 0 0.00094006947899871014 0.0013888869776497942 0 0.0007050019017221206 0.0011887734427554254 0 0.0009563859519036371 0.0012281147612209946 0 0.00094006947899871014 0.0013888869776497942 0 0.0011147124795671674 0.0013298036567441552 0 -4.4143812895374915e-05 0.00028179231929213386 0 -2.6911817489185605e-05 0.00024431490780210533 0 -8.7179053073536776e-05 0.00029324674567489259 0 -3.5481913523595739e-05 0.00031197644299469794 0 -4.4143812895374915e-05 0.00028179231929213386 0 -1.1778139165479555e-05 0.00025740641036974926 0 0.0005507493005585737 0.00049086952640776732 0 0.00064117267470885668 0.00069816748048342429 0 0.00071655435506706895 0.00063450715350422602 0 0.00054537412640156635 0.00061859699978059036 0 0.0006144766739095926 0.00057284396863457269 0 0.00054537412640156635 0.00061859699978059036 0 0.00053838754354038759 0.00056126783281853273 0 0.0006144766739095926 0.00057284396863457269 0 0.00053838754354038759 0.00056126783281853273 0 -4.4143812895374915e-05 0.00028179231929213386 0 -1.1778139165479555e-05 0.00025740641036974926 0 -2.6911817489185605e-05 0.00024431490780210533 0 0.00052653124477876204 0.00031363253645813269 0 0.00052724770108610063 0.00031300786449158196 0 0.00053191049821616572 0.00031695188863081167 0 0.00052653124477876204 0.00031363253645813269 0 0.00053191049821616572 0.00031695188863081167 0 0.00052982274095110678 0.00032161643836467924 0 0.00053838754354038759 0.00056126783281853273 0 0.00035572976367712083 0.00016583099483757915 0 0.0006144766739095926 0.00057284396863457269 0 0.00059418302969678342 0.00031700345440670963 0 -0.00043984638400635897 -0.00040677801968326993 0 -0.00048817521300660794 -0.00041122201114686852 0 -0.00046913072317967652 -0.00032593366221458686 0 -2.2735791098255401e-05 0.00024171293799075703 0 -7.4146514503492834e-05 0.00019714253423676282 0 -7.1518288018772205e-05 0.00024782144461521092 0 -0.00048817521300660794 -0.00041122201114686852 0 -0.00051688223261822696 -0.00037434206864331125 0 -0.00056375693666381097 -0.00043911590362776399 0 -0.00043984638400635897 -0.00040677801968326993 0 -0.00048817521300660794 -0.00041122201114686852 0 -0.00049779267342549153 -0.00045230237441909899 0 -0.00048817521300660794 -0.00041122201114686852 0 -0.00051688223261822696 -0.00037434206864331125 0 -0.00046913072317967652 -0.00032593366221458686 0 -0.00051688223261822696 -0.00037434206864331125 0 -0.00052759295447271496 -0.00032460176983431169 0 -0.00046913072317967652 -0.00032593366221458686 0 -7.4146514503492834e-05 0.00019714253423676282 0 -0.00011007291865321058 0.00027717002608770917 0 -7.1518288018772205e-05 0.00024782144461521092 0 -2.2735791098255401e-05 0.00024171293799075703 0 -7.1518288018772205e-05 0.00024782144461521092 0 -8.7179053073536776e-05 0.00029324674567489259 0 -0.00011007291865321058 0.00027717002608770917 0 -7.1518288018772205e-05 0.00024782144461521092 0 -8.7179053073536776e-05 0.00029324674567489259 0 0.00035572976367712083 0.00016583099483757915 0 -2.1068292247057773e-05 0.0001014133095232638 0 0.00053838754354038759 0.00056126783281853273 0 0.00035439211658684936 0.00057261203081373992 0 -0.00066325168226008459 -0.00042590773457275608 0 -0.00059361175679085879 -0.00039358467707163529 0 -0.00065538175257906007 -0.00036336552491402006 0 -0.00066325168226008459 -0.00042590773457275608 0 -0.00059361175679085879 -0.00039358467707163529 0 -0.00059896413786228355 -0.00045089666704122439 0 -0.00051688223261822696 -0.00037434206864331125 0 -0.00059361175679085879 -0.00039358467707163529 0 -0.00059871101430464301 -0.00047169137275303563 0 -0.00036196307165312742 -0.000447216628363322 0 -0.00023647897704921154 -0.00037545591112932316 0 -0.00027291859913990807 -0.00039452808820821997 0 -0.00023647897704921154 -0.00037545591112932316 0 -0.00052759295447271496 -0.00032460176983431169 0 -0.00059361175679085879 -0.00039358467707163529 0 -0.00058747885288019366 -0.0003047527811253096 0 -0.00051688223261822696 -0.00037434206864331125 0 -0.00052759295447271496 -0.00032460176983431169 0 -0.00059361175679085879 -0.00039358467707163529 0 -0.00065538175257906007 -0.00036336552491402006 0 -0.0006509858314620177 -0.0003103475483578068 0 -0.00070547958289134127 -0.00032873750578451448 0 -0.00065538175257906007 -0.00036336552491402006 0 -0.0006509858314620177 -0.0003103475483578068 0 -0.00058747885288019366 -0.0003047527811253096 0 -0.00059361175679085879 -0.00039358467707163529 0 -0.00065538175257906007 -0.00036336552491402006 0 -0.00058747885288019366 -0.0003047527811253096 0 -0.00067482512351963602 -0.00024934401465512583 0 -0.00058747885288019366 -0.0003047527811253096 0 -0.00059087188357100106 -0.00018286005489062614 0 -0.00067482512351963602 -0.00024934401465512583 0 -0.0006509858314620177 -0.0003103475483578068 0 -0.00070547958289134127 -0.00032873750578451448 0 -0.00067482512351963602 -0.00024934401465512583 0 -0.0006509858314620177 -0.0003103475483578068 0 -0.00058747885288019366 -0.0003047527811253096 0 -0.00052759295447271496 -0.00032460176983431169 0 -0.00058747885288019366 -0.0003047527811253096 0 -0.00050179228286435546 -0.00021674371679332525 0 -0.00058747885288019366 -0.0003047527811253096 0 -0.00059087188357100106 -0.00018286005489062614 0 -0.00050179228286435546 -0.00021674371679332525 0 -0.00059087188357100106 -0.00018286005489062614 0 -0.00050179228286435546 -0.00021674371679332525 0 -0.00054650519511442795 -7.5214926177787609e-05 0 -0.00067482512351963602 -0.00024934401465512583 0 -0.00059087188357100106 -0.00018286005489062614 0 -0.00069559643946850037 -0.00013557628320005205 0 -8.7179053073536776e-05 0.00029324674567489259 0 -0.00014654616014661816 0.00035421817714672633 0 -7.3689053281088328e-05 0.00034397744254843174 0 -3.5481913523595739e-05 0.00031197644299469794 0 -5.9336057866415668e-05 0.00030213280052504343 0 -7.3689053281088328e-05 0.00034397744254843174 0 -4.4143812895374915e-05 0.00028179231929213386 0 -5.9336057866415668e-05 0.00030213280052504343 0 -8.7179053073536776e-05 0.00029324674567489259 0 -5.9336057866415668e-05 0.00030213280052504343 0 -8.7179053073536776e-05 0.00029324674567489259 0 -7.3689053281088328e-05 0.00034397744254843174 0 -0.00052759295447271496 -0.00032460176983431169 0 -0.00046913072317967652 -0.00032593366221458686 0 -0.00050179228286435546 -0.00021674371679332525 0 -2.1068292247057773e-05 0.0001014133095232638 0 -0.00026163156406523697 0.00010751236593664979 0 -0.00011007291865321058 0.00027717002608770917 0 -8.7179053073536776e-05 0.00029324674567489259 0 -0.00014654616014661816 0.00035421817714672633 0 -0.00026163156406523697 0.00010751236593664979 0 -0.0004714007733623631 0.00013707782597373794 0 -0.00014654616014661816 0.00035421817714672633 0 -0.00010950454387525333 0.00039684709831549906 0 -0.00018373523252165888 0.00043256030872627688 0 -4.3035186164654856e-05 0.0003966775608181544 0 -0.00010950454387525333 0.00039684709831549906 0 -7.3689053281088328e-05 0.00034397744254843174 0 -0.00014654616014661816 0.00035421817714672633 0 -0.00010950454387525333 0.00039684709831549906 0 -7.3689053281088328e-05 0.00034397744254843174 0 -4.3035186164654856e-05 0.0003966775608181544 0 -0.00010950454387525333 0.00039684709831549906 0 -0.00010755059416483441 0.00045387920046343055 0 -0.00044563198991980047 0.00034906725971069452 0 -0.00066026891654192156 0.00024307460193064796 0 -0.0011616247949928007 0.00010100344143758659 0 -0.0011578096590394201 8.5460829498061396e-05 0 -0.0011397383389952303 8.3200691564268175e-05 0 -0.0011658571068104051 6.6880340065552876e-05 0 -0.0011578096590394201 8.5460829498061396e-05 0 -0.0011530867743006221 7.4593633984812641e-05 0 -0.0011530867743006221 7.4593633984812641e-05 0 -0.0011397383389952303 8.3200691564268175e-05 0 -0.0011500527508704883 5.7951105617144826e-05 0 -0.0011578096590394201 8.5460829498061396e-05 0 -0.0011530867743006221 7.4593633984812641e-05 0 -0.0011397383389952303 8.3200691564268175e-05 0 -0.0011658571068104051 6.6880340065552876e-05 0 -0.0011530867743006221 7.4593633984812641e-05 0 -0.0011500527508704883 5.7951105617144826e-05 0 -0.00010755059416483441 0.00045387920046343055 0 -0.00018373523252165888 0.00043256030872627688 0 -0.00017350821423449552 0.00051195310854779781 0 -0.0011397383389952303 8.3200691564268175e-05 0 -0.0011093022624129789 5.7485631027702736e-05 0 -0.0011500527508704883 5.7951105617144826e-05 0 -0.00066026891654192156 0.00024307460193064796 0 -0.00091308691487695178 0.00014182499559309175 0 -0.00010950454387525333 0.00039684709831549906 0 -0.00010755059416483441 0.00045387920046343055 0 -0.00018373523252165888 0.00043256030872627688 0 -0.00059087188357100106 -0.00018286005489062614 0 -0.00054650519511442795 -7.5214926177787609e-05 0 -0.00069559643946850037 -0.00013557628320005205 0 -0.00054650519511442795 -7.5214926177787609e-05 0 -0.00069559643946850037 -0.00013557628320005205 0 -0.00067285235623207882 -2.3117520968873607e-05 0 -0.00069559643946850037 -0.00013557628320005205 0 -0.00067285235623207882 -2.3117520968873607e-05 0 -0.0007929393015727185 -6.6501176450907236e-05 0 -0.00067285235623207882 -2.3117520968873607e-05 0 -0.00060959768948263225 7.9354111969032542e-05 0 -0.00072447563636594782 8.277525695698113e-05 0 -0.00054650519511442795 -7.5214926177787609e-05 0 -0.00067285235623207882 -2.3117520968873607e-05 0 -0.00060959768948263225 7.9354111969032542e-05 0 -0.00018373523252165888 0.00043256030872627688 0 -0.00017350821423449552 0.00051195310854779781 0 -0.00022076119341740997 0.0005127906757259362 0 -0.0004714007733623631 0.00013707782597373794 0 -0.00073405657846009988 0.00014147851991655027 0 -0.00090517816194695332 9.8097345462196602e-05 0 -0.00091500157861156884 0.00010513601086068566 0 -0.00091698459413323634 0.00010888541302179232 0 -0.00090517816194695332 9.8097345462196602e-05 0 -0.00091205923065097846 9.8275683768104356e-05 0 -0.00091500157861156884 0.00010513601086068566 0 -0.00091308691487695178 0.00014182499559309175 0 -0.00073405657846009988 0.00014147851991655027 0 -0.0015654532536018421 7.9702399593097923e-06 0 -0.001648000809822113 8.91542730787552e-05 0 -0.0015667706951704575 7.9766557784381829e-05 0 -0.00091308691487695178 0.00014182499559309175 0 -0.0010928609810442317 0.0001165206015603497 0 -0.00073405657846009988 0.00014147851991655027 0 -0.0010314711920634471 1.816215975695159e-06 0 -0.00091219475102931975 9.9176347495135925e-05 0 -0.00092087635286049099 9.9155173337914926e-05 0 -0.00091500157861156884 0.00010513601086068566 0 -0.0016793983529672469 1.3380280861980212e-05 0 -0.0016503282121669881 8.2219687106134176e-05 0 -0.0016904756445251818 5.9103203087999874e-05 0 -0.00092087635286049099 9.9155173337914926e-05 0 -0.00091500157861156884 0.00010513601086068566 0 -0.00091698459413323634 0.00010888541302179232 0 -0.0010314711920634471 1.816215975695159e-06 0 -0.0010928609810442317 0.0001165206015603497 0 -0.00073405657846009988 0.00014147851991655027 0 -0.00074925987988583471 0.00014460541585415958 0 -0.0016802103499698911 7.8034919601923668e-05 0 -0.0016584426183717876 8.9518229579354827e-05 0 -0.0016503282121669881 8.2219687106134176e-05 0 -0.0016802103499698911 7.8034919601923668e-05 0 -0.0016503282121669881 8.2219687106134176e-05 0 -0.0016904756445251818 5.9103203087999874e-05 0 -0.0016802103499698911 7.8034919601923668e-05 0 -0.0016584426183717876 8.9518229579354827e-05 0 -0.0016771915864127057 9.7899468366132085e-05 0 -0.0010980550095353991 0.00011927437174439889 0 -0.0010928609810442317 0.0001165206015603497 0 -0.0011465816653687044 8.1457898932357794e-05 0 -0.0010928609810442317 0.0001165206015603497 0 -0.0016296060470865018 0.00013161779483999422 0 -0.001648000809822113 8.91542730787552e-05 0 -0.001607228860681376 0.00010902637098162533 0 -0.0016296060470865018 0.00013161779483999422 0 -0.0016584426183717876 8.9518229579354827e-05 0 -0.0016495171637047421 8.1582292102366823e-05 0 -0.0016296060470865018 0.00013161779483999422 0 -0.0016707838508566077 0.0001225193151909275 0 -0.0016584426183717876 8.9518229579354827e-05 0 -0.0016707838508566077 0.0001225193151909275 0 -0.0016584426183717876 8.9518229579354827e-05 0 -0.0016771915864127057 9.7899468366132085e-05 0 -0.0015476982817275383 0.00015622664835114911 0 -0.001588657830059668 0.00013292719513921303 0 -0.0015667706951704575 7.9766557784381829e-05 0 -0.001648000809822113 8.91542730787552e-05 0 -0.0015667706951704575 7.9766557784381829e-05 0 -0.001607228860681376 0.00010902637098162533 0 -0.001588657830059668 0.00013292719513921303 0 -0.0015667706951704575 7.9766557784381829e-05 0 -0.001607228860681376 0.00010902637098162533 0 -0.001588657830059668 0.00013292719513921303 0 -0.0016296060470865018 0.00013161779483999422 0 -0.001607228860681376 0.00010902637098162533 0 -0.0015054594609242393 0.00012475883577161545 0 -0.0015624309256041301 0.00014884766772113456 0 -0.0015038934389886589 7.9253999822092721e-05 0 -0.0015476982817275383 0.00015622664835114911 0 -0.0015667706951704575 7.9766557784381829e-05 0 -0.0015038934389886589 7.9253999822092721e-05 0 -0.0015645693890774953 0.00016480476137797735 0 -0.0015461365847178376 0.00012935730174681525 0 -0.0015667706951704575 7.9766557784381829e-05 0 -0.0015038934389886589 7.9253999822092721e-05 0 -0.0015275049380401116 6.1892284167379185e-05 0 -0.0015054594609242393 0.00012475883577161545 0 -0.0015038934389886589 7.9253999822092721e-05 0 -0.0014832812851090958 0.00010123501665723552 0 -0.0015054594609242393 0.00012475883577161545 0 -0.0014754409287126855 0.0001349215481280647 0 -0.0014832812851090958 0.00010123501665723552 0 -0.0012556235897846304 0.00013007037598357753 0 -0.0013069750182599458 0.00015116583692590033 0 -0.0013129311578257302 8.8515081593732085e-05 0 -0.0013675892280885311 6.9562588416132505e-05 0 -0.0013503813524387619 1.4663821179033719e-06 0 -0.0015001160573682669 3.0076092219675057e-05 0 -0.0015038934389886589 7.9253999822092721e-05 0 -0.0014832812851090958 0.00010123501665723552 0 -0.0015001160573682669 3.0076092219675057e-05 0 -0.0013069750182599458 0.00015116583692590033 0 -0.0013675892280885311 6.9562588416132505e-05 0 -0.0015001160573682669 3.0076092219675057e-05 0 -0.0013981844096329842 9.8771178734284094e-05 0 -0.0014469615177016629 5.8155240564940216e-05 0 -0.0013069750182599458 0.00015116583692590033 0 -0.0013675892280885311 6.9562588416132505e-05 0 -0.0013129311578257302 8.8515081593732085e-05 0 -0.0012634046029763482 8.3981819512929937e-05 0 -0.0013129311578257302 8.8515081593732085e-05 0 -0.0013503813524387619 1.4663821179033719e-06 0 -0.0013675892280885311 6.9562588416132505e-05 0 -0.0013129311578257302 8.8515081593732085e-05 0 -0.0013503813524387619 1.4663821179033719e-06 0 -0.0015654532536018421 7.9702399593097923e-06 0 -0.0015667706951704575 7.9766557784381829e-05 0 -0.0015275049380401116 6.1892284167379185e-05 0 -0.00091308691487695178 0.00014182499559309175 0 -0.0011790213083655607 0.00010113989478432961 0 -0.0015654532536018421 7.9702399593097923e-06 0 -0.0013503813524387619 1.4663821179033719e-06 0 -0.0015001160573682669 3.0076092219675057e-05 0 -0.0015654532536018421 7.9702399593097923e-06 0 -0.0015001160573682669 3.0076092219675057e-05 0 -0.0015275049380401116 6.1892284167379185e-05 0 -0.0015038934389886589 7.9253999822092721e-05 0 -0.0015001160573682669 3.0076092219675057e-05 0 -0.0015275049380401116 6.1892284167379185e-05 0 -0.001031887354140704 -0.00015046917717687465 0 -0.0010817133262527301 -0.00018481968869734101 0 -0.0010475000806997139 -6.2481320732857537e-05 0 -0.001031887354140704 -0.00015046917717687465 0 -0.0010475000806997139 -6.2481320732857537e-05 0 -0.00098507045171994812 -0.00015021366076976771 0 -0.001841499723723666 7.6208847510392201e-05 0 -0.0017800488678221011 7.9381872954366797e-05 0 -0.0017858014932737305 3.5918155805436319e-05 0 -0.0015106651938210365 1.784798974286726e-05 0 -0.0013662162253828757 -2.2188682832111382e-05 0 -0.001031887354140704 -0.00015046917717687465 0 -0.00098507045171994812 -0.00015021366076976771 0 -0.001020730739044473 -0.00019676720911084979 0 -0.001031887354140704 -0.00015046917717687465 0 -0.0010817133262527301 -0.00018481968869734101 0 -0.001020730739044473 -0.00019676720911084979 0 -0.0011697950381219578 -0.00015605536520640616 0 -0.0010817133262527301 -0.00018481968869734101 0 -0.0011394071418894039 -0.00022148388511752105 0 -0.0011697950381219578 -0.00015605536520640616 0 -0.0010817133262527301 -0.00018481968869734101 0 -0.0010475000806997139 -6.2481320732857537e-05 0 -0.0017107896603133794 8.3689271480861857e-05 0 -0.0017995318269024465 9.097818736588585e-05 0 -0.0018928655629885634 0.0001124464700668817 0 -0.001841499723723666 7.6208847510392201e-05 0 -0.0018082212359411842 0.00011263112369399089 0 -0.0017107896603133794 8.3689271480861857e-05 0 -0.0015106651938210365 1.784798974286726e-05 0 -0.0012235972327839142 0.00012284062604731079 0 -0.0011697950381219578 -0.00015605536520640616 0 -0.0010475000806997139 -6.2481320732857537e-05 0 -0.001841499723723666 7.6208847510392201e-05 0 -0.0018082212359411842 0.00011263112369399089 0 -0.0017800488678221011 7.9381872954366797e-05 0 -0.0018082212359411842 0.00011263112369399089 0 -0.0017582713369942355 0.00010366210646989643 0 -0.0017800488678221011 7.9381872954366797e-05 0 -0.0017582713369942355 0.00010366210646989643 0 -0.0017257319665135134 0.00011833812927946467 0 -0.0017331619407554221 8.4625515767126772e-05 0 -0.0017800488678221011 7.9381872954366797e-05 0 -0.0017331619407554221 8.4625515767126772e-05 0 -0.0017575844857533401 5.3414158882111095e-05 0 -0.0017582713369942355 0.00010366210646989643 0 -0.0017800488678221011 7.9381872954366797e-05 0 -0.0017331619407554221 8.4625515767126772e-05 0 -0.0016707838508566077 0.0001225193151909275 0 -0.0016771915864127057 9.7899468366132085e-05 0 -0.0016990703152043071 0.0001018174802546208 0 -0.0016990703152043071 0.0001018174802546208 0 -0.0017257319665135134 0.00011833812927946467 0 -0.0017331619407554221 8.4625515767126772e-05 0 -0.0017331619407554221 8.4625515767126772e-05 0 -0.0017087235202485913 7.5511879508157224e-05 0 -0.0017245462468470875 4.9246936118877601e-05 0 -0.0016990703152043071 0.0001018174802546208 0 -0.0017331619407554221 8.4625515767126772e-05 0 -0.0017087235202485913 7.5511879508157224e-05 0 -0.0016802103499698911 7.8034919601923668e-05 0 -0.0016990703152043071 0.0001018174802546208 0 -0.0017087235202485913 7.5511879508157224e-05 0 -0.0016802103499698911 7.8034919601923668e-05 0 -0.0017087235202485913 7.5511879508157224e-05 0 -0.0016904756445251818 5.9103203087999874e-05 0 -0.0016802103499698911 7.8034919601923668e-05 0 -0.0016771915864127057 9.7899468366132085e-05 0 -0.0016990703152043071 0.0001018174802546208 0 -0.0016793983529672469 1.3380280861980212e-05 0 -0.0017245462468470875 4.9246936118877601e-05 0 -0.0017557685733255038 1.4504676111305208e-05 0 -0.0010314711920634471 1.816215975695159e-06 0 -0.0012927394064876554 -3.8217333844931595e-05 0 -0.0017087235202485913 7.5511879508157224e-05 0 -0.0016904756445251818 5.9103203087999874e-05 0 -0.0017245462468470875 4.9246936118877601e-05 0 -0.0016793983529672469 1.3380280861980212e-05 0 -0.0016904756445251818 5.9103203087999874e-05 0 -0.0017245462468470875 4.9246936118877601e-05 0 -0.0017800488678221011 7.9381872954366797e-05 0 -0.0017575844857533401 5.3414158882111095e-05 0 -0.0017858014932737305 3.5918155805436319e-05 0 -0.0017245462468470875 4.9246936118877601e-05 0 -0.0017575844857533401 5.3414158882111095e-05 0 -0.0017557685733255038 1.4504676111305208e-05 0 -0.0017331619407554221 8.4625515767126772e-05 0 -0.0017245462468470875 4.9246936118877601e-05 0 -0.0017575844857533401 5.3414158882111095e-05 0 -0.00095649882593725681 -0.00017784534787480867 0 -0.00098507045171994812 -0.00015021366076976771 0 -0.00097561987423327534 -0.00020578219221015518 0 -0.0017575844857533401 5.3414158882111095e-05 0 -0.0017557685733255038 1.4504676111305208e-05 0 -0.0017858014932737305 3.5918155805436319e-05 0 -0.0012927394064876554 -3.8217333844931595e-05 0 -0.0013662162253828757 -2.2188682832111382e-05 0 -0.00098507045171994812 -0.00015021366076976771 0 -0.00097561987423327534 -0.00020578219221015518 0 -0.001020730739044473 -0.00019676720911084979 0 -0.00097561987423327534 -0.00020578219221015518 0 -0.00099684437846660049 -0.00023612056338542055 0 -0.001020730739044473 -0.00019676720911084979 0 -0.00097561987423327534 -0.00020578219221015518 0 -0.0009516987726808458 -0.00024079882139323215 0 -0.00092660513969768045 -0.00020130948345271522 0 -0.00095649882593725681 -0.00017784534787480867 0 -0.00097561987423327534 -0.00020578219221015518 0 -0.00092660513969768045 -0.00020130948345271522 0 -0.0012927394064876554 -3.8217333844931595e-05 0 -0.0012458138056074641 -6.7177186326510479e-05 0 -0.00097561987423327534 -0.00020578219221015518 0 -0.0009516987726808458 -0.00024079882139323215 0 -0.00099684437846660049 -0.00023612056338542055 0 -0.00087532307455233231 -0.00017939936855848688 0 -0.00092660513969768045 -0.00020130948345271522 0 -0.00091376257363191664 -0.00026925327364905958 0 -0.00087532307455233231 -0.00017939936855848688 0 -0.00095949585997601422 -0.00017867388475984743 0 -0.00092660513969768045 -0.00020130948345271522 0 -0.0010314711920634471 1.816215975695159e-06 0 -0.00096743979222729858 -0.00013147753600910184 0 -0.00067285235623207882 -2.3117520968873607e-05 0 -0.00072447563636594782 8.277525695698113e-05 0 -0.0007929393015727185 -6.6501176450907236e-05 0 -0.0009516987726808458 -0.00024079882139323215 0 -0.00092660513969768045 -0.00020130948345271522 0 -0.00091376257363191664 -0.00026925327364905958 0 -0.0009516987726808458 -0.00024079882139323215 0 -0.00091376257363191664 -0.00026925327364905958 0 -0.0009776494197409908 -0.00029526958622867337 0 -0.00091376257363191664 -0.00026925327364905958 0 -0.0009776494197409908 -0.00029526958622867337 0 -0.00095148773285057362 -0.00035593766194818286 0 -0.0009516987726808458 -0.00024079882139323215 0 -0.00099684437846660049 -0.00023612056338542055 0 -0.0009776494197409908 -0.00029526958622867337 0 -0.00099684437846660049 -0.00023612056338542055 0 -0.0009776494197409908 -0.00029526958622867337 0 -0.00102155894983117 -0.00028170075827618757 0 -0.00102155894983117 -0.00028170075827618757 0 -0.001071175969954637 -0.00025850046081269589 0 -0.0010404464940074588 -0.00033365831103550066 0 -0.0009776494197409908 -0.00029526958622867337 0 -0.00102155894983117 -0.00028170075827618757 0 -0.0010404464940074588 -0.00033365831103550066 0 -0.00099684437846660049 -0.00023612056338542055 0 -0.00102155894983117 -0.00028170075827618757 0 -0.001071175969954637 -0.00025850046081269589 0 -0.00099684437846660049 -0.00023612056338542055 0 -0.001020730739044473 -0.00019676720911084979 0 -0.001071175969954637 -0.00025850046081269589 0 -0.0010817133262527301 -0.00018481968869734101 0 -0.001020730739044473 -0.00019676720911084979 0 -0.001071175969954637 -0.00025850046081269589 0 -0.0010817133262527301 -0.00018481968869734101 0 -0.0011394071418894039 -0.00022148388511752105 0 -0.001071175969954637 -0.00025850046081269589 0 -0.001071175969954637 -0.00025850046081269589 0 -0.0011283258772046396 -0.00029733834957768941 0 -0.0010404464940074588 -0.00033365831103550066 0 -0.0011394071418894039 -0.00022148388511752105 0 -0.001071175969954637 -0.00025850046081269589 0 -0.0011283258772046396 -0.00029733834957768941 0 -0.0011277184271882661 -0.00037393492042832251 0 -0.0011283258772046396 -0.00029733834957768941 0 -0.0010404464940074588 -0.00033365831103550066 0 -0.0010404464940074588 -0.00033365831103550066 0 -0.0010040147798438027 -0.00038454601172501656 0 -0.00095148773285057362 -0.00035593766194818286 0 -0.0010404464940074588 -0.00033365831103550066 0 -0.0010581206034067248 -0.00041878795896824997 0 -0.0010040147798438027 -0.00038454601172501656 0 -0.0010581206034067248 -0.00041878795896824997 0 -0.0010040147798438027 -0.00038454601172501656 0 -0.00097188075635577158 -0.00043219067855274632 0 -0.0011277184271882661 -0.00037393492042832251 0 -0.0010404464940074588 -0.00033365831103550066 0 -0.0010581206034067248 -0.00041878795896824997 0 -0.0011277184271882661 -0.00037393492042832251 0 -0.0011560925928590512 -0.00044390463671825832 0 -0.0010581206034067248 -0.00041878795896824997 0 -0.00069559643946850037 -0.00013557628320005205 0 -0.0007929393015727185 -6.6501176450907236e-05 0 -0.00087994059552293647 -0.00023018534270550554 0 -0.00067482512351963602 -0.00024934401465512583 0 -0.00069559643946850037 -0.00013557628320005205 0 -0.00087994059552293647 -0.00023018534270550554 0 -0.00096743979222729858 -0.00013147753600910184 0 -0.00096908970934241404 -0.00025848248772065394 0 -0.0009776494197409908 -0.00029526958622867337 0 -0.0010404464940074588 -0.00033365831103550066 0 -0.00095148773285057362 -0.00035593766194818286 0 -0.00096908970934241404 -0.00025848248772065394 0 -0.0009832155974464447 -0.0003267121230053739 0 -0.0010040147798438027 -0.00038454601172501656 0 -0.00095148773285057362 -0.00035593766194818286 0 -0.00097188075635577158 -0.00043219067855274632 0 -0.00087994059552293647 -0.00023018534270550554 0 -0.00080924673610912267 -0.000414740134095443 0 -0.00097188075635577158 -0.00043219067855274632 0 -0.00073221674879827463 -0.00032122416585902411 0 -0.00077082637850331578 -0.00036749879338096575 0 -0.00067482512351963602 -0.00024934401465512583 0 -0.00087994059552293647 -0.00023018534270550554 0 -0.00080924673610912267 -0.000414740134095443 0 -0.00070547958289134127 -0.00032873750578451448 0 -0.00074182346807701786 -0.00039209648060674226 0 -0.00069959227780588145 -0.0003946043038233081 0 -0.00065538175257906007 -0.00036336552491402006 0 -0.00070547958289134127 -0.00032873750578451448 0 -0.00069959227780588145 -0.0003946043038233081 0 -0.00077082637850331578 -0.00036749879338096575 0 -0.00084075566105721428 -0.00044546287989733027 0 -0.00097188075635577158 -0.00043219067855274632 0 -0.00094171345670539773 -0.00053047064417103629 0 -0.0010274131411574182 -0.0004683691155728074 0 -0.00080924673610912267 -0.000414740134095443 0 -0.00097188075635577158 -0.00043219067855274632 0 -0.00094171345670539773 -0.00053047064417103629 0 -0.00084075566105721428 -0.00044546287989733027 0 -0.00091290803284038604 -0.00051936936184165678 0 -0.00074182346807701786 -0.00039209648060674226 0 -0.00072226295564077614 -0.00041614562359427022 0 -0.0007467419854735838 -0.00044501074907884688 0 -0.00074182346807701786 -0.00039209648060674226 0 -0.00072226295564077614 -0.00041614562359427022 0 -0.00069959227780588145 -0.0003946043038233081 0 -0.00066325168226008459 -0.00042590773457275608 0 -0.00065538175257906007 -0.00036336552491402006 0 -0.00069959227780588145 -0.0003946043038233081 0 -0.00072226295564077614 -0.00041614562359427022 0 -0.00069959227780588145 -0.0003946043038233081 0 -0.00070147471294819571 -0.00043337795140000249 0 -0.00066325168226008459 -0.00042590773457275608 0 -0.00069959227780588145 -0.0003946043038233081 0 -0.00070147471294819571 -0.00043337795140000249 0 -0.0011560925928590512 -0.00044390463671825832 0 -0.0010581206034067248 -0.00041878795896824997 0 -0.0010793662411134957 -0.00049273179951957419 0 -0.0010581206034067248 -0.00041878795896824997 0 -0.00097188075635577158 -0.00043219067855274632 0 -0.0010274131411574182 -0.0004683691155728074 0 -0.0010581206034067248 -0.00041878795896824997 0 -0.0010793662411134957 -0.00049273179951957419 0 -0.0010274131411574182 -0.0004683691155728074 0 -0.00094171345670539773 -0.00053047064417103629 0 -0.0010274131411574182 -0.0004683691155728074 0 -0.001022585138887944 -0.00053286650690682186 0 -0.0010793662411134957 -0.00049273179951957419 0 -0.0010274131411574182 -0.0004683691155728074 0 -0.001022585138887944 -0.00053286650690682186 0 -0.00094171345670539773 -0.00053047064417103629 0 -0.001022585138887944 -0.00053286650690682186 0 -0.0010162822986953502 -0.00059883125652506527 0 -0.0011358837352585828 -0.0005196549409946478 0 -0.0010793662411134957 -0.00049273179951957419 0 -0.001079634377696713 -0.00056807700547974898 0 -0.0011358837352585828 -0.0005196549409946478 0 -0.001079634377696713 -0.00056807700547974898 0 -0.0011453904631503204 -0.00059148353966271693 0 -0.0010793662411134957 -0.00049273179951957419 0 -0.001022585138887944 -0.00053286650690682186 0 -0.001079634377696713 -0.00056807700547974898 0 -0.001079634377696713 -0.00056807700547974898 0 -0.0010162822986953502 -0.00059883125652506527 0 -0.0010797549009071655 -0.00067486331456654679 0 -0.001079634377696713 -0.00056807700547974898 0 -0.0010797549009071655 -0.00067486331456654679 0 -0.0011453904631503204 -0.00059148353966271693 0 -0.001022585138887944 -0.00053286650690682186 0 -0.001079634377696713 -0.00056807700547974898 0 -0.0010162822986953502 -0.00059883125652506527 0 -0.00079822070216829365 -0.00045771969747448202 0 -0.00078863370004833946 -0.00054639039710554637 0 -0.00074776534375121234 -0.00050062357818154903 0 -0.00078863370004833946 -0.00054639039710554637 0 -0.00087793347969756846 -0.00055218453067098713 0 -0.00082425759984453277 -0.00062028540031118041 0 -0.00079822070216829365 -0.00045771969747448202 0 -0.00078863370004833946 -0.00054639039710554637 0 -0.00087793347969756846 -0.00055218453067098713 0 -0.00091290803284038604 -0.00051936936184165678 0 -0.00098174806613988952 -0.00058102122907308107 0 -0.00098174806613988952 -0.00058102122907308107 0 -0.001073475262304517 -0.00054130350117355982 0 -0.00034312855876971447 -0.00033095000984830885 0 -0.00054808195932363861 -0.00031833618107401571 0 -0.00066325168226008459 -0.00042590773457275608 0 -0.00067017356961855614 -0.00047228904788875289 0 -0.00070147471294819571 -0.00043337795140000249 0 -0.00067017356961855614 -0.00047228904788875289 0 -0.00070147471294819571 -0.00043337795140000249 0 -0.0007467419854735838 -0.00044501074907884688 0 -0.00059995457566347195 -0.00049246933619795635 0 -0.0007467419854735838 -0.00044501074907884688 0 -0.00069065841417872129 -0.00050497870351039783 0 -0.00074182346807701786 -0.00039209648060674226 0 -0.00079822070216829365 -0.00045771969747448202 0 -0.0007467419854735838 -0.00044501074907884688 0 -0.00072226295564077614 -0.00041614562359427022 0 -0.00070147471294819571 -0.00043337795140000249 0 -0.0007467419854735838 -0.00044501074907884688 0 -0.0007467419854735838 -0.00044501074907884688 0 -0.00074776534375121234 -0.00050062357818154903 0 -0.00069065841417872129 -0.00050497870351039783 0 -0.00079822070216829365 -0.00045771969747448202 0 -0.0007467419854735838 -0.00044501074907884688 0 -0.00074776534375121234 -0.00050062357818154903 0 -0.00078863370004833946 -0.00054639039710554637 0 -0.00074776534375121234 -0.00050062357818154903 0 -0.00072041950453953648 -0.00055377052927361439 0 -0.00078863370004833946 -0.00054639039710554637 0 -0.00072041950453953648 -0.00055377052927361439 0 -0.00074048376327708358 -0.0006197016234518178 0 -0.00074776534375121234 -0.00050062357818154903 0 -0.00072041950453953648 -0.00055377052927361439 0 -0.00069065841417872129 -0.00050497870351039783 0 -0.00072041950453953648 -0.00055377052927361439 0 -0.00069065841417872129 -0.00050497870351039783 0 -0.00064013854876219861 -0.00053197016233715478 0 -0.00059995457566347195 -0.00049246933619795635 0 -0.00069065841417872129 -0.00050497870351039783 0 -0.00064013854876219861 -0.00053197016233715478 0 -0.00059995457566347195 -0.00049246933619795635 0 -0.00064013854876219861 -0.00053197016233715478 0 -0.00061197933286247892 -0.00057854944323376028 0 -0.00034312855876971447 -0.00033095000984830885 0 -0.00026488599040230159 -0.00035782191563149031 0 -0.00064013854876219861 -0.00053197016233715478 0 -0.00061197933286247892 -0.00057854944323376028 0 -0.00067842414324360996 -0.00059041010557229763 0 -0.00072041950453953648 -0.00055377052927361439 0 -0.00064013854876219861 -0.00053197016233715478 0 -0.00067842414324360996 -0.00059041010557229763 0 -0.00061197933286247892 -0.00057854944323376028 0 -0.00067842414324360996 -0.00059041010557229763 0 -0.00067994874760573816 -0.00066788027935942723 0 -0.00026488599040230159 -0.00035782191563149031 0 -0.00011575071180323298 -0.00032205392362395129 0 -0.00013659898997713419 -0.00028238025637181607 0 -0.00013408403674379204 -0.00026225332472164464 0 -0.00014731936370246209 -0.00028559091832233252 0 5.1904356777974741e-05 0.00010383209176726427 0 -0.00021892691962829532 -0.00022143717692688704 0 7.6515010961999312e-06 -0.00023673737382955585 0 -0.00026488599040230159 -0.00035782191563149031 0 -0.00042086200263687659 -0.00049340244890137808 0 -0.00074048376327708358 -0.0006197016234518178 0 -0.00067994874760573816 -0.00066788027935942723 0 -0.00076722725016270055 -0.00069116339878899018 0 -0.00067842414324360996 -0.00059041010557229763 0 -0.00074048376327708358 -0.0006197016234518178 0 -0.00067994874760573816 -0.00066788027935942723 0 -0.00072041950453953648 -0.00055377052927361439 0 -0.00067842414324360996 -0.00059041010557229763 0 -0.00074048376327708358 -0.0006197016234518178 0 -0.00032130072952575296 -0.00052389347882456474 0 -0.00021892691962829532 -0.00022143717692688704 0 -0.00050262986721281522 -0.00055775642677795257 0 -0.00042086200263687659 -0.00049340244890137808 0 -0.00057688233680485443 -0.00066209073353756332 0 -0.00067994874760573816 -0.00066788027935942723 0 -0.00076722725016270055 -0.00069116339878899018 0 -0.00074758453274028443 -0.00077682497934534979 0 -0.00031216606409563842 -0.00051825362104446942 0 3.3336920223564498e-05 -0.00021917674051131616 0 -3.2919987085212803e-05 -0.00072832852961631086 0 -0.00011575071180323298 -0.00032205392362395129 0 -9.059769587139409e-05 -0.00065382448918629868 0 -0.00030047937138282617 -0.00049271624082317816 0 -0.00011575071180323298 -0.00032205392362395129 0 -0.00032130072952575296 -0.00052389347882456474 0 -0.00021892691962829532 -0.00022143717692688704 0 7.6515010961999312e-06 -0.00023673737382955585 0 0.00010770402757817326 -0.0001356909427802961 0 3.3609660362982819e-05 -0.00064841201860425595 0 0.00029274069893377397 -0.00040589875870992233 0 -0.00093947174373288018 -0.00061865935346066495 0 -0.00084719579828391697 -0.00059565923055361018 0 -0.0008633829988499795 -0.00069534421565506399 0 -0.00093947174373288018 -0.00061865935346066495 0 -0.001000751972887395 -0.00066232431506284847 0 -0.0010408006393751077 -0.00062637219831271546 0 -0.00098174806613988952 -0.00058102122907308107 0 -0.00099347809116044584 -0.00059147184726716625 0 -0.00093361776394061799 -0.00048577598312285475 0 -0.00093947174373288018 -0.00061865935346066495 0 -0.0010408006393751077 -0.00062637219831271546 0 -0.00093361776394061799 -0.00048577598312285475 0 -0.00093947174373288018 -0.00061865935346066495 0 -0.00084719579828391697 -0.00059565923055361018 0 -0.00098174806613988952 -0.00058102122907308107 0 -0.00091712109201957752 -0.00062396715410338501 0 -0.00078863370004833946 -0.00054639039710554637 0 -0.00074048376327708358 -0.0006197016234518178 0 -0.00082425759984453277 -0.00062028540031118041 0 -0.00091712109201957752 -0.00062396715410338501 0 -0.0008884441258530971 -0.00064796683634255308 0 -0.00074048376327708358 -0.0006197016234518178 0 -0.00082425759984453277 -0.00062028540031118041 0 -0.00076722725016270055 -0.00069116339878899018 0 -0.00084719579828391697 -0.00059565923055361018 0 -0.0008633829988499795 -0.00069534421565506399 0 -0.00076722725016270055 -0.00069116339878899018 0 -0.00076722725016270055 -0.00069116339878899018 0 -0.00081004669933567046 -0.00076637563105164369 0 -0.00074758453274028443 -0.00077682497934534979 0 -0.0008633829988499795 -0.00069534421565506399 0 -0.00081004669933567046 -0.00076637563105164369 0 -0.00087537496018935148 -0.00078464999408966703 0 -0.0008633829988499795 -0.00069534421565506399 0 -0.00076722725016270055 -0.00069116339878899018 0 -0.00081004669933567046 -0.00076637563105164369 0 -0.00095276201309477235 -0.00071980602715456855 0 -0.00098053666865294264 -0.00086629696513958437 0 -0.0010597666584476529 -0.00067933300020316752 0 -0.0008633829988499795 -0.00069534421565506399 0 -0.00095276201309477235 -0.00071980602715456855 0 -0.00087537496018935148 -0.00078464999408966703 0 -0.00093947174373288018 -0.00061865935346066495 0 -0.0008633829988499795 -0.00069534421565506399 0 -0.00095276201309477235 -0.00071980602715456855 0 -0.001000751972887395 -0.00066232431506284847 0 -0.00095276201309477235 -0.00071980602715456855 0 -0.0010597666584476529 -0.00067933300020316752 0 -0.00093947174373288018 -0.00061865935346066495 0 -0.001000751972887395 -0.00066232431506284847 0 -0.00095276201309477235 -0.00071980602715456855 0 -0.00098053666865294264 -0.00086629696513958437 0 -0.00087537496018935148 -0.00078464999408966703 0 -0.00079501928581432793 -0.00093178306383912641 0 -0.00095276201309477235 -0.00071980602715456855 0 -0.00098053666865294264 -0.00086629696513958437 0 -0.00087537496018935148 -0.00078464999408966703 0 -0.00077127673334960944 -0.00079804477107722196 0 -0.00046839806295236421 -0.00096587377402508276 0 -0.00099434251056831923 -0.00078079301372092609 0 -0.00092990080086676353 -0.00089444170896336051 0 -0.0010337923149298389 -0.00088042548194200941 0 -0.00098053666865294264 -0.00086629696513958437 0 -0.00079501928581432793 -0.00093178306383912641 0 -0.00082572720267131154 -0.0013007109700277463 0 -0.00059790058524934178 -0.0010592908111393532 0 -0.00079501928581432793 -0.00093178306383912641 0 -0.00082572720267131154 -0.0013007109700277463 0 -0.00059790058524934178 -0.0010592908111393532 0 -0.00079501928581432793 -0.00093178306383912641 0 -0.00066823042038010748 -0.00083844325216688321 0 -0.00059790058524934178 -0.0010592908111393532 0 -0.00066823042038010748 -0.00083844325216688321 0 -0.00048712135662972453 -0.00093893895177958164 0 -0.00079501928581432793 -0.00093178306383912641 0 -0.00066823042038010748 -0.00083844325216688321 0 -0.00050262986721281522 -0.00055775642677795257 0 -0.00081004669933567046 -0.00076637563105164369 0 -0.00087537496018935148 -0.00078464999408966703 0 -0.00079501928581432793 -0.00093178306383912641 0 -0.00066014794995261552 -0.0007606936656859597 0 -0.00057688233680485443 -0.00066209073353756332 0 -0.00081004669933567046 -0.00076637563105164369 0 -0.00079501928581432793 -0.00093178306383912641 0 -0.00074758453274028443 -0.00077682497934534979 0 -0.00030047937138282617 -0.00049271624082317816 0 -0.00043224527709968022 -0.00061078282554638747 0 -0.00031216606409563842 -0.00051825362104446942 0 -0.00066823042038010748 -0.00083844325216688321 0 -0.00036105017802388325 -0.00081539972622934464 0 -0.00032130072952575296 -0.00052389347882456474 0 -0.00066823042038010748 -0.00083844325216688321 0 -0.00050262986721281522 -0.00055775642677795257 0 -0.00031216606409563842 -0.00051825362104446942 0 -0.00036105017802388325 -0.00081539972622934464 0 -3.2919987085212803e-05 -0.00072832852961631086 0 -3.2919987085212803e-05 -0.00072832852961631086 0 -0.00031942834449914744 -0.0010444049140485114 0 -7.7133006164619171e-05 -0.0012152277720256072 0 -9.059769587139409e-05 -0.00065382448918629868 0 -0.0001021272999941928 -0.00088484247370474768 0 3.3609660362982819e-05 -0.00064841201860425595 0 -7.7133006164619171e-05 -0.0012152277720256072 0 0.00033674686397878719 -0.0010245904958327207 0 -0.00036105017802388325 -0.00081539972622934464 0 -3.2919987085212803e-05 -0.00072832852961631086 0 -0.00031942834449914744 -0.0010444049140485114 0 -0.00036105017802388325 -0.00081539972622934464 0 -0.00048712135662972453 -0.00093893895177958164 0 -0.00031942834449914744 -0.0010444049140485114 0 -0.00066823042038010748 -0.00083844325216688321 0 -0.00036105017802388325 -0.00081539972622934464 0 -0.00048712135662972453 -0.00093893895177958164 0 -0.00059790058524934178 -0.0010592908111393532 0 -0.00031942834449914744 -0.0010444049140485114 0 -0.00048840780512879843 -0.0012586853458101408 0 -0.00059790058524934178 -0.0010592908111393532 0 -0.00048712135662972453 -0.00093893895177958164 0 -0.00031942834449914744 -0.0010444049140485114 0 -0.00048840780512879843 -0.0012586853458101408 0 -0.00028307732262545084 -0.0012635673387445783 0 -0.00034922779870360561 -0.0014314421599096081 0 -0.00031942834449914744 -0.0010444049140485114 0 -0.00048840780512879843 -0.0012586853458101408 0 -0.00028307732262545084 -0.0012635673387445783 0 -0.00031942834449914744 -0.0010444049140485114 0 -0.00028307732262545084 -0.0012635673387445783 0 -7.7133006164619171e-05 -0.0012152277720256072 0 -0.00028307732262545084 -0.0012635673387445783 0 -0.00017518638155071095 -0.0013741194089864574 0 -7.7133006164619171e-05 -0.0012152277720256072 0 -0.00017518638155071095 -0.0013741194089864574 0 -0.00019930505774151707 -0.0014947611595450619 0 -0.00034922779870360561 -0.0014314421599096081 0 -0.00028307732262545084 -0.0012635673387445783 0 -0.00017518638155071095 -0.0013741194089864574 0 -0.00034922779870360561 -0.0014314421599096081 0 -0.00048840780512879843 -0.0012586853458101408 0 -0.00034922779870360561 -0.0014314421599096081 0 -0.00054942991703467903 -0.0014620923431217976 0 -0.00034922779870360561 -0.0014314421599096081 0 -0.00039261473642198058 -0.001588072743832876 0 -0.00054942991703467903 -0.0014620923431217976 0 6.5080299040793789e-05 -0.0013204152840691949 0 0.0001333336290695362 -0.0014836437747541202 0 0.00033674686397878719 -0.0010245904958327207 0 6.5080299040793789e-05 -0.0013204152840691949 0 -7.7133006164619171e-05 -0.0012152277720256072 0 0.00033674686397878719 -0.0010245904958327207 0 6.5080299040793789e-05 -0.0013204152840691949 0 -7.7133006164619171e-05 -0.0012152277720256072 0 -4.7947135797031796e-05 -0.0013816115813516043 0 -0.00017518638155071095 -0.0013741194089864574 0 -7.7133006164619171e-05 -0.0012152277720256072 0 -4.7947135797031796e-05 -0.0013816115813516043 0 -0.00017518638155071095 -0.0013741194089864574 0 -0.00011556569313686249 -0.0014775322962809754 0 -4.7947135797031796e-05 -0.0013816115813516043 0 -0.00017518638155071095 -0.0013741194089864574 0 -0.00019930505774151707 -0.0014947611595450619 0 -0.00011556569313686249 -0.0014775322962809754 0 -0.00011556569313686249 -0.0014775322962809754 0 -4.7947135797031796e-05 -0.0013816115813516043 0 2.1985619846354193e-05 -0.0014900766573006697 0 6.5080299040793789e-05 -0.0013204152840691949 0 -4.7947135797031796e-05 -0.0013816115813516043 0 2.1985619846354193e-05 -0.0014900766573006697 0 6.5080299040793789e-05 -0.0013204152840691949 0 2.1985619846354193e-05 -0.0014900766573006697 0 0.0001333336290695362 -0.0014836437747541202 0 0.00048427653274525878 -0.0013783829816321411 0 0.00066234388275486348 -0.0012865333044571046 0 2.1985619846354193e-05 -0.0014900766573006697 0 0.0001333336290695362 -0.0014836437747541202 0 -4.1150970821332142e-05 -0.0018963985105673983 0 0.00024002606654749392 -0.001342458633329234 0 0.00031748560917004449 -0.0015625088215637498 0 0.00012376779673955936 -0.0016548490960606242 0 2.1985619846354193e-05 -0.0014900766573006697 0 -0.00020411088737272228 -0.0016426604982665775 0 -4.1150970821332142e-05 -0.0018963985105673983 0 0.00036675866193771017 -0.0013921237513057978 0 0.00046362884079595017 -0.0013354874451627855 0 -0.00011556569313686249 -0.0014775322962809754 0 2.1985619846354193e-05 -0.0014900766573006697 0 -0.00021675356817993496 -0.0016331266223450936 0 0.00046362884079595017 -0.0013354874451627855 0 0.00066234388275486348 -0.0012865333044571046 0 0.0011609676248361212 -0.00086952889642693577 0 0.0010678961996938763 -0.00093129387291195336 0 0.0011377103874344332 -0.00095110931011408502 0 -0.00039261473642198058 -0.001588072743832876 0 -0.00021661666078424247 -0.0016282163820206541 0 -0.00057625268573617398 -0.001866234391536537 0 -0.00039261473642198058 -0.001588072743832876 0 -0.00054942991703467903 -0.0014620923431217976 0 -0.00057625268573617398 -0.001866234391536537 0 0.00046362884079595017 -0.0013354874451627855 0 0.00016645934669486299 -0.0011329652012282861 0 -0.00019930505774151707 -0.0014947611595450619 0 -0.00034922779870360561 -0.0014314421599096081 0 -0.00024878551856115746 -0.0015807581465703288 0 -0.00039261473642198058 -0.001588072743832876 0 -0.00024878551856115746 -0.0015807581465703288 0 -0.00021661666078424247 -0.0016282163820206541 0 -0.00034922779870360561 -0.0014314421599096081 0 -0.00039261473642198058 -0.001588072743832876 0 -0.00024878551856115746 -0.0015807581465703288 0 -0.00019930505774151707 -0.0014947611595450619 0 -0.00011556569313686249 -0.0014775322962809754 0 -0.00021675356817993496 -0.0016331266223450936 0 -0.00019930505774151707 -0.0014947611595450619 0 -0.00024878551856115746 -0.0015807581465703288 0 -0.00021675356817993496 -0.0016331266223450936 0 0.00046083810556839944 -0.0013351437878260136 0 0.00046362884079595017 -0.0013354874451627855 0 0.0011609676248361212 -0.00086952889642693577 0 0.0011377103874344332 -0.00095110931011408502 0 0.0012028777594935269 -0.00093281602632053076 0 -0.00097092152456342235 -0.00097540270760532275 0 -0.00092990080086676353 -0.00089444170896336051 0 -0.00087079339165153609 -0.0010120103155384405 0 -0.00046839806295236421 -0.00096587377402508276 0 0.00016645934669486299 -0.0011329652012282861 0 -0.00082572720267131154 -0.0013007109700277463 0 -0.00054942991703467903 -0.0014620923431217976 0 -0.00057625268573617398 -0.001866234391536537 0 -0.00097092152456342235 -0.00097540270760532275 0 -0.00092990080086676353 -0.00089444170896336051 0 -0.0010337923149298389 -0.00088042548194200941 0 -0.00059790058524934178 -0.0010592908111393532 0 -0.00048840780512879843 -0.0012586853458101408 0 -0.00082572720267131154 -0.0013007109700277463 0 -0.00048840780512879843 -0.0012586853458101408 0 -0.00082572720267131154 -0.0013007109700277463 0 -0.00054942991703467903 -0.0014620923431217976 0 0.0010969831922227275 -0.001223304237298641 0 0.00087246948700500822 -0.0015156320026191786 0 0.00083554654393037952 -0.0011439625422787912 0 0.001098676608975901 -0.0011826809309107237 0 0.0013215723164316793 -0.001045863375085624 0 0.0014526262550753927 -0.0013740716684304819 0 0.0012697879082641773 -0.0015928881655495248 0 0.0014526262550753927 -0.0013740716684304819 0 0.0014014982624579472 -0.0018891023036094608 0 0.001098676608975901 -0.0011826809309107237 0 0.0012697879082641773 -0.0015928881655495248 0 0.0014526262550753927 -0.0013740716684304819 0 0.0010742916468323214 -0.001141000496461108 0 0.0011518953609670967 -0.0013192035901855716 0 0.0010969831922227275 -0.001223304237298641 0 0.0012697879082641773 -0.0015928881655495248 0 0.00087246948700500822 -0.0015156320026191786 0 0.00087246948700500822 -0.0015156320026191786 0 0.00061868201083348489 -0.0013289909842327014 0 0.00050499005378438382 -0.0016579668777346088 0 0.00040634993079797209 -0.0014180053298094954 0 0.00061868201083348489 -0.0013289909842327014 0 0.00050499005378438382 -0.0016579668777346088 0 0.00031748560917004449 -0.0015625088215637498 0 0.00040634993079797209 -0.0014180053298094954 0 0.00050499005378438382 -0.0016579668777346088 0 0.00024002606654749392 -0.001342458633329234 0 0.00031748560917004449 -0.0015625088215637498 0 0.00040634993079797209 -0.0014180053298094954 0 0.00048427653274525878 -0.0013783829816321411 0 0.00047317818693934859 -0.0013023296448225858 0 0.00041307987850017235 -0.0012261026517637467 0 0.00061868201083348489 -0.0013289909842327014 0 0.0006194913605552584 -0.0010142857349853666 0 0.00024002606654749392 -0.001342458633329234 0 0.00041307987850017235 -0.0012261026517637467 0 0.00033674686397878719 -0.0010245904958327207 0 0.00024002606654749392 -0.001342458633329234 0 0.00040634993079797209 -0.0014180053298094954 0 0.00041307987850017235 -0.0012261026517637467 0 0.00040634993079797209 -0.0014180053298094954 0 0.00041307987850017235 -0.0012261026517637467 0 0.00061868201083348489 -0.0013289909842327014 0 0.00087246948700500822 -0.0015156320026191786 0 0.00083554654393037952 -0.0011439625422787912 0 0.00061868201083348489 -0.0013289909842327014 0 0.00083554654393037952 -0.0011439625422787912 0 0.00061868201083348489 -0.0013289909842327014 0 0.0006194913605552584 -0.0010142857349853666 0 0.00083554654393037952 -0.0011439625422787912 0 0.0006194913605552584 -0.0010142857349853666 0 0.00093512454570400343 -0.00083354125728438047 0 0.0006194913605552584 -0.0010142857349853666 0 0.00050402420522004164 -0.00065255071686108656 0 0.00093512454570400343 -0.00083354125728438047 0 0.0006194913605552584 -0.0010142857349853666 0 0.00033674686397878719 -0.0010245904958327207 0 0.00050402420522004164 -0.00065255071686108656 0 0.00041307987850017235 -0.0012261026517637467 0 0.0006194913605552584 -0.0010142857349853666 0 0.00033674686397878719 -0.0010245904958327207 0 3.3609660362982819e-05 -0.00064841201860425595 0 0.00033674686397878719 -0.0010245904958327207 0 0.00050402420522004164 -0.00065255071686108656 0 3.3609660362982819e-05 -0.00064841201860425595 0 0.00050402420522004164 -0.00065255071686108656 0 0.00029274069893377397 -0.00040589875870992233 0 0.00050402420522004164 -0.00065255071686108656 0 0.00093512454570400343 -0.00083354125728438047 0 0.00075804154993735205 -0.00042687547054647853 0 0.001077825338399606 -0.00058715671231261278 0 0.0010020386768081282 -0.00040178313734195293 0 0.00076273204802876512 -0.00040450022375045303 0 0.00093104896197353324 -0.00081099171372299471 0 0.0007889623692574196 -0.00048562415400803125 0 0.001077825338399606 -0.00058715671231261278 0 0.00093207781612454003 -0.00078434159254903602 0 0.0012382580286469868 -0.00079779348051397408 0 0.001077825338399606 -0.00058715671231261278 0 0.00093207781612454003 -0.00078434159254903602 0 0.00076273204802876512 -0.00040450022375045303 0 0.001077825338399606 -0.00058715671231261278 0 0.0011387205659090674 -0.00048763579644482214 0 0.0010020386768081282 -0.00040178313734195293 0 0.001098676608975901 -0.0011826809309107237 0 0.00093207781612454003 -0.00078434159254903602 0 0.0012382580286469868 -0.00079779348051397408 0 0.0010742916468323214 -0.001141000496461108 0 0.00093104896197353324 -0.00081099171372299471 0 0.0010969831922227275 -0.001223304237298641 0 0.00083554654393037952 -0.0011439625422787912 0 0.00093512454570400343 -0.00083354125728438047 0 0.001098676608975901 -0.0011826809309107237 0 0.0013215723164316793 -0.001045863375085624 0 0.0012382580286469868 -0.00079779348051397408 0 0.0013215723164316793 -0.001045863375085624 0 0.0012382580286469868 -0.00079779348051397408 0 0.0015020518168608757 -0.0008323083181170914 0 0.0012382580286469868 -0.00079779348051397408 0 0.001388673984286887 -0.00062207372016647041 0 0.0015020518168608757 -0.0008323083181170914 0 0.0012382580286469868 -0.00079779348051397408 0 0.001388673984286887 -0.00062207372016647041 0 0.0012332058635909731 -0.00056292857615667616 0 0.001077825338399606 -0.00058715671231261278 0 0.0012382580286469868 -0.00079779348051397408 0 0.0012332058635909731 -0.00056292857615667616 0 0.0012332058635909731 -0.00056292857615667616 0 0.0011387205659090674 -0.00048763579644482214 0 0.0012430418375125637 -0.00039853610808177834 0 0.001077825338399606 -0.00058715671231261278 0 0.0012332058635909731 -0.00056292857615667616 0 0.0011387205659090674 -0.00048763579644482214 0 0.001388673984286887 -0.00062207372016647041 0 0.0012332058635909731 -0.00056292857615667616 0 0.0012430418375125637 -0.00039853610808177834 0 0.0012365224859328654 -0.00033379202399179338 0 0.00098089271938899946 -0.00019604479894068429 0 0.0011317501655615208 -0.00016726175077685107 0 0.0013158089030224297 -0.00036068558890926008 0 0.0012043575497174626 -0.00041262602412225078 0 0.00085629545185386094 -0.00019791020358821677 0 0.0012365224859328654 -0.00033379202399179338 0 0.0012516053018247445 -0.00020974099966201827 0 0.0011317501655615208 -0.00016726175077685107 0 0.0013137993444503843 -0.00036591307958544868 0 0.0010920862423866055 -0.00028673974675458188 0 0.0012365224859328654 -0.00033379202399179338 0 0.00085629545185386094 -0.00019791020358821677 0 0.00098089271938899946 -0.00019604479894068429 0 0.0012430418375125637 -0.00039853610808177834 0 0.0010020386768081282 -0.00040178313734195293 0 0.00081990914206837558 -0.00021700566387748761 0 0.0011387205659090674 -0.00048763579644482214 0 0.0012430418375125637 -0.00039853610808177834 0 0.0010020386768081282 -0.00040178313734195293 0 0.0012043575497174626 -0.00041262602412225078 0 0.00085629545185386094 -0.00019791020358821677 0 0.00081990914206837558 -0.00021700566387748761 0 0.0012704840057933 -0.00043386609947712861 0 0.0010837329598688092 -0.00034125864788086543 0 0.0010020386768081282 -0.00040178313734195293 0 0.00076273204802876512 -0.00040450022375045303 0 0.00081990914206837558 -0.00021700566387748761 0 0.00098089271938899946 -0.00019604479894068429 0 0.0010215039585865623 2.6640446009427635e-05 0 0.0011317501655615208 -0.00016726175077685107 0 0.00098089271938899946 -0.00019604479894068429 0 0.0009105072958873711 -8.5233327271894401e-05 0 0.0010215039585865623 2.6640446009427635e-05 0 0.00085629545185386094 -0.00019791020358821677 0 0.00098089271938899946 -0.00019604479894068429 0 0.00090031468359301676 -0.00015505887982337449 0 0.00085251882507073637 -0.00013988288688540965 0 0.0009105072958873711 -8.5233327271894401e-05 0 0.00078601732418852994 -8.8886275148819028e-05 0 0.00085629545185386094 -0.00019791020358821677 0 0.00085251882507073637 -0.00013988288688540965 0 0.00078790720198214739 -0.00014054578379069256 0 0.00085629545185386094 -0.00019791020358821677 0 0.00085251882507073637 -0.00013988288688540965 0 0.00090031468359301676 -0.00015505887982337449 0 0.00098089271938899946 -0.00019604479894068429 0 0.00090031468359301676 -0.00015505887982337449 0 0.0009105072958873711 -8.5233327271894401e-05 0 0.00085251882507073637 -0.00013988288688540965 0 0.00090031468359301676 -0.00015505887982337449 0 0.0009105072958873711 -8.5233327271894401e-05 0 0.0009105072958873711 -8.5233327271894401e-05 0 0.00078601732418852994 -8.8886275148819028e-05 0 0.00080675551753053778 4.3026105376817418e-06 0 0.0009105072958873711 -8.5233327271894401e-05 0 0.0010215039585865623 2.6640446009427635e-05 0 0.00080675551753053778 4.3026105376817418e-06 0 0.0010215039585865623 2.6640446009427635e-05 0 0.0011317501655615208 -0.00016726175077685107 0 0.0013227622824831676 -0.00010133701744167122 0 0.00089819917524268649 5.0302237985130023e-05 0 0.0011190830698467342 0.00012892713387724472 0 0.001264930710682736 -8.9086534641539259e-05 0 0.00076941114815227453 -0.00017077336586721371 0 0.0011540570123619058 -0.00021101708364557587 0 0.0012516053018247445 -0.00020974099966201827 0 0.0011317501655615208 -0.00016726175077685107 0 0.0013227622824831676 -0.00010133701744167122 0 0.00050402420522004164 -0.00065255071686108656 0 0.00052973824407467147 -0.00019109942344333803 0 0.00029274069893377397 -0.00040589875870992233 0 0.00028561212377079388 -0.00037567069709700109 0 0.00024822806897724245 -0.00025081499666943858 0 0.00010770402757817326 -0.0001356909427802961 0 0.00052973824407467147 -0.00019109942344333803 0 0.00029274069893377397 -0.00040589875870992233 0 0.00076273204802876512 -0.00040450022375045303 0 0.00081990914206837558 -0.00021700566387748761 0 0.00060192550371644346 -6.3176739783334085e-05 0 0.00054991122906084867 -0.00027208059499945429 0 0.00075804154993735205 -0.00042687547054647853 0 0.00060192550371644346 -6.3176739783334085e-05 0 0.0007889623692574196 -0.00048562415400803125 0 0.0007148478558802637 -0.00031687229910273525 0 0.00050402420522004164 -0.00065255071686108656 0 0.00054991122906084867 -0.00027208059499945429 0 0.00075804154993735205 -0.00042687547054647853 0 0.00054991122906084867 -0.00027208059499945429 0 0.00060192550371644346 -6.3176739783334085e-05 0 0.00058593243872735181 8.4552093554550621e-05 0 0.00078790720198214739 -0.00014054578379069256 0 0.00078601732418852994 -8.8886275148819028e-05 0 0.00060192550371644346 -6.3176739783334085e-05 0 0.00081990914206837558 -0.00021700566387748761 0 0.00078790720198214739 -0.00014054578379069256 0 0.00060192550371644346 -6.3176739783334085e-05 0 0.00085629545185386094 -0.00019791020358821677 0 0.00081990914206837558 -0.00021700566387748761 0 0.00078790720198214739 -0.00014054578379069256 0 0.00085251882507073637 -0.00013988288688540965 0 0.00078790720198214739 -0.00014054578379069256 0 0.00078601732418852994 -8.8886275148819028e-05 0 0.00078601732418852994 -8.8886275148819028e-05 0 0.00080675551753053778 4.3026105376817418e-06 0 0.00070281871637399606 -1.1264166389949793e-05 0 0.00080675551753053778 4.3026105376817418e-06 0 0.00070281871637399606 -1.1264166389949793e-05 0 0.00069755921666686072 6.174650605354232e-05 0 0.00078601732418852994 -8.8886275148819028e-05 0 0.00070281871637399606 -1.1264166389949793e-05 0 0.00060192550371644346 -6.3176739783334085e-05 0 0.00070281871637399606 -1.1264166389949793e-05 0 0.00060192550371644346 -6.3176739783334085e-05 0 0.00058593243872735181 8.4552093554550621e-05 0 0.00070281871637399606 -1.1264166389949793e-05 0 0.00058593243872735181 8.4552093554550621e-05 0 0.00069755921666686072 6.174650605354232e-05 0 -0.00013408403674379204 -0.00026225332472164464 0 -0.00014731936370246209 -0.00028559091832233252 0 -0.00015830982649405262 -0.00028349069257972692 0 0.00010770402757817326 -0.0001356909427802961 0 0.00052973824407467147 -0.00019109942344333803 0 0.00056078666431284027 0.00025574058253830385 0 0.00024822806897724245 -0.00025081499666943858 0 9.5031589194279851e-05 -0.00017800591560258332 0 -0.00011575071180323298 -0.00032205392362395129 0 9.5031589194279851e-05 -0.00017800591560258332 0 -0.00029598006518130983 -0.00039157707291753295 0 -0.00028336043193395776 -0.00029535422197632459 0 -0.00034650109542711124 -0.00037197085454263636 0 -0.00034312855876971447 -0.00033095000984830885 0 -0.00023040505850829187 -0.00029967890037729225 0 -0.00026488599040230159 -0.00035782191563149031 0 -0.00023040505850829187 -0.00029967890037729225 0 -0.00013659898997713419 -0.00028238025637181607 0 -0.00014842848718433048 -0.00029695056641026367 0 -0.00014731936370246209 -0.00028559091832233252 0 -0.00014731936370246209 -0.00028559091832233252 0 -0.00015899742965484271 -0.00029275353778252574 0 -0.00015830982649405262 -0.00028349069257972692 0 -0.00014842848718433048 -0.00029695056641026367 0 -0.00014731936370246209 -0.00028559091832233252 0 -0.00015899742965484271 -0.00029275353778252574 0 -0.00023040505850829187 -0.00029967890037729225 0 -5.7973474929819774e-06 -0.00021555711101294291 0 0.00013494022832994624 -0.0001610541204625062 0 0.00021289066821763628 -1.4976182454448714e-05 0 -0.00056529998321058078 -0.00048712483069212004 0 -0.00054795951886613928 -0.0004937803130532143 0 -0.00054702316358485497 -0.00046462311009428568 0 -5.7973474929819774e-06 -0.00021555711101294291 0 0.00013494022832994624 -0.0001610541204625062 0 3.3272309195178842e-05 -0.00029276443493010641 0 4.3673656128367783e-05 -0.0001488184804438383 0 -7.4221378129929637e-05 -0.00025106980993264518 0 -5.7973474929819774e-06 -0.00021555711101294291 0 9.5031589194279851e-05 -0.00017800591560258332 0 0.00058593243872735181 8.4552093554550621e-05 0 0.00069755921666686072 6.174650605354232e-05 0 0.0006929041475291581 0.00016943277716902834 0 9.5031589194279851e-05 -0.00017800591560258332 0 0.00013494022832994624 -0.0001610541204625062 0 0.00080675551753053778 4.3026105376817418e-06 0 0.00069755921666686072 6.174650605354232e-05 0 0.0006929041475291581 0.00016943277716902834 0 -0.00054795951886613928 -0.0004937803130532143 0 -0.00054702316358485497 -0.00046462311009428568 0 -0.00049779267342549153 -0.00045230237441909899 0 -0.00056375693666381097 -0.00043911590362776399 0 -0.00054702316358485497 -0.00046462311009428568 0 -0.00049779267342549153 -0.00045230237441909899 0 -5.7973474929819774e-06 -0.00021555711101294291 0 -0.00023647897704921154 -0.00037545591112932316 0 -0.00056529998321058078 -0.00048712483069212004 0 -0.00056375693666381097 -0.00043911590362776399 0 -0.00054702316358485497 -0.00046462311009428568 0 -0.00037834736030913118 -0.00037573831901337569 0 -0.00034312855876971447 -0.00033095000984830885 0 -0.00066325168226008459 -0.00042590773457275608 0 -0.00066994050391644031 -0.00048598730478840302 0 -0.00064217813023582546 -0.00046159166686774599 0 -3.1199887459820777e-05 -0.00021359596912748669 0 -0.00011533311879384037 -0.00018092423368398013 0 -0.00012615922744111126 -0.00032902046145271644 0 -0.00066325168226008459 -0.00042590773457275608 0 -0.00059896413786228355 -0.00045089666704122439 0 -0.00064217813023582546 -0.00046159166686774599 0 -0.00063851743419155501 -0.00049801369701893622 0 -0.00059896413786228355 -0.00045089666704122439 0 -0.00064217813023582546 -0.00046159166686774599 0 -0.00023040505850829187 -0.00029967890037729225 0 -0.00023647897704921154 -0.00037545591112932316 0 -0.00066994050391644031 -0.00048598730478840302 0 -0.00063851743419155501 -0.00049801369701893622 0 -0.00064217813023582546 -0.00046159166686774599 0 0.00096853266657539181 0.00026356897536951361 0 0.0011342700889263541 0.00030037966054425702 0 0.0011190830698467342 0.00012892713387724472 0 0.0011342700889263541 0.00030037966054425702 0 0.0011190830698467342 0.00012892713387724472 0 0.0013550535422165004 0.00011708344942541391 0 0.00089819917524268649 5.0302237985130023e-05 0 0.00096853266657539181 0.00026356897536951361 0 0.0011190830698467342 0.00012892713387724472 0 0.0010215039585865623 2.6640446009427635e-05 0 0.00080675551753053778 4.3026105376817418e-06 0 0.0006929041475291581 0.00016943277716902834 0 0.0005349850139753057 0.00019032254257712067 0 0.00079951428223875589 0.00023571483013043134 0 0.00082022630165344806 0.00043599828179867451 0 0.00076941114815227453 -0.00017077336586721371 0 0.00013494022832994624 -0.0001610541204625062 0 0.00089819917524268649 5.0302237985130023e-05 0 0.0005349850139753057 0.00019032254257712067 0 0.00079951428223875589 0.00023571483013043134 0 0.00089819917524268649 5.0302237985130023e-05 0 0.00096853266657539181 0.00026356897536951361 0 0.00079951428223875589 0.00023571483013043134 0 0.00096853266657539181 0.00026356897536951361 0 0.00079951428223875589 0.00023571483013043134 0 0.00082022630165344806 0.00043599828179867451 0 -0.00048817521300660794 -0.00041122201114686852 0 -0.00056375693666381097 -0.00043911590362776399 0 -0.00049779267342549153 -0.00045230237441909899 0 0.00096853266657539181 0.00026356897536951361 0 0.00082022630165344806 0.00043599828179867451 0 0.0010403768516252432 0.00042725363602397491 0 0.00035572976367712083 0.00016583099483757915 0 0.00021289066821763628 -1.4976182454448714e-05 0 0.0011020213344041939 0.00067838222639197943 0 0.00082022630165344806 0.00043599828179867451 0 0.0010403768516252432 0.00042725363602397491 0 0.00096853266657539181 0.00026356897536951361 0 0.0011342700889263541 0.00030037966054425702 0 0.0010403768516252432 0.00042725363602397491 0 0.0006272615762191394 0.00034347081181017189 0 0.00059418302969678342 0.00031700345440670963 0 0.0011342700889263541 0.00030037966054425702 0 0.0010403768516252432 0.00042725363602397491 0 0.0011996420934200841 0.00045457782973639418 0 0.0011020213344041939 0.00067838222639197943 0 0.0010403768516252432 0.00042725363602397491 0 0.0011996420934200841 0.00045457782973639418 0 0.00035572976367712083 0.00016583099483757915 0 0.00059418302969678342 0.00031700345440670963 0 0.0013836590302710107 0.00084475048237021117 0 0.0012114803179060561 0.00044846276907877143 0 0.001491004849713062 0.00038703332831585557 0 0.0011342700889263541 0.00030037966054425702 0 0.0012022903609575986 0.00045843501856360214 0 0.0013550535422165004 0.00011708344942541391 0 0.00059418302969678342 0.00031700345440670963 0 0.0007628027322945524 0.00018971874759951866 0 0.0012114803179060561 0.00044846276907877143 0 0.0013550535422165004 0.00011708344942541391 0 0.001491004849713062 0.00038703332831585557 0 0.0013550535422165004 0.00011708344942541391 0 0.0016831441523092708 0.00013924988368001716 0 0.0014844823888735975 -1.3006246231467006e-05 0 0.0013550535422165004 0.00011708344942541391 0 0.0016831441523092708 0.00013924988368001716 0 0.001491004849713062 0.00038703332831585557 0 0.0016831441523092708 0.00013924988368001716 0 0.0017311686305296556 0.00055372601899535091 0 0.001491004849713062 0.00038703332831585557 0 0.0011269710741100825 0.00065028858854729559 0 0.0016647065137631732 0.00067874092865547852 0 0.0016389600137117521 0.00021406697538816117 0 0.0012689022279536765 0.00041751798866735405 0 0.0017957791166164194 0.0001593263587299119 0 0.0016647065137631732 0.00067874092865547852 0 0.0016389600137117521 0.00021406697538816117 0 0.0021468237834569815 0.00025344904416829125 0 0.0017957791166164194 0.0001593263587299119 0 0.0022824131445474093 -0.00015160916842416023 0 0.0016831441523092708 0.00013924988368001716 0 0.0017311686305296556 0.00055372601899535091 0 0.0020775414567065051 0.00026181468359153421 0 0.0016831441523092708 0.00013924988368001716 0 0.0020775414567065051 0.00026181468359153421 0 0.0019962571702362951 -5.1847700326181439e-05 0 0.0016831441523092708 0.00013924988368001716 0 0.0019962571702362951 -5.1847700326181439e-05 0 0.0016316429772105531 -0.0002210406534575807 0 0.0020775414567065051 0.00026181468359153421 0 0.0019962571702362951 -5.1847700326181439e-05 0 0.0024208231668819179 -2.7093285842175914e-05 0 0.0019962571702362951 -5.1847700326181439e-05 0 0.002164744242479112 -0.00030482898000853547 0 0.0024208231668819179 -2.7093285842175914e-05 0 0.002164744242479112 -0.00030482898000853547 0 0.0019037477094566622 -0.00034311169529203396 0 0.0020656405657083561 -0.00065183640545123339 0 0.0019962571702362951 -5.1847700326181439e-05 0 0.002164744242479112 -0.00030482898000853547 0 0.0019037477094566622 -0.00034311169529203396 0 0.0019962571702362951 -5.1847700326181439e-05 0 0.0019037477094566622 -0.00034311169529203396 0 0.0016316429772105531 -0.0002210406534575807 0 0.0016316429772105531 -0.0002210406534575807 0 0.001460682683372717 -0.00032239591133792267 0 0.001628679577433122 -0.00048970602480381484 0 0.0019037477094566622 -0.00034311169529203396 0 0.0016316429772105531 -0.0002210406534575807 0 0.001628679577433122 -0.00048970602480381484 0 0.0016316429772105531 -0.0002210406534575807 0 0.001460682683372717 -0.00032239591133792267 0 0.0013576144100187044 -0.00024173175190739322 0 0.0013158089030224297 -0.00036068558890926008 0 0.0012043575497174626 -0.00041262602412225078 0 0.0015836992986858259 -0.00060183511662050145 0 0.0012365224859328654 -0.00033379202399179338 0 0.001460682683372717 -0.00032239591133792267 0 0.001628679577433122 -0.00048970602480381484 0 0.0013137993444503843 -0.00036591307958544868 0 0.0017049108456280474 -0.00050704466763089524 0 0.0012365224859328654 -0.00033379202399179338 0 0.0012516053018247445 -0.00020974099966201827 0 0.0013576144100187044 -0.00024173175190739322 0 0.0012365224859328654 -0.00033379202399179338 0 0.001460682683372717 -0.00032239591133792267 0 0.0013576144100187044 -0.00024173175190739322 0 0.0013279940371507737 -0.00024663449108038932 0 0.0011540570123619058 -0.00021101708364557587 0 0.0016316429772105531 -0.0002210406534575807 0 0.001264930710682736 -8.9086534641539259e-05 0 0.0014844823888735975 -1.3006246231467006e-05 0 0.0016316429772105531 -0.0002210406534575807 0 0.0013576144100187044 -0.00024173175190739322 0 0.0013227622824831676 -0.00010133701744167122 0 0.0012516053018247445 -0.00020974099966201827 0 0.0013576144100187044 -0.00024173175190739322 0 0.0013227622824831676 -0.00010133701744167122 0 0.0011190830698467342 0.00012892713387724472 0 0.0013550535422165004 0.00011708344942541391 0 0.001264930710682736 -8.9086534641539259e-05 0 0.0013550535422165004 0.00011708344942541391 0 0.001264930710682736 -8.9086534641539259e-05 0 0.0014844823888735975 -1.3006246231467006e-05 0 0.0016831441523092708 0.00013924988368001716 0 0.0016316429772105531 -0.0002210406534575807 0 0.0014844823888735975 -1.3006246231467006e-05 0 -0.00041919960136409902 -0.00026470328090447869 0 -0.00033958188656222499 -0.00043183543406321071 0 -0.00010511765239833633 -0.0004626624504335214 0 -0.00075037644839656887 -8.4901140004069541e-05 0 -0.00070773167092803976 -7.8209633280246056e-05 0 -0.00076693251689567709 -6.4595183782953659e-05 0 -0.00070773167092803976 -7.8209633280246056e-05 0 -0.00076693251689567709 -6.4595183782953659e-05 0 -0.00076867986142575416 -4.361605241492739e-05 0 -0.00049694169230612799 -0.00015035338170781541 0 -0.00033279978989660418 -0.00019656127762912498 0 -0.00075037644839656887 -8.4901140004069541e-05 0 -0.00072721746952713088 -0.00011327483303041896 0 -0.00070773167092803976 -7.8209633280246056e-05 0 -0.00075037644839656887 -8.4901140004069541e-05 0 -0.00075799342064285225 -0.00010068546812750473 0 -0.00072721746952713088 -0.00011327483303041896 0 -0.00075799342064285225 -0.00010068546812750473 0 -0.00076698846663933657 -0.00013204842621589573 0 -0.00072721746952713088 -0.00011327483303041896 0 -0.00071232476858712208 -0.00015419911890485571 0 -0.00076698846663933657 -0.00013204842621589573 0 -0.00072721746952713088 -0.00011327483303041896 0 -0.00072721746952713088 -0.00011327483303041896 0 -0.0006898091134701134 -0.00012847168663250133 0 -0.00070773167092803976 -7.8209633280246056e-05 0 -0.0006898091134701134 -0.00012847168663250133 0 -0.00070773167092803976 -7.8209633280246056e-05 0 -0.00063585965692828457 -0.00014473476916714942 0 -0.00071232476858712208 -0.00015419911890485571 0 -0.00072721746952713088 -0.00011327483303041896 0 -0.0006898091134701134 -0.00012847168663250133 0 0.002642194162088348 0.00029531940475550678 0 0.0026675124030257715 -0.00019328137326803839 0 0.003172230404652645 -0.00015490197491768287 0 -0.00041919960136409902 -0.00026470328090447869 0 -0.00055821097690141367 -0.00023256986010735065 0 -0.00033958188656222499 -0.00043183543406321071 0 0.0010338130498949367 -2.9275960802281953e-05 0 0.0014119245152417411 -0.00032997682500843559 0 0.0021468237834569815 0.00025344904416829125 0 0.0021710258574661246 -0.00023560496715240424 0 0.0026675124030257715 -0.00019328137326803839 0 0.002642194162088348 0.00029531940475550678 0 0.0021468237834569815 0.00025344904416829125 0 0.0026675124030257715 -0.00019328137326803839 0 -0.00049694169230612799 -0.00015035338170781541 0 -0.00055570731987467602 -0.00013020593954091557 0 -0.00067059270119654909 -0.0001378535145883143 0 -0.0006898091134701134 -0.00012847168663250133 0 -0.00063585965692828457 -0.00014473476916714942 0 0.00068246148991361866 0.00020615011244930355 0 0.0010338130498949367 -2.9275960802281953e-05 0 -0.00069152823463671236 -0.00012007180641119431 0 -0.00055821097690141367 -0.00023256986010735065 0 -0.00063585965692828457 -0.00014473476916714942 0 -0.00041919960136409902 -0.00026470328090447869 0 -0.00055821097690141367 -0.00023256986010735065 0 -0.00063585965692828457 -0.00014473476916714942 0 0.0021268227419884763 0.00073032312945660912 0 0.002642194162088348 0.00029531940475550678 0 0.0021468237834569815 0.00025344904416829125 0 0.0021268227419884763 0.00073032312945660912 0 0.0016647065137631732 0.00067874092865547852 0 0.0021468237834569815 0.00025344904416829125 0 0.0016389600137117521 0.00021406697538816117 0 0.0021468237834569815 0.00025344904416829125 0 0.0021710258574661246 -0.00023560496715240424 0 0.002164744242479112 -0.00030482898000853547 0 0.0024208231668819179 -2.7093285842175914e-05 0 0.0024382371764980863 -0.00045090371762496244 0 0.0024208231668819179 -2.7093285842175914e-05 0 0.002764543047943979 -0.00031717321032957951 0 0.0024382371764980863 -0.00045090371762496244 0 0.0022824131445474093 -0.00015160916842416023 0 0.0027619584000006725 -0.00047774005899721731 0 0.0021710258574661246 -0.00023560496715240424 0 0.0027244072470164154 -0.00069654537479841606 0 0.0026675124030257715 -0.00019328137326803839 0 0.0027244072470164154 -0.00069654537479841606 0 0.0026675124030257715 -0.00019328137326803839 0 0.003172230404652645 -0.00015490197491768287 0 0.0027244072470164154 -0.00069654537479841606 0 0.0033026952377856441 -0.00071224402974564139 0 0.003172230404652645 -0.00015490197491768287 0 0.0027244072470164154 -0.00069654537479841606 0 0.0033026952377856441 -0.00071224402974564139 0 0.003294942075392447 -0.0011525921601142038 0 0.0033026952377856441 -0.00071224402974564139 0 0.003172230404652645 -0.00015490197491768287 0 0.0037101316065845337 -0.0006211680132478585 0 0.0033026952377856441 -0.00071224402974564139 0 0.0037101316065845337 -0.0006211680132478585 0 0.0036140059421803775 -0.00093064521327387514 0 -0.00033958188656222499 -0.00043183543406321071 0 -0.00010511765239833633 -0.0004626624504335214 0 -5.7341243318080296e-05 -0.00069358721269557075 0 0.0014119245152417411 -0.00032997682500843559 0 0.0017975238781153271 -0.00066159328785664437 0 0.0030977965289808737 -0.00060891976829059735 0 0.0029550114149036297 -0.00094749323179381363 0 0.0034055824525147872 -0.00088031744856624853 0 0.0032495739969140959 -0.00078227380265707231 0 0.003752981173146033 -0.0010059448762057557 0 0.0033026952377856441 -0.00071224402974564139 0 0.003294942075392447 -0.0011525921601142038 0 0.0036140059421803775 -0.00093064521327387514 0 0.003294942075392447 -0.0011525921601142038 0 0.0036140059421803775 -0.00093064521327387514 0 0.0036581219486431626 -0.0011974188552367018 0 0.0027619584000006725 -0.00047774005899721731 0 0.0032495739969140959 -0.00078227380265707231 0 0.002764543047943979 -0.00031717321032957951 0 0.0030977965289808737 -0.00060891976829059735 0 0.0028018252941455985 -0.00068161217886110524 0 0.0030977965289808737 -0.00060891976829059735 0 0.0028018252941455985 -0.00068161217886110524 0 0.0029550114149036297 -0.00094749323179381363 0 0.0025821069437727902 -0.00081804823523722514 0 0.0027600431350122082 -0.001052505070716876 0 0.0029550114149036297 -0.00094749323179381363 0 0.0025061240585934359 -0.00079306550860100162 0 0.0027219238513253429 -0.00086824439477080221 0 0.0028018252941455985 -0.00068161217886110524 0 0.0025113466745388408 -0.00080615885094818026 0 0.0029550114149036297 -0.00094749323179381363 0 0.0028018252941455985 -0.00068161217886110524 0 0.0024382371764980863 -0.00045090371762496244 0 0.0025113466745388408 -0.00080615885094818026 0 0.002764543047943979 -0.00031717321032957951 0 0.0028018252941455985 -0.00068161217886110524 0 0.0024382371764980863 -0.00045090371762496244 0 0.0024382371764980863 -0.00045090371762496244 0 0.0025113466745388408 -0.00080615885094818026 0 0.0020656405657083561 -0.00065183640545123339 0 0.0025061240585934359 -0.00079306550860100162 0 0.0021193511535938132 -0.00065606395530523121 0 0.0025821069437727902 -0.00081804823523722514 0 0.0024334773282906228 -0.0010659912145875201 0 0.0022982484478019467 -0.00094756233939272193 0 0.0025821069437727902 -0.00081804823523722514 0 0.0024334773282906228 -0.0010659912145875201 0 0.0025959608511793002 -0.0010747208112812736 0 0.0024334773282906228 -0.0010659912145875201 0 0.0025344697875133767 -0.0011883822372612419 0 0.0025959608511793002 -0.0010747208112812736 0 0.0024334773282906228 -0.0010659912145875201 0 0.0023992000780418262 -0.001225447149771919 0 0.0025344697875133767 -0.0011883822372612419 0 0.0024334773282906228 -0.0010659912145875201 0 0.0023992000780418262 -0.001225447149771919 0 0.0022590200598203002 -0.001118466193918178 0 0.0034891220088828293 -0.0011754555980572744 0 0.0035458967077218241 -0.0012122185004282277 0 0.0023992000780418262 -0.001225447149771919 0 0.0024595916940171867 -0.0013379882098301398 0 0.0022905740545996166 -0.0013179372911210486 0 0.0024625593380847967 -0.0013363182255271763 0 0.0025764290014102698 -0.0013148162644416824 0 0.0025517833660098992 -0.0014945468441468085 0 0.0023992000780418262 -0.001225447149771919 0 0.0024625593380847967 -0.0013363182255271763 0 0.0025764290014102698 -0.0013148162644416824 0 0.0023992000780418262 -0.001225447149771919 0 0.0025764290014102698 -0.0013148162644416824 0 0.0025344697875133767 -0.0011883822372612419 0 0.0025764290014102698 -0.0013148162644416824 0 0.0025344697875133767 -0.0011883822372612419 0 0.0026869453730010338 -0.0012449070823999629 0 0.0025764290014102698 -0.0013148162644416824 0 0.0026869453730010338 -0.0012449070823999629 0 0.0027083304079591648 -0.0014203906310661361 0 0.0026869453730010338 -0.0012449070823999629 0 0.0028916232830154451 -0.0014430739420413579 0 0.0027083304079591648 -0.0014203906310661361 0 0.0026869453730010338 -0.0012449070823999629 0 0.0027600431350122082 -0.001052505070716876 0 0.002935252438113363 -0.0012032338347645261 0 0.0025821069437727902 -0.00081804823523722514 0 0.0025959608511793002 -0.0010747208112812736 0 0.0027600431350122082 -0.001052505070716876 0 0.0025344697875133767 -0.0011883822372612419 0 0.0026869453730010338 -0.0012449070823999629 0 0.0025959608511793002 -0.0010747208112812736 0 0.0026869453730010338 -0.0012449070823999629 0 0.0025959608511793002 -0.0010747208112812736 0 0.0027600431350122082 -0.001052505070716876 0 0.0027600431350122082 -0.001052505070716876 0 0.0029550114149036297 -0.00094749323179381363 0 0.002935252438113363 -0.0012032338347645261 0 0.0026869453730010338 -0.0012449070823999629 0 0.002935252438113363 -0.0012032338347645261 0 0.0028916232830154451 -0.0014430739420413579 0 0.002935252438113363 -0.0012032338347645261 0 0.0028916232830154451 -0.0014430739420413579 0 0.0032769682264250509 -0.0012658934331043672 0 0.0029550114149036297 -0.00094749323179381363 0 0.0034055824525147872 -0.00088031744856624853 0 0.0032769682264250509 -0.0012658934331043672 0 0.0029550114149036297 -0.00094749323179381363 0 0.002935252438113363 -0.0012032338347645261 0 0.0032769682264250509 -0.0012658934331043672 0 0.0017475709417155319 -0.00084746120252615425 0 0.0016505210607574289 -0.00061097013469106924 0 0.0019830145868914842 -0.00079178279246509766 0 0.0017475709417155319 -0.00084746120252615425 0 0.0019830145868914842 -0.00079178279246509766 0 0.001864336447631677 -0.0010209502373716812 0 0.0017475709417155319 -0.00084746120252615425 0 0.0015020518168608757 -0.0008323083181170914 0 0.0016936881852486197 -0.0010244370051530618 0 0.0017475709417155319 -0.00084746120252615425 0 0.0015020518168608757 -0.0008323083181170914 0 0.0016505210607574289 -0.00061097013469106924 0 0.001388673984286887 -0.00062207372016647041 0 0.0012430418375125637 -0.00039853610808177834 0 0.0016505210607574289 -0.00061097013469106924 0 0.0012704840057933 -0.00043386609947712861 0 0.001600919866927941 -0.00059951612158141987 0 0.0013158089030224297 -0.00036068558890926008 0 0.0015836992986858259 -0.00060183511662050145 0 0.0017631337896161837 -0.00051990419920508685 0 0.001388673984286887 -0.00062207372016647041 0 0.0015020518168608757 -0.0008323083181170914 0 0.0016505210607574289 -0.00061097013469106924 0 0.001600919866927941 -0.00059951612158141987 0 0.0019136235163843085 -0.00075685047032615518 0 0.0015836992986858259 -0.00060183511662050145 0 0.0017631337896161837 -0.00051990419920508685 0 0.0019499018635745584 -0.00078097915724008673 0 0.0019037477094566622 -0.00034311169529203396 0 0.001628679577433122 -0.00048970602480381484 0 0.0020656405657083561 -0.00065183640545123339 0 0.0017631337896161837 -0.00051990419920508685 0 0.0021878350914612287 -0.00067362379984191399 0 0.0019499018635745584 -0.00078097915724008673 0 0.0017049108456280474 -0.00050704466763089524 0 0.0021193511535938132 -0.00065606395530523121 0 0.002164744242479112 -0.00030482898000853547 0 0.0024382371764980863 -0.00045090371762496244 0 0.0020656405657083561 -0.00065183640545123339 0 0.0021878350914612287 -0.00067362379984191399 0 0.0022982484478019467 -0.00094756233939272193 0 0.0019499018635745584 -0.00078097915724008673 0 0.0025821069437727902 -0.00081804823523722514 0 0.0021878350914612287 -0.00067362379984191399 0 0.0022982484478019467 -0.00094756233939272193 0 0.0022982484478019467 -0.00094756233939272193 0 0.0019830145868914842 -0.00079178279246509766 0 0.0020834361295458746 -0.0010690374139560219 0 0.0020789060489297393 -0.00083957330584072106 0 0.0019136235163843085 -0.00075685047032615518 0 0.0019830145868914842 -0.00079178279246509766 0 0.0020834361295458746 -0.0010690374139560219 0 0.001864336447631677 -0.0010209502373716812 0 0.0020834361295458746 -0.0010690374139560219 0 0.001928018635797129 -0.0011788618006385418 0 0.001864336447631677 -0.0010209502373716812 0 0.0024334773282906228 -0.0010659912145875201 0 0.0022982484478019467 -0.00094756233939272193 0 0.0022590200598203002 -0.001118466193918178 0 0.0022982484478019467 -0.00094756233939272193 0 0.0020834361295458746 -0.0010690374139560219 0 0.0022590200598203002 -0.001118466193918178 0 0.0020834361295458746 -0.0010690374139560219 0 0.0022590200598203002 -0.001118466193918178 0 0.0021811750290163844 -0.0012438379782241428 0 0.0023992000780418262 -0.001225447149771919 0 0.0022828592640638445 -0.0012287069303179568 0 0.0022905740545996166 -0.0013179372911210486 0 0.0023992000780418262 -0.001225447149771919 0 0.0022590200598203002 -0.001118466193918178 0 0.0022828592640638445 -0.0012287069303179568 0 0.0022590200598203002 -0.001118466193918178 0 0.0022828592640638445 -0.0012287069303179568 0 0.0021811750290163844 -0.0012438379782241428 0 0.0022828592640638445 -0.0012287069303179568 0 0.0021811750290163844 -0.0012438379782241428 0 0.0022905740545996166 -0.0013179372911210486 0 0.0021811750290163844 -0.0012438379782241428 0 0.002166325594674114 -0.0013649368045809127 0 0.0022905740545996166 -0.0013179372911210486 0 0.002166325594674114 -0.0013649368045809127 0 0.0022905740545996166 -0.0013179372911210486 0 0.0022447330486073474 -0.0014845265958912419 0 0.0024595916940171867 -0.0013379882098301398 0 0.0022905740545996166 -0.0013179372911210486 0 0.0022447330486073474 -0.0014845265958912419 0 0.0020834361295458746 -0.0010690374139560219 0 0.0021811750290163844 -0.0012438379782241428 0 0.0020277681489720518 -0.0013007549037337702 0 0.0020834361295458746 -0.0010690374139560219 0 0.001928018635797129 -0.0011788618006385418 0 0.0020277681489720518 -0.0013007549037337702 0 0.001928018635797129 -0.0011788618006385418 0 0.0020277681489720518 -0.0013007549037337702 0 0.0018982180887855478 -0.0013420012254783391 0 0.0021811750290163844 -0.0012438379782241428 0 0.002166325594674114 -0.0013649368045809127 0 0.0020277681489720518 -0.0013007549037337702 0 0.002166325594674114 -0.0013649368045809127 0 0.0020277681489720518 -0.0013007549037337702 0 0.0020548540051686924 -0.0014449004934484779 0 0.0020277681489720518 -0.0013007549037337702 0 0.0018982180887855478 -0.0013420012254783391 0 0.0020548540051686924 -0.0014449004934484779 0 0.0018982180887855478 -0.0013420012254783391 0 0.0017334468308590114 -0.0013753648464268702 0 0.0017670468568004403 -0.0011988205522355847 0 0.001928018635797129 -0.0011788618006385418 0 0.0018982180887855478 -0.0013420012254783391 0 0.0017670468568004403 -0.0011988205522355847 0 0.001928018635797129 -0.0011788618006385418 0 0.0017670468568004403 -0.0011988205522355847 0 0.001864336447631677 -0.0010209502373716812 0 0.0017670468568004403 -0.0011988205522355847 0 0.0016936881852486197 -0.0010244370051530618 0 0.001864336447631677 -0.0010209502373716812 0 0.0017475709417155319 -0.00084746120252615425 0 0.0016936881852486197 -0.0010244370051530618 0 0.001864336447631677 -0.0010209502373716812 0 0.0017203573830937985 -0.0010980574160111168 0 0.001783887833921484 -0.0013198456462052803 0 0.0013215723164316793 -0.001045863375085624 0 0.0015020518168608757 -0.0008323083181170914 0 0.0014526262550753927 -0.0013740716684304819 0 0.0015020518168608757 -0.0008323083181170914 0 0.0016936881852486197 -0.0010244370051530618 0 0.001505582452457866 -0.0012152920235488297 0 0.0017670468568004403 -0.0011988205522355847 0 0.0016936881852486197 -0.0010244370051530618 0 0.001505582452457866 -0.0012152920235488297 0 0.0017334468308590114 -0.0013753648464268702 0 0.0017670468568004403 -0.0011988205522355847 0 0.001505582452457866 -0.0012152920235488297 0 0.0017334468308590114 -0.0013753648464268702 0 0.001505582452457866 -0.0012152920235488297 0 0.0016539248246492313 -0.0015163230157590533 0 0.001505582452457866 -0.0012152920235488297 0 0.0016539248246492313 -0.0015163230157590533 0 0.0014885470033641425 -0.0015930981061423261 0 0.001783887833921484 -0.0013198456462052803 0 0.0020554481389430386 -0.0016041042182938991 0 0.0016539248246492313 -0.0015163230157590533 0 0.0017001276222230466 -0.0017055296511530415 0 0.0014885470033641425 -0.0015930981061423261 0 0.0017001276222230466 -0.0017055296511530415 0 0.0014885470033641425 -0.0015930981061423261 0 0.0014643954413906134 -0.0019672628999241669 0 0.0017001276222230466 -0.0017055296511530415 0 0.0019159917357539783 -0.0017270613171228464 0 0.0017873865735497825 -0.0019138974670162038 0 0.0017001276222230466 -0.0017055296511530415 0 0.0019159917357539783 -0.0017270613171228464 0 0.0018787591328383185 -0.0015508174807667115 0 0.0017334468308590114 -0.0013753648464268702 0 0.0016539248246492313 -0.0015163230157590533 0 0.0018787591328383185 -0.0015508174807667115 0 0.0016539248246492313 -0.0015163230157590533 0 0.0017001276222230466 -0.0017055296511530415 0 0.0018787591328383185 -0.0015508174807667115 0 0.0018982180887855478 -0.0013420012254783391 0 0.0017334468308590114 -0.0013753648464268702 0 0.0018787591328383185 -0.0015508174807667115 0 0.0018982180887855478 -0.0013420012254783391 0 0.0018787591328383185 -0.0015508174807667115 0 0.0020548540051686924 -0.0014449004934484779 0 0.0018787591328383185 -0.0015508174807667115 0 0.0020548540051686924 -0.0014449004934484779 0 0.0020986880330012316 -0.0016041751390451326 0 0.0020548540051686924 -0.0014449004934484779 0 0.0020986880330012316 -0.0016041751390451326 0 0.0022447330486073474 -0.0014845265958912419 0 0.0024595916940171867 -0.0013379882098301398 0 0.0022447330486073474 -0.0014845265958912419 0 0.0022704681306441 -0.001627951350043887 0 0.002166325594674114 -0.0013649368045809127 0 0.0020548540051686924 -0.0014449004934484779 0 0.0022447330486073474 -0.0014845265958912419 0 0.0020986880330012316 -0.0016041751390451326 0 0.0022447330486073474 -0.0014845265958912419 0 0.0022680091345764438 -0.0016241505550571263 0 0.0035554970234520232 -0.0012275441362335417 0 0.0036101782502467221 -0.0012036944941641425 0 0.0037297426933576394 -0.0010377101822914923 0 0.0037795004977011649 -0.00095861820078891593 0 0.0037182198948676236 -0.00096931084216396782 0 0.0036101782502467221 -0.0012036944941641425 0 0.0037731752902860059 -0.0010521048372433071 0 0.0020986880330012316 -0.0016041751390451326 0 0.0022680091345764438 -0.0016241505550571263 0 0.0021169035275769702 -0.0018599168052353479 0 0.0037468133515079637 -0.0011189255011798671 0 0.0037500363495665046 -0.0011382296608835312 0 0.0037597185031338623 -0.0011261911455321206 0 0.0036101782502467221 -0.0012036944941641425 0 0.0039505652105713525 -0.00097359697381442425 0 0.0019159917357539783 -0.0017270613171228464 0 0.0020986880330012316 -0.0016041751390451326 0 0.0021169035275769702 -0.0018599168052353479 0 0.0019159917357539783 -0.0017270613171228464 0 0.0018787591328383185 -0.0015508174807667115 0 0.0020986880330012316 -0.0016041751390451326 0 0.0019159917357539783 -0.0017270613171228464 0 0.0021169035275769702 -0.0018599168052353479 0 0.0017873865735497825 -0.0019138974670162038 0 0.0046044425555319514 -0.00073824148734412203 0 0.0047405219951519063 -0.00053062819481867259 0 0.0048086750898493087 -0.00070051085550960565 0 0.0037731752902860059 -0.0010521048372433071 0 0.0032797817186342999 -0.0011525623897108673 0 0.0037731752902860059 -0.0010521048372433071 0 0.0044712813635525445 -0.0004650902117951741 0 0.0047496711866773685 -0.00054557512090740255 0 0.004689832707932373 -0.00055616839182577788 0 0.0047350308999522753 -0.00047965755565407438 0 0.0039505652105713525 -0.00097359697381442425 0 0.0042501677557952181 -0.00064163081805507097 0 0.004689832707932373 -0.00055616839182577788 0 0.0047350308999522753 -0.00047965755565407438 0 0.0046759702368183494 -0.00046010942637328048 0 0.0037731752902860059 -0.0010521048372433071 0 0.0039505652105713525 -0.00097359697381442425 0 0.0047350308999522753 -0.00047965755565407438 0 0.0046759702368183494 -0.00046010942637328048 0 0.0047407547390364907 -0.00040038475796158916 0 0.0047496711866773685 -0.00054557512090740255 0 0.0047350308999522753 -0.00047965755565407438 0 0.0048181637758677193 -0.00043701385482062979 0 0.0047350308999522753 -0.00047965755565407438 0 0.0048181637758677193 -0.00043701385482062979 0 0.0047407547390364907 -0.00040038475796158916 0 0.0047405219951519063 -0.00053062819481867259 0 0.0049006924402037058 -0.00054360093571579823 0 0.0048086750898493087 -0.00070051085550960565 0 0.0049006924402037058 -0.00054360093571579823 0 0.0050173532950743231 -0.0004437443581716907 0 0.0050033119825099127 -0.00066226349953107 0 0.0032797817186342999 -0.0011525623897108673 0 0.0027965423052728612 -0.0011712755131176363 0 0.0017001276222230466 -0.0017055296511530415 0 0.0017873865735497825 -0.0019138974670162038 0 0.0014643954413906134 -0.0019672628999241669 0 0.0049006924402037058 -0.00054360093571579823 0 0.0048086750898493087 -0.00070051085550960565 0 0.0050033119825099127 -0.00066226349953107 0 0.0037386916906074234 -0.0011611794432036314 0 0.0037633742184329869 -0.001004538039216902 0 0.0037386916906074234 -0.0011611794432036314 0 0.0037534654424497332 -0.0011018468557850907 0 0.0031567646162162896 -0.0016344858032562247 0 0.0028916232830154451 -0.0014430739420413579 0 0.0032769682264250509 -0.0012658934331043672 0 0.0031567646162162896 -0.0016344858032562247 0 0.0028916232830154451 -0.0014430739420413579 0 0.0028667008961686656 -0.001629979907906238 0 0.0028916232830154451 -0.0014430739420413579 0 0.0028667008961686656 -0.001629979907906238 0 0.0027104442123698819 -0.0015864196321966073 0 0.0031567646162162896 -0.0016344858032562247 0 0.0028667008961686656 -0.001629979907906238 0 0.0030419171534451627 -0.0020001276716446587 0 0.0028667008961686656 -0.001629979907906238 0 0.0027517078830985851 -0.0017569198715887422 0 0.0030419171534451627 -0.0020001276716446587 0 0.0038913613136502124 -0.0010452166057501029 0 0.0036065453339971377 -0.001150511758133319 0 0.0027032177965575521 -0.0017642883313557798 0 0.0027104442123698819 -0.0015864196321966073 0 0.0025517833660098992 -0.0014945468441468085 0 0.0027517078830985851 -0.0017569198715887422 0 0.0027032177965575521 -0.0017642883313557798 0 0.0027648932434006699 -0.0016725129463858034 0 0.0038677390254384047 -0.0010513970870111968 0 0.0038913613136502124 -0.0010452166057501029 0 0.0027032177965575521 -0.0017642883313557798 0 0.0027648932434006699 -0.0016725129463858034 0 0.0027104442123698819 -0.0015864196321966073 0 0.0028667008961686656 -0.001629979907906238 0 0.0027517078830985851 -0.0017569198715887422 0 0.0027648932434006699 -0.0016725129463858034 0 0.0028667008961686656 -0.001629979907906238 0 0.0027648932434006699 -0.0016725129463858034 0 0.0027104442123698819 -0.0015864196321966073 0 0.0028916232830154451 -0.0014430739420413579 0 0.0027104442123698819 -0.0015864196321966073 0 0.0027083304079591648 -0.0014203906310661361 0 0.0025764290014102698 -0.0013148162644416824 0 0.0027083304079591648 -0.0014203906310661361 0 0.0025517833660098992 -0.0014945468441468085 0 0.0027104442123698819 -0.0015864196321966073 0 0.0027083304079591648 -0.0014203906310661361 0 0.0025517833660098992 -0.0014945468441468085 0 0.0037632742321193294 -0.0010937275898714048 0 0.003770738008545394 -0.0011075109546680156 0 0.0037601851858827104 -0.0011143544250745417 0 0.0037632742321193294 -0.0010937275898714048 0 0.0037468133515079637 -0.0011189255011798671 0 0.0037601851858827104 -0.0011143544250745417 0 0.0035458967077218241 -0.0012122185004282277 0 0.0036101782502467221 -0.0012036944941641425 0 0.0035458967077218241 -0.0012122185004282277 0 0.0036065453339971377 -0.001150511758133319 0 0.0037500363495665046 -0.0011382296608835312 0 0.0037860403024389437 -0.0011319304819931916 0 0.0037597185031338623 -0.0011261911455321206 0 0.0037468133515079637 -0.0011189255011798671 0 0.0037601851858827104 -0.0011143544250745417 0 0.0037597185031338623 -0.0011261911455321206 0 0.0037860403024389437 -0.0011319304819931916 0 0.0037601851858827104 -0.0011143544250745417 0 0.0037597185031338623 -0.0011261911455321206 0 0.0039505652105713525 -0.00097359697381442425 0 0.0038913613136502124 -0.0010452166057501029 0 0.00378349702790679 -0.0011304279019177807 0 0.003770738008545394 -0.0011075109546680156 0 0.0037601851858827104 -0.0011143544250745417 0 0.0038913613136502124 -0.0010452166057501029 0 0.0038502213561797897 -0.0010477735369639762 0 0.0047214449776892342 -0.00065421403945960645 0 0.0047026791554566722 -0.00053264499314764429 0 0.0046032386961120933 -0.00057370344232737889 0 0.0047214449776892342 -0.00065421403945960645 0 0.0045669724245954646 -0.00068105836301436326 0 0.0046032386961120933 -0.00057370344232737889 0 0.0047026791554566722 -0.00053264499314764429 0 0.0045976262349374398 -0.00048129753092026039 0 0.0046032386961120933 -0.00057370344232737889 0 0.0045976262349374398 -0.00048129753092026039 0 0.0045387965139703406 -0.00051290606608653169 0 0.0046032386961120933 -0.00057370344232737889 0 0.0045387965139703406 -0.00051290606608653169 0 0.0046032386961120933 -0.00057370344232737889 0 0.0045142202261668303 -0.00057964241198467891 0 0.0038913613136502124 -0.0010452166057501029 0 0.0041201986966567595 -0.00082069788559176876 0 0.0045669724245954646 -0.00068105836301436326 0 0.0046032386961120933 -0.00057370344232737889 0 0.0045142202261668303 -0.00057964241198467891 0 0.0038913613136502124 -0.0010452166057501029 0 0.0037633742184329869 -0.001004538039216902 0 0.0045851435337100153 -0.00075427510453475607 0 0.0045266931464443211 -0.00064092346118575121 0 0.0044344916207264672 -0.00064545488169224932 0 0.0027517078830985851 -0.0017569198715887422 0 0.0027035267091011258 -0.0017640793753740246 0 0.0030419171534451627 -0.0020001276716446587 0 0.0045266931464443211 -0.00064092346118575121 0 0.0044429150632685479 -0.00061863363865613226 0 0.0044344916207264672 -0.00064545488169224932 0 0.0045387965139703406 -0.00051290606608653169 0 0.0045142202261668303 -0.00057964241198467891 0 0.0044625583092399012 -0.00047998084955050332 0 0.0045266931464443211 -0.00064092346118575121 0 0.0044699279731845584 -0.00052248732042367888 0 0.0044429150632685479 -0.00061863363865613226 0 0.0041201986966567595 -0.00082069788559176876 0 0.0042078051159756156 -0.00066649929494687289 0 0.0037633742184329869 -0.001004538039216902 0 0.0039912475590221678 -0.00093799487427861981 0 0.0043927099091230284 -0.00055768708409373161 0 0.004434072282948941 -0.00064690799279648722 0 0.004275471247778875 -0.0005350001825620719 0 0.0044429150632685479 -0.00061863363865613226 0 0.0043927099091230284 -0.00055768708409373161 0 0.004434072282948941 -0.00064690799279648722 0 0.0044699279731845584 -0.00052248732042367888 0 0.0044429150632685479 -0.00061863363865613226 0 0.0043927099091230284 -0.00055768708409373161 0 0.0043632234651409616 -0.00081866730883256534 0 0.0044220160666369 -0.00064686079068594637 0 0.0042854120926252518 -0.00068329304895718831 0 0.0037723338745121815 -0.00098957649157107772 0 0.0037633742184329869 -0.001004538039216902 0 0.0044067700565588999 -0.00039056223705247341 0 0.0044615564752866002 -0.00026553693733503335 0 0.0043348865816178698 -0.00033085958938452455 0 0.0044067700565588999 -0.00039056223705247341 0 0.0043403616819756817 -0.00039788934117609883 0 0.0043348865816178698 -0.00033085958938452455 0 0.0044067700565588999 -0.00039056223705247341 0 0.0043403616819756817 -0.00039788934117609883 0 0.0043453993270738209 -0.00046432161694251255 0 0.0044699279731845584 -0.00052248732042367888 0 0.0043927099091230284 -0.00055768708409373161 0 0.0043453993270738209 -0.00046432161694251255 0 0.0042078051159756156 -0.00066649929494687289 0 0.0042235174463408423 -0.00060080109786786484 0 0.0043927099091230284 -0.00055768708409373161 0 0.0043453993270738209 -0.00046432161694251255 0 0.004275471247778875 -0.0005350001825620719 0 0.0044699279731845584 -0.00052248732042367888 0 0.0044067700565588999 -0.00039056223705247341 0 0.0043453993270738209 -0.00046432161694251255 0 0.0044625583092399012 -0.00047998084955050332 0 0.0044067700565588999 -0.00039056223705247341 0 0.0044799705224049463 -0.00040598170976524454 0 0.0045387965139703406 -0.00051290606608653169 0 0.0044625583092399012 -0.00047998084955050332 0 0.0045361949984169102 -0.00044126720421275897 0 0.0044625583092399012 -0.00047998084955050332 0 0.0044799705224049463 -0.00040598170976524454 0 0.0045361949984169102 -0.00044126720421275897 0 0.0044799705224049463 -0.00040598170976524454 0 0.0045357665902355793 -0.00035744986315917611 0 0.0045361949984169102 -0.00044126720421275897 0 0.0044067700565588999 -0.00039056223705247341 0 0.0044780725365128442 -0.0003453134717895184 0 0.0044615564752866002 -0.00026553693733503335 0 0.0044799705224049463 -0.00040598170976524454 0 0.0044780725365128442 -0.0003453134717895184 0 0.0045357665902355793 -0.00035744986315917611 0 0.0044067700565588999 -0.00039056223705247341 0 0.0044799705224049463 -0.00040598170976524454 0 0.0044780725365128442 -0.0003453134717895184 0 0.0044780725365128442 -0.0003453134717895184 0 0.0045357665902355793 -0.00035744986315917611 0 0.0045072287086380626 -0.00028297182750405445 0 0.0046054540816768599 -0.00033569615219153966 0 0.0045357665902355793 -0.00035744986315917611 0 0.0045663987972421952 -0.00026504091200652116 0 0.0045357665902355793 -0.00035744986315917611 0 0.0045663987972421952 -0.00026504091200652116 0 0.0045072287086380626 -0.00028297182750405445 0 0.0046054540816768599 -0.00033569615219153966 0 0.0045357665902355793 -0.00035744986315917611 0 0.0046001552136750203 -0.00040556361298418403 0 0.0045357665902355793 -0.00035744986315917611 0 0.0045361949984169102 -0.00044126720421275897 0 0.0046001552136750203 -0.00040556361298418403 0 0.0045976262349374398 -0.00048129753092026039 0 0.0045387965139703406 -0.00051290606608653169 0 0.0045361949984169102 -0.00044126720421275897 0 0.0045976262349374398 -0.00048129753092026039 0 0.0045361949984169102 -0.00044126720421275897 0 0.0046001552136750203 -0.00040556361298418403 0 0.0045976262349374398 -0.00048129753092026039 0 0.0046001552136750203 -0.00040556361298418403 0 0.0046844217809003672 -0.00040820603915072876 0 0.0042501677557952181 -0.00064163081805507097 0 0.0043917669189857738 -0.0004774074213762155 0 0.0047026791554566722 -0.00053264499314764429 0 0.0045976262349374398 -0.00048129753092026039 0 0.0046844217809003672 -0.00040820603915072876 0 0.0046054540816768599 -0.00033569615219153966 0 0.0046844217809003672 -0.00040820603915072876 0 0.0046561389881815581 -0.00027536923342863094 0 0.0043917669189857738 -0.0004774074213762155 0 0.0044307460968848493 -0.00041300306852115522 0 0.0046054540816768599 -0.00033569615219153966 0 0.0046001552136750203 -0.00040556361298418403 0 0.0046844217809003672 -0.00040820603915072876 0 0.0046561389881815581 -0.00027536923342863094 0 0.0046629852928972365 -0.00017845032151577177 0 0.0046100773458160969 -0.00022071211484857924 0 0.0046561389881815581 -0.00027536923342863094 0 0.0046629852928972365 -0.00017845032151577177 0 0.0047173375229389285 -0.00022944645033399791 0 0.0046916799219529617 -0.00015297829145218456 0 0.0046263915435455077 -0.00015632758048277637 0 0.0047291142499234565 -0.00013694195877723319 0 0.0045509736884822511 -0.0001657558120115893 0 0.0046797785581498049 -7.3139732640148614e-05 0 0.0046629852928972365 -0.00017845032151577177 0 0.0045509736884822511 -0.0001657558120115893 0 0.0046100773458160969 -0.00022071211484857924 0 0.0045509736884822511 -0.0001657558120115893 0 0.0045730990545854635 -8.01297312140615e-05 0 0.0046797785581498049 -7.3139732640148614e-05 0 0.0045509736884822511 -0.0001657558120115893 0 0.0045663987972421952 -0.00026504091200652116 0 0.0045199733668712929 -0.00023107488167778932 0 0.0046054540816768599 -0.00033569615219153966 0 0.0046561389881815581 -0.00027536923342863094 0 0.0045663987972421952 -0.00026504091200652116 0 0.0046561389881815581 -0.00027536923342863094 0 0.0046100773458160969 -0.00022071211484857924 0 0.0045663987972421952 -0.00026504091200652116 0 0.0045509736884822511 -0.0001657558120115893 0 0.0046100773458160969 -0.00022071211484857924 0 0.0045663987972421952 -0.00026504091200652116 0 0.0045663987972421952 -0.00026504091200652116 0 0.0045072287086380626 -0.00028297182750405445 0 0.0045199733668712929 -0.00023107488167778932 0 0.0045072287086380626 -0.00028297182750405445 0 0.0044615564752866002 -0.00026553693733503335 0 0.0044759136229714095 -0.00023324576169895958 0 0.0044780725365128442 -0.0003453134717895184 0 0.0045072287086380626 -0.00028297182750405445 0 0.0044615564752866002 -0.00026553693733503335 0 0.0044759136229714095 -0.00023324576169895958 0 0.004446818879500547 -0.00020986170789525206 0 0.0045136089455501448 -0.00018599780240678032 0 0.0044759136229714095 -0.00023324576169895958 0 0.004446818879500547 -0.00020986170789525206 0 0.0044328118357681813 -0.00025820382441847065 0 0.0044615564752866002 -0.00026553693733503335 0 0.0044759136229714095 -0.00023324576169895958 0 0.0044328118357681813 -0.00025820382441847065 0 0.0044759136229714095 -0.00023324576169895958 0 0.0045199733668712929 -0.00023107488167778932 0 0.0045136089455501448 -0.00018599780240678032 0 0.0045072287086380626 -0.00028297182750405445 0 0.0044759136229714095 -0.00023324576169895958 0 0.0045199733668712929 -0.00023107488167778932 0 0.0045509736884822511 -0.0001657558120115893 0 0.0045199733668712929 -0.00023107488167778932 0 0.0045136089455501448 -0.00018599780240678032 0 0.0045509736884822511 -0.0001657558120115893 0 0.0045136089455501448 -0.00018599780240678032 0 0.0045730990545854635 -8.01297312140615e-05 0 0.004657777476181406 -9.1857078599739237e-05 0 0.0046569423330709066 -3.1122106035618916e-05 0 0.0046933255142474978 -1.0137281614847788e-05 0 0.004446818879500547 -0.00020986170789525206 0 0.0045136089455501448 -0.00018599780240678032 0 0.0045730990545854635 -8.01297312140615e-05 0 0.0045269847510910005 -0.00016316010137403306 0 0.0046118897786494749 -7.2438520990825852e-05 0 0.0046569423330709066 -3.1122106035618916e-05 0 0.0046439721062170149 -7.0234279889299134e-05 0 0.0046384033052653071 -3.7331818520338184e-05 0 0.004657777476181406 -9.1857078599739237e-05 0 0.0046569423330709066 -3.1122106035618916e-05 0 0.0046439721062170149 -7.0234279889299134e-05 0 0.004657777476181406 -9.1857078599739237e-05 0 0.0046445068369679642 -8.6128923938479245e-05 0 0.00464468933420279 -9.552505082830713e-05 0 0.0046445068369679642 -8.6128923938479245e-05 0 0.0046186505528626621 -8.47330791424453e-05 0 0.00464468933420279 -9.552505082830713e-05 0 0.0046186505528626621 -8.47330791424453e-05 0 0.0046439721062170149 -7.0234279889299134e-05 0 0.0046133974050818725 -4.4345049740394092e-05 0 0.0046445068369679642 -8.6128923938479245e-05 0 0.0046186505528626621 -8.47330791424453e-05 0 0.0046439721062170149 -7.0234279889299134e-05 0 0.004657777476181406 -9.1857078599739237e-05 0 0.0046445068369679642 -8.6128923938479245e-05 0 0.0046439721062170149 -7.0234279889299134e-05 0 0.0046133974050818725 -4.4345049740394092e-05 0 0.0046384033052653071 -3.7331818520338184e-05 0 0.0046309585686243621 -8.6242416025602126e-06 0 0.0046439721062170149 -7.0234279889299134e-05 0 0.0046133974050818725 -4.4345049740394092e-05 0 0.0046384033052653071 -3.7331818520338184e-05 0 0.0046133974050818725 -4.4345049740394092e-05 0 0.0045740016777752251 -6.9676626415671763e-05 0 0.0045694060455428454 -5.3972098737859588e-07 0 0.0046186505528626621 -8.47330791424453e-05 0 0.0046133974050818725 -4.4345049740394092e-05 0 0.0045740016777752251 -6.9676626415671763e-05 0 0.0046186505528626621 -8.47330791424453e-05 0 0.0045547575526861603 -0.00011848275780564622 0 0.0045740016777752251 -6.9676626415671763e-05 0 0.00464468933420279 -9.552505082830713e-05 0 0.0044750566550346592 -0.0002146396581893989 0 0.0045410253582732815 -0.0002317597743942232 0 0.004657777476181406 -9.1857078599739237e-05 0 0.00464468933420279 -9.552505082830713e-05 0 0.0045410253582732815 -0.0002317597743942232 0 0.0045269847510910005 -0.00016316010137403306 0 0.0044037006868338302 -0.00028903489012290401 0 0.0044118177831239452 -0.00028594646533897143 0 0.0044037006868338302 -0.00028903489012290401 0 0.004446818879500547 -0.00020986170789525206 0 0.0044328118357681813 -0.00025820382441847065 0 0.0043494986127876212 -0.00032420848313211047 0 0.00464468933420279 -9.552505082830713e-05 0 0.0045299480813334536 -0.00021813123719895288 0 0.0045547575526861603 -0.00011848275780564622 0 0.0046186505528626621 -8.47330791424453e-05 0 0.00464468933420279 -9.552505082830713e-05 0 0.0045547575526861603 -0.00011848275780564622 0 0.0045602384231965432 -0.0001686525903871167 0 0.0044739308715513217 -0.00023104353375819233 0 0.0044615564752866002 -0.00026553693733503335 0 0.0044328118357681813 -0.00025820382441847065 0 0.0043494986127876212 -0.00032420848313211047 0 0.0048853523538444094 -0.00033741729626261916 0 0.0048073855379150909 -0.00034964040273471262 0 0.0048310714232524896 -0.00022926550890509814 0 0.0048853523538444094 -0.00033741729626261916 0 0.0049347700353899217 -0.00022008010137634565 0 0.0050208332893556295 -0.00026335698929360983 0 0.0048853523538444094 -0.00033741729626261916 0 0.0050208332893556295 -0.00026335698929360983 0 0.0050173532950743231 -0.0004437443581716907 0 0.0049006924402037058 -0.00054360093571579823 0 0.0048853523538444094 -0.00033741729626261916 0 0.0050173532950743231 -0.0004437443581716907 0 0.0044712813635525445 -0.0004650902117951741 0 0.0046343259385042811 -0.00034770299025555873 0 0.0047405219951519063 -0.00053062819481867259 0 0.0049006924402037058 -0.00054360093571579823 0 0.0048853523538444094 -0.00033741729626261916 0 0.0048181637758677193 -0.00043701385482062979 0 0.0048853523538444094 -0.00033741729626261916 0 0.0048073855379150909 -0.00034964040273471262 0 0.0048181637758677193 -0.00043701385482062979 0 0.0047407547390364907 -0.00040038475796158916 0 0.0048073855379150909 -0.00034964040273471262 0 0.0047407547390364907 -0.00040038475796158916 0 0.0047492466087263934 -0.00030430276328369179 0 0.0048073855379150909 -0.00034964040273471262 0 0.0046642511971214167 -0.00036446816285329704 0 0.0047407547390364907 -0.00040038475796158916 0 0.0047492466087263934 -0.00030430276328369179 0 0.0046759702368183494 -0.00046010942637328048 0 0.0046642511971214167 -0.00036446816285329704 0 0.0047407547390364907 -0.00040038475796158916 0 0.0046642511971214167 -0.00036446816285329704 0 0.0046561389881815581 -0.00027536923342863094 0 0.0047492466087263934 -0.00030430276328369179 0 0.0047492466087263934 -0.00030430276328369179 0 0.0048073855379150909 -0.00034964040273471262 0 0.0048310714232524896 -0.00022926550890509814 0 0.0047173375229389285 -0.00022944645033399791 0 0.0047702178732519926 -0.00016660318161668971 0 0.0048310714232524896 -0.00022926550890509814 0 0.0047492466087263934 -0.00030430276328369179 0 0.0047173375229389285 -0.00022944645033399791 0 0.0048310714232524896 -0.00022926550890509814 0 0.0046561389881815581 -0.00027536923342863094 0 0.0047492466087263934 -0.00030430276328369179 0 0.0047173375229389285 -0.00022944645033399791 0 0.0046916799219529617 -0.00015297829145218456 0 0.0047893602404333081 -0.00014683629431963625 0 0.0047291142499234565 -0.00013694195877723319 0 0.0048197260098424921 -0.00011723246549260543 0 0.0047660456084134143 -4.7061202201308305e-05 0 0.0046629852928972365 -0.00017845032151577177 0 0.0047173375229389285 -0.00022944645033399791 0 0.0047702178732519926 -0.00016660318161668971 0 0.0047893602404333081 -0.00014683629431963625 0 0.0048456646410899046 -0.00014368135850715525 0 0.0048197260098424921 -0.00011723246549260543 0 0.0049011193950105232 -0.0001346543711196843 0 0.0048581376535640807 -7.5880014772885333e-05 0 0.0048310714232524896 -0.00022926550890509814 0 0.0049240816920330241 -0.00017311343720523308 0 0.0049011193950105232 -0.0001346543711196843 0 0.0047702178732519926 -0.00016660318161668971 0 0.0048310714232524896 -0.00022926550890509814 0 0.0049011193950105232 -0.0001346543711196843 0 0.0048853523538444094 -0.00033741729626261916 0 0.0048310714232524896 -0.00022926550890509814 0 0.0049347700353899217 -0.00022008010137634565 0 0.0049347700353899217 -0.00022008010137634565 0 0.0049513418150133196 -0.00012953191482193273 0 0.0050208332893556295 -0.00026335698929360983 0 0.0048310714232524896 -0.00022926550890509814 0 0.0049347700353899217 -0.00022008010137634565 0 0.0049240816920330241 -0.00017311343720523308 0 0.0049347700353899217 -0.00022008010137634565 0 0.0049240816920330241 -0.00017311343720523308 0 0.0049513418150133196 -0.00012953191482193273 0 0.0049240816920330241 -0.00017311343720523308 0 0.0049011193950105232 -0.0001346543711196843 0 0.0049513418150133196 -0.00012953191482193273 0 0.0037392713223693419 -0.00039453140595509045 0 0.0037059701922801777 -0.00044378738472184988 0 0.0037144291606547816 -0.0003454737189569465 0 0.0049066331176993916 -6.9399398536321367e-05 0 0.0049276849599760785 -8.2162750360293923e-05 0 0.0049312327561323215 -4.9450460198111731e-05 0 0.0040892644927084483 -0.00035204540011295014 0 0.0042349874909377461 -0.00030751348545884742 0 0.0037059701922801777 -0.00044378738472184988 0 0.0037465071659864672 -0.00042777006405652967 0 0.0037608206552269233 -0.0004568259907159657 0 0.0037392713223693419 -0.00039453140595509045 0 0.0037059701922801777 -0.00044378738472184988 0 0.0037465071659864672 -0.00042777006405652967 0 0.0037638173546808693 -0.00036336246486391748 0 0.003786369720447001 -0.00042144402707223067 0 0.0038197651615020233 -0.0003392737118096541 0 0.0034893684694219528 -0.00054173005547833528 0 0.0038387039895740392 -0.00029755661054498705 0 0.0037638173546808693 -0.00036336246486391748 0 0.0038197651615020233 -0.0003392737118096541 0 0.0037950567828774549 -0.00030839370110708115 0 0.0038951054044141214 -0.00039246496300934558 0 0.0040916225163770328 -0.00023034744516958866 0 0.0037392713223693419 -0.00039453140595509045 0 0.0037814832178266048 -0.00042105548814690082 0 0.0037489382250034111 -0.00033781224018205772 0 0.0038951054044141214 -0.00039246496300934558 0 0.0041818252533985549 -0.00026711737375108443 0 0.0037392713223693419 -0.00039453140595509045 0 0.0037465071659864672 -0.00042777006405652967 0 0.0037814832178266048 -0.00042105548814690082 0 0.0037608206552269233 -0.0004568259907159657 0 0.0037806469048937323 -0.00042155770574550764 0 0.0038103324218132762 -0.00049716773869789188 0 0.0037465071659864672 -0.00042777006405652967 0 0.0037608206552269233 -0.0004568259907159657 0 0.0037814832178266048 -0.00042105548814690082 0 0.0038892915576380525 -0.00039915785462382231 0 0.0038951054044141214 -0.00039246496300934558 0 0.0038951054044141214 -0.00039246496300934558 0 0.0034893684694219528 -0.00054173005547833528 0 0.0037608206552269233 -0.0004568259907159657 0 0.0038103324218132762 -0.00049716773869789188 0 0.0037443459843046764 -0.00051841935616410775 0 0.0040892644927084483 -0.00035204540011295014 0 0.0038775039158596152 -0.00051768384208392289 0 0.0037059701922801777 -0.00044378738472184988 0 0.0036973946074989484 -0.00054155655803536868 0 0.0037443459843046764 -0.00051841935616410775 0 0.0049066331176993916 -6.9399398536321367e-05 0 0.0049276849599760785 -8.2162750360293923e-05 0 0.0049218900943679613 -0.00011618310419786635 0 0.0043683953396985798 -0.00034209829565695274 0 0.0038775039158596152 -0.00051768384208392289 0 0.0037059701922801777 -0.00044378738472184988 0 0.0037608206552269233 -0.0004568259907159657 0 0.0037443459843046764 -0.00051841935616410775 0 0.0033603826154692787 -0.00055996087644183867 0 0.0034553844283593677 -0.00076950123285594841 0 0.003336554506270099 -0.00083941868541613908 0 0.0038775039158596152 -0.00051768384208392289 0 0.0031682669206171536 -0.00083865544060780057 0 0.0038775039158596152 -0.00051768384208392289 0 0.0035450436517392284 -0.00069100987933062689 0 0.0036973946074989484 -0.00054155655803536868 0 0.0037443459843046764 -0.00051841935616410775 0 0.0037471266900681662 -0.00065282520768071139 0 0.0038103324218132762 -0.00049716773869789188 0 0.0037443459843046764 -0.00051841935616410775 0 0.0037471266900681662 -0.00065282520768071139 0 0.0026982816850906147 -0.00084745680742131927 0 0.0026991292354193713 -0.00084094688160085132 0 0.0026924298104301393 -0.0008414372747503439 0 0.0034893684694219528 -0.00054173005547833528 0 0.0031682669206171536 -0.00083865544060780057 0 0.0027718792922691912 -0.0010923708518172132 0 0.00273348855553776 -0.0011881366588737821 0 0.0028099179666031971 -0.0011773050285326283 0 0.0026991292354193713 -0.00084094688160085132 0 0.0026924298104301393 -0.0008414372747503439 0 0.0026960997405269128 -0.00083702401305402554 0 0.0031682669206171536 -0.00083865544060780057 0 0.0026185290132387396 -0.0010698244379547218 0 0.0034553844283593677 -0.00076950123285594841 0 0.003336554506270099 -0.00083941868541613908 0 0.0033870047896577085 -0.00093995580977777556 0 0.0031682669206171536 -0.00083865544060780057 0 0.0029939807546950931 -0.0010143472526362586 0 0.0029422050418871099 -0.00047289255845776033 0 0.0030230391707215284 -0.00051480432625519712 0 0.0029587707698104705 -0.00062108300371327559 0 0.0029422050418871099 -0.00047289255845776033 0 0.0029587707698104705 -0.00062108300371327559 0 0.002877043192416657 -0.00052429806751942384 0 0.0029422050418871099 -0.00047289255845776033 0 0.0030230391707215284 -0.00051480432625519712 0 0.002973278983375272 -0.00039691790032850711 0 0.0028259285826392629 -0.00071523065440219744 0 0.0021726977960387873 -0.00099980318759843056 0 0.0026924298104301393 -0.0008414372747503439 0 0.0026960997405269128 -0.00083702401305402554 0 0.0026895749508038277 -0.00083485528332800268 0 0.0030727754331279704 -0.00063240902339368413 0 0.0030230391707215284 -0.00051480432625519712 0 0.0029587707698104705 -0.00062108300371327559 0 0.0034893684694219528 -0.00054173005547833528 0 0.0028259285826392629 -0.00071523065440219744 0 0.0033948567138935978 -0.00037462116025476221 0 0.0030263065187705871 -0.00044761207360852304 0 0.0030727754331279704 -0.00063240902339368413 0 0.0029587707698104705 -0.00062108300371327559 0 0.0030401154292952919 -0.00071716474387736873 0 0.0033948567138935978 -0.00037462116025476221 0 0.0038387039895740392 -0.00029755661054498705 0 0.0036845217762829208 -0.00022197812925607273 0 0.0037809147132903736 -0.00033858057564317419 0 0.003681194152204748 -0.00034603045397674128 0 0.0036845217762829208 -0.00022197812925607273 0 0.003681194152204748 -0.00034603045397674128 0 0.0035794838079200378 -0.00033304490828112843 0 0.0041609516452189152 -5.8064277359960071e-05 0 0.0039041677760904112 -9.3996632159101595e-05 0 0.0047098727430716887 0.0001359014251186466 0 0.0046853981784212261 0.00012933466484366696 0 0.0046934383879060218 0.00018368865579618102 0 0.0045999592927278401 0.00011020436005911802 0 0.00462072141873319 0.00014919020382546931 0 0.0046853981784212261 0.00012933466484366696 0 0.0046934383879060218 0.00018368865579618102 0 0.0046473000887573054 0.00017630940291463225 0 0.0046934383879060218 0.00018368865579618102 0 0.0046473000887573054 0.00017630940291463225 0 0.0046649778675431717 0.00020138908903217099 0 0.0036845217762829208 -0.00022197812925607273 0 0.0035794838079200378 -0.00033304490828112843 0 0.0035308384730079038 -0.00022146097762990418 0 0.0046565900071789028 0.0002019238299270912 0 0.0046601076771508633 0.00019250408045173525 0 0.0046463141232904528 0.00019846345368376123 0 0.0046565900071789028 0.0002019238299270912 0 0.0046679114623827235 0.00019032122413851734 0 0.0046601076771508633 0.00019250408045173525 0 0.0046820899656859986 0.00019288374334071426 0 0.0046719114783547394 0.00019397485191297381 0 0.0046679223402897657 0.00020709872751426412 0 0.0046565900071789028 0.0002019238299270912 0 0.0046719114783547394 0.00019397485191297381 0 0.0046679114623827235 0.00019032122413851734 0 0.0046565900071789028 0.0002019238299270912 0 0.0046719114783547394 0.00019397485191297381 0 0.0046679223402897657 0.00020709872751426412 0 0.0046473000887573054 0.00017630940291463225 0 0.0046351908290829308 0.00021014121916102118 0 0.0046649778675431717 0.00020138908903217099 0 0.00462072141873319 0.00014919020382546931 0 0.0046223532562767204 0.00016526493354107949 0 0.0046679223402897657 0.00020709872751426412 0 0.0046487288552855876 0.0002100942260009881 0 0.0046387994013050316 0.00021418976598209708 0 0.0046565900071789028 0.0002019238299270912 0 0.0046487288552855876 0.0002100942260009881 0 0.0046443085934294737 0.00020803419059057458 0 0.0046565900071789028 0.0002019238299270912 0 0.0046679223402897657 0.00020709872751426412 0 0.0046487288552855876 0.0002100942260009881 0 0.0046387994013050316 0.00021418976598209708 0 0.0046351908290829308 0.00021014121916102118 0 0.004642279760791442 0.00021770548974024551 0 0.0046351908290829308 0.00021014121916102118 0 0.0045429208497287125 0.00028106748947460898 0 0.0044143859002487582 0.00022805778242377612 0 0.0044875885321186458 0.00010061544855804737 0 0.004299009843265169 8.9650730196641742e-05 0 0.0046487288552855876 0.0002100942260009881 0 0.0046387994013050316 0.00021418976598209708 0 0.0046434877288835316 0.00021365829751458838 0 0.0046473000887573054 0.00017630940291463225 0 0.0046387994013050316 0.00021418976598209708 0 0.0046351908290829308 0.00021014121916102118 0 0.0046351908290829308 0.00021014121916102118 0 0.0046324790546706813 0.00027757825536484321 0 0.0045429208497287125 0.00028106748947460898 0 0.0046351908290829308 0.00021014121916102118 0 0.0046649778675431717 0.00020138908903217099 0 0.0046882627466287878 0.00024657553136261094 0 0.0046351908290829308 0.00021014121916102118 0 0.0046324790546706813 0.00027757825536484321 0 0.0046882627466287878 0.00024657553136261094 0 0.0046324790546706813 0.00027757825536484321 0 0.0046882627466287878 0.00024657553136261094 0 0.004653939928048887 0.0003813389774864813 0 0.0046324790546706813 0.00027757825536484321 0 0.0045429208497287125 0.00028106748947460898 0 0.004653939928048887 0.0003813389774864813 0 0.0045429208497287125 0.00028106748947460898 0 0.0044143859002487582 0.00022805778242377612 0 0.0044499368642245433 0.00036497955576393843 0 0.0045429208497287125 0.00028106748947460898 0 0.004653939928048887 0.0003813389774864813 0 0.0044499368642245433 0.00036497955576393843 0 0.0036845217762829208 -0.00022197812925607273 0 0.0035308384730079038 -0.00022146097762990418 0 0.0035868248674667245 -0.00010422198056467037 0 0.0039041677760904112 -9.3996632159101595e-05 0 0.0035532727360914665 -0.00015687424294414876 0 0.0046934383879060218 0.00018368865579618102 0 0.0046649778675431717 0.00020138908903217099 0 0.0046882627466287878 0.00024657553136261094 0 0.0035308384730079038 -0.00022146097762990418 0 0.0035868248674667245 -0.00010422198056467037 0 0.0034808235521199683 -0.00010858492698379286 0 0.0034808235521199683 -0.00010858492698379286 0 0.0034869700130242759 1.6258350736273665e-05 0 0.0034307961235993637 6.6506963140687195e-06 0 0.0035868248674667245 -0.00010422198056467037 0 0.0034808235521199683 -0.00010858492698379286 0 0.0034869700130242759 1.6258350736273665e-05 0 0.0030263065187705871 -0.00044761207360852304 0 0.0024536692346152473 -0.00054234459189683043 0 0.0035532727360914665 -0.00015687424294414876 0 0.0029852462117489985 -0.00035640224071245829 0 0.002877043192416657 -0.00052429806751942384 0 0.0028849398577650118 -0.00041141134812310996 0 0.0027955930441050706 -0.0004264401816557995 0 0.0029422050418871099 -0.00047289255845776033 0 0.002877043192416657 -0.00052429806751942384 0 0.0028849398577650118 -0.00041141134812310996 0 0.0022068617415263369 -0.00079287733466147604 0 0.0024536692346152473 -0.00054234459189683043 0 0.0012733420727773191 -0.0012592795529705874 0 0.0011313363286550927 -0.0012806401298443423 0 0.0011262961286148899 -0.0011534156326900025 0 0.0024536692346152473 -0.00054234459189683043 0 0.0029852462117489985 -0.00035640224071245829 0 0.0011313363286550927 -0.0012806401298443423 0 0.0011262961286148899 -0.0011534156326900025 0 0.0010216887669901376 -0.0011421601478313729 0 0.0012733420727773191 -0.0012592795529705874 0 0.0011262961286148899 -0.0011534156326900025 0 0.0012449750847550263 -0.0011240477856146389 0 0.0012733420727773191 -0.0012592795529705874 0 0.0012449750847550263 -0.0011240477856146389 0 0.0013360563490982043 -0.0011730004105399727 0 0.0012449750847550263 -0.0011240477856146389 0 0.0013464834498590629 -0.0010578419265179469 0 0.0013360563490982043 -0.0011730004105399727 0 0.0015876443101926999 -0.00040771173687184409 0 0.001416551643921367 -0.00044805221547750091 0 0.0014179904420527785 -0.00061289547123555331 0 0.0029852462117489985 -0.00035640224071245829 0 0.0029491446580436043 -0.00014611809237539887 0 0.0017798822810577244 -0.00055657022592742699 0 0.0015876443101926999 -0.00040771173687184409 0 0.0014179904420527785 -0.00061289547123555331 0 0.0019104401486475795 -0.00053838476337699642 0 0.001724951597782798 -0.00042633264090201529 0 0.0017022598885251818 -0.00028846827102603181 0 0.0024536692346152473 -0.00054234459189683043 0 0.0014795885384858119 -0.00061659132158406937 0 0.001724951597782798 -0.00042633264090201529 0 0.0017798822810577244 -0.00055657022592742699 0 0.0015876443101926999 -0.00040771173687184409 0 0.0029039115880723364 -0.00031702369116057538 0 0.0029852462117489985 -0.00035640224071245829 0 0.0019104401486475795 -0.00053838476337699642 0 0.001724951597782798 -0.00042633264090201529 0 0.00178161894335972 -0.00056113272966137266 0 0.0011262961286148899 -0.0011534156326900025 0 0.0010216887669901376 -0.0011421601478313729 0 0.0010858101685840425 -0.0010691834026786929 0 0.001724951597782798 -0.00042633264090201529 0 0.0017022598885251818 -0.00028846827102603181 0 0.0015876443101926999 -0.00040771173687184409 0 0.0017022598885251818 -0.00028846827102603181 0 0.0015876443101926999 -0.00040771173687184409 0 0.0015704514644715242 -0.00024890809737476358 0 0.0015876443101926999 -0.00040771173687184409 0 0.0015704514644715242 -0.00024890809737476358 0 0.001461302889462155 -0.00029924377325959869 0 0.0015704514644715242 -0.00024890809737476358 0 0.001461302889462155 -0.00029924377325959869 0 0.0014814033028399541 -0.00019837347197112294 0 0.0015876443101926999 -0.00040771173687184409 0 0.001461302889462155 -0.00029924377325959869 0 0.001416551643921367 -0.00044805221547750091 0 0.0014795885384858119 -0.00061659132158406937 0 0.00056111048027656654 -0.00061947246158080031 0 0.0015704514644715242 -0.00024890809737476358 0 0.0015010078248885274 -4.753919227091812e-05 0 0.0014814033028399541 -0.00019837347197112294 0 0.0015010078248885274 -4.753919227091812e-05 0 0.0014814033028399541 -0.00019837347197112294 0 0.0013685105195920721 -0.00024732317797152947 0 0.0017022598885251818 -0.00028846827102603181 0 0.0015704514644715242 -0.00024890809737476358 0 0.0015010078248885274 -4.753919227091812e-05 0 0.0010216887669901376 -0.0011421601478313729 0 0.00092181461348793316 -0.0010183046796846682 0 0.0010303707328496812 -0.0010258198134955501 0 0.0010216887669901376 -0.0011421601478313729 0 0.0010303707328496812 -0.0010258198134955501 0 0.0010858101685840425 -0.0010691834026786929 0 0.0010303707328496812 -0.0010258198134955501 0 0.0010858101685840425 -0.0010691834026786929 0 0.0010942381860875523 -0.00098688013795509362 0 0.0010303707328496812 -0.0010258198134955501 0 0.001064536894610963 -0.00092412436430246961 0 0.0010942381860875523 -0.00098688013795509362 0 0.00092181461348793316 -0.0010183046796846682 0 0.0010303707328496812 -0.0010258198134955501 0 0.001064536894610963 -0.00092412436430246961 0 -0.00096891589276265882 -0.001077906610628937 0 -0.00087079339165153609 -0.0010120103155384405 0 -0.00092777985647312191 -0.0010364915650863361 0 0.00056111048027656654 -0.00061947246158080031 0 0.00016645934669486299 -0.0011329652012282861 0 -0.00097092152456342235 -0.00097540270760532275 0 -0.00087079339165153609 -0.0010120103155384405 0 -0.00092777985647312191 -0.0010364915650863361 0 0.00016645934669486299 -0.0011329652012282861 0 0.00022252184038526216 -0.0011519889205828676 0 -0.00097092152456342235 -0.00097540270760532275 0 -0.00092777985647312191 -0.0010364915650863361 0 -0.00099421248613410277 -0.001061183784740226 0 -2.744778416045852e-06 -0.00073453923421400494 0 0.00036645601768106953 -0.00060410594192004832 0 -0.00096891589276265882 -0.001077906610628937 0 -0.00092777985647312191 -0.0010364915650863361 0 -0.00098422095851353857 -0.0010575962425901071 0 0.00056111048027656654 -0.00061947246158080031 0 0.00036645601768106953 -0.00060410594192004832 0 0.0012449750847550263 -0.0011240477856146389 0 0.001181426131407937 -0.0010207272973170305 0 0.0013464834498590629 -0.0010578419265179469 0 0.001181426131407937 -0.0010207272973170305 0 0.0012349294603984601 -0.00088957458198959461 0 0.0013464834498590629 -0.0010578419265179469 0 0.0011262961286148899 -0.0011534156326900025 0 0.0010858101685840425 -0.0010691834026786929 0 0.0011638879168533501 -0.0010379393180754224 0 0.0011262961286148899 -0.0011534156326900025 0 0.0012449750847550263 -0.0011240477856146389 0 0.001181426131407937 -0.0010207272973170305 0 0.00092483710029993217 -0.0010647306751512165 0 0.00087989026803768897 -0.0010775922721141271 0 0.0010858101685840425 -0.0010691834026786929 0 0.0011638879168533501 -0.0010379393180754224 0 0.0010942381860875523 -0.00098688013795509362 0 0.0011638879168533501 -0.0010379393180754224 0 0.0011377103874344332 -0.00095110931011408502 0 0.0012028777594935269 -0.00093281602632053076 0 0.0011638879168533501 -0.0010379393180754224 0 0.0010942381860875523 -0.00098688013795509362 0 0.0011377103874344332 -0.00095110931011408502 0 0.0010678961996938763 -0.00093129387291195336 0 0.0010942381860875523 -0.00098688013795509362 0 0.0011377103874344332 -0.00095110931011408502 0 0.00012376779673955936 -0.0016548490960606242 0 0.00033174511338119868 -0.0017279296482819524 0 0.0003813490814190293 -0.0020322372338942522 0 0.00087989026803768897 -0.0010775922721141271 0 0.00066234388275486348 -0.0012865333044571046 0 0.00066234388275486348 -0.0012865333044571046 0 0.0011889108209799041 -0.0013145073381944064 0 0.00031748560917004449 -0.0015625088215637498 0 0.00012376779673955936 -0.0016548490960606242 0 0.00033174511338119868 -0.0017279296482819524 0 0.00033174511338119868 -0.0017279296482819524 0 0.00050499005378438382 -0.0016579668777346088 0 0.0003813490814190293 -0.0020322372338942522 0 0.00031748560917004449 -0.0015625088215637498 0 0.00033174511338119868 -0.0017279296482819524 0 0.00050499005378438382 -0.0016579668777346088 0 0.00050499005378438382 -0.0016579668777346088 0 0.0003813490814190293 -0.0020322372338942522 0 0.00067145600030226393 -0.0020121774329190018 0 0.00087246948700500822 -0.0015156320026191786 0 0.00050499005378438382 -0.0016579668777346088 0 0.0007769079251938964 -0.0017770015412469371 0 0.00069870749445511066 -0.0020626894640362737 0 0.0007769079251938964 -0.0017770015412469371 0 0.0010298239046104291 -0.0018726212385978263 0 0.0012349442586572965 -0.0015744698563969076 0 0.0014592478245751737 -0.0016168297502386695 0 0.00050499005378438382 -0.0016579668777346088 0 0.00069870749445511066 -0.0020626894640362737 0 0.0007769079251938964 -0.0017770015412469371 0 0.0012697879082641773 -0.0015928881655495248 0 0.00087246948700500822 -0.0015156320026191786 0 0.0010298239046104291 -0.0018726212385978263 0 0.00087246948700500822 -0.0015156320026191786 0 0.0007769079251938964 -0.0017770015412469371 0 0.0010298239046104291 -0.0018726212385978263 0 0.0012697879082641773 -0.0015928881655495248 0 0.0010298239046104291 -0.0018726212385978263 0 0.0014014982624579472 -0.0018891023036094608 0 0.0014014982624579472 -0.0018891023036094608 0 0.001193445470703437 -0.0020800026963553818 0 0.0013621189972173777 -0.002379278141715532 0 0.0020554481389430386 -0.0016041042182938991 0 0.0027965423052728612 -0.0011712755131176363 0 0.0010298239046104291 -0.0018726212385978263 0 0.0014014982624579472 -0.0018891023036094608 0 0.001193445470703437 -0.0020800026963553818 0 0.00069870749445511066 -0.0020626894640362737 0 0.0010298239046104291 -0.0018726212385978263 0 0.0009793440203736902 -0.0021770633485734851 0 0.0010298239046104291 -0.0018726212385978263 0 0.001193445470703437 -0.0020800026963553818 0 0.0009793440203736902 -0.0021770633485734851 0 0.0009793440203736902 -0.0021770633485734851 0 0.00088867605284003056 -0.002461000396710386 0 0.0013621189972173777 -0.002379278141715532 0 0.0020414178810600229 -0.00131418075372562 0 0.0027965423052728612 -0.0011712755131176363 0 0.00069870749445511066 -0.0020626894640362737 0 0.0009793440203736902 -0.0021770633485734851 0 0.00088867605284003056 -0.002461000396710386 0 0.001193445470703437 -0.0020800026963553818 0 0.0009793440203736902 -0.0021770633485734851 0 0.0013621189972173777 -0.002379278141715532 0 0.0027965423052728612 -0.0011712755131176363 0 0.0029939807546950931 -0.0010143472526362586 0 0.002847909032357748 -0.0012619680519833085 0 0.0026927694470001463 -0.0012888889371215962 0 0.00273348855553776 -0.0011881366588737821 0 0.0035450436517392284 -0.00069100987933062689 0 0.0027965423052728612 -0.0011712755131176363 0 0.003336554506270099 -0.00083941868541613908 0 0.0033121900044444518 -0.0011209335556612654 0 0.0033870047896577085 -0.00093995580977777556 0 0.002847909032357748 -0.0012619680519833085 0 0.00273348855553776 -0.0011881366588737821 0 0.0028099179666031971 -0.0011773050285326283 0 0.0026926347177692773 -0.00083261791411768369 0 0.0026960997405269128 -0.00083702401305402554 0 0.0026895749508038277 -0.00083485528332800268 0 0.0020414178810600229 -0.00131418075372562 0 0.0026185290132387396 -0.0010698244379547218 0 0.0026924298104301393 -0.0008414372747503439 0 0.0026895749508038277 -0.00083485528332800268 0 0.0026854508431352832 -0.00083340089086734927 0 0.0020414178810600229 -0.00131418075372562 0 0.0019158104337736253 -0.0011343950080811315 0 0.0026926347177692773 -0.00083261791411768369 0 0.0026895749508038277 -0.00083485528332800268 0 0.0026878944925305573 -0.00083328960701815468 0 0.0026895749508038277 -0.00083485528332800268 0 0.0026877549946349344 -0.0008327786628941796 0 0.0026854508431352832 -0.00083340089086734927 0 0.0019158104337736253 -0.0011343950080811315 0 0.0021726977960387873 -0.00099980318759843056 0 0.0019330732945192224 -0.0011360778372709857 0 0.0019158104337736253 -0.0011343950080811315 0 0.0022068617415263369 -0.00079287733466147604 0 0.0021726977960387873 -0.00099980318759843056 0 0.0029422050418871099 -0.00047289255845776033 0 0.0028849398577650118 -0.00041141134812310996 0 0.002973278983375272 -0.00039691790032850711 0 0.0012733420727773191 -0.0012592795529705874 0 0.0014178416354246387 -0.0012359198056276447 0 0.0013360563490982043 -0.0011730004105399727 0 0.0014603474995571021 -0.0012287421655817815 0 0.0014181495728691385 -0.0012362956998233879 0 0.0013981817437923227 -0.0011880367591934112 0 0.0013464834498590629 -0.0010578419265179469 0 0.0013981817437923227 -0.0011880367591934112 0 0.0013360563490982043 -0.0011730004105399727 0 0.0014178416354246387 -0.0012359198056276447 0 0.0013981817437923227 -0.0011880367591934112 0 0.0013360563490982043 -0.0011730004105399727 0 0.0013464834498590629 -0.0010578419265179469 0 0.0014603474995571021 -0.0012287421655817815 0 0.0013981817437923227 -0.0011880367591934112 0 0.0021726977960387873 -0.00099980318759843056 0 0.0021553398583176371 -0.0009988265589339592 0 0.0011889108209799041 -0.0013145073381944064 0 0.0019158104337736253 -0.0011343950080811315 0 0.0014592478245751737 -0.0016168297502386695 0 0.0020414178810600229 -0.00131418075372562 0 0.00067145600030226393 -0.0020121774329190018 0 0.00083776963768691123 -0.0023617839142263922 0 0.000627231825698179 -0.0023987269854377391 0 0.0003813490814190293 -0.0020322372338942522 0 0.00067145600030226393 -0.0020121774329190018 0 0.000627231825698179 -0.0023987269854377391 0 0.00066071776510216414 -1.939008179658371e-05 0 0.00098700249544555964 1.4972694618798357e-07 0 0.00081969938123349325 -0.00014994870803912593 0 0.00098700249544555964 1.4972694618798357e-07 0 0.00081969938123349325 -0.00014994870803912593 0 0.0012866277086822141 -6.2788106981954566e-07 0 0.0011910439199149696 -0.00011301013072595937 0 0.00098193127594851178 -0.00019192471258504086 0 0.00066071776510216414 -1.939008179658371e-05 0 0.00081969938123349325 -0.00014994870803912593 0 0.00054708085237403087 -0.00013981286520070387 0 0.0011910439199149696 -0.00011301013072595937 0 0.0013779804737465873 -0.00030890287220137515 0 0.0010823287924816747 -0.0003274426084000486 0 0.0011989873143286034 -0.00037854180117698671 0 0.0012346279417912447 -0.00035110208852036985 0 0.00098193127594851178 -0.00019192471258504086 0 0.00096571081817588343 -0.0003046985079313973 0 0.0011989873143286034 -0.00037854180117698671 0 0.0012346279417912447 -0.00035110208852036985 0 0.0013157641921290738 -0.00042927926336666541 0 0.00054708085237403087 -0.00013981286520070387 0 0.0004791689750006974 -5.444317903725031e-05 0 0.00042498135621950165 -9.1278181782330022e-05 0 0.00066071776510216414 -1.939008179658371e-05 0 0.00054708085237403087 -0.00013981286520070387 0 0.0004791689750006974 -5.444317903725031e-05 0 0.00066071776510216414 -1.939008179658371e-05 0 0.00041409770771133701 -2.5138196779081418e-05 0 0.00048035201065679107 8.0339380045635137e-06 0 0.00066071776510216414 -1.939008179658371e-05 0 0.0004791689750006974 -5.444317903725031e-05 0 0.00041409770771133701 -2.5138196779081418e-05 0 0.0004791689750006974 -5.444317903725031e-05 0 0.00041409770771133701 -2.5138196779081418e-05 0 0.00041150009608482724 -3.3699806833651543e-05 0 0.00044277827704561795 -0.00024045392968107871 0 0.00046274136195614157 -0.0002963919987856009 0 0.00041409770771133701 -2.5138196779081418e-05 0 0.00025184482495641664 3.1840333648216247e-05 0 0.00018739936289480832 -4.3286894359136848e-06 0 0.00041409770771133701 -2.5138196779081418e-05 0 0.00048035201065679107 8.0339380045635137e-06 0 0.00031241333319762785 3.9746543363662822e-05 0 0.00066071776510216414 -1.939008179658371e-05 0 0.00048035201065679107 8.0339380045635137e-06 0 0.00068657637305046665 2.1178934178005406e-08 0 0.00066071776510216414 -1.939008179658371e-05 0 0.00098700249544555964 1.4972694618798357e-07 0 0.00068657637305046665 2.1178934178005406e-08 0 0.00068657637305046665 2.1178934178005406e-08 0 0.00034313006592819192 3.7434127589015533e-05 0 0.00038632874385095389 7.93690036189556e-08 0 0.00048035201065679107 8.0339380045635137e-06 0 0.00068657637305046665 2.1178934178005406e-08 0 0.00034313006592819192 3.7434127589015533e-05 0 0.00038632874385095389 7.93690036189556e-08 0 8.7959140571249725e-05 4.8252567700918032e-05 0 8.6028091183741869e-05 6.3083749480517159e-08 0 0.00034313006592819192 3.7434127589015533e-05 0 0.00038632874385095389 7.93690036189556e-08 0 8.7959140571249725e-05 4.8252567700918032e-05 0 0.00034313006592819192 3.7434127589015533e-05 0 8.7959140571249725e-05 4.8252567700918032e-05 0 0.00018753041965907836 6.5330167735722786e-05 0 3.590616065757071e-06 5.9726746853953523e-05 0 4.976012452316779e-05 6.7380588487523762e-05 0 6.9923721074710359e-05 7.6134174430678004e-05 0 4.976012452316779e-05 6.7380588487523762e-05 0 0.00013039503341018068 7.3979863909300709e-05 0 6.9923721074710359e-05 7.6134174430678004e-05 0 -2.326905639762064e-05 5.6926856854243845e-05 0 8.7959140571249725e-05 4.8252567700918032e-05 0 4.976012452316779e-05 6.7380588487523762e-05 0 8.7959140571249725e-05 4.8252567700918032e-05 0 4.976012452316779e-05 6.7380588487523762e-05 0 0.00018753041965907836 6.5330167735722786e-05 0 0.00018753041965907836 6.5330167735722786e-05 0 0.00013039503341018068 7.3979863909300709e-05 0 0.00019423726379093285 6.2241311374927309e-05 0 4.976012452316779e-05 6.7380588487523762e-05 0 0.00018753041965907836 6.5330167735722786e-05 0 0.00013039503341018068 7.3979863909300709e-05 0 0.00018753041965907836 6.5330167735722786e-05 0 0.00019423726379093285 6.2241311374927309e-05 0 0.00031241333319762785 3.9746543363662822e-05 0 0.00034313006592819192 3.7434127589015533e-05 0 0.00018753041965907836 6.5330167735722786e-05 0 0.00031241333319762785 3.9746543363662822e-05 0 0.00048035201065679107 8.0339380045635137e-06 0 0.00034313006592819192 3.7434127589015533e-05 0 0.00031241333319762785 3.9746543363662822e-05 0 0.00019423726379093285 6.2241311374927309e-05 0 0.00031241333319762785 3.9746543363662822e-05 0 0.00025184482495641664 3.1840333648216247e-05 0 0.00041409770771133701 -2.5138196779081418e-05 0 0.00031241333319762785 3.9746543363662822e-05 0 0.00025184482495641664 3.1840333648216247e-05 0 0.00025184482495641664 3.1840333648216247e-05 0 0.00015663880600445679 5.3661284054589881e-05 0 0.00018739936289480832 -4.3286894359136848e-06 0 0.00013319698235933166 2.4239567222975481e-05 0 0.00011577707861473178 -1.608730189865699e-05 0 0.00018739936289480832 -4.3286894359136848e-06 0 0.00013319698235933166 2.4239567222975481e-05 0 0.00015663880600445679 5.3661284054589881e-05 0 0.00010545288174155724 4.9519074423168167e-05 0 0.00013319698235933166 2.4239567222975481e-05 0 0.00015663880600445679 5.3661284054589881e-05 0 0.00018739936289480832 -4.3286894359136848e-06 0 0.00013319698235933166 2.4239567222975481e-05 0 0.0001019306689511151 2.4604317303700733e-05 0 0.00011577707861473178 -1.608730189865699e-05 0 0.00013319698235933166 2.4239567222975481e-05 0 0.00010545288174155724 4.9519074423168167e-05 0 0.0001019306689511151 2.4604317303700733e-05 0 0.00010772306756846973 6.776738146672632e-05 0 0.00015663880600445679 5.3661284054589881e-05 0 0.00010545288174155724 4.9519074423168167e-05 0 0.00010772306756846973 6.776738146672632e-05 0 0.00015663880600445679 5.3661284054589881e-05 0 0.00012591892724069423 7.366216471512873e-05 0 0.00019423726379093285 6.2241311374927309e-05 0 0.00025184482495641664 3.1840333648216247e-05 0 0.00015663880600445679 5.3661284054589881e-05 0 0.00019423726379093285 6.2241311374927309e-05 0 0.00015663880600445679 5.3661284054589881e-05 0 0.00012591892724069423 7.366216471512873e-05 0 0.00013039503341018068 7.3979863909300709e-05 0 0.00019423726379093285 6.2241311374927309e-05 0 0.00012591892724069423 7.366216471512873e-05 0 0.00013039503341018068 7.3979863909300709e-05 0 0.00012591892724069423 7.366216471512873e-05 0 6.9923721074710359e-05 7.6134174430678004e-05 0 0.00012591892724069423 7.366216471512873e-05 0 9.6646024003611784e-05 7.6171903203432076e-05 0 6.9923721074710359e-05 7.6134174430678004e-05 0 0.00010772306756846973 6.776738146672632e-05 0 0.00012591892724069423 7.366216471512873e-05 0 9.6646024003611784e-05 7.6171903203432076e-05 0 0.00010772306756846973 6.776738146672632e-05 0 9.6646024003611784e-05 7.6171903203432076e-05 0 8.6852655691123875e-05 6.9255104164294784e-05 0 9.6646024003611784e-05 7.6171903203432076e-05 0 8.2352999172658213e-05 7.268175372792288e-05 0 8.6852655691123875e-05 6.9255104164294784e-05 0 9.6646024003611784e-05 7.6171903203432076e-05 0 8.2352999172658213e-05 7.268175372792288e-05 0 6.9923721074710359e-05 7.6134174430678004e-05 0 3.590616065757071e-06 5.9726746853953523e-05 0 8.2352999172658213e-05 7.268175372792288e-05 0 6.9923721074710359e-05 7.6134174430678004e-05 0 7.0860807361076454e-05 7.4622629256964397e-05 0 1.8426758629925077e-05 4.9433362603597924e-05 0 7.790593698704063e-05 5.6735899393337256e-05 0 1.8426758629925077e-05 4.9433362603597924e-05 0 7.790593698704063e-05 5.6735899393337256e-05 0 2.045470525738556e-05 1.2008244697111703e-07 0 1.8426758629925077e-05 4.9433362603597924e-05 0 2.045470525738556e-05 1.2008244697111703e-07 0 -1.7451260382712404e-05 6.9685921148627755e-06 0 7.0860807361076454e-05 7.4622629256964397e-05 0 8.2352999172658213e-05 7.268175372792288e-05 0 7.790593698704063e-05 5.6735899393337256e-05 0 8.2352999172658213e-05 7.268175372792288e-05 0 7.790593698704063e-05 5.6735899393337256e-05 0 8.6852655691123875e-05 6.9255104164294784e-05 0 7.790593698704063e-05 5.6735899393337256e-05 0 8.6852655691123875e-05 6.9255104164294784e-05 0 7.666912718644163e-05 6.5494248452723164e-05 0 0.00010772306756846973 6.776738146672632e-05 0 8.6852655691123875e-05 6.9255104164294784e-05 0 8.5585588454009792e-05 6.0591797934587263e-05 0 8.6852655691123875e-05 6.9255104164294784e-05 0 7.666912718644163e-05 6.5494248452723164e-05 0 8.5585588454009792e-05 6.0591797934587263e-05 0 7.790593698704063e-05 5.6735899393337256e-05 0 7.666912718644163e-05 6.5494248452723164e-05 0 7.0778633044831947e-05 6.740953159058449e-05 0 2.045470525738556e-05 1.2008244697111703e-07 0 4.8094701538939825e-05 -8.5753954256924026e-05 0 -1.4691663011767028e-05 -3.8665347695436309e-05 0 7.790593698704063e-05 5.6735899393337256e-05 0 2.045470525738556e-05 1.2008244697111703e-07 0 4.8094701538939825e-05 -8.5753954256924026e-05 0 9.9146693395274767e-05 -2.3234991212671893e-05 0 8.6746171455854911e-05 -9.3736685824246052e-05 0 7.666912718644163e-05 6.5494248452723164e-05 0 7.0805697471843285e-05 6.6837056928528783e-05 0 7.0778633044831947e-05 6.740953159058449e-05 0 7.666912718644163e-05 6.5494248452723164e-05 0 7.0805697471843285e-05 6.6837056928528783e-05 0 7.6506557904004166e-05 6.3546682048386578e-05 0 6.1450439977102782e-05 6.65776652849378e-05 0 7.0021654943264701e-05 5.063172865628281e-05 0 2.1677305038781387e-05 1.3020505188685968e-05 0 8.6746171455854911e-05 -9.3736685824246052e-05 0 0.00013320539121456859 -0.00016606479953993497 0 8.6805352158129744e-05 -9.3267212921266813e-05 0 8.6746171455854911e-05 -9.3736685824246052e-05 0 7.0805697471843285e-05 6.6837056928528783e-05 0 7.0021654943264701e-05 5.063172865628281e-05 0 7.6506557904004166e-05 6.3546682048386578e-05 0 7.0805697471843285e-05 6.6837056928528783e-05 0 6.1450439977102782e-05 6.65776652849378e-05 0 7.0021654943264701e-05 5.063172865628281e-05 0 0.00010772306756846973 6.776738146672632e-05 0 8.5585588454009792e-05 6.0591797934587263e-05 0 0.00010545288174155724 4.9519074423168167e-05 0 7.0021654943264701e-05 5.063172865628281e-05 0 8.5585588454009792e-05 6.0591797934587263e-05 0 7.6506557904004166e-05 6.3546682048386578e-05 0 7.666912718644163e-05 6.5494248452723164e-05 0 8.5585588454009792e-05 6.0591797934587263e-05 0 7.6506557904004166e-05 6.3546682048386578e-05 0 7.0021654943264701e-05 5.063172865628281e-05 0 8.5585588454009792e-05 6.0591797934587263e-05 0 8.6534587163308963e-05 4.3305008822882982e-05 0 7.0021654943264701e-05 5.063172865628281e-05 0 8.6534587163308963e-05 4.3305008822882982e-05 0 6.9347127468569471e-05 2.4096945238218715e-05 0 8.6534587163308963e-05 4.3305008822882982e-05 0 0.00010545288174155724 4.9519074423168167e-05 0 0.0001019306689511151 2.4604317303700733e-05 0 8.5585588454009792e-05 6.0591797934587263e-05 0 8.6534587163308963e-05 4.3305008822882982e-05 0 0.00010545288174155724 4.9519074423168167e-05 0 0.0001019306689511151 2.4604317303700733e-05 0 6.2796324331603796e-05 -2.011010355710818e-05 0 0.00011577707861473178 -1.608730189865699e-05 0 8.6534587163308963e-05 4.3305008822882982e-05 0 0.0001019306689511151 2.4604317303700733e-05 0 6.9347127468569471e-05 2.4096945238218715e-05 0 0.0001019306689511151 2.4604317303700733e-05 0 6.9347127468569471e-05 2.4096945238218715e-05 0 6.2796324331603796e-05 -2.011010355710818e-05 0 6.9347127468569471e-05 2.4096945238218715e-05 0 6.2796324331603796e-05 -2.011010355710818e-05 0 2.1677305038781387e-05 1.3020505188685968e-05 0 7.0021654943264701e-05 5.063172865628281e-05 0 6.9347127468569471e-05 2.4096945238218715e-05 0 2.1677305038781387e-05 1.3020505188685968e-05 0 6.2796324331603796e-05 -2.011010355710818e-05 0 2.9068572068920616e-05 -3.6219200799209325e-05 0 2.1677305038781387e-05 1.3020505188685968e-05 0 6.2796324331603796e-05 -2.011010355710818e-05 0 2.9068572068920616e-05 -3.6219200799209325e-05 0 4.4698212894622549e-05 -8.4210199579089592e-05 0 6.2796324331603796e-05 -2.011010355710818e-05 0 4.4698212894622549e-05 -8.4210199579089592e-05 0 8.9357473568490119e-05 -6.3266553324270531e-05 0 0.00071617404137162811 -0.00070691805972592945 0 0.0009703158824772199 -0.00081732871064409151 0 0.00060049206202216919 -0.00093914954486093514 0 0.00071617404137162811 -0.00070691805972592945 0 0.00060049206202216919 -0.00093914954486093514 0 0.00053827948670719561 -0.00077589434580414569 0 0.00043446103469356819 -0.00037021683188971665 0 0.00073744676016057121 -0.00042777188956535814 0 4.4698212894622549e-05 -8.4210199579089592e-05 0 0.00010339410301345595 -0.00012120145778017814 0 8.9357473568490119e-05 -6.3266553324270531e-05 0 0.00010339410301345595 -0.00012120145778017814 0 8.9357473568490119e-05 -6.3266553324270531e-05 0 0.00013755377273470351 -6.4610356977168155e-05 0 6.2796324331603796e-05 -2.011010355710818e-05 0 8.9357473568490119e-05 -6.3266553324270531e-05 0 0.00011577707861473178 -1.608730189865699e-05 0 8.9357473568490119e-05 -6.3266553324270531e-05 0 0.00011577707861473178 -1.608730189865699e-05 0 0.00013755377273470351 -6.4610356977168155e-05 0 0.00011577707861473178 -1.608730189865699e-05 0 0.00013755377273470351 -6.4610356977168155e-05 0 0.00018739936289480832 -4.3286894359136848e-06 0 0.00013755377273470351 -6.4610356977168155e-05 0 0.00018739936289480832 -4.3286894359136848e-06 0 0.00020975195398789553 -0.00010823027187568348 0 0.00041409770771133701 -2.5138196779081418e-05 0 0.00018739936289480832 -4.3286894359136848e-06 0 0.00020975195398789553 -0.00010823027187568348 0 0.00073744676016057121 -0.00042777188956535814 0 0.00046274136195614157 -0.0002963919987856009 0 0.00010339410301345595 -0.00012120145778017814 0 0.00013755377273470351 -6.4610356977168155e-05 0 0.00020975195398789553 -0.00010823027187568348 0 0.00035167420939074959 -5.5560360232484965e-05 0 0.00041150009608482724 -3.3699806833651543e-05 0 0.00037287312722895222 -6.4301766794557422e-05 0 0.0011786035175372523 -0.00052029177659518289 0 0.00096571081817588343 -0.0003046985079313973 0 0.0016004704960622166 -0.0007302045316589053 0 0.0015542674466894899 -0.00062085866132874476 0 0.001672297506553346 -0.00063845429930002259 0 0.0014319058698188147 -0.00048023758222423936 0 0.0013157641921290738 -0.00042927926336666541 0 0.0013870367093079157 -0.00037462097150994854 0 0.0011786035175372523 -0.00052029177659518289 0 0.0017748015072507454 -0.00061370670336672445 0 0.00041150009608482724 -3.3699806833651543e-05 0 0.00037287312722895222 -6.4301766794557422e-05 0 0.00042498135621950165 -9.1278181782330022e-05 0 0.0004791689750006974 -5.444317903725031e-05 0 0.00041150009608482724 -3.3699806833651543e-05 0 0.00042498135621950165 -9.1278181782330022e-05 0 0.0013779804737465873 -0.00030890287220137515 0 0.0017748015072507454 -0.00061370670336672445 0 0.0012346279417912447 -0.00035110208852036985 0 0.0013157641921290738 -0.00042927926336666541 0 0.0013870367093079157 -0.00037462097150994854 0 0.0017748015072507454 -0.00061370670336672445 0 0.0022184750348419506 -0.00076773432731073381 0 0.0031243552853902402 -0.0011416980042997823 0 0.0033066445382905706 -0.0010293012088007278 0 0.0031433078431947633 -0.00099376902989729041 0 0.0028941291917943387 -0.0011138801906867067 0 0.0031243552853902402 -0.0011416980042997823 0 0.0031433078431947633 -0.00099376902989729041 0 0.0022184750348419506 -0.00076773432731073381 0 0.0023036606493105779 -0.00083046421461083295 0 0.0031243552853902402 -0.0011416980042997823 0 0.003346606155122838 -0.001160413301675103 0 0.0033066445382905706 -0.0010293012088007278 0 0.000980155746458346 -0.00081592154463048009 0 0.00071651570659428507 -0.00093701833603457893 0 0.00060049206202216919 -0.00093914954486093514 0 0.001672297506553346 -0.00063845429930002259 0 0.0017906340112520919 -0.00065543978849553044 0 0.0017551903844728188 -0.00070178773382639163 0 0.00073744676016057121 -0.00042777188956535814 0 0.00067036541269435777 -0.0005743544985151724 0 0.000980155746458346 -0.00081592154463048009 0 0.0011008245172229498 -0.00086647733177066383 0 0.00071651570659428507 -0.00093701833603457893 0 0.0011786035175372523 -0.00052029177659518289 0 0.0013241378087712153 -0.00072623865061496851 0 0.0016004704960622166 -0.0007302045316589053 0 0.001672297506553346 -0.00063845429930002259 0 0.0017551903844728188 -0.00070178773382639163 0 0.00073744676016057121 -0.00042777188956535814 0 0.0011786035175372523 -0.00052029177659518289 0 0.001884310744028031 -0.00080167660748680313 0 0.0016798540064649546 -0.00074677328521771799 0 0.00033661371648665623 -0.0010076260600975231 0 0.00024202155052326289 -0.00086522819973105028 0 0.00037450513681551505 -0.00078728754008053619 0 0.0019470635623792677 -0.00080581753611753319 0 0.0019218848172868261 -0.00080955852543474144 0 0.0018995101620851989 -0.00079690705506030529 0 0.00033661371648665623 -0.0010076260600975231 0 0.00024202155052326289 -0.00086522819973105028 0 0.00011189313903680073 -0.00097291980043363608 0 0.001884310744028031 -0.00080167660748680313 0 0.0020702336907469573 -0.0008349569882656466 0 0.0020702336907469573 -0.0008349569882656466 0 0.0021283815661016776 -0.00086031405367817024 0 0.0035553221826156089 -0.0011741397376371478 0 0.0036386732243940197 -0.0011549328330856157 0 0.0035946032952604732 -0.0011317547481924553 0 0.00033661371648665623 -0.0010076260600975231 0 0.00046251700163211167 -0.00087751131485122092 0 0.00037450513681551505 -0.00078728754008053619 0 0.0023036606493105779 -0.00083046421461083295 0 0.001884310744028031 -0.00080167660748680313 0 0.0017906340112520919 -0.00065543978849553044 0 0.0017551903844728188 -0.00070178773382639163 0 0.0019091604894535227 -0.00067206553365637073 0 0.00033661371648665623 -0.0010076260600975231 0 0.00046251700163211167 -0.00087751131485122092 0 0.00060049206202216919 -0.00093914954486093514 0 0.0013241378087712153 -0.00072623865061496851 0 0.001884310744028031 -0.00080167660748680313 0 0.00071651570659428507 -0.00093701833603457893 0 0.00033661371648665623 -0.0010076260600975231 0 0.00060049206202216919 -0.00093914954486093514 0 0.00046251700163211167 -0.00087751131485122092 0 0.00060049206202216919 -0.00093914954486093514 0 0.00053827948670719561 -0.00077589434580414569 0 0.0033066445382905706 -0.0010293012088007278 0 0.0034862465373934975 -0.00107292933293215 0 0.0034657634646464769 -0.00093052636396675603 0 0.003346606155122838 -0.001160413301675103 0 0.0035553221826156089 -0.0011741397376371478 0 0.0034862465373934975 -0.00107292933293215 0 0.003346606155122838 -0.001160413301675103 0 0.0033066445382905706 -0.0010293012088007278 0 0.0034862465373934975 -0.00107292933293215 0 0.0034862465373934975 -0.00107292933293215 0 0.0035894002626248233 -0.0010132034554212748 0 0.0034657634646464769 -0.00093052636396675603 0 0.0035553221826156089 -0.0011741397376371478 0 0.0034862465373934975 -0.00107292933293215 0 0.0035946032952604732 -0.0011317547481924553 0 0.0034862465373934975 -0.00107292933293215 0 0.0035894002626248233 -0.0010132034554212748 0 0.0035946032952604732 -0.0011317547481924553 0 0.0036383720188635318 -0.001148901866769775 0 0.0035946032952604732 -0.0011317547481924553 0 0.0036547572101601751 -0.0010667371867343161 0 0.0035894002626248233 -0.0010132034554212748 0 0.0035946032952604732 -0.0011317547481924553 0 0.0036547572101601751 -0.0010667371867343161 0 0.0035894002626248233 -0.0010132034554212748 0 0.0036547572101601751 -0.0010667371867343161 0 0.0037063127332460847 -0.00097892524566451701 0 0.0036383720188635318 -0.001148901866769775 0 0.0037273341559882936 -0.001054160863588079 0 0.0038154745841859667 -0.0010921816116384365 0 0.0020702336907469573 -0.0008349569882656466 0 0.002515826708579224 -0.00079438897335844195 0 0.0036547572101601751 -0.0010667371867343161 0 0.0037273341559882936 -0.001054160863588079 0 0.0037063127332460847 -0.00097892524566451701 0 0.0037273341559882936 -0.001054160863588079 0 0.003818365934006925 -0.00098757502006959885 0 0.0037063127332460847 -0.00097892524566451701 0 0.0037273341559882936 -0.001054160863588079 0 0.003818365934006925 -0.00098757502006959885 0 0.0038154745841859667 -0.0010921816116384365 0 0.0036383720188635318 -0.001148901866769775 0 0.0036547572101601751 -0.0010667371867343161 0 0.0037273341559882936 -0.001054160863588079 0 0.002515826708579224 -0.00079438897335844195 0 0.0024924549392132782 -0.00075458007249343771 0 0.0018743865200086618 -0.00087500824211109065 0 0.0018591168717798428 -0.00087034031462091791 0 0.0018442040961374664 -0.00087772305629730987 0 0.0039194884285923357 -0.00099188538851203382 0 0.0038154745841859667 -0.0010921816116384365 0 0.0039724155363954575 -0.0010311622438385444 0 0.0039194884285923357 -0.00099188538851203382 0 0.003818365934006925 -0.00098757502006959885 0 0.0038963709831561903 -0.00094218268803960203 0 0.0039194884285923357 -0.00099188538851203382 0 0.003818365934006925 -0.00098757502006959885 0 0.0038154745841859667 -0.0010921816116384365 0 0.0016798540064649546 -0.00074677328521771799 0 0.0010699565221720538 -0.00061889617681858654 0 0.0019044742708576206 -0.00085909133067348423 0 0.0018808367351857524 -0.0008538912766823107 0 0.0018414488852909025 -0.00081962764908777069 0 0.0018607774766363639 -0.00085407827542859668 0 0.0018808367351857524 -0.0008538912766823107 0 0.0018414488852909025 -0.00081962764908777069 0 0.0018591168717798428 -0.00087034031462091791 0 0.0018607774766363639 -0.00085407827542859668 0 0.0018456173689012079 -0.00084650716285501997 0 0.0018591168717798428 -0.00087034031462091791 0 0.0018456173689012079 -0.00084650716285501997 0 0.0018175565960382931 -0.00084063679411363961 0 0.0018743865200086618 -0.00087500824211109065 0 0.0018591168717798428 -0.00087034031462091791 0 0.0018607774766363639 -0.00085407827542859668 0 0.0018743865200086618 -0.00087500824211109065 0 0.0018607774766363639 -0.00085407827542859668 0 0.0018808367351857524 -0.0008538912766823107 0 0.0018607774766363639 -0.00085407827542859668 0 0.0018456173689012079 -0.00084650716285501997 0 0.0018414488852909025 -0.00081962764908777069 0 0.00024202155052326289 -0.00086522819973105028 0 0.00011189313903680073 -0.00097291980043363608 0 0.00012964314533439608 -0.00072292699206281236 0 0.001923328998890948 -0.00086858930129977291 0 0.0018743865200086618 -0.00087500824211109065 0 0.0019042966389938435 -0.00085776695760940512 0 0.0020702336907469573 -0.0008349569882656466 0 0.0016798540064649546 -0.00074677328521771799 0 0.0018743865200086618 -0.00087500824211109065 0 0.0019042966389938435 -0.00085776695760940512 0 0.0018808367351857524 -0.0008538912766823107 0 0.0016798540064649546 -0.00074677328521771799 0 0.0017113605290657269 -0.00075459041483451643 0 0.00011189313903680073 -0.00097291980043363608 0 0.00012964314533439608 -0.00072292699206281236 0 -0.00025229184781180402 -0.0007785205509691968 0 0.00012964314533439608 -0.00072292699206281236 0 -0.00025229184781180402 -0.0007785205509691968 0 -7.1440060285131197e-05 -0.00056099747063688464 0 -7.1440060285131197e-05 -0.00056099747063688464 0 -0.00010139405625639097 -0.00036275339819876509 0 -0.00030702294653916666 -0.00046230535451491004 0 -0.00025229184781180402 -0.0007785205509691968 0 -7.1440060285131197e-05 -0.00056099747063688464 0 -0.00030702294653916666 -0.00046230535451491004 0 7.4108824270489174e-05 -0.00031665199024596166 0 -8.9329567251392124e-05 -0.00027371201062535759 0 0.00012964314533439608 -0.00072292699206281236 0 -7.1440060285131197e-05 -0.00056099747063688464 0 0.00017778290361639764 -0.00047748760768310481 0 -7.1440060285131197e-05 -0.00056099747063688464 0 0.00017778290361639764 -0.00047748760768310481 0 -0.00010139405625639097 -0.00036275339819876509 0 0.00017778290361639764 -0.00047748760768310481 0 0.00027951200697434362 -0.0006647427144466832 0 0.00045504252396532974 -0.00059588639146701224 0 7.4108824270489174e-05 -0.00031665199024596166 0 0.00019619213662589873 -0.00032354436415528757 0 -1.6895734820681056e-05 -0.00024893397807532837 0 5.047516749915942e-05 -0.00027810964560479712 0 2.7138196108237989e-05 -0.00021819333912564848 0 0.00012964314533439608 -0.00072292699206281236 0 0.00017778290361639764 -0.00047748760768310481 0 0.00027951200697434362 -0.0006647427144466832 0 0.00027951200697434362 -0.0006647427144466832 0 0.00037450513681551505 -0.00078728754008053619 0 0.00045504252396532974 -0.00059588639146701224 0 0.00024202155052326289 -0.00086522819973105028 0 0.00027951200697434362 -0.0006647427144466832 0 0.00037450513681551505 -0.00078728754008053619 0 0.00024202155052326289 -0.00086522819973105028 0 0.00012964314533439608 -0.00072292699206281236 0 0.00027951200697434362 -0.0006647427144466832 0 0.00071617404137162811 -0.00070691805972592945 0 0.00053827948670719561 -0.00077589434580414569 0 0.00045826091418572435 -0.00059308048449807898 0 0.00043446103469356819 -0.00037021683188971665 0 0.00019619213662589873 -0.00032354436415528757 0 0.00046251700163211167 -0.00087751131485122092 0 0.00037450513681551505 -0.00078728754008053619 0 0.00053827948670719561 -0.00077589434580414569 0 0.00037450513681551505 -0.00078728754008053619 0 0.00053827948670719561 -0.00077589434580414569 0 0.00045826091418572435 -0.00059308048449807898 0 0.0001903757830718968 -0.0004132776906038408 0 0.00019619213662589873 -0.00032354436415528757 0 5.047516749915942e-05 -0.00027810964560479712 0 8.1421781982441045e-05 -0.00020536333524684517 0 2.7138196108237989e-05 -0.00021819333912564848 0 2.9068572068920616e-05 -3.6219200799209325e-05 0 4.4698212894622549e-05 -8.4210199579089592e-05 0 -1.2217446025554364e-05 -5.58651094057419e-05 0 2.9068572068920616e-05 -3.6219200799209325e-05 0 -1.2217446025554364e-05 -5.58651094057419e-05 0 2.1677305038781387e-05 1.3020505188685968e-05 0 0.00019619213662589873 -0.00032354436415528757 0 0.00013320539121456859 -0.00016606479953993497 0 8.1421781982441045e-05 -0.00020536333524684517 0 2.7138196108237989e-05 -0.00021819333912564848 0 2.4669086826476182e-05 -0.00015194369562563533 0 -1.6895734820681056e-05 -0.00024893397807532837 0 2.7138196108237989e-05 -0.00021819333912564848 0 -1.2470330048855095e-05 -0.00019337308837428304 0 2.7138196108237989e-05 -0.00021819333912564848 0 -1.2470330048855095e-05 -0.00019337308837428304 0 2.4669086826476182e-05 -0.00015194369562563533 0 -8.8968817160692932e-05 -0.00013081274910827612 0 -5.1036795660343456e-05 -8.4786400071223787e-05 0 -0.00021130478020453202 -6.047876685759858e-05 0 -1.2470330048855095e-05 -0.00019337308837428304 0 2.4669086826476182e-05 -0.00015194369562563533 0 -6.3772689227429563e-05 -0.00017089948260968501 0 4.8094701538939825e-05 -8.5753954256924026e-05 0 -8.8968817160692932e-05 -0.00013081274910827612 0 -5.1036795660343456e-05 -8.4786400071223787e-05 0 0.00011246602237381588 -0.00013285141060688613 0 8.1421781982441045e-05 -0.00020536333524684517 0 2.4669086826476182e-05 -0.00015194369562563533 0 8.6746171455854911e-05 -9.3736685824246052e-05 0 -3.6721497505096882e-05 -0.0001384096969015849 0 4.8094701538939825e-05 -8.5753954256924026e-05 0 -5.1036795660343456e-05 -8.4786400071223787e-05 0 -1.4691663011767028e-05 -3.8665347695436309e-05 0 2.045470525738556e-05 1.2008244697111703e-07 0 -1.4691663011767028e-05 -3.8665347695436309e-05 0 -1.7451260382712404e-05 6.9685921148627755e-06 0 -1.4691663011767028e-05 -3.8665347695436309e-05 0 -5.5088476311212042e-05 -1.7427858008784038e-05 0 -1.7451260382712404e-05 6.9685921148627755e-06 0 -5.1036795660343456e-05 -8.4786400071223787e-05 0 -5.5088476311212042e-05 -1.7427858008784038e-05 0 -0.00011848979273592496 -2.0310903738324773e-05 0 -5.1036795660343456e-05 -8.4786400071223787e-05 0 -1.4691663011767028e-05 -3.8665347695436309e-05 0 -5.5088476311212042e-05 -1.7427858008784038e-05 0 -0.00013845419219563559 -6.6978925208612179e-05 0 -0.0002323124126798874 -4.7563434005009589e-05 0 -5.1036795660343456e-05 -8.4786400071223787e-05 0 -0.00011848979273592496 -2.0310903738324773e-05 0 -0.00020899504660403521 -5.2407343209800493e-05 0 -5.5088476311212042e-05 -1.7427858008784038e-05 0 -0.00011848979273592496 -2.0310903738324773e-05 0 -9.7732324401905246e-05 2.0715019712251915e-05 0 -9.7732324401905246e-05 2.0715019712251915e-05 0 -9.8034479071879094e-05 6.5681643187806113e-05 0 -5.2245653113546018e-05 4.3261482845074563e-05 0 -0.00015138325633374153 0.00012003467186699019 0 -0.0001636352486154696 4.0723039511738854e-05 0 -9.8034479071879094e-05 6.5681643187806113e-05 0 -9.7732324401905246e-05 2.0715019712251915e-05 0 -0.0001636352486154696 4.0723039511738854e-05 0 -9.8034479071879094e-05 6.5681643187806113e-05 0 -0.00011848979273592496 -2.0310903738324773e-05 0 -9.7732324401905246e-05 2.0715019712251915e-05 0 -0.0001636352486154696 4.0723039511738854e-05 0 -4.1692302319655075e-05 0.00011516540137223848 0 -9.8034479071879094e-05 6.5681643187806113e-05 0 -5.2245653113546018e-05 4.3261482845074563e-05 0 2.7348352013161729e-05 8.5978051782004651e-05 0 1.8426758629925077e-05 4.9433362603597924e-05 0 -5.2245653113546018e-05 4.3261482845074563e-05 0 1.8426758629925077e-05 4.9433362603597924e-05 0 -5.2245653113546018e-05 4.3261482845074563e-05 0 -1.7451260382712404e-05 6.9685921148627755e-06 0 -5.5088476311212042e-05 -1.7427858008784038e-05 0 -5.2245653113546018e-05 4.3261482845074563e-05 0 -1.7451260382712404e-05 6.9685921148627755e-06 0 -5.5088476311212042e-05 -1.7427858008784038e-05 0 -9.7732324401905246e-05 2.0715019712251915e-05 0 -5.2245653113546018e-05 4.3261482845074563e-05 0 -0.0003490155236480933 0.00012969179003278453 0 -0.00026780885597492508 3.3092372288724311e-05 0 -0.00035895468947493443 -2.1550519720235966e-05 0 -0.00020837461833708349 0.00011114766399574317 0 -0.0001636352486154696 4.0723039511738854e-05 0 -0.00026780885597492508 3.3092372288724311e-05 0 -0.0001636352486154696 4.0723039511738854e-05 0 -0.00026780885597492508 3.3092372288724311e-05 0 -0.00020899504660403521 -5.2407343209800493e-05 0 -0.00011848979273592496 -2.0310903738324773e-05 0 -0.0001636352486154696 4.0723039511738854e-05 0 -0.00020899504660403521 -5.2407343209800493e-05 0 -0.0002323124126798874 -4.7563434005009589e-05 0 -0.00043308242490922624 -4.1297555559137331e-06 0 -0.00021130478020453202 -6.047876685759858e-05 0 -0.00034000234060483178 -0.00012130595100316813 0 -0.0004072589818589537 -1.4991282582125432e-05 0 -0.00026780885597492508 3.3092372288724311e-05 0 -0.00020899504660403521 -5.2407343209800493e-05 0 -0.00035895468947493443 -2.1550519720235966e-05 0 -0.00034000234060483178 -0.00012130595100316813 0 -0.00023908508026168257 -0.00018284006462886406 0 -0.00042095128235963977 -0.00024763185321686131 0 -0.00021130478020453202 -6.047876685759858e-05 0 -0.00034000234060483178 -0.00012130595100316813 0 -0.00023908508026168257 -0.00018284006462886406 0 -8.8968817160692932e-05 -0.00013081274910827612 0 -0.00021130478020453202 -6.047876685759858e-05 0 -0.00023908508026168257 -0.00018284006462886406 0 -3.6721497505096882e-05 -0.0001384096969015849 0 -0.00015574175359700507 -0.00017938455658021981 0 -1.6895734820681056e-05 -0.00024893397807532837 0 -1.2470330048855095e-05 -0.00019337308837428304 0 -8.4723098702042858e-05 -0.00021965466346994696 0 -1.2470330048855095e-05 -0.00019337308837428304 0 -6.3772689227429563e-05 -0.00017089948260968501 0 -8.4723098702042858e-05 -0.00021965466346994696 0 -0.00015574175359700507 -0.00017938455658021981 0 -0.00026270113957033761 -0.00021842685899978127 0 -6.3772689227429563e-05 -0.00017089948260968501 0 -8.4723098702042858e-05 -0.00021965466346994696 0 -0.00015293973881968454 -0.00019005283057749325 0 -8.9329567251392124e-05 -0.00027371201062535759 0 -0.00026270113957033761 -0.00021842685899978127 0 -0.00010139405625639097 -0.00036275339819876509 0 -0.00037559933963646945 -0.00025678068616898916 0 -0.00030702294653916666 -0.00046230535451491004 0 -0.0004152271217299241 -0.00037036910853928965 0 -0.00037559933963646945 -0.00025678068616898916 0 -0.00030702294653916666 -0.00046230535451491004 0 -0.00047079163669216381 -0.00023769199953151268 0 -0.00039700385727763375 -0.00026967593453396219 0 -0.00049724612883736115 -0.00029463525806078868 0 -0.0004152271217299241 -0.00037036910853928965 0 -0.00037559933963646945 -0.00025678068616898916 0 -0.00049724612883736115 -0.00029463525806078868 0 -0.00026270113957033761 -0.00021842685899978127 0 -0.00028861339019795675 -0.00022487058484403546 0 -0.00027580516795263363 -0.00021492176443048218 0 -0.00026270113957033761 -0.00021842685899978127 0 -0.00049724612883736115 -0.00029463525806078868 0 -0.00060957341992879223 -0.00013216307085239383 0 -0.00052561029852540256 -0.0004175699991192523 0 -0.00066301591773675072 -0.00022481139840563135 0 -0.00067140758624438057 -0.00030189676876605224 0 -0.00052561029852540256 -0.0004175699991192523 0 -0.0006389456651428769 -0.00020325115517766818 0 -0.00059187080481290467 -0.00030995233897318888 0 -0.00067140758624438057 -0.00030189676876605224 0 -0.00069065524606821873 -0.00034844158138862914 0 -0.00052561029852540256 -0.0004175699991192523 0 -0.0004152271217299241 -0.00037036910853928965 0 -0.00049724612883736115 -0.00029463525806078868 0 -0.00052561029852540256 -0.0004175699991192523 0 -0.00047079163669216381 -0.00023769199953151268 0 -0.00049266978439109325 -0.00013245587027336912 0 -0.00060957341992879223 -0.00013216307085239383 0 -0.00047079163669216381 -0.00023769199953151268 0 -0.00049724612883736115 -0.00029463525806078868 0 -0.00060957341992879223 -0.00013216307085239383 0 -0.00049266978439109325 -0.00013245587027336912 0 -0.00060957341992879223 -0.00013216307085239383 0 -0.00049173734987573246 -6.2359360279677216e-05 0 -0.00034000234060483178 -0.00012130595100316813 0 -0.00042095128235963977 -0.00024763185321686131 0 -0.00042253724694554112 -0.00016368167101216333 0 -0.00047079163669216381 -0.00023769199953151268 0 -0.00042095128235963977 -0.00024763185321686131 0 -0.00042253724694554112 -0.00016368167101216333 0 -0.00047079163669216381 -0.00023769199953151268 0 -0.00049266978439109325 -0.00013245587027336912 0 -0.00042253724694554112 -0.00016368167101216333 0 -0.00049266978439109325 -0.00013245587027336912 0 -0.00042253724694554112 -0.00016368167101216333 0 -0.00041232779723925664 -7.5027488133724385e-05 0 -0.00034000234060483178 -0.00012130595100316813 0 -0.00042253724694554112 -0.00016368167101216333 0 -0.00041232779723925664 -7.5027488133724385e-05 0 -0.00034000234060483178 -0.00012130595100316813 0 -0.00041232779723925664 -7.5027488133724385e-05 0 -0.0004072589818589537 -1.4991282582125432e-05 0 -0.0004326730592120708 -9.6823389063804202e-06 0 -0.00043308242490922624 -4.1297555559137331e-06 0 -0.00040849725956889569 2.211219933566183e-06 0 -0.00049173734987573246 -6.2359360279677216e-05 0 -0.00053772737076797491 2.7076051055247239e-05 0 -0.00043308242490922624 -4.1297555559137331e-06 0 -0.00050767608181885419 1.2889304247330374e-05 0 -0.00049266978439109325 -0.00013245587027336912 0 -0.00041232779723925664 -7.5027488133724385e-05 0 -0.00049173734987573246 -6.2359360279677216e-05 0 -0.00041232779723925664 -7.5027488133724385e-05 0 -0.00040849725956889569 2.211219933566183e-06 0 -0.00049173734987573246 -6.2359360279677216e-05 0 -0.00060957341992879223 -0.00013216307085239383 0 -0.00053772737076797491 2.7076051055247239e-05 0 -0.00065826818601751839 4.8595538228935296e-05 0 -0.00060957341992879223 -0.00013216307085239383 0 -0.00049173734987573246 -6.2359360279677216e-05 0 -0.00053772737076797491 2.7076051055247239e-05 0 -0.00056863598629734171 3.2792068284397756e-05 0 -0.0006374579849974468 8.9786645226186943e-05 0 -0.00065826818601751839 4.8595538228935296e-05 0 -0.00050767608181885419 1.2889304247330374e-05 0 -0.00054279034441895399 2.0498279401016049e-05 0 -0.00056863598629734171 3.2792068284397756e-05 0 -0.00060016223418737132 0.00012031418042478756 0 -0.0006374579849974468 8.9786645226186943e-05 0 -0.00056863598629734171 3.2792068284397756e-05 0 -0.00060016223418737132 0.00012031418042478756 0 -0.00053482352637739135 0.00011147270743367793 0 -0.00047873512765220076 1.4796993737320054e-05 0 -0.00056863598629734171 3.2792068284397756e-05 0 -0.00053482352637739135 0.00011147270743367793 0 -0.00049392845318343948 5.8401106058371035e-05 0 -0.00043308242490922624 -4.1297555559137331e-06 0 -0.00046760937383719537 0.00018940868164454266 0 -0.00047873512765220076 1.4796993737320054e-05 0 -0.00053482352637739135 0.00011147270743367793 0 -0.00075799342064285225 -0.00010068546812750473 0 -0.00076698846663933657 -0.00013204842621589573 0 -0.00078738292205151412 -6.1701814025010563e-05 0 -0.00076698846663933657 -0.00013204842621589573 0 -0.00077663509437836777 -0.00015220313335757003 0 -0.00077856425138243053 -0.00018576322948763539 0 -0.00056017334438293945 -5.3897084204728323e-05 0 -0.00046231614354287317 -6.094310176605642e-05 0 -0.00077663509437836777 -0.00015220313335757003 0 -0.00077215708592456053 -0.00013760698156411885 0 -0.00075444650883033375 -0.00015632467976515853 0 -0.00076698846663933657 -0.00013204842621589573 0 -0.00077663509437836777 -0.00015220313335757003 0 -0.00079997493224594446 -0.00013531068728956153 0 -0.00077663509437836777 -0.00015220313335757003 0 -0.00079997493224594446 -0.00013531068728956153 0 -0.00077215708592456053 -0.00013760698156411885 0 -0.00078300792655383003 -0.00010552432849436158 0 -0.00079997493224594446 -0.00013531068728956153 0 -0.00077215708592456053 -0.00013760698156411885 0 -0.00078300792655383003 -0.00010552432849436158 0 -0.00077215708592456053 -0.00013760698156411885 0 -0.00073341862083447682 -0.00015179415452291041 0 -0.00065100684397883699 0.00014265273865517772 0 -0.0006374579849974468 8.9786645226186943e-05 0 -0.00067886208813203294 7.0959448668770915e-05 0 -0.00065100684397883699 0.00014265273865517772 0 -0.00060016223418737132 0.00012031418042478756 0 -0.0006374579849974468 8.9786645226186943e-05 0 -0.0006374579849974468 8.9786645226186943e-05 0 -0.00065826818601751839 4.8595538228935296e-05 0 -0.00067886208813203294 7.0959448668770915e-05 0 -0.00073341862083447682 -0.00015179415452291041 0 -0.00075444650883033375 -0.00015632467976515853 0 -0.00074031830402703175 -0.0001801289692360873 0 -0.00077215708592456053 -0.00013760698156411885 0 -0.00073341862083447682 -0.00015179415452291041 0 -0.00075444650883033375 -0.00015632467976515853 0 -0.00066301591773675072 -0.00022481139840563135 0 -0.00073341862083447682 -0.00015179415452291041 0 -0.00074031830402703175 -0.0001801289692360873 0 -0.00077663509437836777 -0.00015220313335757003 0 -0.00075444650883033375 -0.00015632467976515853 0 -0.00074031830402703175 -0.0001801289692360873 0 -0.00060957341992879223 -0.00013216307085239383 0 -0.00065826818601751839 4.8595538228935296e-05 0 -0.00067886208813203294 7.0959448668770915e-05 0 -0.0006389456651428769 -0.00020325115517766818 0 -0.00070942993404070841 -5.7680870895203836e-05 0 -0.00066301591773675072 -0.00022481139840563135 0 -0.00074031830402703175 -0.0001801289692360873 0 -0.00072159083199740731 -0.00021424188991523785 0 -0.00074031830402703175 -0.0001801289692360873 0 -0.00077856425138243053 -0.00018576322948763539 0 -0.00072159083199740731 -0.00021424188991523785 0 -0.00075037644839656887 -8.4901140004069541e-05 0 -0.00075799342064285225 -0.00010068546812750473 0 -0.00078738292205151412 -6.1701814025010563e-05 0 -0.00075037644839656887 -8.4901140004069541e-05 0 -0.00078738292205151412 -6.1701814025010563e-05 0 -0.00076693251689567709 -6.4595183782953659e-05 0 -0.00077663509437836777 -0.00015220313335757003 0 -0.00074031830402703175 -0.0001801289692360873 0 -0.00077856425138243053 -0.00018576322948763539 0 -0.00078738292205151412 -6.1701814025010563e-05 0 -0.00076693251689567709 -6.4595183782953659e-05 0 -0.00076867986142575416 -4.361605241492739e-05 0 -0.00078738292205151412 -6.1701814025010563e-05 0 -0.00076867986142575416 -4.361605241492739e-05 0 -0.00080582256790202162 -1.7262910367969782e-05 0 -0.00033279978989660418 -0.00019656127762912498 0 1.1084598022383054e-05 -0.00028034029192020569 0 -0.00077856425138243053 -0.00018576322948763539 0 -0.0007101095798790017 -0.00025096232755398288 0 -0.00070932342252108993 -0.00032997318896321704 0 -0.00046231614354287317 -6.094310176605642e-05 0 1.1084598022383054e-05 -0.00028034029192020569 0 -0.00066301591773675072 -0.00022481139840563135 0 -0.00072159083199740731 -0.00021424188991523785 0 -0.0007101095798790017 -0.00025096232755398288 0 -0.00077856425138243053 -0.00018576322948763539 0 -0.00072159083199740731 -0.00021424188991523785 0 -0.0007101095798790017 -0.00025096232755398288 0 -0.0007101095798790017 -0.00025096232755398288 0 -0.00067140758624438057 -0.00030189676876605224 0 -0.00070932342252108993 -0.00032997318896321704 0 -0.00066301591773675072 -0.00022481139840563135 0 -0.0007101095798790017 -0.00025096232755398288 0 -0.00067140758624438057 -0.00030189676876605224 0 0.00025481525310859699 -0.00070975262197031826 0 -5.7341243318080296e-05 -0.00069358721269557075 0 0.0002547408003913941 -0.00097826568012008511 0 -0.00071795516381507061 -0.00032686664939533268 0 -0.00069065524606821873 -0.00034844158138862914 0 -0.00059991315726967297 -0.00057943709729238295 0 -0.00067140758624438057 -0.00030189676876605224 0 -0.00070932342252108993 -0.00032997318896321704 0 -0.00069065524606821873 -0.00034844158138862914 0 1.1084598022383054e-05 -0.00028034029192020569 0 2.0238619769985002e-06 -0.00027641826150332985 0 0.0017975238781153271 -0.00066159328785664437 0 0.0021073625485743975 -0.0009422259926666908 0 -0.00010511765239833633 -0.0004626624504335214 0 0.00025481525310859699 -0.00070975262197031826 0 -5.7341243318080296e-05 -0.00069358721269557075 0 0.0037101316065845337 -0.0006211680132478585 0 0.0038893265646305093 -0.00091911150656200839 0 0.0042511239328724927 -0.0011148867177351071 0 0.0037101316065845337 -0.0006211680132478585 0 0.0038893265646305093 -0.00091911150656200839 0 0.0036140059421803775 -0.00093064521327387514 0 0.0038112879527806304 -0.001107584971102649 0 0.0038403514006580793 -0.001581801498701185 0 0.0039894416369653978 -0.00099131406213137348 0 0.0036140059421803775 -0.00093064521327387514 0 0.0038112879527806304 -0.001107584971102649 0 0.0036581219486431626 -0.0011974188552367018 0 0.0038893265646305093 -0.00091911150656200839 0 0.0036140059421803775 -0.00093064521327387514 0 0.0038112879527806304 -0.001107584971102649 0 0.0038893265646305093 -0.00091911150656200839 0 0.0038112879527806304 -0.001107584971102649 0 0.0039894416369653978 -0.00099131406213137348 0 0.0038112879527806304 -0.001107584971102649 0 0.0036581219486431626 -0.0011974188552367018 0 0.0038403514006580793 -0.001581801498701185 0 0.003294942075392447 -0.0011525921601142038 0 0.0036581219486431626 -0.0011974188552367018 0 0.0038403514006580793 -0.001581801498701185 0 0.003752981173146033 -0.0010059448762057557 0 0.0037960804628904754 -0.0010285735451645503 0 0.0040501242896991479 -0.0010882030924930502 0 0.004090450328563533 -0.0010777860760360742 0 0.0039894416369653978 -0.00099131406213137348 0 0.004090450328563533 -0.0010777860760360742 0 0.0040871468359417601 -0.0010202152649667173 0 0.0040927884108925274 -0.0010864958582810279 0 0.004090450328563533 -0.0010777860760360742 0 0.0040941497778802568 -0.0010789506703997144 0 0.0041263977483190079 -0.0010854162623019996 0 0.0040501242896991479 -0.0010882030924930502 0 0.004090450328563533 -0.0010777860760360742 0 0.0041263977483190079 -0.0010854162623019996 0 0.004090450328563533 -0.0010777860760360742 0 0.0039894416369653978 -0.00099131406213137348 0 0.0040871468359417601 -0.0010202152649667173 0 0.00025481525310859699 -0.00070975262197031826 0 0.0002547408003913941 -0.00097826568012008511 0 0.00045800740829115763 -0.0010860900139776197 0 1.1084598022383054e-05 -0.00028034029192020569 0 0.0013226543904192678 -0.0006876636336731576 0 0.0021073625485743975 -0.0009422259926666908 0 0.0013226543904192678 -0.0006876636336731576 0 0.0025646384004594175 -0.0011040194475688708 0 0.0021073625485743975 -0.0009422259926666908 0 0.0038893265646305093 -0.00091911150656200839 0 0.0039894416369653978 -0.00099131406213137348 0 0.0040871468359417601 -0.0010202152649667173 0 0.0021073625485743975 -0.0009422259926666908 0 0.0019082778166943104 -0.00094643625386405699 0 0.0018978673848635092 -0.00081124987790833663 0 0.0017959039782830307 -0.00075985001940766489 0 0.001756764552448897 -0.00068966580642899628 0 -0.00052561029852540256 -0.0004175699991192523 0 -0.00059991315726967297 -0.00057943709729238295 0 -0.00030702294653916666 -0.00046230535451491004 0 -0.00069065524606821873 -0.00034844158138862914 0 -0.00052561029852540256 -0.0004175699991192523 0 -0.00059991315726967297 -0.00057943709729238295 0 -0.00025229184781180402 -0.0007785205509691968 0 -0.00059991315726967297 -0.00057943709729238295 0 -0.00030702294653916666 -0.00046230535451491004 0 -0.0004152271217299241 -0.00037036910853928965 0 -0.00052561029852540256 -0.0004175699991192523 0 -0.00030702294653916666 -0.00046230535451491004 0 0.0018414488852909025 -0.00081962764908777069 0 0.0017599492908181829 -0.00077298995624886012 0 0.0017748058254632242 -0.0008020416344486738 0 0.0010699565221720538 -0.00061889617681858654 0 0.0013226543904192678 -0.0006876636336731576 0 0.0018414488852909025 -0.00081962764908777069 0 0.0017748058254632242 -0.0008020416344486738 0 0.0018175565960382931 -0.00084063679411363961 0 0.0019082778166943104 -0.00094643625386405699 0 0.0018573834194839467 -0.00089240740444272986 0 0.004090450328563533 -0.0010777860760360742 0 0.0040927884108925274 -0.0010864958582810279 0 0.0040941497778802568 -0.0010789506703997144 0 0.0013226543904192678 -0.0006876636336731576 0 0.0019082778166943104 -0.00094643625386405699 0 0.0040927884108925274 -0.0010864958582810279 0 0.0040941497778802568 -0.0010789506703997144 0 0.004042166590203131 -0.0010659620805572054 0 0.0019082778166943104 -0.00094643625386405699 0 0.0023309524035216972 -0.00095727068859251957 0 0.0040941497778802568 -0.0010789506703997144 0 0.0040889764895556454 -0.0010378162269473802 0 0.004042166590203131 -0.0010659620805572054 0 0.0040889764895556454 -0.0010378162269473802 0 0.004042166590203131 -0.0010659620805572054 0 0.0040408915224337391 -0.0010303735900319595 0 0.0018456173689012079 -0.00084650716285501997 0 0.0018414488852909025 -0.00081962764908777069 0 0.0018175565960382931 -0.00084063679411363961 0 0.0018361543282120129 -0.00085219061939514873 0 0.001843348090631686 -0.0008591326254167791 0 0.001839682637908645 -0.00086119867556134816 0 0.001843348090631686 -0.0008591326254167791 0 0.001839682637908645 -0.00086119867556134816 0 0.0018461567266722146 -0.00086698558551216688 0 0.004042166590203131 -0.0010659620805572054 0 0.003992826750769553 -0.0010089203637619561 0 0.0040408915224337391 -0.0010303735900319595 0 0.0023309524035216972 -0.00095727068859251957 0 0.0024924549392132782 -0.00075458007249343771 0 0.0018591168717798428 -0.00087034031462091791 0 0.001843348090631686 -0.0008591326254167791 0 0.0018461567266722146 -0.00086698558551216688 0 0.001839682637908645 -0.00086119867556134816 0 0.0018461567266722146 -0.00086698558551216688 0 0.0018442040961374664 -0.00087772305629730987 0 0.0018510044420554366 -0.00088396668451567995 0 0.0018573834194839467 -0.00089240740444272986 0 0.0018591168717798428 -0.00087034031462091791 0 0.0018461567266722146 -0.00086698558551216688 0 0.0018442040961374664 -0.00087772305629730987 0 0.0039724155363954575 -0.0010311622438385444 0 0.0040171807343654092 -0.0010050177486212199 0 0.0039823612743091858 -0.00100511117531014 0 0.003992826750769553 -0.0010089203637619561 0 0.0040408915224337391 -0.0010303735900319595 0 0.0040171807343654092 -0.0010050177486212199 0 0.0040408915224337391 -0.0010303735900319595 0 0.0040171807343654092 -0.0010050177486212199 0 0.0040607499412271542 -0.00099673573062416523 0 0.0024924549392132782 -0.00075458007249343771 0 0.002573724476676541 -0.00074761427110656674 0 0.0040171807343654092 -0.0010050177486212199 0 0.0040293669456802888 -0.0009678097764849894 0 0.0040607499412271542 -0.00099673573062416523 0 0.0040293669456802888 -0.0009678097764849894 0 0.0039989227522101182 -0.0009834869865291045 0 0.0039898478735231691 -0.00095905570147964509 0 0.0040171807343654092 -0.0010050177486212199 0 0.0040293669456802888 -0.0009678097764849894 0 0.0039989227522101182 -0.0009834869865291045 0 0.0040171807343654092 -0.0010050177486212199 0 0.0039989227522101182 -0.0009834869865291045 0 0.0039823612743091858 -0.00100511117531014 0 0.0039989227522101182 -0.0009834869865291045 0 0.0039823612743091858 -0.00100511117531014 0 0.0039701675659051397 -0.00098380857726094268 0 0.0039724155363954575 -0.0010311622438385444 0 0.0039823612743091858 -0.00100511117531014 0 0.0039600783388696456 -0.0010010883491743889 0 0.0039823612743091858 -0.00100511117531014 0 0.0039701675659051397 -0.00098380857726094268 0 0.0039600783388696456 -0.0010010883491743889 0 0.0039898478735231691 -0.00095905570147964509 0 0.0039701675659051397 -0.00098380857726094268 0 0.003960531260164186 -0.00096275776089501113 0 0.0039989227522101182 -0.0009834869865291045 0 0.0039898478735231691 -0.00095905570147964509 0 0.0039701675659051397 -0.00098380857726094268 0 0.0039194884285923357 -0.00099188538851203382 0 0.003960531260164186 -0.00096275776089501113 0 0.0039552980618768321 -0.00092929555015188879 0 0.0039194884285923357 -0.00099188538851203382 0 0.0039701675659051397 -0.00098380857726094268 0 0.003960531260164186 -0.00096275776089501113 0 0.0039194884285923357 -0.00099188538851203382 0 0.0039724155363954575 -0.0010311622438385444 0 0.0039600783388696456 -0.0010010883491743889 0 0.0039194884285923357 -0.00099188538851203382 0 0.0039701675659051397 -0.00098380857726094268 0 0.0039600783388696456 -0.0010010883491743889 0 0.0040889764895556454 -0.0010378162269473802 0 0.0040607499412271542 -0.00099673573062416523 0 0.0041200994994561122 -0.00096433103744834946 0 0.0040889764895556454 -0.0010378162269473802 0 0.0040408915224337391 -0.0010303735900319595 0 0.0040607499412271542 -0.00099673573062416523 0 0.0040293669456802888 -0.0009678097764849894 0 0.0040607499412271542 -0.00099673573062416523 0 0.0040761191105453043 -0.00093817591443909928 0 0.0040607499412271542 -0.00099673573062416523 0 0.0041200994994561122 -0.00096433103744834946 0 0.0040761191105453043 -0.00093817591443909928 0 0.0040889764895556454 -0.0010378162269473802 0 0.0041200994994561122 -0.00096433103744834946 0 0.0041620840432298502 -0.0009976359809688853 0 0.0041200994994561122 -0.00096433103744834946 0 0.0041620840432298502 -0.0009976359809688853 0 0.0042076214574941258 -0.00091435878620677166 0 0.0041620840432298502 -0.0009976359809688853 0 0.0042931262239763379 -0.00098611102404490411 0 0.0041263977483190079 -0.0010854162623019996 0 0.0041620840432298502 -0.0009976359809688853 0 0.0042931262239763379 -0.00098611102404490411 0 0.0042076214574941258 -0.00091435878620677166 0 0.003752981173146033 -0.0010059448762057557 0 0.0037534654424497332 -0.0011018468557850907 0 0.004216562902868419 -0.0011626709796901482 0 0.0042931262239763379 -0.00098611102404490411 0 0.0041263977483190079 -0.0010854162623019996 0 0.003752981173146033 -0.0010059448762057557 0 0.0038418453912542846 -0.001060047124522918 0 0.0040941497778802568 -0.0010789506703997144 0 0.0040889764895556454 -0.0010378162269473802 0 0.0041263977483190079 -0.0010854162623019996 0 0.0040889764895556454 -0.0010378162269473802 0 0.0041620840432298502 -0.0009976359809688853 0 0.0041263977483190079 -0.0010854162623019996 0 0.0042081582466780227 -0.00079508780430991727 0 0.0041348048410030178 -0.00082206059828382819 0 0.0041384910110719717 -0.00088442370811169879 0 0.0042081582466780227 -0.00079508780430991727 0 0.0041348048410030178 -0.00082206059828382819 0 0.0041448803314024698 -0.00074436669168099579 0 0.0042081582466780227 -0.00079508780430991727 0 0.0041448803314024698 -0.00074436669168099579 0 0.0041975458664653895 -0.00069664282256764771 0 0.0043632234651409616 -0.00081866730883256534 0 0.0042081582466780227 -0.00079508780430991727 0 0.0042854120926252518 -0.00068329304895718831 0 0.0043632234651409616 -0.00081866730883256534 0 0.0042931262239763379 -0.00098611102404490411 0 0.0042076214574941258 -0.00091435878620677166 0 0.0043632234651409616 -0.00081866730883256534 0 0.0042081582466780227 -0.00079508780430991727 0 0.0042076214574941258 -0.00091435878620677166 0 0.0042081582466780227 -0.00079508780430991727 0 0.0042076214574941258 -0.00091435878620677166 0 0.0041384910110719717 -0.00088442370811169879 0 0.0041200994994561122 -0.00096433103744834946 0 0.0042076214574941258 -0.00091435878620677166 0 0.0041384910110719717 -0.00088442370811169879 0 0.0041384910110719717 -0.00088442370811169879 0 0.0040761191105453043 -0.00093817591443909928 0 0.0040773179181275441 -0.00087953587183250785 0 0.0041200994994561122 -0.00096433103744834946 0 0.0041384910110719717 -0.00088442370811169879 0 0.0040761191105453043 -0.00093817591443909928 0 0.0040293669456802888 -0.0009678097764849894 0 0.0040761191105453043 -0.00093817591443909928 0 0.0040419540423066135 -0.00091967520676242555 0 0.0040761191105453043 -0.00093817591443909928 0 0.0040419540423066135 -0.00091967520676242555 0 0.0040773179181275441 -0.00087953587183250785 0 0.0040773179181275441 -0.00087953587183250785 0 0.0040288726220616879 -0.00087692845730297209 0 0.0040483515871506349 -0.00083149416086918788 0 0.0040419540423066135 -0.00091967520676242555 0 0.0040773179181275441 -0.00087953587183250785 0 0.0040288726220616879 -0.00087692845730297209 0 0.0041348048410030178 -0.00082206059828382819 0 0.0041384910110719717 -0.00088442370811169879 0 0.0040773179181275441 -0.00087953587183250785 0 0.0039898478735231691 -0.00095905570147964509 0 0.003960531260164186 -0.00096275776089501113 0 0.0039552980618768321 -0.00092929555015188879 0 0.0039898478735231691 -0.00095905570147964509 0 0.0039552980618768321 -0.00092929555015188879 0 0.0040067672445141004 -0.0009241152284357679 0 0.0039552980618768321 -0.00092929555015188879 0 0.0040067672445141004 -0.0009241152284357679 0 0.0039895256369843575 -0.00088946259399755214 0 0.0040293669456802888 -0.0009678097764849894 0 0.0039898478735231691 -0.00095905570147964509 0 0.0040067672445141004 -0.0009241152284357679 0 0.0040293669456802888 -0.0009678097764849894 0 0.0040419540423066135 -0.00091967520676242555 0 0.0040067672445141004 -0.0009241152284357679 0 0.0040419540423066135 -0.00091967520676242555 0 0.0040067672445141004 -0.0009241152284357679 0 0.0040288726220616879 -0.00087692845730297209 0 0.0040288726220616879 -0.00087692845730297209 0 0.0039976301529081951 -0.00083276030454376097 0 0.0040483515871506349 -0.00083149416086918788 0 0.0040288726220616879 -0.00087692845730297209 0 0.0039895256369843575 -0.00088946259399755214 0 0.0039976301529081951 -0.00083276030454376097 0 0.0040067672445141004 -0.0009241152284357679 0 0.0040288726220616879 -0.00087692845730297209 0 0.0039895256369843575 -0.00088946259399755214 0 0.0039541304805649829 -0.00087732805057056176 0 0.00394400767543116 -0.00083772712023044943 0 0.0039976301529081951 -0.00083276030454376097 0 0.0039552980618768321 -0.00092929555015188879 0 0.0039895256369843575 -0.00088946259399755214 0 0.0039541304805649829 -0.00087732805057056176 0 0.0039895256369843575 -0.00088946259399755214 0 0.0039541304805649829 -0.00087732805057056176 0 0.0039976301529081951 -0.00083276030454376097 0 0.0039541304805649829 -0.00087732805057056176 0 0.00394400767543116 -0.00083772712023044943 0 0.0039119250290008097 -0.00088551366078795136 0 0.0039552980618768321 -0.00092929555015188879 0 0.0039541304805649829 -0.00087732805057056176 0 0.0039119250290008097 -0.00088551366078795136 0 0.0039489758364333639 -0.00078433368121635949 0 0.00394400767543116 -0.00083772712023044943 0 0.0039976301529081951 -0.00083276030454376097 0 0.0039489758364333639 -0.00078433368121635949 0 0.0039976301529081951 -0.00083276030454376097 0 0.0039966390796458001 -0.00076124793714094031 0 0.0039976301529081951 -0.00083276030454376097 0 0.0040414143907808574 -0.000776514160346309 0 0.0039966390796458001 -0.00076124793714094031 0 0.0039976301529081951 -0.00083276030454376097 0 0.0040414143907808574 -0.000776514160346309 0 0.0040483515871506349 -0.00083149416086918788 0 0.0039966390796458001 -0.00076124793714094031 0 0.0039693914043092303 -0.00070783922416110855 0 0.0040249969789572194 -0.00072190525092325657 0 0.0040414143907808574 -0.000776514160346309 0 0.0039966390796458001 -0.00076124793714094031 0 0.0040249969789572194 -0.00072190525092325657 0 0.0039489758364333639 -0.00078433368121635949 0 0.0039966390796458001 -0.00076124793714094031 0 0.0039693914043092303 -0.00070783922416110855 0 0.0039489758364333639 -0.00078433368121635949 0 0.0039693914043092303 -0.00070783922416110855 0 0.0039090791493739769 -0.00074763276365097863 0 0.0041348048410030178 -0.00082206059828382819 0 0.0041448803314024698 -0.00074436669168099579 0 0.0040896131156478877 -0.00079026670121838736 0 0.0041348048410030178 -0.00082206059828382819 0 0.0040773179181275441 -0.00087953587183250785 0 0.0040896131156478877 -0.00079026670121838736 0 0.0040414143907808574 -0.000776514160346309 0 0.0040896131156478877 -0.00079026670121838736 0 0.0040483515871506349 -0.00083149416086918788 0 0.0040773179181275441 -0.00087953587183250785 0 0.0040896131156478877 -0.00079026670121838736 0 0.0040483515871506349 -0.00083149416086918788 0 0.0040414143907808574 -0.000776514160346309 0 0.0040793366583677399 -0.00071620884960112326 0 0.0040249969789572194 -0.00072190525092325657 0 0.0040414143907808574 -0.000776514160346309 0 0.0040896131156478877 -0.00079026670121838736 0 0.0040793366583677399 -0.00071620884960112326 0 0.0041448803314024698 -0.00074436669168099579 0 0.0040896131156478877 -0.00079026670121838736 0 0.0040793366583677399 -0.00071620884960112326 0 0.0041448803314024698 -0.00074436669168099579 0 0.0040793366583677399 -0.00071620884960112326 0 0.004141421794252584 -0.00066590034635462833 0 0.0040793366583677399 -0.00071620884960112326 0 0.0040916070771725658 -0.00063860967736403059 0 0.004141421794252584 -0.00066590034635462833 0 0.0040793366583677399 -0.00071620884960112326 0 0.0040916070771725658 -0.00063860967736403059 0 0.0040350160289729705 -0.0006480780455907334 0 0.0040916070771725658 -0.00063860967736403059 0 0.0040350160289729705 -0.0006480780455907334 0 0.004079624075019544 -0.00057448182979768039 0 0.0040916070771725658 -0.00063860967736403059 0 0.0041290120089868734 -0.00060131291398286466 0 0.004141421794252584 -0.00066590034635462833 0 0.0040793366583677399 -0.00071620884960112326 0 0.0040249969789572194 -0.00072190525092325657 0 0.0040350160289729705 -0.0006480780455907334 0 0.0039693914043092303 -0.00070783922416110855 0 0.0040249969789572194 -0.00072190525092325657 0 0.0040350160289729705 -0.0006480780455907334 0 0.0040350160289729705 -0.0006480780455907334 0 0.0040328297521228353 -0.00058023623258571927 0 0.0039585809410346597 -0.0006171321237843151 0 0.0039693914043092303 -0.00070783922416110855 0 0.0040350160289729705 -0.0006480780455907334 0 0.0039585809410346597 -0.0006171321237843151 0 0.0040328297521228353 -0.00058023623258571927 0 0.004017345873266469 -0.00053320182134312943 0 0.0039585809410346597 -0.0006171321237843151 0 0.0040350160289729705 -0.0006480780455907334 0 0.0040328297521228353 -0.00058023623258571927 0 0.004079624075019544 -0.00057448182979768039 0 0.0040328297521228353 -0.00058023623258571927 0 0.004017345873266469 -0.00053320182134312943 0 0.0040440331270112729 -0.00051262144055827811 0 0.004184671403545062 -0.00042677893366026574 0 0.0042096783461992972 -0.00040965728963456802 0 0.0040328297521228353 -0.00058023623258571927 0 0.004079624075019544 -0.00057448182979768039 0 0.0040440331270112729 -0.00051262144055827811 0 0.0041290120089868734 -0.00060131291398286466 0 0.004079624075019544 -0.00057448182979768039 0 0.0041404495412757708 -0.00053921868486444765 0 0.0040916070771725658 -0.00063860967736403059 0 0.0041290120089868734 -0.00060131291398286466 0 0.004079624075019544 -0.00057448182979768039 0 0.004079624075019544 -0.00057448182979768039 0 0.0041042424836873533 -0.00052795385507119436 0 0.0040440331270112729 -0.00051262144055827811 0 0.004079624075019544 -0.00057448182979768039 0 0.0041042424836873533 -0.00052795385507119436 0 0.0041404495412757708 -0.00053921868486444765 0 0.0041404495412757708 -0.00053921868486444765 0 0.0041961965932906667 -0.00060184820371727123 0 0.0042023275571820944 -0.0005008593420292763 0 0.0041961965932906667 -0.00060184820371727123 0 0.004275471247778875 -0.0005350001825620719 0 0.0042023275571820944 -0.0005008593420292763 0 0.0041290120089868734 -0.00060131291398286466 0 0.0041404495412757708 -0.00053921868486444765 0 0.0041961965932906667 -0.00060184820371727123 0 0.0041961965932906667 -0.00060184820371727123 0 0.004141421794252584 -0.00066590034635462833 0 0.0041975458664653895 -0.00069664282256764771 0 0.0041290120089868734 -0.00060131291398286466 0 0.0041961965932906667 -0.00060184820371727123 0 0.004141421794252584 -0.00066590034635462833 0 0.0041961965932906667 -0.00060184820371727123 0 0.0041975458664653895 -0.00069664282256764771 0 0.0042854120926252518 -0.00068329304895718831 0 0.0041448803314024698 -0.00074436669168099579 0 0.004141421794252584 -0.00066590034635462833 0 0.0041975458664653895 -0.00069664282256764771 0 0.0042081582466780227 -0.00079508780430991727 0 0.0041975458664653895 -0.00069664282256764771 0 0.0042854120926252518 -0.00068329304895718831 0 0.0044220160666369 -0.00064686079068594637 0 0.0042854120926252518 -0.00068329304895718831 0 0.004275471247778875 -0.0005350001825620719 0 0.0041961965932906667 -0.00060184820371727123 0 0.0042854120926252518 -0.00068329304895718831 0 0.004275471247778875 -0.0005350001825620719 0 0.0043453993270738209 -0.00046432161694251255 0 0.004275471247778875 -0.0005350001825620719 0 0.0042746900962943139 -0.00040605153330415761 0 0.004275471247778875 -0.0005350001825620719 0 0.0042023275571820944 -0.0005008593420292763 0 0.0042746900962943139 -0.00040605153330415761 0 0.0043403616819756817 -0.00039788934117609883 0 0.0043453993270738209 -0.00046432161694251255 0 0.0042746900962943139 -0.00040605153330415761 0 0.0042023275571820944 -0.0005008593420292763 0 0.0041758474671163316 -0.00043018141048090466 0 0.0041385513313647055 -0.00049657780353689479 0 0.0041404495412757708 -0.00053921868486444765 0 0.0042023275571820944 -0.0005008593420292763 0 0.0041385513313647055 -0.00049657780353689479 0 0.0042023275571820944 -0.0005008593420292763 0 0.0041758474671163316 -0.00043018141048090466 0 0.0042746900962943139 -0.00040605153330415761 0 0.004391999195244114 -0.00024142050541643847 0 0.0045299480813334536 -0.00021813123719895288 0 0.0044597051570544671 -0.00018366351496970344 0 0.0043684831427359726 -0.00032164241430554671 0 0.0044750566550346592 -0.0002146396581893989 0 0.0043028695282721682 -0.00033435459252643371 0 0.0044739308715513217 -0.00023104353375819233 0 0.0043105596253651349 -0.00034422452796018964 0 0.004391999195244114 -0.00024142050541643847 0 0.0045299480813334536 -0.00021813123719895288 0 0.004324664438223675 -0.00038068658851100467 0 0.0041758474671163316 -0.00043018141048090466 0 0.0042746900962943139 -0.00040605153330415761 0 0.0043294408085295319 -0.00033719445686648466 0 0.0043684831427359726 -0.00032164241430554671 0 0.0044750566550346592 -0.0002146396581893989 0 0.0045410253582732815 -0.0002317597743942232 0 0.0042855469405151487 -0.00036253197239505828 0 0.0044037006868338302 -0.00028903489012290401 0 0.0043403616819756817 -0.00039788934117609883 0 0.0042746900962943139 -0.00040605153330415761 0 0.0043348865816178698 -0.00033085958938452455 0 0.0043807845743911548 -0.00031319272220305035 0 0.0044037006868338302 -0.00028903489012290401 0 0.0045547575526861603 -0.00011848275780564622 0 0.0044726023369989721 -0.00013352789479891865 0 0.0045080166695158656 -6.0622179431782085e-05 0 0.0045547575526861603 -0.00011848275780564622 0 0.0045063980137796935 -0.00016402204345316681 0 0.0044726023369989721 -0.00013352789479891865 0 0.0045299480813334536 -0.00021813123719895288 0 0.0045063980137796935 -0.00016402204345316681 0 0.0044597051570544671 -0.00018366351496970344 0 0.0045299480813334536 -0.00021813123719895288 0 0.0045547575526861603 -0.00011848275780564622 0 0.0045063980137796935 -0.00016402204345316681 0 0.0044597051570544671 -0.00018366351496970344 0 0.0043920384968342344 -0.00016232432279832877 0 0.0044726023369989721 -0.00013352789479891865 0 0.0045063980137796935 -0.00016402204345316681 0 0.0044597051570544671 -0.00018366351496970344 0 0.0044726023369989721 -0.00013352789479891865 0 0.004391999195244114 -0.00024142050541643847 0 0.0043920384968342344 -0.00016232432279832877 0 0.0042794043372190232 -0.00020836278086476556 0 0.004391999195244114 -0.00024142050541643847 0 0.0044597051570544671 -0.00018366351496970344 0 0.0043920384968342344 -0.00016232432279832877 0 0.0043920384968342344 -0.00016232432279832877 0 0.0044049674236074868 -8.6361069020997043e-05 0 0.0043114440889711076 -0.00012189375742938239 0 0.0043920384968342344 -0.00016232432279832877 0 0.0044726023369989721 -0.00013352789479891865 0 0.0044049674236074868 -8.6361069020997043e-05 0 0.0044049674236074868 -8.6361069020997043e-05 0 0.0044370212467270704 -1.1398385978749095e-05 0 0.0045080166695158656 -6.0622179431782085e-05 0 0.0044726023369989721 -0.00013352789479891865 0 0.0044049674236074868 -8.6361069020997043e-05 0 0.0045080166695158656 -6.0622179431782085e-05 0 0.0044370212467270704 -1.1398385978749095e-05 0 0.0045080166695158656 -6.0622179431782085e-05 0 0.0044985162213761849 1.9305298684415517e-05 0 0.0045740016777752251 -6.9676626415671763e-05 0 0.0045080166695158656 -6.0622179431782085e-05 0 0.0045694060455428454 -5.3972098737859588e-07 0 0.0045547575526861603 -0.00011848275780564622 0 0.0045740016777752251 -6.9676626415671763e-05 0 0.0045080166695158656 -6.0622179431782085e-05 0 0.0040844167421752158 -6.3445716802299862e-05 0 0.0042976338740827024 -1.5592617513146224e-05 0 0.0041005944721448535 4.4988481359771897e-05 0 0.0040844167421752158 -6.3445716802299862e-05 0 0.0042976338740827024 -1.5592617513146224e-05 0 0.004166979756085998 -0.00014022423776595042 0 0.0042976338740827024 -1.5592617513146224e-05 0 0.0043114440889711076 -0.00012189375742938239 0 0.004166979756085998 -0.00014022423776595042 0 0.0044049674236074868 -8.6361069020997043e-05 0 0.0044370212467270704 -1.1398385978749095e-05 0 0.0042976338740827024 -1.5592617513146224e-05 0 0.0044049674236074868 -8.6361069020997043e-05 0 0.0042976338740827024 -1.5592617513146224e-05 0 0.0043114440889711076 -0.00012189375742938239 0 0.0043920384968342344 -0.00016232432279832877 0 0.0043114440889711076 -0.00012189375742938239 0 0.0042794043372190232 -0.00020836278086476556 0 0.0043114440889711076 -0.00012189375742938239 0 0.0042794043372190232 -0.00020836278086476556 0 0.004166979756085998 -0.00014022423776595042 0 0.004166979756085998 -0.00014022423776595042 0 0.0040473240455925832 -0.00021647674011192545 0 0.0039694185458060537 -0.00013524888161037 0 0.0042794043372190232 -0.00020836278086476556 0 0.004166979756085998 -0.00014022423776595042 0 0.0041502551113789888 -0.00023342759480523244 0 0.0040844167421752158 -6.3445716802299862e-05 0 0.004166979756085998 -0.00014022423776595042 0 0.0039694185458060537 -0.00013524888161037 0 0.004166979756085998 -0.00014022423776595042 0 0.0040473240455925832 -0.00021647674011192545 0 0.0041502551113789888 -0.00023342759480523244 0 0.0040473240455925832 -0.00021647674011192545 0 0.0041502551113789888 -0.00023342759480523244 0 0.004090282330804558 -0.00032156792468927554 0 0.0041502551113789888 -0.00023342759480523244 0 0.004090282330804558 -0.00032156792468927554 0 0.0042236876326636518 -0.00027892906763007089 0 0.004090282330804558 -0.00032156792468927554 0 0.0042236876326636518 -0.00027892906763007089 0 0.0042246101744997074 -0.00034278904336562492 0 0.004391999195244114 -0.00024142050541643847 0 0.0042794043372190232 -0.00020836278086476556 0 0.0042975156364286355 -0.00028718949847025236 0 0.0042794043372190232 -0.00020836278086476556 0 0.0042236876326636518 -0.00027892906763007089 0 0.0042975156364286355 -0.00028718949847025236 0 0.0042794043372190232 -0.00020836278086476556 0 0.0041502551113789888 -0.00023342759480523244 0 0.0042236876326636518 -0.00027892906763007089 0 0.0042236876326636518 -0.00027892906763007089 0 0.0042246101744997074 -0.00034278904336562492 0 0.0042975156364286355 -0.00028718949847025236 0 0.0042246101744997074 -0.00034278904336562492 0 0.0042975156364286355 -0.00028718949847025236 0 0.004324664438223675 -0.00038068658851100467 0 0.004391999195244114 -0.00024142050541643847 0 0.0042975156364286355 -0.00028718949847025236 0 0.004324664438223675 -0.00038068658851100467 0 0.0043684831427359726 -0.00032164241430554671 0 0.0043028695282721682 -0.00033435459252643371 0 0.0041944834025522621 -0.00040972661122172369 0 0.0041042424836873533 -0.00052795385507119436 0 0.0041385513313647055 -0.00049657780353689479 0 0.0040440331270112729 -0.00051262144055827811 0 0.004324664438223675 -0.00038068658851100467 0 0.0041449244831439453 -0.00040318880483906574 0 0.0041469037521248255 -0.00048308786737345062 0 0.0042246101744997074 -0.00034278904336562492 0 0.004324664438223675 -0.00038068658851100467 0 0.0041449244831439453 -0.00040318880483906574 0 0.0042855469405151487 -0.00036253197239505828 0 0.0042096783461992972 -0.00040965728963456802 0 0.0041758474671163316 -0.00043018141048090466 0 0.0041385513313647055 -0.00049657780353689479 0 0.0040440331270112729 -0.00051262144055827811 0 0.0043105596253651349 -0.00034422452796018964 0 0.0042096783461992972 -0.00040965728963456802 0 0.0041042424836873533 -0.00052795385507119436 0 0.0041404495412757708 -0.00053921868486444765 0 0.0041385513313647055 -0.00049657780353689479 0 0.004090282330804558 -0.00032156792468927554 0 0.0040392199015242434 -0.00043222067336388145 0 0.0039439148338340536 -0.00040420303605312165 0 0.004090282330804558 -0.00032156792468927554 0 0.0041449244831439453 -0.00040318880483906574 0 0.0040392199015242434 -0.00043222067336388145 0 0.004090282330804558 -0.00032156792468927554 0 0.0042246101744997074 -0.00034278904336562492 0 0.0041449244831439453 -0.00040318880483906574 0 0.004017345873266469 -0.00053320182134312943 0 0.0041449244831439453 -0.00040318880483906574 0 0.0041469037521248255 -0.00048308786737345062 0 0.004017345873266469 -0.00053320182134312943 0 0.0040392199015242434 -0.00043222067336388145 0 0.0039439148338340536 -0.00040420303605312165 0 0.004017345873266469 -0.00053320182134312943 0 0.0041449244831439453 -0.00040318880483906574 0 0.0040392199015242434 -0.00043222067336388145 0 0.0039439148338340536 -0.00040420303605312165 0 0.003803178666344879 -0.00041331541337758654 0 0.0039075851864255051 -0.00026699221879346015 0 0.0039439148338340536 -0.00040420303605312165 0 0.003803178666344879 -0.00041331541337758654 0 0.0038886653547550686 -0.00052437027902175299 0 0.003803178666344879 -0.00041331541337758654 0 0.0037037039808824556 -0.00026877882345902255 0 0.0036211439692684787 -0.00043472604445671037 0 0.003803178666344879 -0.00041331541337758654 0 0.0039075851864255051 -0.00026699221879346015 0 0.0037037039808824556 -0.00026877882345902255 0 0.0039075851864255051 -0.00026699221879346015 0 0.0037907563645324309 -0.00012858626602856149 0 0.0037037039808824556 -0.00026877882345902255 0 0.004090282330804558 -0.00032156792468927554 0 0.0039439148338340536 -0.00040420303605312165 0 0.0039075851864255051 -0.00026699221879346015 0 0.0040473240455925832 -0.00021647674011192545 0 0.004090282330804558 -0.00032156792468927554 0 0.0039075851864255051 -0.00026699221879346015 0 0.0039075851864255051 -0.00026699221879346015 0 0.0039694185458060537 -0.00013524888161037 0 0.0037907563645324309 -0.00012858626602856149 0 0.0040473240455925832 -0.00021647674011192545 0 0.0039075851864255051 -0.00026699221879346015 0 0.0039694185458060537 -0.00013524888161037 0 0.0039694185458060537 -0.00013524888161037 0 0.0037907563645324309 -0.00012858626602856149 0 0.0038894689437335107 9.5271188888148344e-06 0 0.0037907563645324309 -0.00012858626602856149 0 0.0038894689437335107 9.5271188888148344e-06 0 0.0036794181441588952 2.4962206997177787e-05 0 0.0040844167421752158 -6.3445716802299862e-05 0 0.0039694185458060537 -0.00013524888161037 0 0.0038894689437335107 9.5271188888148344e-06 0 0.0040844167421752158 -6.3445716802299862e-05 0 0.0038894689437335107 9.5271188888148344e-06 0 0.0041005944721448535 4.4988481359771897e-05 0 0.0035354084939528143 9.861876240680296e-06 0 0.0036794181441588952 2.4962206997177787e-05 0 0.0036038599681956752 -0.00012557805426174684 0 0.0037907563645324309 -0.00012858626602856149 0 0.0036794181441588952 2.4962206997177787e-05 0 0.0036038599681956752 -0.00012557805426174684 0 0.0037907563645324309 -0.00012858626602856149 0 0.0036038599681956752 -0.00012557805426174684 0 0.0037037039808824556 -0.00026877882345902255 0 0.0036038599681956752 -0.00012557805426174684 0 0.0034955864442519943 -0.00028161275483765954 0 0.0034379255664321335 -0.00010604279148020687 0 0.0035354084939528143 9.861876240680296e-06 0 0.0036038599681956752 -0.00012557805426174684 0 0.0034379255664321335 -0.00010604279148020687 0 0.0034554177344382083 -0.00016201429581179044 0 0.0034061600070192603 -4.5098589976471032e-05 0 0.0036038599681956752 -0.00012557805426174684 0 0.0037037039808824556 -0.00026877882345902255 0 0.0034955864442519943 -0.00028161275483765954 0 0.0037037039808824556 -0.00026877882345902255 0 0.0036211439692684787 -0.00043472604445671037 0 0.0034955864442519943 -0.00028161275483765954 0 0.0036211439692684787 -0.00043472604445671037 0 0.0034955864442519943 -0.00028161275483765954 0 0.0033736864766875886 -0.00051202882177618853 0 0.0036211439692684787 -0.00043472604445671037 0 0.0033736864766875886 -0.00051202882177618853 0 0.0035786263568098461 -0.00059932517860799292 0 0.0034260275250620779 -0.00067536982999185941 0 0.0035786263568098461 -0.00059932517860799292 0 0.003515401087431363 -0.00077026834586093912 0 0.0033736864766875886 -0.00051202882177618853 0 0.0034260275250620779 -0.00067536982999185941 0 0.0035786263568098461 -0.00059932517860799292 0 0.0035786263568098461 -0.00059932517860799292 0 0.0037451378010610248 -0.0005458149773105588 0 0.0037150002348669926 -0.00067112130747504152 0 0.0035786263568098461 -0.00059932517860799292 0 0.003515401087431363 -0.00077026834586093912 0 0.003631492533891958 -0.00073491929434943177 0 0.0035786263568098461 -0.00059932517860799292 0 0.0037150002348669926 -0.00067112130747504152 0 0.003631492533891958 -0.00073491929434943177 0 0.0036211439692684787 -0.00043472604445671037 0 0.0035786263568098461 -0.00059932517860799292 0 0.0037451378010610248 -0.0005458149773105588 0 0.003803178666344879 -0.00041331541337758654 0 0.0037451378010610248 -0.0005458149773105588 0 0.0038886653547550686 -0.00052437027902175299 0 0.003803178666344879 -0.00041331541337758654 0 0.0036211439692684787 -0.00043472604445671037 0 0.0037451378010610248 -0.0005458149773105588 0 0.0037451378010610248 -0.0005458149773105588 0 0.0038886653547550686 -0.00052437027902175299 0 0.0038458319429010564 -0.00064763082031933346 0 0.0038886653547550686 -0.00052437027902175299 0 0.0039585809410346597 -0.0006171321237843151 0 0.0038458319429010564 -0.00064763082031933346 0 0.004017345873266469 -0.00053320182134312943 0 0.0039439148338340536 -0.00040420303605312165 0 0.0038886653547550686 -0.00052437027902175299 0 0.004017345873266469 -0.00053320182134312943 0 0.0038886653547550686 -0.00052437027902175299 0 0.0039585809410346597 -0.0006171321237843151 0 0.0039585809410346597 -0.0006171321237843151 0 0.0038458319429010564 -0.00064763082031933346 0 0.003909797621049556 -0.00068918473631180744 0 0.0038458319429010564 -0.00064763082031933346 0 0.0038629060924981482 -0.00072290369390130512 0 0.003909797621049556 -0.00068918473631180744 0 0.0038458319429010564 -0.00064763082031933346 0 0.0038629060924981482 -0.00072290369390130512 0 0.0037937644747649711 -0.00074469204332815642 0 0.0039693914043092303 -0.00070783922416110855 0 0.0039585809410346597 -0.0006171321237843151 0 0.003909797621049556 -0.00068918473631180744 0 0.0039693914043092303 -0.00070783922416110855 0 0.003909797621049556 -0.00068918473631180744 0 0.0039090791493739769 -0.00074763276365097863 0 0.0038629060924981482 -0.00072290369390130512 0 0.003909797621049556 -0.00068918473631180744 0 0.0039090791493739769 -0.00074763276365097863 0 0.0037451378010610248 -0.0005458149773105588 0 0.0038458319429010564 -0.00064763082031933346 0 0.0037150002348669926 -0.00067112130747504152 0 0.0038458319429010564 -0.00064763082031933346 0 0.0037150002348669926 -0.00067112130747504152 0 0.0037937644747649711 -0.00074469204332815642 0 0.0037150002348669926 -0.00067112130747504152 0 0.0037025459638265071 -0.00081177582399140824 0 0.003631492533891958 -0.00073491929434943177 0 0.0037150002348669926 -0.00067112130747504152 0 0.0037937644747649711 -0.00074469204332815642 0 0.0037025459638265071 -0.00081177582399140824 0 0.0037937644747649711 -0.00074469204332815642 0 0.0037864892467104985 -0.00083222554837120686 0 0.0038531814278752112 -0.00078507845496324929 0 0.0037937644747649711 -0.00074469204332815642 0 0.0037864892467104985 -0.00083222554837120686 0 0.0037025459638265071 -0.00081177582399140824 0 0.0037864892467104985 -0.00083222554837120686 0 0.0037025459638265071 -0.00081177582399140824 0 0.0037182368589253429 -0.00088684400450407574 0 0.0039489758364333639 -0.00078433368121635949 0 0.0039090791493739769 -0.00074763276365097863 0 0.0039052968743136774 -0.00081184260956521819 0 0.0039090791493739769 -0.00074763276365097863 0 0.0038531814278752112 -0.00078507845496324929 0 0.0039052968743136774 -0.00081184260956521819 0 0.0038629060924981482 -0.00072290369390130512 0 0.0037937644747649711 -0.00074469204332815642 0 0.0038531814278752112 -0.00078507845496324929 0 0.0038629060924981482 -0.00072290369390130512 0 0.0039090791493739769 -0.00074763276365097863 0 0.0038531814278752112 -0.00078507845496324929 0 0.0037864892467104985 -0.00083222554837120686 0 0.0038531814278752112 -0.00078507845496324929 0 0.0038578942127830466 -0.00084987878430049259 0 0.0038531814278752112 -0.00078507845496324929 0 0.0039052968743136774 -0.00081184260956521819 0 0.0038578942127830466 -0.00084987878430049259 0 0.0039489758364333639 -0.00078433368121635949 0 0.00394400767543116 -0.00083772712023044943 0 0.0039052968743136774 -0.00081184260956521819 0 0.00394400767543116 -0.00083772712023044943 0 0.0039052968743136774 -0.00081184260956521819 0 0.0039119250290008097 -0.00088551366078795136 0 0.0039052968743136774 -0.00081184260956521819 0 0.0039119250290008097 -0.00088551366078795136 0 0.0038578942127830466 -0.00084987878430049259 0 0.0039119250290008097 -0.00088551366078795136 0 0.0038573016872135825 -0.00090702746132265936 0 0.0038578942127830466 -0.00084987878430049259 0 0.0038573016872135825 -0.00090702746132265936 0 0.0038578942127830466 -0.00084987878430049259 0 0.0037889540384449375 -0.00091196725377164093 0 0.003818365934006925 -0.00098757502006959885 0 0.0038573016872135825 -0.00090702746132265936 0 0.0037889540384449375 -0.00091196725377164093 0 0.003818365934006925 -0.00098757502006959885 0 0.0038573016872135825 -0.00090702746132265936 0 0.0038963709831561903 -0.00094218268803960203 0 0.0039119250290008097 -0.00088551366078795136 0 0.0038573016872135825 -0.00090702746132265936 0 0.0038963709831561903 -0.00094218268803960203 0 0.0039194884285923357 -0.00099188538851203382 0 0.0039552980618768321 -0.00092929555015188879 0 0.0038963709831561903 -0.00094218268803960203 0 0.0039552980618768321 -0.00092929555015188879 0 0.0039119250290008097 -0.00088551366078795136 0 0.0038963709831561903 -0.00094218268803960203 0 0.0037025459638265071 -0.00081177582399140824 0 0.0037182368589253429 -0.00088684400450407574 0 0.0036197909834323441 -0.00088798115479925722 0 0.0037182368589253429 -0.00088684400450407574 0 0.0037063127332460847 -0.00097892524566451701 0 0.0036197909834323441 -0.00088798115479925722 0 0.0037864892467104985 -0.00083222554837120686 0 0.0037182368589253429 -0.00088684400450407574 0 0.0037889540384449375 -0.00091196725377164093 0 0.0037864892467104985 -0.00083222554837120686 0 0.0038578942127830466 -0.00084987878430049259 0 0.0037889540384449375 -0.00091196725377164093 0 0.003818365934006925 -0.00098757502006959885 0 0.0037889540384449375 -0.00091196725377164093 0 0.0037063127332460847 -0.00097892524566451701 0 0.0037182368589253429 -0.00088684400450407574 0 0.0037889540384449375 -0.00091196725377164093 0 0.0037063127332460847 -0.00097892524566451701 0 0.0035894002626248233 -0.0010132034554212748 0 0.0036197909834323441 -0.00088798115479925722 0 0.0034657634646464769 -0.00093052636396675603 0 0.0035894002626248233 -0.0010132034554212748 0 0.0037063127332460847 -0.00097892524566451701 0 0.0036197909834323441 -0.00088798115479925722 0 0.0036197909834323441 -0.00088798115479925722 0 0.0034657634646464769 -0.00093052636396675603 0 0.003515401087431363 -0.00077026834586093912 0 0.0034657634646464769 -0.00093052636396675603 0 0.0033838350359478324 -0.00079255848696835297 0 0.003259190768663349 -0.00087815218911457024 0 0.0034657634646464769 -0.00093052636396675603 0 0.0033838350359478324 -0.00079255848696835297 0 0.003515401087431363 -0.00077026834586093912 0 0.0034260275250620779 -0.00067536982999185941 0 0.0033838350359478324 -0.00079255848696835297 0 0.003515401087431363 -0.00077026834586093912 0 0.0037025459638265071 -0.00081177582399140824 0 0.0036197909834323441 -0.00088798115479925722 0 0.003631492533891958 -0.00073491929434943177 0 0.0036197909834323441 -0.00088798115479925722 0 0.003515401087431363 -0.00077026834586093912 0 0.003631492533891958 -0.00073491929434943177 0 0.0031391897246381877 -0.00073715631218722517 0 0.0030290685946946284 -0.00085799133356196484 0 0.0030229529990109237 -0.00063180115989204359 0 0.0031391897246381877 -0.00073715631218722517 0 0.003259190768663349 -0.00087815218911457024 0 0.0030290685946946284 -0.00085799133356196484 0 0.0031391897246381877 -0.00073715631218722517 0 0.0032723209503933599 -0.0007014930433314905 0 0.003259190768663349 -0.00087815218911457024 0 0.0033838350359478324 -0.00079255848696835297 0 0.0032723209503933599 -0.0007014930433314905 0 0.003259190768663349 -0.00087815218911457024 0 0.0034260275250620779 -0.00067536982999185941 0 0.0033838350359478324 -0.00079255848696835297 0 0.0032723209503933599 -0.0007014930433314905 0 0.0033066445382905706 -0.0010293012088007278 0 0.0034657634646464769 -0.00093052636396675603 0 0.003259190768663349 -0.00087815218911457024 0 0.0033066445382905706 -0.0010293012088007278 0 0.003259190768663349 -0.00087815218911457024 0 0.0031433078431947633 -0.00099376902989729041 0 0.003259190768663349 -0.00087815218911457024 0 0.0031433078431947633 -0.00099376902989729041 0 0.0030290685946946284 -0.00085799133356196484 0 0.0028941291917943387 -0.0011138801906867067 0 0.0031433078431947633 -0.00099376902989729041 0 0.0030290685946946284 -0.00085799133356196484 0 0.0028941291917943387 -0.0011138801906867067 0 0.0030290685946946284 -0.00085799133356196484 0 0.0027533647575952083 -0.00081991584752672876 0 0.0017748015072507454 -0.00061370670336672445 0 0.0020027876554814064 -0.00044359807231760841 0 0.0014564134603024007 -4.3818041689547261e-05 0 0.0015070716760506248 -4.9728878633193405e-05 0 0.001477900826824363 -9.6847539022547984e-06 0 0.0015070716760506248 -4.9728878633193405e-05 0 0.001477900826824363 -9.6847539022547984e-06 0 0.001481386291631895 -5.514217765695102e-06 0 0.0030290685946946284 -0.00085799133356196484 0 0.0030229529990109237 -0.00063180115989204359 0 0.0028465216379667041 -0.00065602604076167744 0 0.0030290685946946284 -0.00085799133356196484 0 0.0027533647575952083 -0.00081991584752672876 0 0.0028465216379667041 -0.00065602604076167744 0 0.0030229529990109237 -0.00063180115989204359 0 0.0028120611759612762 -0.00045367598185077539 0 0.0030200745137230456 -0.00046220026305590937 0 0.0030229529990109237 -0.00063180115989204359 0 0.0028465216379667041 -0.00065602604076167744 0 0.0028120611759612762 -0.00045367598185077539 0 0.0028465216379667041 -0.00065602604076167744 0 0.0028120611759612762 -0.00045367598185077539 0 0.0026020431177785448 -0.00049920747784113872 0 0.0020027876554814064 -0.00044359807231760841 0 0.0020996028362882131 -0.00021478914905989592 0 0.0027533647575952083 -0.00081991584752672876 0 0.0028465216379667041 -0.00065602604076167744 0 0.0026020431177785448 -0.00049920747784113872 0 0.0028120611759612762 -0.00045367598185077539 0 0.0026571737453627768 -0.00032115814023188718 0 0.0025805744932740136 -0.00046497564089351313 0 0.0023319775322260734 -0.00021363192240872112 0 0.0020996028362882131 -0.00021478914905989592 0 0.0028120611759612762 -0.00045367598185077539 0 0.0029380502360287237 -0.00031092633159998895 0 0.0027516574914968448 -0.00026020502413346504 0 0.0028120611759612762 -0.00045367598185077539 0 0.0026571737453627768 -0.00032115814023188718 0 0.0027516574914968448 -0.00026020502413346504 0 0.0028120611759612762 -0.00045367598185077539 0 0.0030200745137230456 -0.00046220026305590937 0 0.0029380502360287237 -0.00031092633159998895 0 0.0030200745137230456 -0.00046220026305590937 0 0.0031699686160174432 -0.00055566807236325031 0 0.0031496990782664182 -0.00036383497676093131 0 0.0030200745137230456 -0.00046220026305590937 0 0.0031496990782664182 -0.00036383497676093131 0 0.0029380502360287237 -0.00031092633159998895 0 0.0031391897246381877 -0.00073715631218722517 0 0.0032723209503933599 -0.0007014930433314905 0 0.0031699686160174432 -0.00055566807236325031 0 0.0031391897246381877 -0.00073715631218722517 0 0.0030229529990109237 -0.00063180115989204359 0 0.0031699686160174432 -0.00055566807236325031 0 0.0030229529990109237 -0.00063180115989204359 0 0.0030200745137230456 -0.00046220026305590937 0 0.0031699686160174432 -0.00055566807236325031 0 0.0033736864766875886 -0.00051202882177618853 0 0.0034260275250620779 -0.00067536982999185941 0 0.0032723209503933599 -0.0007014930433314905 0 0.0033736864766875886 -0.00051202882177618853 0 0.0032723209503933599 -0.0007014930433314905 0 0.0031699686160174432 -0.00055566807236325031 0 0.0033736864766875886 -0.00051202882177618853 0 0.0031699686160174432 -0.00055566807236325031 0 0.0031496990782664182 -0.00036383497676093131 0 0.0034955864442519943 -0.00028161275483765954 0 0.0031496990782664182 -0.00036383497676093131 0 0.0031739121128407303 -0.00014864267504568815 0 0.0034955864442519943 -0.00028161275483765954 0 0.0033736864766875886 -0.00051202882177618853 0 0.0031496990782664182 -0.00036383497676093131 0 0.0031496990782664182 -0.00036383497676093131 0 0.0031739121128407303 -0.00014864267504568815 0 0.0030026160499030379 -0.00017381685970072779 0 0.0031496990782664182 -0.00036383497676093131 0 0.0030026160499030379 -0.00017381685970072779 0 0.0029380502360287237 -0.00031092633159998895 0 0.0031739121128407303 -0.00014864267504568815 0 0.0030064964973237122 -3.5594986871365163e-07 0 0.0030026160499030379 -0.00017381685970072779 0 0.0034955864442519943 -0.00028161275483765954 0 0.0031739121128407303 -0.00014864267504568815 0 0.0032812191709574363 3.6058925946415123e-05 0 0.0031739121128407303 -0.00014864267504568815 0 0.0032812191709574363 3.6058925946415123e-05 0 0.0030064964973237122 -3.5594986871365163e-07 0 0.0030064964973237122 -3.5594986871365163e-07 0 0.0028998177691147544 0.00015089391313759812 0 0.0031184139052459932 0.00024114583625028558 0 0.0032812191709574363 3.6058925946415123e-05 0 0.0030064964973237122 -3.5594986871365163e-07 0 0.0031184139052459932 0.00024114583625028558 0 0.0034061600070192603 -4.5098589976471032e-05 0 0.0034144785609245528 2.9165265441935497e-05 0 0.0035354084939528143 9.861876240680296e-06 0 0.0034379255664321335 -0.00010604279148020687 0 0.0033233907887256268 0.00011285056289357208 0 0.0028998177691147544 0.00015089391313759812 0 0.0028312528897368786 4.3137987653244945e-05 0 0.0027857664578669686 9.8265195694880882e-05 0 0.0030064964973237122 -3.5594986871365163e-07 0 0.0028998177691147544 0.00015089391313759812 0 0.0028312528897368786 4.3137987653244945e-05 0 0.0030064964973237122 -3.5594986871365163e-07 0 0.0028312528897368786 4.3137987653244945e-05 0 0.0027935831094904793 -0.00010771482710812524 0 0.0028312528897368786 4.3137987653244945e-05 0 0.0027935831094904793 -0.00010771482710812524 0 0.0027059518259083979 6.0397774161179794e-06 0 0.0028312528897368786 4.3137987653244945e-05 0 0.0027059518259083979 6.0397774161179794e-06 0 0.0027857664578669686 9.8265195694880882e-05 0 0.0030064964973237122 -3.5594986871365163e-07 0 0.0027935831094904793 -0.00010771482710812524 0 0.0030026160499030379 -0.00017381685970072779 0 0.0027935831094904793 -0.00010771482710812524 0 0.0030026160499030379 -0.00017381685970072779 0 0.0029380502360287237 -0.00031092633159998895 0 0.0027935831094904793 -0.00010771482710812524 0 0.0027516574914968448 -0.00026020502413346504 0 0.0025975209931859765 -0.00017782461887657015 0 0.0027935831094904793 -0.00010771482710812524 0 0.0029380502360287237 -0.00031092633159998895 0 0.0027516574914968448 -0.00026020502413346504 0 0.0026571737453627768 -0.00032115814023188718 0 0.0027516574914968448 -0.00026020502413346504 0 0.0025975209931859765 -0.00017782461887657015 0 0.0025975209931859765 -0.00017782461887657015 0 0.0024477540950331453 -0.00013929024707503784 0 0.0025108659484024912 -0.0002615647970824558 0 0.0025975209931859765 -0.00017782461887657015 0 0.0024477540950331453 -0.00013929024707503784 0 0.0025716228782896875 -6.4465270375907847e-05 0 0.0024477540950331453 -0.00013929024707503784 0 0.0025716228782896875 -6.4465270375907847e-05 0 0.0023269536644592113 -4.1340074869120168e-05 0 0.0024477540950331453 -0.00013929024707503784 0 0.0023269536644592113 -4.1340074869120168e-05 0 0.0022824469776784929 -0.00014618602151274276 0 0.0024477540950331453 -0.00013929024707503784 0 0.0022824469776784929 -0.00014618602151274276 0 0.0025108659484024912 -0.0002615647970824558 0 0.0025716228782896875 -6.4465270375907847e-05 0 0.0025925570405540862 3.3719184021484689e-05 0 0.0023269536644592113 -4.1340074869120168e-05 0 0.0027935831094904793 -0.00010771482710812524 0 0.0025975209931859765 -0.00017782461887657015 0 0.0025716228782896875 -6.4465270375907847e-05 0 0.0027935831094904793 -0.00010771482710812524 0 0.0025716228782896875 -6.4465270375907847e-05 0 0.0027059518259083979 6.0397774161179794e-06 0 0.0027059518259083979 6.0397774161179794e-06 0 0.0025925570405540862 3.3719184021484689e-05 0 0.0027857664578669686 9.8265195694880882e-05 0 0.0025716228782896875 -6.4465270375907847e-05 0 0.0027059518259083979 6.0397774161179794e-06 0 0.0025925570405540862 3.3719184021484689e-05 0 0.0025925570405540862 3.3719184021484689e-05 0 0.0027221574208263063 7.7167155354583637e-05 0 0.0026587695753557887 5.9376757122289731e-05 0 0.0025925570405540862 3.3719184021484689e-05 0 0.0027221574208263063 7.7167155354583637e-05 0 0.0027857664578669686 9.8265195694880882e-05 0 0.0024659447093707859 9.267877772396682e-08 0 0.0024255907368554612 2.0441199873268106e-05 0 0.0026587695753557887 5.9376757122289731e-05 0 0.0025925570405540862 3.3719184021484689e-05 0 0.0024255907368554612 2.0441199873268106e-05 0 0.0026587695753557887 5.9376757122289731e-05 0 0.0025925570405540862 3.3719184021484689e-05 0 0.0024255907368554612 2.0441199873268106e-05 0 0.0023269536644592113 -4.1340074869120168e-05 0 0.0024659447093707859 9.267877772396682e-08 0 0.0024255907368554612 2.0441199873268106e-05 0 0.0021775894930342 -2.1086356274075611e-08 0 0.0023269536644592113 -4.1340074869120168e-05 0 0.0018889853552688035 1.0112188572923022e-07 0 0.0022824469776784929 -0.00014618602151274276 0 0.0021775894930342 -2.1086356274075611e-08 0 0.0023269536644592113 -4.1340074869120168e-05 0 0.0018889853552688035 1.0112188572923022e-07 0 0.0024255907368554612 2.0441199873268106e-05 0 0.0021775894930342 -2.1086356274075611e-08 0 0.0023269536644592113 -4.1340074869120168e-05 0 0.0018889853552688035 1.0112188572923022e-07 0 0.0021730519243225305 -0.00025720892667369457 0 0.0022824469776784929 -0.00014618602151274276 0 0.0018889853552688035 1.0112188572923022e-07 0 0.0016013278055550405 -7.4858042826375586e-07 0 0.0021730519243225305 -0.00025720892667369457 0 0.0016009033086206651 -2.136455464276631e-07 0 0.0018689459324626079 -0.0001067220147922027 0 0.0016000145038044032 4.0085813155231608e-08 0 0.0014836395991815886 -2.2289701355245381e-05 0 0.0014885341177445219 1.1546128780418683e-05 0 0.0021730519243225305 -0.00025720892667369457 0 0.0022824469776784929 -0.00014618602151274276 0 0.0025108659484024912 -0.0002615647970824558 0 0.0021730519243225305 -0.00025720892667369457 0 0.0025108659484024912 -0.0002615647970824558 0 0.0025462405476268067 -0.00035220055922308938 0 0.0026571737453627768 -0.00032115814023188718 0 0.0025975209931859765 -0.00017782461887657015 0 0.0025108659484024912 -0.0002615647970824558 0 0.0021403655346902517 -0.00025705060825088687 0 0.0020996028362882131 -0.00021478914905989592 0 0.0026571737453627768 -0.00032115814023188718 0 0.0025108659484024912 -0.0002615647970824558 0 0.0025805744932740136 -0.00046497564089351313 0 0.0018689459324626079 -0.0001067220147922027 0 0.0020996028362882131 -0.00021478914905989592 0 0.0014836395991815886 -2.2289701355245381e-05 0 0.0014797771419982895 -1.4256932853142603e-05 0 0.0014812537847166578 -7.4281225487414606e-06 0 0.0014836395991815886 -2.2289701355245381e-05 0 0.0014853398795752211 -1.7578013444536574e-06 0 0.0014812537847166578 -7.4281225487414606e-06 0 0.0014853398795752211 -1.7578013444536574e-06 0 0.0014812537847166578 -7.4281225487414606e-06 0 0.0014902626659500406 -9.9379695881151378e-07 0 0.001477900826824363 -9.6847539022547984e-06 0 0.001481386291631895 -5.514217765695102e-06 0 0.0014812537847166578 -7.4281225487414606e-06 0 0.001481386291631895 -5.514217765695102e-06 0 0.0014797771419982895 -1.4256932853142603e-05 0 0.0014812537847166578 -7.4281225487414606e-06 0 0.001477900826824363 -9.6847539022547984e-06 0 0.0014812537847166578 -7.4281225487414606e-06 0 0.0014902626659500406 -9.9379695881151378e-07 0 0.0014599067195186066 -9.6210932595469845e-06 0 0.0014338674183371296 -1.2782238990766302e-05 0 0.0014564134603024007 -4.3818041689547261e-05 0 0.001477900826824363 -9.6847539022547984e-06 0 0.0014252094085900684 -1.5691375391409112e-05 0 0.0014011722173216511 -3.663765284820547e-05 0 0.0014564134603024007 -4.3818041689547261e-05 0 0.0014252094085900684 -1.5691375391409112e-05 0 0.0014338674183371296 -1.2782238990766302e-05 0 0.0013259683979176527 -2.6431660034615469e-05 0 0.0014011722173216511 -3.663765284820547e-05 0 0.0014252094085900684 -1.5691375391409112e-05 0 0.0013699800189937788 -2.3283696261324695e-05 0 0.0014902626659500406 -9.9379695881151378e-07 0 0.0014707260422821646 -2.176605227564485e-05 0 0.0014885341177445219 1.1546128780418683e-05 0 0.0011910439199149696 -0.00011301013072595937 0 0.0013259683979176527 -2.6431660034615469e-05 0 0.0011910439199149696 -0.00011301013072595937 0 0.0012871273281540255 -2.1551753636354328e-07 0 0.0013337125382625712 -9.0487007249636583e-06 0 0.0013055048963777397 4.4218622148229699e-06 0 0.0012876180451666102 1.0492709707753013e-08 0 0.0013259683979176527 -2.6431660034615469e-05 0 0.0013030597914368358 -1.3863264614174885e-07 0 0.0013164845259726397 3.5369882318159327e-08 0 0.0013032801405674123 -4.3705158223776195e-11 0 0.0013583762460597562 9.2375884798348157e-11 0 0.0013055048963777397 4.4218622148229699e-06 0 0.0012876180451666102 1.0492709707753013e-08 0 0.0013027065673363828 -1.0695022951521661e-08 0 0.0014707260422821646 -2.176605227564485e-05 0 0.0013592301132259105 -4.6077832958319071e-08 0 0.0014852760163823653 1.2163674315810872e-05 0 0.0013259683979176527 -2.6431660034615469e-05 0 0.0013585517843275837 -1.3850590729917346e-07 0 0.0016000145038044032 4.0085813155231608e-08 0 0.0013592301132259105 -4.6077832958319071e-08 0 0.0014852760163823653 1.2163674315810872e-05 0 0.0016000145038044032 4.0085813155231608e-08 0 0.0014852760163823653 1.2163674315810872e-05 0 0.0014885341177445219 1.1546128780418683e-05 0 0.0014707260422821646 -2.176605227564485e-05 0 0.0014852760163823653 1.2163674315810872e-05 0 0.0014885341177445219 1.1546128780418683e-05 0 0.0014836395991815886 -2.2289701355245381e-05 0 0.0014853398795752211 -1.7578013444536574e-06 0 0.0014885341177445219 1.1546128780418683e-05 0 0.0014853398795752211 -1.7578013444536574e-06 0 0.0014902626659500406 -9.9379695881151378e-07 0 0.0014885341177445219 1.1546128780418683e-05 0 0.0034978357529899047 -4.0935884263026781e-05 0 0.003609013180305379 -1.4541852519350223e-05 0 0.0036402211522108181 -3.9901796788070632e-05 0 0.0034978357529899047 -4.0935884263026781e-05 0 0.0034812183036588059 -1.1596082133693092e-05 0 0.003609013180305379 -1.4541852519350223e-05 0 0.0034812183036588059 -1.1596082133693092e-05 0 0.0036197177876244632 2.1189514342848904e-08 0 0.003609013180305379 -1.4541852519350223e-05 0 0.0034812183036588059 -1.1596082133693092e-05 0 0.0036197177876244632 2.1189514342848904e-08 0 0.0033311780156981829 -3.4136864253388198e-08 0 0.0036197177876244632 2.1189514342848904e-08 0 0.003609013180305379 -1.4541852519350223e-05 0 0.0037326139372270599 1.1403448361522308e-05 0 0.003609013180305379 -1.4541852519350223e-05 0 0.0037314714982693135 -1.6713913448903438e-06 0 0.0037326139372270599 1.1403448361522308e-05 0 0.003609013180305379 -1.4541852519350223e-05 0 0.0036402211522108181 -3.9901796788070632e-05 0 0.0037314714982693135 -1.6713913448903438e-06 0 0.0036402211522108181 -3.9901796788070632e-05 0 0.0038567029690941487 -5.4968063445070854e-06 0 0.0037314714982693135 -1.6713913448903438e-06 0 0.0036402211522108181 -3.9901796788070632e-05 0 0.003674725994785391 -8.3027697550293287e-05 0 0.0038567029690941487 -5.4968063445070854e-06 0 0.003674725994785391 -8.3027697550293287e-05 0 0.0038813395894172144 -3.4541440350539114e-05 0 0.0038567029690941487 -5.4968063445070854e-06 0 0.0036470630105042891 -6.7963784533589609e-05 0 0.0036467373865733139 -6.5126977586259677e-05 0 0.003674725994785391 -8.3027697550293287e-05 0 0.0034796914368084952 -7.002933584925508e-05 0 0.0035160528160572109 -7.6697139003013907e-05 0 0.0036402211522108181 -3.9901796788070632e-05 0 0.003674725994785391 -8.3027697550293287e-05 0 0.0035455844652969885 -6.4022604934458772e-05 0 0.003674725994785391 -8.3027697550293287e-05 0 0.0035455844652969885 -6.4022604934458772e-05 0 0.0034796914368084952 -7.002933584925508e-05 0 0.0034978357529899047 -4.0935884263026781e-05 0 0.0036402211522108181 -3.9901796788070632e-05 0 0.0035455844652969885 -6.4022604934458772e-05 0 0.0034978357529899047 -4.0935884263026781e-05 0 0.0035455844652969885 -6.4022604934458772e-05 0 0.003416042445550954 -6.3089395844707577e-05 0 0.003416042445550954 -6.3089395844707577e-05 0 0.0032806131449683294 -8.3825092799467835e-05 0 0.0033017679191510085 -3.155926108036709e-05 0 0.0034978357529899047 -4.0935884263026781e-05 0 0.003416042445550954 -6.3089395844707577e-05 0 0.0033017679191510085 -3.155926108036709e-05 0 0.0034796914368084952 -7.002933584925508e-05 0 0.0032806131449683294 -8.3825092799467835e-05 0 0.0035146337057523373 -8.5414172754049637e-05 0 0.0035210631435297246 -0.00010278954578624261 0 0.0036176475644886974 -6.4826423153108479e-05 0 0.0034796914368084952 -7.002933584925508e-05 0 0.0035146337057523373 -8.5414172754049637e-05 0 0.0035160528160572109 -7.6697139003013907e-05 0 0.0035455844652969885 -6.4022604934458772e-05 0 0.003416042445550954 -6.3089395844707577e-05 0 0.0034796914368084952 -7.002933584925508e-05 0 0.003416042445550954 -6.3089395844707577e-05 0 0.0034796914368084952 -7.002933584925508e-05 0 0.0032806131449683294 -8.3825092799467835e-05 0 0.0032806131449683294 -8.3825092799467835e-05 0 0.0030264945504102541 4.458395135675137e-05 0 0.0031103689950236048 -0.00018566495434673037 0 0.0032806131449683294 -8.3825092799467835e-05 0 0.0031405293293357661 8.3476265432404885e-06 0 0.0030264945504102541 4.458395135675137e-05 0 0.0032806131449683294 -8.3825092799467835e-05 0 0.0033017679191510085 -3.155926108036709e-05 0 0.0031405293293357661 8.3476265432404885e-06 0 0.0033017679191510085 -3.155926108036709e-05 0 0.0030684119336046979 2.7271321963665134e-05 0 0.0031528033055412759 1.9385650760781844e-06 0 0.0034978357529899047 -4.0935884263026781e-05 0 0.0034812183036588059 -1.1596082133693092e-05 0 0.0033017679191510085 -3.155926108036709e-05 0 0.0034812183036588059 -1.1596082133693092e-05 0 0.0033017679191510085 -3.155926108036709e-05 0 0.0033311780156981829 -3.4136864253388198e-08 0 0.0033017679191510085 -3.155926108036709e-05 0 0.0033311780156981829 -3.4136864253388198e-08 0 0.0031528033055412759 1.9385650760781844e-06 0 0.0033311780156981829 -3.4136864253388198e-08 0 0.0030428095948639932 2.7190201341651423e-08 0 0.0031528033055412759 1.9385650760781844e-06 0 0.0030428095948639932 2.7190201341651423e-08 0 0.0031528033055412759 1.9385650760781844e-06 0 0.002954864466597333 2.315635466369983e-05 0 0.0030684119336046979 2.7271321963665134e-05 0 0.0031528033055412759 1.9385650760781844e-06 0 0.002954864466597333 2.315635466369983e-05 0 0.0030684119336046979 2.7271321963665134e-05 0 0.002954864466597333 2.315635466369983e-05 0 0.0028495213877875571 5.8034842701378805e-05 0 0.0030428095948639932 2.7190201341651423e-08 0 0.002954864466597333 2.315635466369983e-05 0 0.0027543797245764058 6.9322682752287325e-08 0 0.0027543797245764058 6.9322682752287325e-08 0 0.0028495213877875571 5.8034842701378805e-05 0 0.002678683634315128 3.2993484681624114e-05 0 0.002954864466597333 2.315635466369983e-05 0 0.0027543797245764058 6.9322682752287325e-08 0 0.0028495213877875571 5.8034842701378805e-05 0 0.0028495213877875571 5.8034842701378805e-05 0 0.0026587695753557887 5.9376757122289731e-05 0 0.002678683634315128 3.2993484681624114e-05 0 0.0024659447093707859 9.267877772396682e-08 0 0.0026587695753557887 5.9376757122289731e-05 0 0.002678683634315128 3.2993484681624114e-05 0 0.0024659447093707859 9.267877772396682e-08 0 0.0027543797245764058 6.9322682752287325e-08 0 0.002678683634315128 3.2993484681624114e-05 0 0.0027221574208263063 7.7167155354583637e-05 0 0.0027857664578669686 9.8265195694880882e-05 0 0.0028511304596368424 0.00010488259570884651 0 0.0027857664578669686 9.8265195694880882e-05 0 0.0028511304596368424 0.00010488259570884651 0 0.0028852016679197334 0.00013061250925256281 0 0.0027221574208263063 7.7167155354583637e-05 0 0.0026587695753557887 5.9376757122289731e-05 0 0.0028511304596368424 0.00010488259570884651 0 0.0028495213877875571 5.8034842701378805e-05 0 0.0026587695753557887 5.9376757122289731e-05 0 0.0028511304596368424 0.00010488259570884651 0 0.0028495213877875571 5.8034842701378805e-05 0 0.0028511304596368424 0.00010488259570884651 0 0.0029838835596747754 7.729260100930453e-05 0 0.0028511304596368424 0.00010488259570884651 0 0.0029838835596747754 7.729260100930453e-05 0 0.0029350497004387095 0.00010383411111433642 0 0.0029838835596747754 7.729260100930453e-05 0 0.0030264945504102541 4.458395135675137e-05 0 0.0029350497004387095 0.00010383411111433642 0 0.0030684119336046979 2.7271321963665134e-05 0 0.0028495213877875571 5.8034842701378805e-05 0 0.0029838835596747754 7.729260100930453e-05 0 0.0033017679191510085 -3.155926108036709e-05 0 0.0030684119336046979 2.7271321963665134e-05 0 0.0031405293293357661 8.3476265432404885e-06 0 0.0030684119336046979 2.7271321963665134e-05 0 0.0029838835596747754 7.729260100930453e-05 0 0.0031405293293357661 8.3476265432404885e-06 0 0.0029838835596747754 7.729260100930453e-05 0 0.0031405293293357661 8.3476265432404885e-06 0 0.0030264945504102541 4.458395135675137e-05 0 0.0030264945504102541 4.458395135675137e-05 0 0.0029200077587211038 3.4512192229900567e-05 0 0.0029350497004387095 0.00010383411111433642 0 0.003940266625400324 8.5082461168631762e-05 0 0.0039325418592046106 8.3480967232654586e-05 0 0.0039410699525832893 8.2062578578301115e-05 0 0.0039385861762478783 8.8431636474332068e-05 0 0.003940266625400324 8.5082461168631762e-05 0 0.0039439187863353955 8.6231475042529329e-05 0 0.0039385861762478783 8.8431636474332068e-05 0 0.003940266625400324 8.5082461168631762e-05 0 0.0039325418592046106 8.3480967232654586e-05 0 0.0039325418592046106 8.3480967232654586e-05 0 0.0039396946611280868 7.9611245112119804e-05 0 0.0039410699525832893 8.2062578578301115e-05 0 0.0034876294912900723 6.1678271852979311e-05 0 0.0034281786483585431 8.081285463171659e-05 0 0.0039325418592046106 8.3480967232654586e-05 0 0.0039394761265613767 7.4793223883856414e-05 0 0.0039396946611280868 7.9611245112119804e-05 0 0.0029200077587211038 3.4512192229900567e-05 0 0.0029350497004387095 0.00010383411111433642 0 0.0028781033177367531 0.00011287660967095181 0 0.0028998177691147544 0.00015089391313759812 0 0.0028852016679197334 0.00013061250925256281 0 0.0028781033177367531 0.00011287660967095181 0 0.0028511304596368424 0.00010488259570884651 0 0.0029350497004387095 0.00010383411111433642 0 0.0028852016679197334 0.00013061250925256281 0 0.0029350497004387095 0.00010383411111433642 0 0.0028852016679197334 0.00013061250925256281 0 0.0028781033177367531 0.00011287660967095181 0 0.0028998177691147544 0.00015089391313759812 0 0.0027857664578669686 9.8265195694880882e-05 0 0.0028852016679197334 0.00013061250925256281 0 0.0028998177691147544 0.00015089391313759812 0 0.0028697843752347038 0.00014389224198432378 0 0.0028781033177367531 0.00011287660967095181 0 0.0034144785609245528 2.9165265441935497e-05 0 0.0037130065168596927 9.0807885063642506e-05 0 0.0039429455214593373 6.4655603838929796e-05 0 0.0039467823858542151 7.2071403344882838e-05 0 0.0039538657261921342 6.6356462097167076e-05 0 0.0035354084939528143 9.861876240680296e-06 0 0.0033233907887256268 0.00011285056289357208 0 0.0035289394832773765 0.00017278648470747259 0 0.0031745450871527477 1.553043517276338e-05 0 0.0034144785609245528 2.9165265441935497e-05 0 0.0039467823858542151 7.2071403344882838e-05 0 0.0039394761265613767 7.4793223883856414e-05 0 0.0039445410013697777 7.7068211411539399e-05 0 0.0034144785609245528 2.9165265441935497e-05 0 0.0034281786483585431 8.081285463171659e-05 0 0.0039429455214593373 6.4655603838929796e-05 0 0.0039467823858542151 7.2071403344882838e-05 0 0.0039394761265613767 7.4793223883856414e-05 0 0.0039467823858542151 7.2071403344882838e-05 0 0.0039506394719051856 7.6258268369948769e-05 0 0.0039514527958580186 7.2027208321940854e-05 0 0.0039467823858542151 7.2071403344882838e-05 0 0.0039506394719051856 7.6258268369948769e-05 0 0.0039445410013697777 7.7068211411539399e-05 0 0.0039493252890945236 7.9725790532844183e-05 0 0.0039445410013697777 7.7068211411539399e-05 0 0.0039421507380193298 8.137925520868045e-05 0 0.0039506394719051856 7.6258268369948769e-05 0 0.0039493252890945236 7.9725790532844183e-05 0 0.0039445410013697777 7.7068211411539399e-05 0 0.0039394761265613767 7.4793223883856414e-05 0 0.0039445410013697777 7.7068211411539399e-05 0 0.0039415135691903786 7.8776318043133028e-05 0 0.0039445410013697777 7.7068211411539399e-05 0 0.0039415135691903786 7.8776318043133028e-05 0 0.0039421507380193298 8.137925520868045e-05 0 0.0039394761265613767 7.4793223883856414e-05 0 0.0039415135691903786 7.8776318043133028e-05 0 0.0039396946611280868 7.9611245112119804e-05 0 0.0039415135691903786 7.8776318043133028e-05 0 0.0039396946611280868 7.9611245112119804e-05 0 0.0039417405798968293 8.1340015443988689e-05 0 0.0039396946611280868 7.9611245112119804e-05 0 0.0039410699525832893 8.2062578578301115e-05 0 0.0039417405798968293 8.1340015443988689e-05 0 0.0039415135691903786 7.8776318043133028e-05 0 0.0039417405798968293 8.1340015443988689e-05 0 0.0039421507380193298 8.137925520868045e-05 0 0.0039944689521710834 8.7897364747494255e-05 0 0.0039946991021511677 8.7912532789584784e-05 0 0.0039919515531538991 8.8446435899800006e-05 0 0.0039946991021511677 8.7912532789584784e-05 0 0.0039410699525832893 8.2062578578301115e-05 0 0.0039453105543193557 8.091847932061281e-05 0 0.0039445307404760953 8.3138414653739556e-05 0 0.0039410699525832893 8.2062578578301115e-05 0 0.0039417405798968293 8.1340015443988689e-05 0 0.003942027537582455 8.1245320849296525e-05 0 0.0039946991021511677 8.7912532789584784e-05 0 0.0040156625317959299 8.6090620093618364e-05 0 0.0039453105543193557 8.091847932061281e-05 0 0.0039445307404760953 8.3138414653739556e-05 0 0.0039509434191055222 8.1283305895908688e-05 0 0.0039899275880760938 6.3334362899483725e-05 0 0.0039946237582453607 6.3564509272063516e-05 0 0.0039716073634053269 8.5157588244857431e-05 0 0.0039840692291443283 9.6565971543279821e-05 0 0.0040156625317959299 8.6090620093618364e-05 0 0.0040301615049828975 8.570799982617835e-05 0 0.0040049265264285776 9.5455956066747106e-05 0 0.0039445307404760953 8.3138414653739556e-05 0 0.0039439187863353955 8.6231475042529329e-05 0 0.0039509434191055222 8.1283305895908688e-05 0 0.0039637902831659837 8.0503207691696101e-05 0 0.0039899275880760938 6.3334362899483725e-05 0 0.0039716073634053269 8.5157588244857431e-05 0 0.003940266625400324 8.5082461168631762e-05 0 0.0039410699525832893 8.2062578578301115e-05 0 0.0039445307404760953 8.3138414653739556e-05 0 0.003940266625400324 8.5082461168631762e-05 0 0.0039445307404760953 8.3138414653739556e-05 0 0.0039439187863353955 8.6231475042529329e-05 0 0.0040101888808055375 8.8220268867069619e-05 0 0.0039946991021511677 8.7912532789584784e-05 0 0.0040104274870107785 8.5913979647254338e-05 0 0.0040059536159514162 8.7232671072197873e-05 0 0.004008264189378827 8.7371754580536307e-05 0 0.0040301615049828975 8.570799982617835e-05 0 0.0041963671211204083 8.7160640160969074e-05 0 0.0040101353873814799 4.8207446493882185e-05 0 0.0040097293106872755 7.2839298460707197e-05 0 0.0040493064807295351 5.0187575992587325e-05 0 0.0041062310078114261 8.5798709422659853e-05 0 0.004098519729441974 9.2904329640992607e-05 0 0.0041137450459852462 9.3774479926453396e-05 0 0.0040101888808055375 8.8220268867069619e-05 0 0.0040301615049828975 8.570799982617835e-05 0 0.0040093822724048909 9.1633057149797896e-05 0 0.0040330896154636845 7.4899407292938229e-05 0 0.0040271423068741919 7.4637833336499047e-05 0 0.0040101888808055375 8.8220268867069619e-05 0 0.0040156625317959299 8.6090620093618364e-05 0 0.0040156625317959299 8.6090620093618364e-05 0 0.0040301615049828975 8.570799982617835e-05 0 0.0040101353873814799 4.8207446493882185e-05 0 0.0040097293106872755 7.2839298460707197e-05 0 0.0039780868226879252 7.8023105450739688e-05 0 0.0041396971299093935 8.9460105394735461e-05 0 0.0041963671211204083 8.7160640160969074e-05 0 0.0043650379473384824 0.00013559493747393721 0 0.0043883430279692071 0.00014595140699037341 0 0.0043879700741894139 0.00012238812407393949 0 0.0041396971299093935 8.9460105394735461e-05 0 0.004247783505517572 0.00013477680811192742 0 0.0043650379473384824 0.00013559493747393721 0 0.0043797810987140778 0.00017741436331288472 0 0.0043883430279692071 0.00014595140699037341 0 0.0040036464464332745 7.4958950305878907e-05 0 0.00402518135577904 0.00013406009783890847 0 0.0039778485218261994 0.00012901528368794611 0 0.00402518135577904 0.00013406009783890847 0 0.0039778485218261994 0.00012901528368794611 0 0.0039997394467429287 0.00015851280914128395 0 0.0039778485218261994 0.00012901528368794611 0 0.0039470966479263738 0.00013171072196966206 0 0.0039542801669657972 0.00016010038650973873 0 0.0039778485218261994 0.00012901528368794611 0 0.0039486428913865267 0.00010667763398969967 0 0.0039470966479263738 0.00013171072196966206 0 0.0039778485218261994 0.00012901528368794611 0 0.0039714804336978722 9.4097004124401874e-05 0 0.0039486428913865267 0.00010667763398969967 0 0.0040036464464332745 7.4958950305878907e-05 0 0.0039778485218261994 0.00012901528368794611 0 0.0039714804336978722 9.4097004124401874e-05 0 0.0041396971299093935 8.9460105394735461e-05 0 0.0040949891650007755 0.00010580288908214111 0 0.0040097293106872755 7.2839298460707197e-05 0 0.0039780868226879252 7.8023105450739688e-05 0 0.0039714804336978722 9.4097004124401874e-05 0 0.0040049265264285776 9.5455956066747106e-05 0 0.0039936951154060625 0.00010172901078280607 0 0.0039637902831659837 8.0503207691696101e-05 0 0.0039716073634053269 8.5157588244857431e-05 0 0.0039486428913865267 0.00010667763398969967 0 0.0039780868226879252 7.8023105450739688e-05 0 0.0039714804336978722 9.4097004124401874e-05 0 0.0039486428913865267 0.00010667763398969967 0 0.0039637902831659837 8.0503207691696101e-05 0 0.0039366432634976014 9.8733156189017033e-05 0 0.0039486428913865267 0.00010667763398969967 0 0.0039385861762478783 8.8431636474332068e-05 0 0.0039439187863353955 8.6231475042529329e-05 0 0.0039366432634976014 9.8733156189017033e-05 0 0.0039325418592046106 8.3480967232654586e-05 0 0.0039366432634976014 9.8733156189017033e-05 0 0.0039290353070951878 0.0001158820743058849 0 0.0039840692291443283 9.6565971543279821e-05 0 0.0039726252334757236 0.00010105157894534161 0 0.0039385861762478783 8.8431636474332068e-05 0 0.0039325418592046106 8.3480967232654586e-05 0 0.0039366432634976014 9.8733156189017033e-05 0 0.0039366432634976014 9.8733156189017033e-05 0 0.0039486428913865267 0.00010667763398969967 0 0.0039290353070951878 0.0001158820743058849 0 0.0029200077587211038 3.4512192229900567e-05 0 0.0030056712603352535 -0.00011180874943728335 0 0.0029975664251812974 -0.00011668592411688909 0 0.0034876294912900723 6.1678271852979311e-05 0 0.0036445435103477837 -4.8972064350173768e-05 0 0.0030264945504102541 4.458395135675137e-05 0 0.0029200077587211038 3.4512192229900567e-05 0 0.0030056712603352535 -0.00011180874943728335 0 0.0039325418592046106 8.3480967232654586e-05 0 0.0039059025692367959 0.00012679854643882923 0 0.0039290353070951878 0.0001158820743058849 0 0.0034601464985034459 -5.2423596469670228e-05 0 0.0036176475644886974 -6.4826423153108479e-05 0 0.0036629491235615199 7.6619243553416929e-05 0 0.0035902419162809627 3.3258621411845719e-05 0 0.0036416371648567833 -6.8687906396801136e-05 0 0.0036176475644886974 -6.4826423153108479e-05 0 0.0036445435103477837 -4.8972064350173768e-05 0 0.0041733052740143958 -0.00035886987026036762 0 0.0041662522781430924 -0.00034443481136386879 0 0.0042353394746863643 -0.00025593498530085103 0 0.0036445435103477837 -4.8972064350173768e-05 0 0.0036467373865733139 -6.5126977586259677e-05 0 0.0036176475644886974 -6.4826423153108479e-05 0 0.0036467373865733139 -6.5126977586259677e-05 0 0.0039059025692367959 0.00012679854643882923 0 0.0039470966479263738 0.00013171072196966206 0 0.0039542801669657972 0.00016010038650973873 0 0.0039059025692367959 0.00012679854643882923 0 0.0039290353070951878 0.0001158820743058849 0 0.0039470966479263738 0.00013171072196966206 0 0.0036445435103477837 -4.8972064350173768e-05 0 0.0040634240339713383 1.9763875311740567e-05 0 0.0039486428913865267 0.00010667763398969967 0 0.0039290353070951878 0.0001158820743058849 0 0.0039470966479263738 0.00013171072196966206 0 0.0041733052740143958 -0.00035886987026036762 0 0.0043481372892676404 -0.00025638734209168604 0 0.0042353394746863643 -0.00025593498530085103 0 0.0043481372892676404 -0.00025638734209168604 0 0.0042972258271728693 -0.00017221362165302561 0 0.0044300723458609468 -0.00014710406277460716 0 0.0043481372892676404 -0.00025638734209168604 0 0.0042353394746863643 -0.00025593498530085103 0 0.0042972258271728693 -0.00017221362165302561 0 0.003674725994785391 -8.3027697550293287e-05 0 0.003759229686848645 -0.00026260009200496245 0 0.0038813395894172144 -3.4541440350539114e-05 0 0.0041662522781430924 -0.00034443481136386879 0 0.0042353394746863643 -0.00025593498530085103 0 0.0041956885213648085 -0.00014738345348080438 0 0.0036467373865733139 -6.5126977586259677e-05 0 0.0038673263135299502 -2.3719513109102805e-05 0 0.0042353394746863643 -0.00025593498530085103 0 0.0041956885213648085 -0.00014738345348080438 0 0.0042972258271728693 -0.00017221362165302561 0 0.0041956885213648085 -0.00014738345348080438 0 0.0042972258271728693 -0.00017221362165302561 0 0.0043189627620607617 -6.3624916293751811e-05 0 0.0042972258271728693 -0.00017221362165302561 0 0.0044300723458609468 -0.00014710406277460716 0 0.0043189627620607617 -6.3624916293751811e-05 0 0.0044300723458609468 -0.00014710406277460716 0 0.0044793336073793563 -2.9918973233849848e-05 0 0.0043189627620607617 -6.3624916293751811e-05 0 0.0043481372892676404 -0.00025638734209168604 0 0.0044300723458609468 -0.00014710406277460716 0 0.004529117862492286 -0.00014432580233195771 0 0.0045177777109191479 -0.00013134604658595193 0 0.0045667201072597113 -4.1787500092171211e-05 0 0.0044793336073793563 -2.9918973233849848e-05 0 0.0045177777109191479 -0.00013134604658595193 0 0.0046211635701436113 -0.00011974024801981878 0 0.0045667201072597113 -4.1787500092171211e-05 0 0.0044300723458609468 -0.00014710406277460716 0 0.0045177777109191479 -0.00013134604658595193 0 0.0044793336073793563 -2.9918973233849848e-05 0 0.0042844796450973938 5.6090533634744791e-05 0 0.0043827167653688942 0.00014491735394014216 0 0.0043242260359820563 4.3133099033008907e-05 0 0.0042844796450973938 5.6090533634744791e-05 0 0.00402518135577904 0.00013406009783890847 0 0.0039997394467429287 0.00015851280914128395 0 0.0040478119447384464 0.00019395954920654155 0 0.0040089219487525361 0.00019310301240722881 0 0.0039997394467429287 0.00015851280914128395 0 0.0040478119447384464 0.00019395954920654155 0 0.0039778485218261994 0.00012901528368794611 0 0.0039542801669657972 0.00016010038650973873 0 0.0039997394467429287 0.00015851280914128395 0 0.0040634240339713383 1.9763875311740567e-05 0 0.0042844796450973938 5.6090533634744791e-05 0 0.0039542801669657972 0.00016010038650973873 0 0.0040089219487525361 0.00019310301240722881 0 0.0039997394467429287 0.00015851280914128395 0 0.0044125115808840727 0.00019219806950482529 0 0.0043944495194214589 0.00022109338678405634 0 0.0044294501785713042 0.00022298868888631431 0 0.0044125115808840727 0.00019219806950482529 0 0.0044294501785713042 0.00022298868888631431 0 0.0044363866009668488 0.00019380437430279596 0 0.0043797810987140778 0.00017741436331288472 0 0.0044125115808840727 0.00019219806950482529 0 0.0043944495194214589 0.00022109338678405634 0 0.004247783505517572 0.00013477680811192742 0 0.0043827167653688942 0.00014491735394014216 0 0.0043827167653688942 0.00014491735394014216 0 0.0044922316552303771 0.00018190441084574508 0 0.004685135068535593 0.00024003649018005139 0 0.004636860336310944 0.00023907142508468763 0 0.004669775930629636 0.00019358061104872412 0 0.0044922316552303771 0.00018190441084574508 0 0.0045189121540163699 0.00019835090815016395 0 0.0044294501785713042 0.00022298868888631431 0 0.0044682525696448927 0.00022523530878522166 0 0.0044363866009668488 0.00019380437430279596 0 0.004636860336310944 0.00023907142508468763 0 0.0045856159725459538 0.00023557376345636498 0 0.004597788609245838 0.00020274746005858661 0 0.0045856159725459538 0.00023557376345636498 0 0.0045260814773499481 0.00021980472599706475 0 0.0045645819335348829 0.00019897924931819427 0 0.0045189121540163699 0.00019835090815016395 0 0.0045238984118669305 0.00020252026042286156 0 0.0044682525696448927 0.00022523530878522166 0 0.0044632197496988334 0.00018339696641051948 0 0.0044954478609147532 0.00019855601640589434 0 0.0044682525696448927 0.00022523530878522166 0 0.0044363866009668488 0.00019380437430279596 0 0.0044632197496988334 0.00018339696641051948 0 0.0044363866009668488 0.00019380437430279596 0 0.0044331061401823085 0.00016575944468604243 0 0.0044632197496988334 0.00018339696641051948 0 0.0044331061401823085 0.00016575944468604243 0 0.0044632197496988334 0.00018339696641051948 0 0.0044610252932247036 0.00015079115296675753 0 0.0044632197496988334 0.00018339696641051948 0 0.0044870623840384026 0.0001755257505562968 0 0.0044954478609147532 0.00019855601640589434 0 0.0044632197496988334 0.00018339696641051948 0 0.0044610252932247036 0.00015079115296675753 0 0.0044870623840384026 0.0001755257505562968 0 0.0044610252932247036 0.00015079115296675753 0 0.0044375639065380064 0.0001424247009016941 0 0.0044508202378506492 0.00012914292135715057 0 0.0044331061401823085 0.00016575944468604243 0 0.0044610252932247036 0.00015079115296675753 0 0.0044375639065380064 0.0001424247009016941 0 0.0044331061401823085 0.00016575944468604243 0 0.0044375639065380064 0.0001424247009016941 0 0.004420019459361468 0.00014430282743250867 0 0.0044331061401823085 0.00016575944468604243 0 0.004420019459361468 0.00014430282743250867 0 0.0044049539638734555 0.00015691457981249424 0 0.004420019459361468 0.00014430282743250867 0 0.0044049539638734555 0.00015691457981249424 0 0.0044037401297945854 0.00013762670477687015 0 0.0044125115808840727 0.00019219806950482529 0 0.0044363866009668488 0.00019380437430279596 0 0.0044331061401823085 0.00016575944468604243 0 0.0044125115808840727 0.00019219806950482529 0 0.0044331061401823085 0.00016575944468604243 0 0.0044049539638734555 0.00015691457981249424 0 0.0043797810987140778 0.00017741436331288472 0 0.0044125115808840727 0.00019219806950482529 0 0.0044049539638734555 0.00015691457981249424 0 0.0043797810987140778 0.00017741436331288472 0 0.0044049539638734555 0.00015691457981249424 0 0.0043883430279692071 0.00014595140699037341 0 0.0044049539638734555 0.00015691457981249424 0 0.0043883430279692071 0.00014595140699037341 0 0.0044037401297945854 0.00013762670477687015 0 0.0041963671211204083 8.7160640160969074e-05 0 0.0043678731304567231 0.00010743456079556843 0 0.0043883430279692071 0.00014595140699037341 0 0.0044037401297945854 0.00013762670477687015 0 0.0043879700741894139 0.00012238812407393949 0 0.0044037401297945854 0.00013762670477687015 0 0.0043879700741894139 0.00012238812407393949 0 0.0044210555158241413 0.00012495453658712441 0 0.0044197584645836565 0.00012784919183532616 0 0.0044362497539021887 0.00012853895227694126 0 0.0044340410829830663 0.00012050033184633611 0 0.0044375639065380064 0.0001424247009016941 0 0.004420019459361468 0.00014430282743250867 0 0.0044210555158241413 0.00012495453658712441 0 0.004420019459361468 0.00014430282743250867 0 0.0044037401297945854 0.00013762670477687015 0 0.0044210555158241413 0.00012495453658712441 0 0.0041325455827978313 8.3189098951596462e-05 0 0.0041293192523245035 7.9048610233675866e-05 0 0.0041513516742166783 7.2864187383838059e-05 0 0.0040660269361041 9.1074082120694294e-05 0 0.0041537360171130687 9.0305599482878279e-05 0 0.0039619689898672773 8.1405141165589171e-05 0 0.0039711380564619774 7.5209068895867775e-05 0 0.0039761675715329105 7.8097833251665252e-05 0 0.0042159761962686487 7.6788598826813464e-05 0 0.0041537360171130687 9.0305599482878279e-05 0 0.0044362497539021887 0.00012853895227694126 0 0.0044340410829830663 0.00012050033184633611 0 0.0044432107592288043 0.00012278018028167353 0 0.0039619689898672773 8.1405141165589171e-05 0 0.0039580972726760656 8.0047978148744633e-05 0 0.0039656474127466295 7.4346959615077013e-05 0 0.0039508127128596998 8.4483873176707748e-05 0 0.0039619689898672773 8.1405141165589171e-05 0 0.0039580972726760656 8.0047978148744633e-05 0 0.0040101888808055375 8.8220268867069619e-05 0 0.0040660269361041 9.1074082120694294e-05 0 0.0041963671211204083 8.7160640160969074e-05 0 0.0042159761962686487 7.6788598826813464e-05 0 0.0041062310078114261 8.5798709422659853e-05 0 0.0041137450459852462 9.3774479926453396e-05 0 0.0041293192523245035 7.9048610233675866e-05 0 0.0041137450459852462 9.3774479926453396e-05 0 0.0041325455827978313 8.3189098951596462e-05 0 0.0041293192523245035 7.9048610233675866e-05 0 0.0040101888808055375 8.8220268867069619e-05 0 0.0039862134386756372 9.2581120924818065e-05 0 0.0039506394719051856 7.6258268369948769e-05 0 0.0039551714429414686 7.5883752629809175e-05 0 0.0039528409858963932 7.4436332464478843e-05 0 0.0040101888808055375 8.8220268867069619e-05 0 0.0039883351620608317 9.1177857070394146e-05 0 0.0039506394719051856 7.6258268369948769e-05 0 0.0039493252890945236 7.9725790532844183e-05 0 0.0039551714429414686 7.5883752629809175e-05 0 0.0039516763096960877 8.3872363521744485e-05 0 0.0039580669937137325 7.9414333979415476e-05 0 0.003957271529915111 7.7873307473457507e-05 0 0.0039506394719051856 7.6258268369948769e-05 0 0.0039528409858963932 7.4436332464478843e-05 0 0.0039514527958580186 7.2027208321940854e-05 0 0.0039540926126588223 7.3504174889329276e-05 0 0.0039514527958580186 7.2027208321940854e-05 0 0.0039572201304120874 7.1107458152908578e-05 0 0.0039467823858542151 7.2071403344882838e-05 0 0.0039514527958580186 7.2027208321940854e-05 0 0.0039538657261921342 6.6356462097167076e-05 0 0.0039551714429414686 7.5883752629809175e-05 0 0.0039528409858963932 7.4436332464478843e-05 0 0.0039540926126588223 7.3504174889329276e-05 0 0.0039528409858963932 7.4436332464478843e-05 0 0.0039540926126588223 7.3504174889329276e-05 0 0.0039514527958580186 7.2027208321940854e-05 0 0.0039514527958580186 7.2027208321940854e-05 0 0.0039572201304120874 7.1107458152908578e-05 0 0.0039538657261921342 6.6356462097167076e-05 0 0.0039572201304120874 7.1107458152908578e-05 0 0.0039640507444106392 7.0241613195342681e-05 0 0.0039538657261921342 6.6356462097167076e-05 0 0.0039551714429414686 7.5883752629809175e-05 0 0.0039572201304120874 7.1107458152908578e-05 0 0.0039640507444106392 7.0241613195342681e-05 0 0.0039551714429414686 7.5883752629809175e-05 0 0.0039540926126588223 7.3504174889329276e-05 0 0.0039572201304120874 7.1107458152908578e-05 0 0.0039580669937137325 7.9414333979415476e-05 0 0.003957271529915111 7.7873307473457507e-05 0 0.0039656474127466295 7.4346959615077013e-05 0 0.0039883351620608317 9.1177857070394146e-05 0 0.0039840520191142311 8.9853630659894257e-05 0 0.0039862134386756372 9.2581120924818065e-05 0 0.0039819392054196781 9.2194851096984276e-05 0 0.0039640507444106392 7.0241613195342681e-05 0 0.0039538657261921342 6.6356462097167076e-05 0 0.0039702684982697708 6.9614217810914353e-05 0 0.003957271529915111 7.7873307473457507e-05 0 0.0039656474127466295 7.4346959615077013e-05 0 0.0039640507444106392 7.0241613195342681e-05 0 0.0039619689898672773 8.1405141165589171e-05 0 0.0039656474127466295 7.4346959615077013e-05 0 0.0039711380564619774 7.5209068895867775e-05 0 0.0039656474127466295 7.4346959615077013e-05 0 0.0039702684982697708 6.9614217810914353e-05 0 0.0039711380564619774 7.5209068895867775e-05 0 0.0039656474127466295 7.4346959615077013e-05 0 0.0039640507444106392 7.0241613195342681e-05 0 0.0039702684982697708 6.9614217810914353e-05 0 0.0037130065168596927 9.0807885063642506e-05 0 0.003897336537858878 0.00010975043904604111 0 0.0036794181441588952 2.4962206997177787e-05 0 0.0035289394832773765 0.00017278648470747259 0 0.0037571282202733102 0.00023702030651847963 0 0.0035354084939528143 9.861876240680296e-06 0 0.0036794181441588952 2.4962206997177787e-05 0 0.0035289394832773765 0.00017278648470747259 0 0.0038894689437335107 9.5271188888148344e-06 0 0.0039606034551438471 0.0001489986083466867 0 0.0041005944721448535 4.4988481359771897e-05 0 0.0039606034551438471 0.0001489986083466867 0 0.0041005944721448535 4.4988481359771897e-05 0 0.0041140759423644304 0.00015715488010665035 0 0.0038894689437335107 9.5271188888148344e-06 0 0.0039606034551438471 0.0001489986083466867 0 0.0037571282202733102 0.00023702030651847963 0 0.0038894689437335107 9.5271188888148344e-06 0 0.0036794181441588952 2.4962206997177787e-05 0 0.0037571282202733102 0.00023702030651847963 0 0.0039606034551438471 0.0001489986083466867 0 0.0037571282202733102 0.00023702030651847963 0 0.004026625465136071 0.00031352961425643456 0 0.003897336537858878 0.00010975043904604111 0 0.0041391501902796621 0.00011430818998300885 0 0.0039702684982697708 6.9614217810914353e-05 0 0.0039794722966247278 7.6485641858905067e-05 0 0.0039891005206976844 7.4504504012024773e-05 0 0.0039702684982697708 6.9614217810914353e-05 0 0.0039711380564619774 7.5209068895867775e-05 0 0.0039794722966247278 7.6485641858905067e-05 0 0.0039711380564619774 7.5209068895867775e-05 0 0.0039761675715329105 7.8097833251665252e-05 0 0.0039794722966247278 7.6485641858905067e-05 0 0.0041537360171130687 9.0305599482878279e-05 0 0.0041486341814900834 9.2211442159222012e-05 0 0.0039762768572820899 7.8335648652830655e-05 0 0.0039794722966247278 7.6485641858905067e-05 0 0.0039891005206976844 7.4504504012024773e-05 0 0.0041537360171130687 9.0305599482878279e-05 0 0.0041391501902796621 0.00011430818998300885 0 0.0039606034551438471 0.0001489986083466867 0 0.004026625465136071 0.00031352961425643456 0 0.0041140759423644304 0.00015715488010665035 0 0.0044576391251299093 0.00012271543529311589 0 0.0044566709699852885 0.00012119691677884201 0 0.0044529894569707296 0.00011735912791801705 0 0.0041432087182294314 0.00011513964844153188 0 0.0041391501902796621 0.00011430818998300885 0 0.0044470265185682367 0.00011629258283693226 0 0.0044566709699852885 0.00012119691677884201 0 0.0044521978476109725 0.00011954379047744207 0 0.0044566709699852885 0.00012119691677884201 0 0.0044529894569707296 0.00011735912791801705 0 0.0044521978476109725 0.00011954379047744207 0 0.0044529894569707296 0.00011735912791801705 0 0.0044521978476109725 0.00011954379047744207 0 0.0044559063468677376 0.0001208390996524427 0 0.0044521978476109725 0.00011954379047744207 0 0.0044559063468677376 0.0001208390996524427 0 0.0044483472563765633 0.00012801547550084051 0 0.0044340410829830663 0.00012050033184633611 0 0.0044470265185682367 0.00011629258283693226 0 0.0044432107592288043 0.00012278018028167353 0 0.0044470265185682367 0.00011629258283693226 0 0.0044521978476109725 0.00011954379047744207 0 0.0044432107592288043 0.00012278018028167353 0 0.0044521978476109725 0.00011954379047744207 0 0.0044432107592288043 0.00012278018028167353 0 0.0044483472563765633 0.00012801547550084051 0 0.0044362497539021887 0.00012853895227694126 0 0.0044432107592288043 0.00012278018028167353 0 0.0044483472563765633 0.00012801547550084051 0 0.0044375639065380064 0.0001424247009016941 0 0.0044210555158241413 0.00012495453658712441 0 0.0044508202378506492 0.00012914292135715057 0 0.0043678731304567231 0.00010743456079556843 0 0.0044266314954914355 0.00011620370123795045 0 0.0044559063468677376 0.0001208390996524427 0 0.0044483472563765633 0.00012801547550084051 0 0.0044665374933878337 0.00012936395396064186 0 0.0044610252932247036 0.00015079115296675753 0 0.0044508202378506492 0.00012914292135715057 0 0.0044665374933878337 0.00012936395396064186 0 0.0044266314954914355 0.00011620370123795045 0 0.0044435381513834712 0.00011879230086266616 0 0.0044665374933878337 0.00012936395396064186 0 0.0044721330470382931 0.00012364996706861202 0 0.0044986716859767547 0.000150079918794972 0 0.0044665374933878337 0.00012936395396064186 0 0.0044721330470382931 0.00012364996706861202 0 0.0044528475935435236 0.00011776156664285167 0 0.0044721330470382931 0.00012364996706861202 0 0.0045070080695729601 0.00012263468653969474 0 0.0044986716859767547 0.000150079918794972 0 0.0044721330470382931 0.00012364996706861202 0 0.0044378249695561098 0.00011646305003350869 0 0.0045070080695729601 0.00012263468653969474 0 0.0044721330470382931 0.00012364996706861202 0 0.0044378249695561098 0.00011646305003350869 0 0.0044528475935435236 0.00011776156664285167 0 0.0044559063468677376 0.0001208390996524427 0 0.0044665374933878337 0.00012936395396064186 0 0.0044528475935435236 0.00011776156664285167 0 0.0044529894569707296 0.00011735912791801705 0 0.0044559063468677376 0.0001208390996524427 0 0.0044528475935435236 0.00011776156664285167 0 0.0044378249695561098 0.00011646305003350869 0 0.0044528475935435236 0.00011776156664285167 0 0.0044333544639868919 0.0001160785358952157 0 0.0044529894569707296 0.00011735912791801705 0 0.0044528475935435236 0.00011776156664285167 0 0.0044333544639868919 0.0001160785358952157 0 0.0044576391251299093 0.00012271543529311589 0 0.0044529894569707296 0.00011735912791801705 0 0.0044333544639868919 0.0001160785358952157 0 0.0044576391251299093 0.00012271543529311589 0 0.0044333544639868919 0.0001160785358952157 0 0.0043758473417133603 0.00013097685614307474 0 0.0041391501902796621 0.00011430818998300885 0 0.0042471622517930739 0.00010656470404470623 0 0.004026625465136071 0.00031352961425643456 0 0.0043758473417133603 0.00013097685614307474 0 0.0041140759423644304 0.00015715488010665035 0 0.0044576391251299093 0.00012271543529311589 0 0.0044674416336534283 0.00012712492627965275 0 0.0043758473417133603 0.00013097685614307474 0 0.0044378249695561098 0.00011646305003350869 0 0.0043758473417133603 0.00013097685614307474 0 0.0044401315560522198 7.4469431965476052e-05 0 0.0044378249695561098 0.00011646305003350869 0 0.0044333544639868919 0.0001160785358952157 0 0.0043758473417133603 0.00013097685614307474 0 0.0042976338740827024 -1.5592617513146224e-05 0 0.0043758473417133603 0.00013097685614307474 0 0.0044401315560522198 7.4469431965476052e-05 0 0.0044370212467270704 -1.1398385978749095e-05 0 0.0042976338740827024 -1.5592617513146224e-05 0 0.0044401315560522198 7.4469431965476052e-05 0 0.0043758473417133603 0.00013097685614307474 0 0.0041005944721448535 4.4988481359771897e-05 0 0.0041140759423644304 0.00015715488010665035 0 0.0042976338740827024 -1.5592617513146224e-05 0 0.0043758473417133603 0.00013097685614307474 0 0.0041005944721448535 4.4988481359771897e-05 0 0.0045694060455428454 -5.3972098737859588e-07 0 0.0044985162213761849 1.9305298684415517e-05 0 0.0045209445509539238 7.1315883225024412e-05 0 0.0045080166695158656 -6.0622179431782085e-05 0 0.0045694060455428454 -5.3972098737859588e-07 0 0.0044985162213761849 1.9305298684415517e-05 0 0.0044985162213761849 1.9305298684415517e-05 0 0.0044401315560522198 7.4469431965476052e-05 0 0.0045209445509539238 7.1315883225024412e-05 0 0.0044370212467270704 -1.1398385978749095e-05 0 0.0044985162213761849 1.9305298684415517e-05 0 0.0044401315560522198 7.4469431965476052e-05 0 0.0044378249695561098 0.00011646305003350869 0 0.0044401315560522198 7.4469431965476052e-05 0 0.0045209445509539238 7.1315883225024412e-05 0 0.0045694060455428454 -5.3972098737859588e-07 0 0.0045209445509539238 7.1315883225024412e-05 0 0.0046109454183241392 5.39364348768357e-05 0 0.0045209445509539238 7.1315883225024412e-05 0 0.0045859144391073104 0.00010692399476872671 0 0.0046109454183241392 5.39364348768357e-05 0 0.0045209445509539238 7.1315883225024412e-05 0 0.0045070080695729601 0.00012263468653969474 0 0.0045859144391073104 0.00010692399476872671 0 0.0044378249695561098 0.00011646305003350869 0 0.0045209445509539238 7.1315883225024412e-05 0 0.0045070080695729601 0.00012263468653969474 0 0.0045070080695729601 0.00012263468653969474 0 0.0045859144391073104 0.00010692399476872671 0 0.0045696098452131231 0.00015400271177978283 0 0.0045859144391073104 0.00010692399476872671 0 0.0045696098452131231 0.00015400271177978283 0 0.0046589742806264827 0.00014514016790480834 0 0.0046564586080465259 0.00017892275074393347 0 0.0046589742806264827 0.00014514016790480834 0 0.004702006030064875 0.0001730317617268777 0 0.0045696098452131231 0.00015400271177978283 0 0.0046564586080465259 0.00017892275074393347 0 0.0046589742806264827 0.00014514016790480834 0 0.0045696098452131231 0.00015400271177978283 0 0.0045219875178514213 0.00019565793504426943 0 0.0045503304595943357 0.00019743655182307486 0 0.0046095573738438806 0.00014435033874879785 0 0.004620887575975916 0.00015761808922614711 0 0.0045070080695729601 0.00012263468653969474 0 0.0045696098452131231 0.00015400271177978283 0 0.0044986716859767547 0.000150079918794972 0 0.0044610252932247036 0.00015079115296675753 0 0.0044665374933878337 0.00012936395396064186 0 0.0044986716859767547 0.000150079918794972 0 0.0044610252932247036 0.00015079115296675753 0 0.0044986716859767547 0.000150079918794972 0 0.0044870623840384026 0.0001755257505562968 0 0.0044986716859767547 0.000150079918794972 0 0.0044870623840384026 0.0001755257505562968 0 0.0045219875178514213 0.00019565793504426943 0 0.0045696098452131231 0.00015400271177978283 0 0.0044986716859767547 0.000150079918794972 0 0.0045219875178514213 0.00019565793504426943 0 0.0045219875178514213 0.00019565793504426943 0 0.0044954478609147532 0.00019855601640589434 0 0.0045260814773499481 0.00021980472599706475 0 0.0044870623840384026 0.0001755257505562968 0 0.0045219875178514213 0.00019565793504426943 0 0.0044954478609147532 0.00019855601640589434 0 0.0044682525696448927 0.00022523530878522166 0 0.0044954478609147532 0.00019855601640589434 0 0.0045260814773499481 0.00021980472599706475 0 0.0045260814773499481 0.00021980472599706475 0 0.0045311983778782384 0.00021041674435662687 0 0.004541045177957212 0.00019993645991030372 0 0.0045219875178514213 0.00019565793504426943 0 0.0045260814773499481 0.00021980472599706475 0 0.0045311983778782384 0.00021041674435662687 0 0.0045311983778782384 0.00021041674435662687 0 0.0045295256031534625 0.00020617459415740104 0 0.0045503304595943357 0.00019743655182307486 0 0.0046453398687059328 0.00016529914312782138 0 0.004620887575975916 0.00015761808922614711 0 0.0047259144981476259 0.00019507605477640214 0 0.0046564586080465259 0.00017892275074393347 0 0.004702006030064875 0.0001730317617268777 0 0.0045219875178514213 0.00019565793504426943 0 0.0045311983778782384 0.00021041674435662687 0 0.0045503304595943357 0.00019743655182307486 0 0.0045304537315076646 0.00017879312546359671 0 0.0045118793521987761 0.00018288299058063538 0 0.0045289993100321403 0.00019598708922580454 0 0.0045304537315076646 0.00017879312546359671 0 0.0045289993100321403 0.00019598708922580454 0 0.0045373556547558709 0.00018983783470836592 0 0.0046453398687059328 0.00016529914312782138 0 0.0046793198428709739 0.00014653695450237266 0 0.0045295256031534625 0.00020617459415740104 0 0.0045118793521987761 0.00018288299058063538 0 0.0045289993100321403 0.00019598708922580454 0 0.0047259144981476259 0.00019507605477640214 0 0.0047983734245707343 0.00018343628383357864 0 0.00476924469335169 0.00019269523149732513 0 0.0045311983778782384 0.00021041674435662687 0 0.0045295256031534625 0.00020617459415740104 0 0.0045289993100321403 0.00019598708922580454 0 0.0045311983778782384 0.00021041674435662687 0 0.0045289993100321403 0.00019598708922580454 0 0.0045373556547558709 0.00018983783470836592 0 0.0045311983778782384 0.00021041674435662687 0 0.004541045177957212 0.00019993645991030372 0 0.0045373556547558709 0.00018983783470836592 0 0.004541045177957212 0.00019993645991030372 0 0.0045596624204477659 0.00017287379913583746 0 0.0045645819335348829 0.00019897924931819427 0 0.0045260814773499481 0.00021980472599706475 0 0.004541045177957212 0.00019993645991030372 0 0.0045645819335348829 0.00019897924931819427 0 0.004541045177957212 0.00019993645991030372 0 0.0045596624204477659 0.00017287379913583746 0 0.0045373556547558709 0.00018983783470836592 0 0.0045596624204477659 0.00017287379913583746 0 0.0045373556547558709 0.00018983783470836592 0 0.0045440408698150794 0.00016859242133570655 0 0.0045304537315076646 0.00017879312546359671 0 0.0045373556547558709 0.00018983783470836592 0 0.0045440408698150794 0.00016859242133570655 0 0.0045440408698150794 0.00016859242133570655 0 0.0045524536534849161 0.0001510731350495724 0 0.0045297670725738754 0.00016019890892413167 0 0.0045798461818339726 0.00015832327456251298 0 0.0045587134671144997 0.00015990364696433332 0 0.0045524536534849161 0.0001510731350495724 0 0.0045697477483119921 0.00015648175797145414 0 0.0045887902363169414 0.00014155212101509931 0 0.0045596624204477659 0.00017287379913583746 0 0.0045567093426422877 0.00016196355533692298 0 0.0045697477483119921 0.00015648175797145414 0 0.0045440408698150794 0.00016859242133570655 0 0.0045567093426422877 0.00016196355533692298 0 0.0045524536534849161 0.0001510731350495724 0 0.0045596624204477659 0.00017287379913583746 0 0.0045440408698150794 0.00016859242133570655 0 0.0045567093426422877 0.00016196355533692298 0 0.0045567093426422877 0.00016196355533692298 0 0.0045524536534849161 0.0001510731350495724 0 0.0045697477483119921 0.00015648175797145414 0 0.0045798461818339726 0.00015832327456251298 0 0.0046211221691068735 0.0001570878179712589 0 0.0045843801666160802 0.00015899800596372123 0 0.0045882108277632795 0.00013813604177125499 0 0.0046210887878327511 0.00013316578201127643 0 0.0047695363550205056 0.00010626440890118193 0 0.0048094315725070256 7.1070931250107066e-05 0 0.0045882108277632795 0.00013813604177125499 0 0.004612501617742285 0.0001015431842827517 0 0.0046210887878327511 0.00013316578201127643 0 0.0045843801666160802 0.00015899800596372123 0 0.0045551516514266577 0.00014230267731969311 0 0.0045297670725738754 0.00016019890892413167 0 0.0045882108277632795 0.00013813604177125499 0 0.0045551516514266577 0.00014230267731969311 0 0.0045468015384843644 0.00010383165871722614 0 0.0045843801666160802 0.00015899800596372123 0 0.0045882108277632795 0.00013813604177125499 0 0.0045551516514266577 0.00014230267731969311 0 0.0045251932259639015 0.00012961279868915822 0 0.0045297670725738754 0.00016019890892413167 0 0.0045015622464741742 0.00014416272052794905 0 0.0045551516514266577 0.00014230267731969311 0 0.0045251932259639015 0.00012961279868915822 0 0.0045468015384843644 0.00010383165871722614 0 0.0045551516514266577 0.00014230267731969311 0 0.0045251932259639015 0.00012961279868915822 0 0.0045297670725738754 0.00016019890892413167 0 0.0045304537315076646 0.00017879312546359671 0 0.0045440408698150794 0.00016859242133570655 0 0.0045297670725738754 0.00016019890892413167 0 0.0045304537315076646 0.00017879312546359671 0 0.0045118793521987761 0.00018288299058063538 0 0.0045297670725738754 0.00016019890892413167 0 0.0046793198428709739 0.00014653695450237266 0 0.0047274150916409149 0.00010945705525495178 0 0.0045118793521987761 0.00018288299058063538 0 0.0045297670725738754 0.00016019890892413167 0 0.0045015622464741742 0.00014416272052794905 0 0.0047983734245707343 0.00018343628383357864 0 0.004877678038939055 9.9952367642980479e-05 0 0.0048124596012544991 0.00015274232748921566 0 0.0047274150916409149 0.00010945705525495178 0 0.0048049215861708204 9.8229423627430997e-05 0 0.004877678038939055 9.9952367642980479e-05 0 0.0049188064954097162 4.2262283172436383e-05 0 0.0049006150275469678 5.6810425484980487e-05 0 0.0045251932259639015 0.00012961279868915822 0 0.0045015622464741742 0.00014416272052794905 0 0.0044944933517168124 9.6163931851527969e-05 0 0.00478125416723214 7.3522028559138471e-05 0 0.0048049215861708204 9.8229423627430997e-05 0 0.0045251932259639015 0.00012961279868915822 0 0.0045468015384843644 0.00010383165871722614 0 0.0044944933517168124 9.6163931851527969e-05 0 0.0049981016188458145 7.4801535445782711e-06 0 0.0049965419996010558 6.5940358139928354e-06 0 0.0049985529558443141 4.7044320090317703e-06 0 0.0049981016188458145 7.4801535445782711e-06 0 0.0049958595180210836 7.5794556461505265e-06 0 0.0049965419996010558 6.5940358139928354e-06 0 0.0049958595180210836 7.5794556461505265e-06 0 0.0049965419996010558 6.5940358139928354e-06 0 0.0049940352510384495 7.1712416635401276e-06 0 0.0048049215861708204 9.8229423627430997e-05 0 0.0048518522520044575 4.7362972376060013e-05 0 0.0049965419996010558 6.5940358139928354e-06 0 0.0049977766951777684 4.6632284815443262e-06 0 0.0049940352510384495 7.1712416635401276e-06 0 0.0049965419996010558 6.5940358139928354e-06 0 0.0049977766951777684 4.6632284815443262e-06 0 0.0049985529558443141 4.7044320090317703e-06 0 0.0049977766951777684 4.6632284815443262e-06 0 0.0049985529558443141 4.7044320090317703e-06 0 0.0049993435062281833 2.2327148914150357e-06 0 0.0049993435062281833 2.2327148914150357e-06 0 0.004999999732475168 2.9493835159589224e-09 0 0.0049999996095153902 2.3862357761217824e-09 0 0.0049977766951777684 4.6632284815443262e-06 0 0.004999999732475168 2.9493835159589224e-09 0 0.0049940352510384495 7.1712416635401276e-06 0 0.0049977766951777684 4.6632284815443262e-06 0 0.0049993435062281833 2.2327148914150357e-06 0 0.004999999732475168 2.9493835159589224e-09 0 0.0050002127902568742 2.8993105735105341e-07 0 0.0049999996095153902 2.3862357761217824e-09 0 0.0050000012977410944 3.3617897008348805e-10 0 0.0050010899453996971 2.3785518015733354e-06 0 0.0050002127902568742 2.8993105735105341e-07 0 0.005000018924089562 2.2327777353569603e-06 0 0.0050010899453996971 2.3785518015733354e-06 0 0.0050002127902568742 2.8993105735105341e-07 0 0.0050026778941443407 1.8977803659899929e-06 0 0.0049993435062281833 2.2327148914150357e-06 0 0.0049999996095153902 2.3862357761217824e-09 0 0.005000018924089562 2.2327777353569603e-06 0 0.0050002127902568742 2.8993105735105341e-07 0 0.0049999996095153902 2.3862357761217824e-09 0 0.005000018924089562 2.2327777353569603e-06 0 0.0049985529558443141 4.7044320090317703e-06 0 0.0049993435062281833 2.2327148914150357e-06 0 0.005000018924089562 2.2327777353569603e-06 0 0.0049985529558443141 4.7044320090317703e-06 0 0.005000018924089562 2.2327777353569603e-06 0 0.0049994752208750923 5.0068220995835192e-06 0 0.005000018924089562 2.2327777353569603e-06 0 0.0050008651398443541 4.1966984016581662e-06 0 0.0049994752208750923 5.0068220995835192e-06 0 0.0050010899453996971 2.3785518015733354e-06 0 0.005000018924089562 2.2327777353569603e-06 0 0.0050008651398443541 4.1966984016581662e-06 0 0.0050010899453996971 2.3785518015733354e-06 0 0.0050008651398443541 4.1966984016581662e-06 0 0.0050023651007719428 3.6301905273033933e-06 0 0.0050008651398443541 4.1966984016581662e-06 0 0.0050003621396453113 5.9975328885752434e-06 0 0.0050027203880058085 5.5422121634864606e-06 0 0.0050003621396453113 5.9975328885752434e-06 0 0.005000987020005023 7.8228170029408092e-06 0 0.0050027203880058085 5.5422121634864606e-06 0 0.0050008651398443541 4.1966984016581662e-06 0 0.0050003621396453113 5.9975328885752434e-06 0 0.0049994752208750923 5.0068220995835192e-06 0 0.0049981016188458145 7.4801535445782711e-06 0 0.0050003621396453113 5.9975328885752434e-06 0 0.0049994752208750923 5.0068220995835192e-06 0 0.0049981016188458145 7.4801535445782711e-06 0 0.0049985529558443141 4.7044320090317703e-06 0 0.0049994752208750923 5.0068220995835192e-06 0 0.00478125416723214 7.3522028559138471e-05 0 0.0048094315725070256 7.1070931250107066e-05 0 0.0045882108277632795 0.00013813604177125499 0 0.0045468015384843644 0.00010383165871722614 0 0.004605912018315797 0.00011247892129931779 0 0.0049981016188458145 7.4801535445782711e-06 0 0.0050003621396453113 5.9975328885752434e-06 0 0.005000987020005023 7.8228170029408092e-06 0 0.0048094315725070256 7.1070931250107066e-05 0 0.0048932700927850573 3.262149206672062e-05 0 0.0048531192703895791 5.8726611262150895e-05 0 0.0048617390876725579 6.0280725378891209e-05 0 0.0048589907308418147 5.0171968018229104e-05 0 0.0048094315725070256 7.1070931250107066e-05 0 0.0047954205862382219 6.6684893179471696e-05 0 0.004612501617742285 0.0001015431842827517 0 0.004667088568487022 0.00011139001839356502 0 0.0046210887878327511 0.00013316578201127643 0 0.0048617390876725579 6.0280725378891209e-05 0 0.0048647041879411636 5.4584173129674908e-05 0 0.0048702912781192504 6.1846572856510414e-05 0 0.0048617390876725579 6.0280725378891209e-05 0 0.0048647041879411636 5.4584173129674908e-05 0 0.0048589907308418147 5.0171968018229104e-05 0 0.0048647041879411636 5.4584173129674908e-05 0 0.0048656649960341254 4.8764341110679548e-05 0 0.0048702511389774909 5.3208642345332838e-05 0 0.0048647041879411636 5.4584173129674908e-05 0 0.0048656649960341254 4.8764341110679548e-05 0 0.0048589907308418147 5.0171968018229104e-05 0 0.0050023651007719428 3.6301905273033933e-06 0 0.005004432356632082 3.0643644444853275e-06 0 0.0050026778941443407 1.8977803659899929e-06 0 0.0050027203880058085 5.5422121634864606e-06 0 0.0050023651007719428 3.6301905273033933e-06 0 0.005004432356632082 3.0643644444853275e-06 0 0.0050008651398443541 4.1966984016581662e-06 0 0.0050027203880058085 5.5422121634864606e-06 0 0.0050023651007719428 3.6301905273033933e-06 0 0.0050010899453996971 2.3785518015733354e-06 0 0.0050023651007719428 3.6301905273033933e-06 0 0.0050026778941443407 1.8977803659899929e-06 0 0.0048932700927850573 3.262149206672062e-05 0 0.0049322466500877965 3.6870823717099308e-05 0 0.0048656649960341254 4.8764341110679548e-05 0 0.0048648502410723136 4.1628823438950742e-05 0 0.0048702360726674337 4.4494582933404487e-05 0 0.0048656649960341254 4.8764341110679548e-05 0 0.0048589907308418147 5.0171968018229104e-05 0 0.0048648502410723136 4.1628823438950742e-05 0 0.0049322466500877965 3.6870823717099308e-05 0 0.0048943623782196173 5.2717904888451439e-05 0 0.0049322466500877965 3.6870823717099308e-05 0 0.0049632220491074653 3.4317982294350559e-05 0 0.0049322466500877965 3.6870823717099308e-05 0 0.0049905441126702295 3.3513974358004431e-06 0 0.0050000012977410944 3.3617897008348805e-10 0 0.0049999429242988617 1.2697073148351754e-08 0 0.0049999900658282423 2.034564557156886e-09 0 0.0050000012977410944 3.3617897008348805e-10 0 0.0049999900658282423 2.034564557156886e-09 0 0.0049999990787939225 -1.3373196293458016e-10 0 0.0049998867836199582 5.1074517214983004e-08 0 0.0049999429242988617 1.2697073148351754e-08 0 0.0049999900658282423 2.034564557156886e-09 0 0.0049710583541686861 3.2627923255923161e-05 0 0.0049632220491074653 3.4317982294350559e-05 0 0.0050002127902568742 2.8993105735105341e-07 0 0.0050000012977410944 3.3617897008348805e-10 0 0.0049999429242988617 1.2697073148351754e-08 0 0.0049999996545613762 1.4532810286938001e-10 0 0.0049997337288055204 1.9851096535291781e-07 0 0.0049999991682703124 1.9295675842489887e-10 0 0.0049999996545613762 1.4532810286938001e-10 0 0.0049997337288055204 1.9851096535291781e-07 0 0.0049996897744287762 2.8243432833968668e-07 0 0.0049308628484193914 4.3729517604322522e-05 0 0.0049422961493702433 2.6926094608527222e-05 0 0.0049425343539318102 4.9877155005862933e-05 0 0.0049997337288055204 1.9851096535291781e-07 0 0.0049999528252939549 2.8191038826045406e-08 0 0.0049994148991199224 4.1012357755658151e-07 0 0.0049997337288055204 1.9851096535291781e-07 0 0.0049999528252939549 2.8191038826045406e-08 0 0.0049999991682703124 1.9295675842489887e-10 0 0.0049905441126702295 3.3513974358004431e-06 0 0.0048943623782196173 5.2717904888451439e-05 0 0.0049905441126702295 3.3513974358004431e-06 0 0.0049996954912634346 5.716417402721416e-08 0 0.0049997337288055204 1.9851096535291781e-07 0 0.0049994148991199224 4.1012357755658151e-07 0 0.004999373469731015 5.4164419228612216e-07 0 0.0048943623782196173 5.2717904888451439e-05 0 0.0048398143474168015 7.6278594593284755e-05 0 0.004999373469731015 5.4164419228612216e-07 0 0.0049992877543350535 7.5320309250822828e-07 0 0.0049996897744287762 2.8243432833968668e-07 0 0.0049997337288055204 1.9851096535291781e-07 0 0.004999373469731015 5.4164419228612216e-07 0 0.0049996897744287762 2.8243432833968668e-07 0 0.0048398143474168015 7.6278594593284755e-05 0 0.004765668690005209 0.00010856241653516193 0 0.0047609468465063956 4.6365379766083788e-05 0 0.0047571493213545779 7.5519439935920423e-05 0 0.0047988414550670273 6.6246139233906538e-05 0 0.0048656649960341254 4.8764341110679548e-05 0 0.0048702360726674337 4.4494582933404487e-05 0 0.0048702511389774909 5.3208642345332838e-05 0 0.0048943623782196173 5.2717904888451439e-05 0 0.0048507814245228485 6.0013385436169217e-05 0 0.0047232487500564035 2.657782394160393e-05 0 0.0047609468465063956 4.6365379766083788e-05 0 0.0047235918442401579 7.4388152063257392e-05 0 0.0047609468465063956 4.6365379766083788e-05 0 0.0047571493213545779 7.5519439935920423e-05 0 0.0047235918442401579 7.4388152063257392e-05 0 0.0048647041879411636 5.4584173129674908e-05 0 0.0048702511389774909 5.3208642345332838e-05 0 0.0048702912781192504 6.1846572856510414e-05 0 0.0047235918442401579 7.4388152063257392e-05 0 0.0047394868270379227 0.00010025264239756704 0 0.0047234984540002346 0.00012319343558659667 0 0.0048507814245228485 6.0013385436169217e-05 0 0.0048246806233694407 6.2132106052377147e-05 0 0.0047571493213545779 7.5519439935920423e-05 0 0.0047235918442401579 7.4388152063257392e-05 0 0.0047394868270379227 0.00010025264239756704 0 0.0047394868270379227 0.00010025264239756704 0 0.0047640328472717246 0.00010427348307548206 0 0.0047289959578663303 0.00012429004013893991 0 0.0047394868270379227 0.00010025264239756704 0 0.0047234984540002346 0.00012319343558659667 0 0.0047289959578663303 0.00012429004013893991 0 0.0047571493213545779 7.5519439935920423e-05 0 0.0047640328472717246 0.00010427348307548206 0 0.0047988414550670273 6.6246139233906538e-05 0 0.0046953423892984285 0.000154087367069414 0 0.004765668690005209 0.00010856241653516193 0 0.0047571493213545779 7.5519439935920423e-05 0 0.0047394868270379227 0.00010025264239756704 0 0.0047640328472717246 0.00010427348307548206 0 0.0046086565260779469 0.00021124330623383875 0 0.0045698432741441211 0.00019483295719278619 0 0.0045533666185943724 0.00024349156487010686 0 0.0046024214635750696 0.00025925399808243303 0 0.0046086565260779469 0.00021124330623383875 0 0.0045533666185943724 0.00024349156487010686 0 0.0046024214635750696 0.00025925399808243303 0 0.0046086565260779469 0.00021124330623383875 0 0.0046560814403536722 0.00020555124616774827 0 0.0046086565260779469 0.00021124330623383875 0 0.0046269781393580454 0.00016666366776799905 0 0.0045698432741441211 0.00019483295719278619 0 0.0046269781393580454 0.00016666366776799905 0 0.0045772102194346466 0.00014182342758421853 0 0.0045698432741441211 0.00019483295719278619 0 0.0046269781393580454 0.00016666366776799905 0 0.0045772102194346466 0.00014182342758421853 0 0.0046177462898512687 0.00011206340042120719 0 0.0046554260768823909 0.00014394425893861398 0 0.0046464851072271123 0.00015906412975565879 0 0.0046391855543632043 0.00014348107035011304 0 0.0046269781393580454 0.00016666366776799905 0 0.0046554260768823909 0.00014394425893861398 0 0.0046177462898512687 0.00011206340042120719 0 0.0046269781393580454 0.00016666366776799905 0 0.0046554260768823909 0.00014394425893861398 0 0.0046464851072271123 0.00015906412975565879 0 0.0046269781393580454 0.00016666366776799905 0 0.0046464851072271123 0.00015906412975565879 0 0.0046495386032924793 0.00018680847051237329 0 0.0046544816285450496 0.00016229835417697213 0 0.0046336362829376507 0.00017027025593676902 0 0.0046464851072271123 0.00015906412975565879 0 0.0046495386032924793 0.00018680847051237329 0 0.0046391855543632043 0.00014348107035011304 0 0.0046086565260779469 0.00021124330623383875 0 0.0046269781393580454 0.00016666366776799905 0 0.0046495386032924793 0.00018680847051237329 0 0.0046438460550435696 0.00016638778992337095 0 0.0046544816285450496 0.00016229835417697213 0 0.0047640328472717246 0.00010427348307548206 0 0.0047281638131372516 0.00014408251420090003 0 0.0047289959578663303 0.00012429004013893991 0 0.0046953423892984285 0.000154087367069414 0 0.0046544816285450496 0.00016229835417697213 0 0.0048239893294502248 6.3990681387116681e-05 0 0.0048246806233694407 6.2132106052377147e-05 0 0.0047281638131372516 0.00014408251420090003 0 0.0047231390639978213 0.00013374023964538259 0 0.0047289959578663303 0.00012429004013893991 0 0.0047231390639978213 0.00013374023964538259 0 0.004723276872345538 0.00012318282383238697 0 0.0047289959578663303 0.00012429004013893991 0 0.0048246806233694407 6.2132106052377147e-05 0 0.0048239713522384639 6.21638297597814e-05 0 0.0046544816285450496 0.00016229835417697213 0 0.0046211221691068735 0.0001570878179712589 0 0.0047954205862382219 6.6684893179471696e-05 0 0.0048246806233694407 6.2132106052377147e-05 0 0.004667088568487022 0.00011139001839356502 0 0.0047231390639978213 0.00013374023964538259 0 0.0047229711090420075 0.00012168728730797417 0 0.0047281638131372516 0.00014408251420090003 0 0.0047231390639978213 0.00013374023964538259 0 0.0046548618504606582 0.00015315095599927758 0 0.004667088568487022 0.00011139001839356502 0 0.0047231390639978213 0.00013374023964538259 0 0.0046548618504606582 0.00015315095599927758 0 0.004667088568487022 0.00011139001839356502 0 0.0046210887878327511 0.00013316578201127643 0 0.0046548618504606582 0.00015315095599927758 0 0.0045843801666160802 0.00015899800596372123 0 0.0046210887878327511 0.00013316578201127643 0 0.0046548618504606582 0.00015315095599927758 0 0.0045596624204477659 0.00017287379913583746 0 0.0045697477483119921 0.00015648175797145414 0 0.0045876380883017754 0.00015790852888883776 0 0.0045697477483119921 0.00015648175797145414 0 0.0045887902363169414 0.00014155212101509931 0 0.0045876380883017754 0.00015790852888883776 0 0.0046210918479438756 0.00013784318827614057 0 0.0045887902363169414 0.00014155212101509931 0 0.0046047698822325699 0.00015540564415022245 0 0.0045887902363169414 0.00014155212101509931 0 0.0045876380883017754 0.00015790852888883776 0 0.0046047698822325699 0.00015540564415022245 0 0.0045876380883017754 0.00015790852888883776 0 0.0046047698822325699 0.00015540564415022245 0 0.0045917887524281418 0.000170624785554874 0 0.0046336362829376507 0.00017027025593676902 0 0.0046246944756317358 0.0001745933802358535 0 0.0046554260768823909 0.00014394425893861398 0 0.0046391855543632043 0.00014348107035011304 0 0.0046306151978651039 0.00018163434645284741 0 0.0046391855543632043 0.00014348107035011304 0 0.0046306151978651039 0.00018163434645284741 0 0.0045917887524281418 0.000170624785554874 0 0.0045596624204477659 0.00017287379913583746 0 0.0045876380883017754 0.00015790852888883776 0 0.0045917887524281418 0.000170624785554874 0 0.0045596624204477659 0.00017287379913583746 0 0.0045917887524281418 0.000170624785554874 0 0.0045645819335348829 0.00019897924931819427 0 0.0045856159725459538 0.00023557376345636498 0 0.0045645819335348829 0.00019897924931819427 0 0.004597788609245838 0.00020274746005858661 0 0.0045917887524281418 0.000170624785554874 0 0.0045645819335348829 0.00019897924931819427 0 0.004597788609245838 0.00020274746005858661 0 0.0046306151978651039 0.00018163434645284741 0 0.0045917887524281418 0.000170624785554874 0 0.004597788609245838 0.00020274746005858661 0 0.004636860336310944 0.00023907142508468763 0 0.0046306151978651039 0.00018163434645284741 0 0.004597788609245838 0.00020274746005858661 0 0.004636860336310944 0.00023907142508468763 0 0.0046306151978651039 0.00018163434645284741 0 0.004669775930629636 0.00019358061104872412 0 0.0043827167653688942 0.00014491735394014216 0 0.0044899655472483441 0.00014526631010408202 0 0.0046550135809678367 1.723540541804021e-05 0 0.0045702459631228893 5.4441782111036738e-05 0 0.0045667201072597113 -4.1787500092171211e-05 0 0.0046211635701436113 -0.00011974024801981878 0 0.0046550135809678367 1.723540541804021e-05 0 0.0045667201072597113 -4.1787500092171211e-05 0 0.0045772102194346466 0.00014182342758421853 0 0.0045702459631228893 5.4441782111036738e-05 0 0.0046177462898512687 0.00011206340042120719 0 0.0046550135809678367 1.723540541804021e-05 0 0.0045702459631228893 5.4441782111036738e-05 0 0.0046177462898512687 0.00011206340042120719 0 0.0046554260768823909 0.00014394425893861398 0 0.0046306151978651039 0.00018163434645284741 0 0.004669775930629636 0.00019358061104872412 0 0.0045217297899453205 0.00015042719799188169 0 0.0044899655472483441 0.00014526631010408202 0 0.0046554260768823909 0.00014394425893861398 0 0.0046550135809678367 1.723540541804021e-05 0 0.0046177462898512687 0.00011206340042120719 0 0.0043911967373286105 4.3482695788540046e-05 0 0.0044949443944910768 9.2208833134284376e-05 0 0.0044122427741632563 0.00016029890429778915 0 0.0045772102194346466 0.00014182342758421853 0 0.0045702459631228893 5.4441782111036738e-05 0 0.0044949443944910768 9.2208833134284376e-05 0 0.0045702459631228893 5.4441782111036738e-05 0 0.0044949443944910768 9.2208833134284376e-05 0 0.0044793336073793563 -2.9918973233849848e-05 0 0.0045702459631228893 5.4441782111036738e-05 0 0.0045667201072597113 -4.1787500092171211e-05 0 0.0044793336073793563 -2.9918973233849848e-05 0 0.0043911967373286105 4.3482695788540046e-05 0 0.0044949443944910768 9.2208833134284376e-05 0 0.0044793336073793563 -2.9918973233849848e-05 0 0.0043911967373286105 4.3482695788540046e-05 0 0.0044793336073793563 -2.9918973233849848e-05 0 0.0043189627620607617 -6.3624916293751811e-05 0 0.0043911967373286105 4.3482695788540046e-05 0 0.0043189627620607617 -6.3624916293751811e-05 0 0.0041982596423758445 5.2232778432873551e-05 0 0.0038813395894172144 -3.4541440350539114e-05 0 0.0041982596423758445 5.2232778432873551e-05 0 0.0038567029690941487 -5.4968063445070854e-06 0 0.0041956885213648085 -0.00014738345348080438 0 0.0043189627620607617 -6.3624916293751811e-05 0 0.0041982596423758445 5.2232778432873551e-05 0 0.0038673263135299502 -2.3719513109102805e-05 0 0.0039524671332144597 6.2127578205816949e-05 0 0.0041982596423758445 5.2232778432873551e-05 0 0.0042846435372742358 0.00015148464103502507 0 0.004082446370400724 8.5265481679483657e-05 0 0.0041982596423758445 5.2232778432873551e-05 0 0.004082446370400724 8.5265481679483657e-05 0 0.0038567029690941487 -5.4968063445070854e-06 0 0.0041982596423758445 5.2232778432873551e-05 0 0.0044122427741632563 0.00016029890429778915 0 0.0042846435372742358 0.00015148464103502507 0 0.0043911967373286105 4.3482695788540046e-05 0 0.0041982596423758445 5.2232778432873551e-05 0 0.0044122427741632563 0.00016029890429778915 0 0.0044122427741632563 0.00016029890429778915 0 0.0042846435372742358 0.00015148464103502507 0 0.0044089382715451772 0.00023560171817898953 0 0.0042846435372742358 0.00015148464103502507 0 0.0042873544329343873 0.00020350649766860755 0 0.0044089382715451772 0.00023560171817898953 0 0.0042846435372742358 0.00015148464103502507 0 0.0042873544329343873 0.00020350649766860755 0 0.004082446370400724 8.5265481679483657e-05 0 0.0044111615644446701 0.00026959658947215185 0 0.0044089382715451772 0.00023560171817898953 0 0.0045008287422302236 0.0002739965109029902 0 0.0042873544329343873 0.00020350649766860755 0 0.0044111615644446701 0.00026959658947215185 0 0.0044089382715451772 0.00023560171817898953 0 0.0042873544329343873 0.00020350649766860755 0 0.0044111615644446701 0.00026959658947215185 0 0.0043101408306553584 0.00025008563814373663 0 0.0044122427741632563 0.00016029890429778915 0 0.0044089382715451772 0.00023560171817898953 0 0.0044916659348858022 0.00025978917954835949 0 0.0044089382715451772 0.00023560171817898953 0 0.0044916659348858022 0.00025978917954835949 0 0.0045008287422302236 0.0002739965109029902 0 0.0044916659348858022 0.00025978917954835949 0 0.0045218477319111409 0.00019581657187150647 0 0.0045533666185943724 0.00024349156487010686 0 0.0044122427741632563 0.00016029890429778915 0 0.0044916659348858022 0.00025978917954835949 0 0.0045218477319111409 0.00019581657187150647 0 0.0044949443944910768 9.2208833134284376e-05 0 0.0044122427741632563 0.00016029890429778915 0 0.0045218477319111409 0.00019581657187150647 0 0.0045772102194346466 0.00014182342758421853 0 0.0044949443944910768 9.2208833134284376e-05 0 0.0045218477319111409 0.00019581657187150647 0 0.0045772102194346466 0.00014182342758421853 0 0.0045218477319111409 0.00019581657187150647 0 0.0045698432741441211 0.00019483295719278619 0 0.0045218477319111409 0.00019581657187150647 0 0.0045698432741441211 0.00019483295719278619 0 0.0045533666185943724 0.00024349156487010686 0 0.0046024214635750696 0.00025925399808243303 0 0.0045533666185943724 0.00024349156487010686 0 0.0045614664188907235 0.00029351702996625179 0 0.0045533666185943724 0.00024349156487010686 0 0.0045282860222154884 0.00026980472049627148 0 0.0045614664188907235 0.00029351702996625179 0 0.0044916659348858022 0.00025978917954835949 0 0.0045533666185943724 0.00024349156487010686 0 0.0045282860222154884 0.00026980472049627148 0 0.0044916659348858022 0.00025978917954835949 0 0.0045282860222154884 0.00026980472049627148 0 0.0046057260955430536 0.00025239590142232354 0 0.0045282860222154884 0.00026980472049627148 0 0.0045821770836056612 0.00013869164532466469 0 0.0046057260955430536 0.00025239590142232354 0 0.0045282860222154884 0.00026980472049627148 0 0.0044638762876063574 0.00022962469543011185 0 0.0045821770836056612 0.00013869164532466469 0 0.004765668690005209 0.00010856241653516193 0 0.0048371827953126653 8.7499821248084101e-05 0 0.0046956435389461405 0.00011200333559453215 0 0.004765668690005209 0.00010856241653516193 0 0.0049992877543350535 7.5320309250822828e-07 0 0.0049996897744287762 2.8243432833968668e-07 0 0.0049997483083316389 3.3183448293304319e-07 0 0.0049997483083316389 3.3183448293304319e-07 0 0.0049999996238911243 2.3162236320597539e-10 0 0.0050000000166927194 -1.2556245261939897e-10 0 0.0049996897744287762 2.8243432833968668e-07 0 0.0049997483083316389 3.3183448293304319e-07 0 0.0049999996238911243 2.3162236320597539e-10 0 0.0049999996545613762 1.4532810286938001e-10 0 0.0049996897744287762 2.8243432833968668e-07 0 0.0049999996238911243 2.3162236320597539e-10 0 0.0049194130532376661 5.3563689039985525e-05 0 0.0049991117681576821 -3.643446626714237e-08 0 0.0048184325007841096 0.00011870848197587024 0 0.0049194130532376661 5.3563689039985525e-05 0 0.0049991117681576821 -3.643446626714237e-08 0 0.0050002851011214065 7.8247253136835371e-08 0 0.0049991117681576821 -3.643446626714237e-08 0 0.0047425844677423815 0.00014786292851902389 0 0.0048184325007841096 0.00011870848197587024 0 0.0045821770836056612 0.00013869164532466469 0 0.0049991117681576821 -3.643446626714237e-08 0 0.0047425844677423815 0.00014786292851902389 0 0.0048371827953126653 8.7499821248084101e-05 0 0.0049997700679213167 7.9489897179438533e-08 0 0.0045821770836056612 0.00013869164532466469 0 0.0047425844677423815 0.00014786292851902389 0 0.0046057260955430536 0.00025239590142232354 0 0.0047425844677423815 0.00014786292851902389 0 0.0047284993906677054 0.00018813797949701516 0 0.0048184325007841096 0.00011870848197587024 0 0.0049194130532376661 5.3563689039985525e-05 0 0.0048184325007841096 0.00011870848197587024 0 0.0048846249032468286 0.00012279326620425683 0 0.0047284993906677054 0.00018813797949701516 0 0.0048184325007841096 0.00011870848197587024 0 0.0048846249032468286 0.00012279326620425683 0 0.0047284993906677054 0.00018813797949701516 0 0.0046180614596437212 0.00024822807556575062 0 0.0046057260955430536 0.00025239590142232354 0 0.0047284993906677054 0.00018813797949701516 0 0.0046180614596437212 0.00024822807556575062 0 0.0048846249032468286 0.00012279326620425683 0 0.0047425844677423815 0.00014786292851902389 0 0.0047284993906677054 0.00018813797949701516 0 0.0046057260955430536 0.00025239590142232354 0 0.0044916659348858022 0.00025978917954835949 0 0.0046057260955430536 0.00025239590142232354 0 0.0045008287422302236 0.0002739965109029902 0 0.0046180614596437212 0.00024822807556575062 0 0.0046057260955430536 0.00025239590142232354 0 0.0045008287422302236 0.0002739965109029902 0 0.0046180614596437212 0.00024822807556575062 0 0.0045008287422302236 0.0002739965109029902 0 0.0044915508785138307 0.00028577374509748096 0 0.0044111615644446701 0.00026959658947215185 0 0.0045008287422302236 0.0002739965109029902 0 0.0044915508785138307 0.00028577374509748096 0 0.0044915508785138307 0.00028577374509748096 0 0.0044258736511410702 0.00031286056433725323 0 0.0045187885950762592 0.00029574924242298977 0 0.0044111615644446701 0.00026959658947215185 0 0.0044915508785138307 0.00028577374509748096 0 0.0044258736511410702 0.00031286056433725323 0 0.0042901791171679081 0.00036720848809199889 0 0.0041675096849719002 0.0002528403750271949 0 0.0042716389324309852 0.00029356124280696249 0 0.0044258736511410702 0.00031286056433725323 0 0.0043136829991897285 0.00032966426541842294 0 0.0042716389324309852 0.00029356124280696249 0 0.0043136829991897285 0.00032966426541842294 0 0.0042901791171679081 0.00036720848809199889 0 0.0042716389324309852 0.00029356124280696249 0 0.0047269022433371489 0.00020054676878010217 0 0.004737604620134791 0.00019403545871671124 0 0.0043136829991897285 0.00032966426541842294 0 0.0043022626812699435 0.0003646400932207992 0 0.0042901791171679081 0.00036720848809199889 0 0.0044258736511410702 0.00031286056433725323 0 0.0043136829991897285 0.00032966426541842294 0 0.0043022626812699435 0.0003646400932207992 0 0.0046180614596437212 0.00024822807556575062 0 0.0044915508785138307 0.00028577374509748096 0 0.0045187885950762592 0.00029574924242298977 0 0.0042901791171679081 0.00036720848809199889 0 0.0042369990865043115 0.00031664164983672788 0 0.0042373376113566128 0.0003932280961788666 0 0.004737604620134791 0.00019403545871671124 0 0.0046734908057334251 0.00017342901973693855 0 0.0042901791171679081 0.00036720848809199889 0 0.0042369990865043115 0.00031664164983672788 0 0.0042617834855645112 0.00017755311145615851 0 0.0043022626812699435 0.0003646400932207992 0 0.0042901791171679081 0.00036720848809199889 0 0.0042373376113566128 0.0003932280961788666 0 0.0049945692925732806 1.0069044730044097e-05 0 0.004998671419055252 6.5590947067041568e-06 0 0.004996362167870025 3.5660817920138025e-06 0 0.004737604620134791 0.00019403545871671124 0 0.0048770317197825205 5.103280482495286e-05 0 0.0048768065994961611 0.0001463523562605205 0 0.0049174314117209472 0.00010133847944288799 0 0.0046180614596437212 0.00024822807556575062 0 0.0045187885950762592 0.00029574924242298977 0 0.0047994603069443373 0.00016447927288471443 0 0.0047994603069443373 0.00016447927288471443 0 0.0047819814559160725 0.0001193472016831902 0 0.0050002048349871873 -5.4716152170356035e-08 0 0.0046180614596437212 0.00024822807556575062 0 0.0047994603069443373 0.00016447927288471443 0 0.0047819814559160725 0.0001193472016831902 0 0.004996362167870025 3.5660817920138025e-06 0 0.004999233125584473 2.0973213213242696e-06 0 0.0049999948661244992 -4.9106208310529394e-10 0 0.004998671419055252 6.5590947067041568e-06 0 0.004996362167870025 3.5660817920138025e-06 0 0.004999233125584473 2.0973213213242696e-06 0 0.004999233125584473 2.0973213213242696e-06 0 0.0050000002603562766 1.3052333103726355e-09 0 0.0049999948661244992 -4.9106208310529394e-10 0 0.0049174314117209472 0.00010133847944288799 0 0.0049998073538074003 1.410035185538865e-07 0 0.0047819814559160725 0.0001193472016831902 0 0.0050002048349871873 -5.4716152170356035e-08 0 0.0049996291663093858 7.5762331053422312e-08 0 0.0048770317197825205 5.103280482495286e-05 0 0.0049997895969656281 4.7573849351431342e-09 0 0.0049194130532376661 5.3563689039985525e-05 0 0.0048846249032468286 0.00012279326620425683 0 0.0050002851011214065 7.8247253136835371e-08 0 0.004926995168183154 -1.4056837147736828e-06 0 0.0049999183195997233 8.9009548107042653e-08 0 0.0049375754179086864 -5.8643288951119062e-05 0 0.004926995168183154 -1.4056837147736828e-06 0 0.0049998430645029502 3.025712404595086e-08 0 0.0048263899810797222 -1.4917187029338705e-07 0 0.0049995772734242553 2.8312305801947769e-08 0 0.0047217205573724256 7.5116700094614582e-05 0 0.004926995168183154 -1.4056837147736828e-06 0 0.0049998430645029502 3.025712404595086e-08 0 0.0049999183195997233 8.9009548107042653e-08 0 0.0050000018932998208 -1.4419388713108685e-10 0 0.0050000007858162178 1.2848608176496904e-06 0 0.0050010855600472765 3.5771373598632614e-06 0 0.004999233125584473 2.0973213213242696e-06 0 0.0050000002603562766 1.3052333103726355e-09 0 0.0050000007858162178 1.2848608176496904e-06 0 0.0050000002603562766 1.3052333103726355e-09 0 0.0050000018932998208 -1.4419388713108685e-10 0 0.0050000007858162178 1.2848608176496904e-06 0 0.004998671419055252 6.5590947067041568e-06 0 0.004999233125584473 2.0973213213242696e-06 0 0.0050010855600472765 3.5771373598632614e-06 0 0.004999233125584473 2.0973213213242696e-06 0 0.0050000007858162178 1.2848608176496904e-06 0 0.0050010855600472765 3.5771373598632614e-06 0 0.004592598554723523 -1.8110032174662448e-05 0 0.0048257009123028197 -1.2664877581858499e-07 0 0.0045965027141146968 4.383169317945417e-08 0 0.004926995168183154 -1.4056837147736828e-06 0 0.0049375754179086864 -5.8643288951119062e-05 0 0.0048263899810797222 -1.4917187029338705e-07 0 0.0047217205573724256 7.5116700094614582e-05 0 0.0048258447356017481 9.5146587295065273e-08 0 0.004592598554723523 -1.8110032174662448e-05 0 0.0045965027141146968 4.383169317945417e-08 0 0.0043985248776083237 1.2599194787975516e-05 0 0.0046734908057334251 0.00017342901973693855 0 0.0047217205573724256 7.5116700094614582e-05 0 0.0047217205573724256 7.5116700094614582e-05 0 0.0044896616329706601 0.00017816674418618883 0 0.0042373376113566128 0.0003932280961788666 0 0.0041327910037301206 0.00047020584861332893 0 0.0041360128698757674 0.00030636583158432106 0 0.0042369990865043115 0.00031664164983672788 0 0.0041360128698757674 0.00030636583158432106 0 0.0042617834855645112 0.00017755311145615851 0 0.0042369990865043115 0.00031664164983672788 0 0.0042373376113566128 0.0003932280961788666 0 0.0041360128698757674 0.00030636583158432106 0 0.0045965027141146968 4.383169317945417e-08 0 0.0043985248776083237 1.2599194787975516e-05 0 0.0043670482053745751 3.0491888399246925e-08 0 0.0043985248776083237 1.2599194787975516e-05 0 0.0042919546258310621 1.9725152639833263e-05 0 0.0041950445584288234 3.9681300135852086e-05 0 0.0043670482053745751 3.0491888399246925e-08 0 0.0042919546258310621 1.9725152639833263e-05 0 0.0042130991573587177 2.1371555656853899e-05 0 0.0043985248776083237 1.2599194787975516e-05 0 0.0043670482053745751 3.0491888399246925e-08 0 0.0042919546258310621 1.9725152639833263e-05 0 0.0043670482053745751 3.0491888399246925e-08 0 0.0041375208036064431 7.4527344347184042e-08 0 0.0042130991573587177 2.1371555656853899e-05 0 0.0041375208036064431 7.4527344347184042e-08 0 0.0042130991573587177 2.1371555656853899e-05 0 0.0041851530827047602 -2.8402542557957738e-06 0 0.0042919546258310621 1.9725152639833263e-05 0 0.0042130991573587177 2.1371555656853899e-05 0 0.0041950445584288234 3.9681300135852086e-05 0 0.0042130991573587177 2.1371555656853899e-05 0 0.0041851530827047602 -2.8402542557957738e-06 0 0.0041950445584288234 3.9681300135852086e-05 0 0.0038794910255108401 8.0654273476228985e-05 0 0.0037742967641887703 5.5048467972849029e-05 0 0.0039512081342213626 0.00024187034584309856 0 0.0039991453127861919 8.4880755175086175e-05 0 0.0040774005420907977 0.00016624022762709058 0 0.0041851530827047602 -2.8402542557957738e-06 0 0.0041950445584288234 3.9681300135852086e-05 0 0.0042617834855645112 0.00017755311145615851 0 0.0038794910255108401 8.0654273476228985e-05 0 0.0037742967641887703 5.5048467972849029e-05 0 0.0038090919092865685 4.0070554412251453e-05 0 0.0044896616329706601 0.00017816674418618883 0 0.0044188476203371888 0.00015359267319145576 0 0.0041360128698757674 0.00030636583158432106 0 0.0041950445584288234 3.9681300135852086e-05 0 0.0042617834855645112 0.00017755311145615851 0 0.0041345350129956141 0.00022606569286498951 0 0.0040774005420907977 0.00016624022762709058 0 0.0042901791171679081 0.00036720848809199889 0 0.0041675096849719002 0.0002528403750271949 0 0.0039512081342213626 0.00024187034584309856 0 0.0041675096849719002 0.0002528403750271949 0 0.0039512081342213626 0.00024187034584309856 0 0.0040050257662590958 0.00015036938967825375 0 0.0044258736511410702 0.00031286056433725323 0 0.0043101408306553584 0.00025008563814373663 0 0.0042716389324309852 0.00029356124280696249 0 0.0044111615644446701 0.00026959658947215185 0 0.0044258736511410702 0.00031286056433725323 0 0.0043101408306553584 0.00025008563814373663 0 0.0041675096849719002 0.0002528403750271949 0 0.0043101408306553584 0.00025008563814373663 0 0.0042716389324309852 0.00029356124280696249 0 0.0041675096849719002 0.0002528403750271949 0 0.0043101408306553584 0.00025008563814373663 0 0.0041210726320112887 0.00015774179708504823 0 0.0042873544329343873 0.00020350649766860755 0 0.0043101408306553584 0.00025008563814373663 0 0.0041210726320112887 0.00015774179708504823 0 0.0041210726320112887 0.00015774179708504823 0 0.0039437801501566103 7.1352798050583453e-05 0 0.004082446370400724 8.5265481679483657e-05 0 0.0042873544329343873 0.00020350649766860755 0 0.0041210726320112887 0.00015774179708504823 0 0.004082446370400724 8.5265481679483657e-05 0 0.0038794910255108401 8.0654273476228985e-05 0 0.0039512081342213626 0.00024187034584309856 0 0.0040050257662590958 0.00015036938967825375 0 0.0041675096849719002 0.0002528403750271949 0 0.0041210726320112887 0.00015774179708504823 0 0.0040050257662590958 0.00015036938967825375 0 0.0041210726320112887 0.00015774179708504823 0 0.0040050257662590958 0.00015036938967825375 0 0.0039437801501566103 7.1352798050583453e-05 0 0.0038794910255108401 8.0654273476228985e-05 0 0.0040050257662590958 0.00015036938967825375 0 0.0039437801501566103 7.1352798050583453e-05 0 0.0038794910255108401 8.0654273476228985e-05 0 0.0039437801501566103 7.1352798050583453e-05 0 0.0038013344042969028 2.2498490646396654e-05 0 0.0039437801501566103 7.1352798050583453e-05 0 0.0038695106232332233 2.5300941643511316e-05 0 0.0038013344042969028 2.2498490646396654e-05 0 0.0039437801501566103 7.1352798050583453e-05 0 0.004082446370400724 8.5265481679483657e-05 0 0.0038695106232332233 2.5300941643511316e-05 0 0.004082446370400724 8.5265481679483657e-05 0 0.0038567029690941487 -5.4968063445070854e-06 0 0.0038695106232332233 2.5300941643511316e-05 0 0.0038567029690941487 -5.4968063445070854e-06 0 0.0038695106232332233 2.5300941643511316e-05 0 0.0037314714982693135 -1.6713913448903438e-06 0 0.0038695106232332233 2.5300941643511316e-05 0 0.0037314714982693135 -1.6713913448903438e-06 0 0.0038013344042969028 2.2498490646396654e-05 0 0.0037314714982693135 -1.6713913448903438e-06 0 0.0037326139372270599 1.1403448361522308e-05 0 0.0038013344042969028 2.2498490646396654e-05 0 0.0037326139372270599 1.1403448361522308e-05 0 0.0038013344042969028 2.2498490646396654e-05 0 0.0037915675572942295 1.9914645587917465e-05 0 0.0036197177876244632 2.1189514342848904e-08 0 0.0037326139372270599 1.1403448361522308e-05 0 0.0039075172253681366 -2.0798405883946821e-08 0 0.0037326139372270599 1.1403448361522308e-05 0 0.0039075172253681366 -2.0798405883946821e-08 0 0.0037915675572942295 1.9914645587917465e-05 0 0.0039991453127861919 8.4880755175086175e-05 0 0.0039082146388159439 1.2671898752249621e-07 0 0.0037742967641887703 5.5048467972849029e-05 0 0.0039075172253681366 -2.0798405883946821e-08 0 0.0037915675572942295 1.9914645587917465e-05 0 0.0041375208036064431 7.4527344347184042e-08 0 0.0041851530827047602 -2.8402542557957738e-06 0 0.0039083408620277727 -1.0864387618614665e-07 0 0.0037742967641887703 5.5048467972849029e-05 0 0.0038090919092865685 4.0070554412251453e-05 0 0.0037915675572942295 1.9914645587917465e-05 0 0.0038794910255108401 8.0654273476228985e-05 0 0.0038090919092865685 4.0070554412251453e-05 0 0.0038013344042969028 2.2498490646396654e-05 0 0.0038090919092865685 4.0070554412251453e-05 0 0.0038013344042969028 2.2498490646396654e-05 0 0.0037915675572942295 1.9914645587917465e-05 0 0.0048243839920447222 0.00010124397470560332 0 0.0047497592076371593 0.00010486365642914501 0 0.0048190303918172542 0.00014128487152599778 0 0.0048191049395787293 0.00014364011459436083 0 0.0048105184808141885 0.00015939033174201068 0 0.0048191049395787293 0.00014364011459436083 0 0.0048105184808141885 0.00015939033174201068 0 0.0048201427545381094 0.00015001142995766506 0 0.0049431115796535509 9.7873219912519404e-05 0 0.0049182860156165506 0.00010580173887823633 0 0.0049319163504442888 0.00012601560962899002 0 0.0049182860156165506 0.00010580173887823633 0 0.0049185818826093823 7.99767214669422e-05 0 0.0048937112598467858 0.00010078853471897679 0 0.0049319163504442888 0.00012601560962899002 0 0.004907077134897039 0.00012798348988935285 0 0.0049145663764593433 0.00014170187606508708 0 0.0049182860156165506 0.00010580173887823633 0 0.0049038651695575549 0.00011359657400151119 0 0.004907077134897039 0.00012798348988935285 0 0.0049182860156165506 0.00010580173887823633 0 0.0049319163504442888 0.00012601560962899002 0 0.004907077134897039 0.00012798348988935285 0 0.0048105184808141885 0.00015939033174201068 0 0.0048224327629611784 0.00015411250846249694 0 0.0048201427545381094 0.00015001142995766506 0 0.0048105184808141885 0.00015939033174201068 0 0.0048224327629611784 0.00015411250846249694 0 0.0048198337784294146 0.00016519951424933879 0 0.0048224327629611784 0.00015411250846249694 0 0.0048345994498429279 0.00014915963425052707 0 0.0048198337784294146 0.00016519951424933879 0 0.0047999149097143826 9.818572599111775e-05 0 0.0047410683518065147 8.0746795363544478e-05 0 0.0048646399265630637 0.00011625141815870625 0 0.0048622135265098104 0.00010905266932963165 0 0.0048659819671410965 0.00010852335056265274 0 0.0048646399265630637 0.00011625141815870625 0 0.0048622135265098104 0.00010905266932963165 0 0.0048590077960924665 0.00011261527136810894 0 0.0048646399265630637 0.00011625141815870625 0 0.0048590077960924665 0.00011261527136810894 0 0.0048507915436020932 0.00013130755957638799 0 0.0047999149097143826 9.818572599111775e-05 0 0.0048148476253546783 0.00010426835634599976 0 0.0048345994498429279 0.00014915963425052707 0 0.0048271475500221662 0.00014062049308901921 0 0.0048348435355870436 0.0001338112043114144 0 0.0048191049395787293 0.00014364011459436083 0 0.0048201427545381094 0.00015001142995766506 0 0.0048229601287679124 0.00014536926951643574 0 0.0048224327629611784 0.00015411250846249694 0 0.0048254573712858293 0.00014780668705341362 0 0.0048201427545381094 0.00015001142995766506 0 0.0048254573712858293 0.00014780668705341362 0 0.0048201427545381094 0.00015001142995766506 0 0.0048229601287679124 0.00014536926951643574 0 0.0048224327629611784 0.00015411250846249694 0 0.0048345994498429279 0.00014915963425052707 0 0.0048254573712858293 0.00014780668705341362 0 0.0048345994498429279 0.00014915963425052707 0 0.0048254573712858293 0.00014780668705341362 0 0.0048271475500221662 0.00014062049308901921 0 0.0048254573712858293 0.00014780668705341362 0 0.0048271475500221662 0.00014062049308901921 0 0.0048229601287679124 0.00014536926951643574 0 0.0048191049395787293 0.00014364011459436083 0 0.0048271475500221662 0.00014062049308901921 0 0.0048229601287679124 0.00014536926951643574 0 0.0048271475500221662 0.00014062049308901921 0 0.0048348435355870436 0.0001338112043114144 0 0.0048266375971270101 0.00012539949492866399 0 0.0048191049395787293 0.00014364011459436083 0 0.0048271475500221662 0.00014062049308901921 0 0.0048266375971270101 0.00012539949492866399 0 0.0048190303918172542 0.00014128487152599778 0 0.0048191049395787293 0.00014364011459436083 0 0.0048281626667452801 0.00012183204530975827 0 0.0048469691201055518 0.00012735807983621646 0 0.0048650105259168668 9.7023453992708752e-05 0 0.0048243839920447222 0.00010124397470560332 0 0.0048650105259168668 9.7023453992708752e-05 0 0.0048345994498429279 0.00014915963425052707 0 0.0048348435355870436 0.0001338112043114144 0 0.0048507915436020932 0.00013130755957638799 0 0.0048348435355870436 0.0001338112043114144 0 0.0048380730515472977 0.00012454379231727067 0 0.0048507915436020932 0.00013130755957638799 0 0.0048348435355870436 0.0001338112043114144 0 0.0048380730515472977 0.00012454379231727067 0 0.0048266375971270101 0.00012539949492866399 0 0.0048380730515472977 0.00012454379231727067 0 0.0048475562749848069 0.00012533850862912703 0 0.0048396235125058966 0.00011539267314364286 0 0.0048380730515472977 0.00012454379231727067 0 0.0048266375971270101 0.00012539949492866399 0 0.0048285581015385321 0.00011579382899785477 0 0.0048650105259168668 9.7023453992708752e-05 0 0.0049059641160765647 5.8283249193308597e-05 0 0.0049535882412871986 7.0746201136189996e-05 0 0.0049420318206450384 5.9303740724601134e-05 0 0.0049595125639468928 5.3277126267001464e-05 0 0.0049420318206450384 5.9303740724601134e-05 0 0.0049380850402137542 7.8638296966415476e-05 0 0.0049185818826093823 7.99767214669422e-05 0 0.0049535882412871986 7.0746201136189996e-05 0 0.0049420318206450384 5.9303740724601134e-05 0 0.0049380850402137542 7.8638296966415476e-05 0 0.0049508579801687781 2.6101994842805045e-05 0 0.0049468750591825702 3.4781774501076199e-05 0 0.0049431115796535509 9.7873219912519404e-05 0 0.0049380850402137542 7.8638296966415476e-05 0 0.0049185818826093823 7.99767214669422e-05 0 0.0049431115796535509 9.7873219912519404e-05 0 0.0049535882412871986 7.0746201136189996e-05 0 0.0049380850402137542 7.8638296966415476e-05 0 0.0049431115796535509 9.7873219912519404e-05 0 0.0049182860156165506 0.00010580173887823633 0 0.0049185818826093823 7.99767214669422e-05 0 0.0049844540784678157 -7.1351112221955892e-07 0 0.0049883051143469002 -3.3662432947445777e-06 0 0.004988192047102648 -2.4606448622370658e-07 0 0.0049883051143469002 -3.3662432947445777e-06 0 0.0049905645839702969 -1.7174619041446327e-06 0 0.004988192047102648 -2.4606448622370658e-07 0 0.0049895943862465616 -2.8152463704542922e-06 0 0.004989812550261756 -2.99841261461931e-06 0 0.0049889042985563582 -1.5941489359419229e-06 0 0.0049302626760565557 -6.5656907305006919e-05 0 0.0049284620663257086 -5.9487601122571372e-05 0 0.0049362780202379568 -5.9838691947546507e-05 0 0.0049284620663257086 -5.9487601122571372e-05 0 0.0049004805581775203 -5.3552448857663404e-05 0 0.0049558804283030018 -6.1688076954794475e-05 0 0.0049004805581775203 -5.3552448857663404e-05 0 0.0048319789096028251 -7.5728618253198966e-05 0 0.0048393084019359338 -0.00013501534690662633 0 0.0049004805581775203 -5.3552448857663404e-05 0 0.0048441163276923358 -0.00014056698059196942 0 0.0048393084019359338 -0.00013501534690662633 0 0.0049123792641417056 -6.8698957333833746e-05 0 0.0049081047318436724 -8.4022719223583403e-05 0 0.0049284620663257086 -5.9487601122571372e-05 0 0.0049381389824846179 -5.9239789066042439e-05 0 0.0049362780202379568 -5.9838691947546507e-05 0 0.0049284620663257086 -5.9487601122571372e-05 0 0.0049414012175979126 -5.9617535954512211e-05 0 0.0049381389824846179 -5.9239789066042439e-05 0 0.0049302626760565557 -6.5656907305006919e-05 0 0.0049284620663257086 -5.9487601122571372e-05 0 0.0049004805581775203 -5.3552448857663404e-05 0 0.0049004805581775203 -5.3552448857663404e-05 0 0.0048319789096028251 -7.5728618253198966e-05 0 0.0048471606071958332 -3.0122189260507169e-06 0 0.0049004805581775203 -5.3552448857663404e-05 0 0.0049015487903770411 -2.0581415853015009e-05 0 0.0048471606071958332 -3.0122189260507169e-06 0 0.0049883051143469002 -3.3662432947445777e-06 0 0.004990072660858858 -4.5828827692985167e-06 0 0.0049905800020345857 -5.1218768666224233e-06 0 0.004989812550261756 -2.99841261461931e-06 0 0.004990072660858858 -4.5828827692985167e-06 0 0.0049905800020345857 -5.1218768666224233e-06 0 0.004977134437060062 -6.744415966693431e-06 0 0.0049795299031157965 -5.2174543281975873e-06 0 0.0049468750591825702 3.4781774501076199e-05 0 0.0049341165247604119 4.5358618201897458e-05 0 0.0049883051143469002 -3.3662432947445777e-06 0 0.0049905645839702969 -1.7174619041446327e-06 0 0.004990072660858858 -4.5828827692985167e-06 0 0.0049558288129395557 -1.4104442593367908e-05 0 0.0049341165247604119 4.5358618201897458e-05 0 0.0049302626760565557 -6.5656907305006919e-05 0 0.0049015487903770411 -2.0581415853015009e-05 0 0.0049179154770296243 5.2257492508515865e-07 0 0.0049302626760565557 -6.5656907305006919e-05 0 0.0049004805581775203 -5.3552448857663404e-05 0 0.0049015487903770411 -2.0581415853015009e-05 0 0.0049895943862465616 -2.8152463704542922e-06 0 0.004989812550261756 -2.99841261461931e-06 0 0.004990072660858858 -4.5828827692985167e-06 0 0.0048230408527821711 -0.00010199886697768845 0 0.004824270353644842 -0.00012918739060410807 0 0.004806012263054874 -0.00011974118584250766 0 0.0047439895423931613 -0.00010687872959961403 0 0.0047768723475398083 -0.00012583939572423996 0 0.0048319789096028251 -7.5728618253198966e-05 0 0.0047648466701213825 -6.1852731888823137e-05 0 0.0048393084019359338 -0.00013501534690662633 0 0.0048230408527821711 -0.00010199886697768845 0 0.004824270353644842 -0.00012918739060410807 0 0.0048393084019359338 -0.00013501534690662633 0 0.0048319789096028251 -7.5728618253198966e-05 0 0.0047648466701213825 -6.1852731888823137e-05 0 0.0047818211937052666 -5.3976936939052621e-06 0 0.0048319789096028251 -7.5728618253198966e-05 0 0.0047818211937052666 -5.3976936939052621e-06 0 0.0048471606071958332 -3.0122189260507169e-06 0 0.0047648466701213825 -6.1852731888823137e-05 0 0.0047818211937052666 -5.3976936939052621e-06 0 0.004691619067847836 1.715662110881063e-05 0 0.0047439895423931613 -0.00010687872959961403 0 0.0046649580402936654 -8.6947132480638824e-05 0 0.0047818211937052666 -5.3976936939052621e-06 0 0.0047969597337831297 5.4004587058488647e-05 0 0.004691619067847836 1.715662110881063e-05 0 0.0047818211937052666 -5.3976936939052621e-06 0 0.0047969597337831297 5.4004587058488647e-05 0 0.0048471606071958332 -3.0122189260507169e-06 0 0.0047969597337831297 5.4004587058488647e-05 0 0.0048471606071958332 -3.0122189260507169e-06 0 0.0048577702160359565 4.1912668667808679e-05 0 0.0047969597337831297 5.4004587058488647e-05 0 0.004851516163876188 8.9416202890509907e-05 0 0.0048090092582914945 0.0001212312297593533 0 0.0047969597337831297 5.4004587058488647e-05 0 0.0047332222467956651 0.00010512054184512321 0 0.0048090092582914945 0.0001212312297593533 0 0.0047969597337831297 5.4004587058488647e-05 0 0.0048577702160359565 4.1912668667808679e-05 0 0.004851516163876188 8.9416202890509907e-05 0 0.0047969597337831297 5.4004587058488647e-05 0 0.0047332222467956651 0.00010512054184512321 0 0.004691619067847836 1.715662110881063e-05 0 0.0049182860156165506 0.00010580173887823633 0 0.0049038651695575549 0.00011359657400151119 0 0.0048937112598467858 0.00010078853471897679 0 0.0049188882064263965 1.8107359042077301e-06 0 0.0049098114688334677 9.1911962561824993e-06 0 0.004897988253409525 9.1332181456050366e-05 0 0.0049015487903770411 -2.0581415853015009e-05 0 0.0049179154770296243 5.2257492508515865e-07 0 0.0049098114688334677 9.1911962561824993e-06 0 0.0049341165247604119 4.5358618201897458e-05 0 0.0049340834400013614 4.5188622106107367e-05 0 0.0049015487903770411 -2.0581415853015009e-05 0 0.0048814120177705514 1.2421639538955023e-05 0 0.0048471606071958332 -3.0122189260507169e-06 0 0.0049015487903770411 -2.0581415853015009e-05 0 0.0049098114688334677 9.1911962561824993e-06 0 0.0048814120177705514 1.2421639538955023e-05 0 0.0048814120177705514 1.2421639538955023e-05 0 0.0048471606071958332 -3.0122189260507169e-06 0 0.0048577702160359565 4.1912668667808679e-05 0 0.0049098114688334677 9.1911962561824993e-06 0 0.0048814120177705514 1.2421639538955023e-05 0 0.0048834684324774212 3.1965800771036099e-05 0 0.0049098114688334677 9.1911962561824993e-06 0 0.0048834684324774212 3.1965800771036099e-05 0 0.0048823834602188523 5.879071167567601e-05 0 0.0048814120177705514 1.2421639538955023e-05 0 0.0048834684324774212 3.1965800771036099e-05 0 0.0048577702160359565 4.1912668667808679e-05 0 0.0049098114688334677 9.1911962561824993e-06 0 0.0048823834602188523 5.879071167567601e-05 0 0.004897988253409525 9.1332181456050366e-05 0 0.0048834684324774212 3.1965800771036099e-05 0 0.0048823834602188523 5.879071167567601e-05 0 0.0048577702160359565 4.1912668667808679e-05 0 0.0048823834602188523 5.879071167567601e-05 0 0.0048577702160359565 4.1912668667808679e-05 0 0.004851516163876188 8.9416202890509907e-05 0 0.0048823834602188523 5.879071167567601e-05 0 0.004851516163876188 8.9416202890509907e-05 0 0.004897988253409525 9.1332181456050366e-05 0 0.0049341165247604119 4.5358618201897458e-05 0 0.0049123921585224961 0.00010347922513004174 0 0.0049038651695575549 0.00011359657400151119 0 0.0048937112598467858 0.00010078853471897679 0 0.0048862548694160682 0.000132965683584551 0 0.0049038651695575549 0.00011359657400151119 0 0.0048862548694160682 0.000132965683584551 0 0.004907077134897039 0.00012798348988935285 0 0.0048862548694160682 0.000132965683584551 0 0.004907077134897039 0.00012798348988935285 0 0.0049023789227853427 0.000154034878821267 0 0.004907077134897039 0.00012798348988935285 0 0.0049023789227853427 0.000154034878821267 0 0.0049247998239323326 0.0001517223807263076 0 0.0048862548694160682 0.000132965683584551 0 0.0049023789227853427 0.000154034878821267 0 0.0048767529064460725 0.00018035195886372308 0 0.0049023789227853427 0.000154034878821267 0 0.0049042590553681235 0.0001770403134439649 0 0.0049191365539591496 0.00016923976225263312 0 0.004897988253409525 9.1332181456050366e-05 0 0.0048538517163992205 0.00013573266764618455 0 0.0048767529064460725 0.00018035195886372308 0 0.0049123921585224961 0.00010347922513004174 0 0.0049037041853967457 0.00013444438211748623 0 0.0048538517163992205 0.00013573266764618455 0 0.0048344947042802825 0.00019095988395879064 0 0.0048090092582914945 0.0001212312297593533 0 0.004851516163876188 8.9416202890509907e-05 0 0.004897988253409525 9.1332181456050366e-05 0 0.0048538517163992205 0.00013573266764618455 0 0.004851516163876188 8.9416202890509907e-05 0 0.0048538517163992205 0.00013573266764618455 0 0.0048090092582914945 0.0001212312297593533 0 0.0048344947042802825 0.00019095988395879064 0 0.0047873734075700725 0.00020709543773261548 0 0.0048630071926811357 0.00022058006019449406 0 0.0048538517163992205 0.00013573266764618455 0 0.0048767529064460725 0.00018035195886372308 0 0.0048344947042802825 0.00019095988395879064 0 0.0048344947042802825 0.00019095988395879064 0 0.0048697970037250978 0.00019952258859891824 0 0.0048630071926811357 0.00022058006019449406 0 0.0048767529064460725 0.00018035195886372308 0 0.0048344947042802825 0.00019095988395879064 0 0.0048697970037250978 0.00019952258859891824 0 0.0048697970037250978 0.00019952258859891824 0 0.0048969238061461924 0.00020402658408228943 0 0.0048630071926811357 0.00022058006019449406 0 0.0048767529064460725 0.00018035195886372308 0 0.0048697970037250978 0.00019952258859891824 0 0.0048969238061461924 0.00020402658408228943 0 0.0048767529064460725 0.00018035195886372308 0 0.0048969238061461924 0.00020402658408228943 0 0.0049042590553681235 0.0001770403134439649 0 0.0048969238061461924 0.00020402658408228943 0 0.0049154223273516501 0.00019240743528760142 0 0.0049042590553681235 0.0001770403134439649 0 0.0048969238061461924 0.00020402658408228943 0 0.0049154223273516501 0.00019240743528760142 0 0.0049119692646208864 0.0002101035325483115 0 0.0049154223273516501 0.00019240743528760142 0 0.0049042590553681235 0.0001770403134439649 0 0.0049191365539591496 0.00016923976225263312 0 0.0049023789227853427 0.000154034878821267 0 0.0048767529064460725 0.00018035195886372308 0 0.0049042590553681235 0.0001770403134439649 0 0.0047332222467956651 0.00010512054184512321 0 0.0047655397033289386 0.00015333556748867654 0 0.0046915395994731922 0.00017148572568992523 0 0.0047332222467956651 0.00010512054184512321 0 0.0048090092582914945 0.0001212312297593533 0 0.0047655397033289386 0.00015333556748867654 0 0.0048344947042802825 0.00019095988395879064 0 0.0047655397033289386 0.00015333556748867654 0 0.0047873734075700725 0.00020709543773261548 0 0.0048344947042802825 0.00019095988395879064 0 0.0048090092582914945 0.0001212312297593533 0 0.0047655397033289386 0.00015333556748867654 0 0.0047655397033289386 0.00015333556748867654 0 0.0047873734075700725 0.00020709543773261548 0 0.0046915395994731922 0.00017148572568992523 0 0.0046757089669208799 0.00017940935322236336 0 0.0046915395994731922 0.00017148572568992523 0 0.0046773997368941651 0.00017819871232195263 0 0.0047155826543191139 0.00016433670635526294 0 0.004711307395552377 0.00016573485845990343 0 0.0046915395994731922 0.00017148572568992523 0 0.0046773997368941651 0.00017819871232195263 0 0.0046634698610833417 0.00018437183130250008 0 0.0046773997368941651 0.00017819871232195263 0 0.0046692784866957651 0.00018514178795047456 0 0.0046634698610833417 0.00018437183130250008 0 0.0046773997368941651 0.00017819871232195263 0 0.0046741311870380341 0.00018147616338423143 0 0.0046692784866957651 0.00018514178795047456 0 0.0047155826543191139 0.00016433670635526294 0 0.0046878381215556984 0.00014537312226805903 0 0.0046757089669208799 0.00017940935322236336 0 0.0046773997368941651 0.00017819871232195263 0 0.0046741311870380341 0.00018147616338423143 0 0.0046757089669208799 0.00017940935322236336 0 0.0046741311870380341 0.00018147616338423143 0 0.0046769246888814196 0.00018030567021582909 0 0.0046741311870380341 0.00018147616338423143 0 0.0046757683247744351 0.00018301139546264986 0 0.0046769246888814196 0.00018030567021582909 0 0.0046741311870380341 0.00018147616338423143 0 0.0046757683247744351 0.00018301139546264986 0 0.0046745495544030019 0.00018663410325541944 0 0.0046757683247744351 0.00018301139546264986 0 0.0046745495544030019 0.00018663410325541944 0 0.0046778176589962542 0.00018434620980292484 0 0.0046719114783547394 0.00019397485191297381 0 0.0046745495544030019 0.00018663410325541944 0 0.0046679114623827235 0.00019032122413851734 0 0.0046719114783547394 0.00019397485191297381 0 0.0046745495544030019 0.00018663410325541944 0 0.0046785516685237567 0.00018819839883424478 0 0.0046741311870380341 0.00018147616338423143 0 0.0046745495544030019 0.00018663410325541944 0 0.0046679114623827235 0.00019032122413851734 0 0.0046741311870380341 0.00018147616338423143 0 0.0046679114623827235 0.00019032122413851734 0 0.0046692784866957651 0.00018514178795047456 0 0.0046679114623827235 0.00019032122413851734 0 0.0046692784866957651 0.00018514178795047456 0 0.0046601076771508633 0.00019250408045173525 0 0.0046692784866957651 0.00018514178795047456 0 0.0046601076771508633 0.00019250408045173525 0 0.0046634698610833417 0.00018437183130250008 0 0.0048969238061461924 0.00020402658408228943 0 0.0049119251747961916 0.00022960983640058015 0 0.0048630071926811357 0.00022058006019449406 0 0.0046742282061212389 0.00017841259126653373 0 0.0046737693380968955 0.0001788196617488979 0 0.0046765264320630454 0.00018027117143190312 0 0.0045123005678231898 7.0543012186731556e-05 0 0.0046878381215556984 0.00014537312226805903 0 0.0042458767734283066 0.00019828461647389782 0 0.0045356550774935398 0.00026259759502607544 0 0.0044692509359704653 -6.4490091645802913e-05 0 0.0045131148210228794 7.0169710707285204e-05 0 0.004404537881661401 4.4891126700701859e-05 0 0.004404537881661401 4.4891126700701859e-05 0 0.0044542228459271398 5.1348196265318122e-05 0 0.0045356550774935398 0.00026259759502607544 0 0.0044692509359704653 -6.4490091645802913e-05 0 0.0046478807631929863 -1.020568073107087e-05 0 0.0045123005678231898 7.0543012186731556e-05 0 0.0044542228459271398 5.1348196265318122e-05 0 0.0045131148210228794 7.0169710707285204e-05 0 0.0045123005678231898 7.0543012186731556e-05 0 0.0049119251747961916 0.00022960983640058015 0 0.0049119692646208864 0.0002101035325483115 0 0.00492360005673422 0.00021448686822819185 0 0.0048969238061461924 0.00020402658408228943 0 0.0049119251747961916 0.00022960983640058015 0 0.0049119692646208864 0.0002101035325483115 0 0.0046757089669208799 0.00017940935322236336 0 0.0046765264320630454 0.00018027117143190312 0 0.0046769246888814196 0.00018030567021582909 0 0.0046742282061212389 0.00017841259126653373 0 0.0046765264320630454 0.00018027117143190312 0 0.0046769246888814196 0.00018030567021582909 0 0.0046895628629886089 0.00018204536341939344 0 0.0046769246888814196 0.00018030567021582909 0 0.0046826610951772249 0.00018483830311541216 0 0.0045131148210228794 7.0169710707285204e-05 0 0.0046152827700379189 0.00010791826931415184 0 0.0046757683247744351 0.00018301139546264986 0 0.0046769246888814196 0.00018030567021582909 0 0.0046778176589962542 0.00018434620980292484 0 0.0046769246888814196 0.00018030567021582909 0 0.0046826610951772249 0.00018483830311541216 0 0.0046778176589962542 0.00018434620980292484 0 0.0046745495544030019 0.00018663410325541944 0 0.0046778176589962542 0.00018434620980292484 0 0.0046785516685237567 0.00018819839883424478 0 0.0046826610951772249 0.00018483830311541216 0 0.0046778176589962542 0.00018434620980292484 0 0.0046785516685237567 0.00018819839883424478 0 0.0046820899656859986 0.00019288374334071426 0 0.0046719114783547394 0.00019397485191297381 0 0.0046785516685237567 0.00018819839883424478 0 0.0046820899656859986 0.00019288374334071426 0 0.0046826610951772249 0.00018483830311541216 0 0.0046785516685237567 0.00018819839883424478 0 0.0046820899656859986 0.00019288374334071426 0 0.0046895628629886089 0.00018204536341939344 0 0.0046826610951772249 0.00018483830311541216 0 0.0045999592927278401 0.00011020436005911802 0 0.0045131148210228794 7.0169710707285204e-05 0 0.0047098727430716887 0.0001359014251186466 0 0.0046853981784212261 0.00012933466484366696 0 0.0047190583196278797 8.8342083139627279e-05 0 0.003681194152204748 -0.00034603045397674128 0 0.0035794838079200378 -0.00033304490828112843 0 0.0036272383850309135 -0.00044416141168282199 0 0.0041609516452189152 -5.8064277359960071e-05 0 0.004404537881661401 4.4891126700701859e-05 0 0.0047098727430716887 0.0001359014251186466 0 0.0047190583196278797 8.8342083139627279e-05 0 0.0047273355228296034 9.0169652938355588e-05 0 0.003681194152204748 -0.00034603045397674128 0 0.0036272383850309135 -0.00044416141168282199 0 0.0037500018133748698 -0.00041710800297372556 0 0.004404537881661401 4.4891126700701859e-05 0 0.0041595276112857682 -0.00013559054183905021 0 0.0043954678201919379 -2.8659667243868076e-05 0 0.0042761931171569718 -4.3033405016783322e-05 0 0.0042707213800717188 -5.6711989006799816e-05 0 0.0037809147132903736 -0.00033858057564317419 0 0.003681194152204748 -0.00034603045397674128 0 0.0037500018133748698 -0.00041710800297372556 0 0.0038387039895740392 -0.00029755661054498705 0 0.0041595276112857682 -0.00013559054183905021 0 0.0039633767284754078 -0.00021662648787309515 0 0.0039559827450224615 -0.0001805513615359412 0 0.0039471345857271219 -0.00019627200417273884 0 0.0039633767284754078 -0.00021662648787309515 0 0.0039801358713167168 -0.00017506164054636769 0 0.0039559827450224615 -0.0001805513615359412 0 0.0038387039895740392 -0.00029755661054498705 0 0.0040916225163770328 -0.00023034744516958866 0 0.00422549923477395 -9.0454861777652587e-05 0 0.0041595276112857682 -0.00013559054183905021 0 0.0041595276112857682 -0.00013559054183905021 0 0.0041997682343957558 -0.00015808321519866019 0 0.00422549923477395 -9.0454861777652587e-05 0 0.0042438491162451273 -0.00012256638662565297 0 0.0041256810297613895 -0.00014403205705133549 0 0.0042845263511356504 -0.00014244148155388928 0 0.0043059956946509825 -0.00010426137102086596 0 0.0041046121654659887 -0.00019685261278176925 0 0.0041256810297613895 -0.00014403205705133549 0 0.0042845263511356504 -0.00014244148155388928 0 0.0042438491162451273 -0.00012256638662565297 0 0.0041997682343957558 -0.00015808321519866019 0 0.00422549923477395 -9.0454861777652587e-05 0 0.0045361427413676773 8.5259987809184904e-05 0 0.0043927592757062543 -0.00011006681659284121 0 0.0043871817610919581 -1.8103660646982926e-05 0 0.0044669931485914159 7.5781570721573894e-05 0 0.0048635569745778184 9.8069859130901321e-05 0 0.0048657335070579335 0.00010120667674324154 0 0.0048639832942140105 0.00010114494860949706 0 0.0042438491162451273 -0.00012256638662565297 0 0.0044429300501396549 1.8749119774819531e-05 0 0.0043927592757062543 -0.00011006681659284121 0 0.00432370676908403 -0.00013117203067388383 0 0.0043871817610919581 -1.8103660646982926e-05 0 0.0048657335070579335 0.00010120667674324154 0 0.0048645222829598253 0.00010307968587264027 0 0.0048639832942140105 0.00010114494860949706 0 0.00422549923477395 -9.0454861777652587e-05 0 0.0044542228459271398 5.1348196265318122e-05 0 0.0043954678201919379 -2.8659667243868076e-05 0 0.0042761931171569718 -4.3033405016783322e-05 0 0.0043873548087517587 -8.9554237766059018e-06 0 0.0044420886617300096 4.1837145950630324e-05 0 0.0044339743983418485 3.9511723177537882e-05 0 0.0044351867767800108 3.6688033152896327e-05 0 0.0044420886617300096 4.1837145950630324e-05 0 0.0044351867767800108 3.6688033152896327e-05 0 0.004438786967959899 3.2592671684401833e-05 0 0.0044107855279388519 0.00017727625990257608 0 0.0044710671446439145 0.0001955971497240875 0 0.0045421635750401233 2.2730987460060007e-05 0 0.0044542228459271398 5.1348196265318122e-05 0 0.0045101310852951699 7.2109193201157313e-05 0 0.0045123005678231898 7.0543012186731556e-05 0 0.0045101310852951699 7.2109193201157313e-05 0 0.0045101310852951699 7.2109193201157313e-05 0 0.0045361427413676773 8.5259987809184904e-05 0 0.0045101310852951699 7.2109193201157313e-05 0 0.0045792702187782532 0.00011129340035836502 0 0.0049154223273516501 0.00019240743528760142 0 0.0049119692646208864 0.0002101035325483115 0 0.00492360005673422 0.00021448686822819185 0 0.0049154223273516501 0.00019240743528760142 0 0.00492360005673422 0.00021448686822819185 0 0.0049363516257705988 0.00017790045808592552 0 0.0049154223273516501 0.00019240743528760142 0 0.0049363516257705988 0.00017790045808592552 0 0.0049191365539591496 0.00016923976225263312 0 0.0046003621561698438 0.00011270554987142725 0 0.0045792702187782532 0.00011129340035836502 0 0.004562513974680887 8.5476722640322208e-05 0 0.0045620366838092143 8.6555343350431122e-05 0 0.0045637766455009889 8.781789873390429e-05 0 0.0045792702187782532 0.00011129340035836502 0 0.0045361427413676773 8.5259987809184904e-05 0 0.0045620366838092143 8.6555343350431122e-05 0 0.0045637766455009889 8.781789873390429e-05 0 0.0045628860310565804 8.8830393800071926e-05 0 0.0046003621561698438 0.00011270554987142725 0 0.0045626140043412613 8.3802564910951251e-05 0 0.0045413929830645143 0.00010185605134816636 0 0.0045574423553240767 6.3311311495938802e-05 0 0.0045628121683470007 7.6867958816917363e-05 0 0.0045626140043412613 8.3802564910951251e-05 0 0.0045361427413676773 8.5259987809184904e-05 0 0.0044429300501396549 1.8749119774819531e-05 0 0.0045626140043412613 8.3802564910951251e-05 0 0.0043871817610919581 -1.8103660646982926e-05 0 0.0044507366540591864 9.4949915547917456e-05 0 0.0044669931485914159 7.5781570721573894e-05 0 0.0048657335070579335 0.00010120667674324154 0 0.0048672922281566373 0.00010395735293415088 0 0.0048658648376578746 0.00010377040745126788 0 0.0048657335070579335 0.00010120667674324154 0 0.0048658648376578746 0.00010377040745126788 0 0.0048645222829598253 0.00010307968587264027 0 0.0048658648376578746 0.00010377040745126788 0 0.0048645222829598253 0.00010307968587264027 0 0.0048645585495097378 0.00010455791878613833 0 0.0048658648376578746 0.00010377040745126788 0 0.0048657509963092385 0.0001055059103404587 0 0.0048645585495097378 0.00010455791878613833 0 0.0048672922281566373 0.00010395735293415088 0 0.0048658648376578746 0.00010377040745126788 0 0.0048657509963092385 0.0001055059103404587 0 0.0048020510231020106 0.00017743597312921611 0 0.0048044530416022435 0.00018189778964186525 0 0.0048198337784294146 0.00016519951424933879 0 0.0045626140043412613 8.3802564910951251e-05 0 0.0047410683518065147 8.0746795363544478e-05 0 0.0048672922281566373 0.00010395735293415088 0 0.0048657509963092385 0.0001055059103404587 0 0.0048659819671410965 0.00010852335056265274 0 0.0048105184808141885 0.00015939033174201068 0 0.0048020510231020106 0.00017743597312921611 0 0.0048198337784294146 0.00016519951424933879 0 0.0047497592076371593 0.00010486365642914501 0 0.0046003621561698438 0.00011270554987142725 0 0.0049319163504442888 0.00012601560962899002 0 0.0049203343893971779 0.00015259349357578676 0 0.0049145663764593433 0.00014170187606508708 0 0.0046631874336108686 0.00016548754766490016 0 0.0046291105117538143 0.0001444026266222718 0 0.0049363516257705988 0.00017790045808592552 0 0.0049247998239323326 0.0001517223807263076 0 0.0049191365539591496 0.00016923976225263312 0 0.0049023789227853427 0.000154034878821267 0 0.0049247998239323326 0.0001517223807263076 0 0.0049191365539591496 0.00016923976225263312 0 0.0045792702187782532 0.00011129340035836502 0 0.0046291105117538143 0.0001444026266222718 0 0.0046003621561698438 0.00011270554987142725 0 0.0046291105117538143 0.0001444026266222718 0 0.0045875405989590544 0.00011516576542451816 0 0.0045905861269288093 0.00010770551612904964 0 0.0046031693403900606 0.00014284608128194241 0 0.0048622135265098104 0.00010905266932963165 0 0.0048632012852710604 0.00010678564806781523 0 0.0048607935880155984 0.00010409797010709135 0 0.0048622135265098104 0.00010905266932963165 0 0.0048588053425143423 0.00010489162708244735 0 0.0048590077960924665 0.00011261527136810894 0 0.0048622135265098104 0.00010905266932963165 0 0.0048607935880155984 0.00010409797010709135 0 0.0048588053425143423 0.00010489162708244735 0 0.0048622135265098104 0.00010905266932963165 0 0.0048659819671410965 0.00010852335056265274 0 0.0048632012852710604 0.00010678564806781523 0 0.0048659819671410965 0.00010852335056265274 0 0.0048646973873454138 0.0001064526985928477 0 0.0048632012852710604 0.00010678564806781523 0 0.0048657509963092385 0.0001055059103404587 0 0.0048646973873454138 0.0001064526985928477 0 0.0048645585495097378 0.00010455791878613833 0 0.0048657509963092385 0.0001055059103404587 0 0.0048659819671410965 0.00010852335056265274 0 0.0048646973873454138 0.0001064526985928477 0 0.0048646973873454138 0.0001064526985928477 0 0.0048632012852710604 0.00010678564806781523 0 0.0048629499202215423 0.00010454833643603679 0 0.0048629499202215423 0.00010454833643603679 0 0.0048645585495097378 0.00010455791878613833 0 0.0048635184459707116 0.00010341012637508415 0 0.0048646973873454138 0.0001064526985928477 0 0.0048629499202215423 0.00010454833643603679 0 0.0048645585495097378 0.00010455791878613833 0 0.0048645222829598253 0.00010307968587264027 0 0.0048645585495097378 0.00010455791878613833 0 0.0048635184459707116 0.00010341012637508415 0 0.0048645222829598253 0.00010307968587264027 0 0.0048635184459707116 0.00010341012637508415 0 0.0048632182266883121 0.00010217847036524745 0 0.0048629499202215423 0.00010454833643603679 0 0.0048623141201229493 0.00010265300027162405 0 0.0048615772180268784 0.00010323576820307312 0 0.0048629499202215423 0.00010454833643603679 0 0.0048635184459707116 0.00010341012637508415 0 0.0048623141201229493 0.00010265300027162405 0 0.0048635184459707116 0.00010341012637508415 0 0.0048623141201229493 0.00010265300027162405 0 0.0048632182266883121 0.00010217847036524745 0 0.0048623141201229493 0.00010265300027162405 0 0.0048615499177334575 0.00010221590257886264 0 0.0048615772180268784 0.00010323576820307312 0 0.0045967406574350996 -0.00011594779528087628 0 0.0047167970368993655 -4.2646377271446998e-05 0 0.0048615772180268784 0.00010323576820307312 0 0.0048607935880155984 0.00010409797010709135 0 0.0048605525375911198 0.00010151742400747847 0 0.0049426384499670498 2.0477126953028845e-06 0 0.0049118066917318492 8.5296619978217938e-06 0 0.004910118837057463 5.5580090650688561e-05 0 0.0048607935880155984 0.00010409797010709135 0 0.0048605525375911198 0.00010151742400747847 0 0.0048588053425143423 0.00010489162708244735 0 0.0048615499177334575 0.00010221590257886264 0 0.0048615772180268784 0.00010323576820307312 0 0.0048605525375911198 0.00010151742400747847 0 0.0048632012852710604 0.00010678564806781523 0 0.0048629499202215423 0.00010454833643603679 0 0.0048607935880155984 0.00010409797010709135 0 0.0048629499202215423 0.00010454833643603679 0 0.0048615772180268784 0.00010323576820307312 0 0.0048607935880155984 0.00010409797010709135 0 0.0049398752425304114 -2.8786521916969031e-06 0 0.0049405287207326207 -6.9621917108641589e-06 0 0.0049391356207067385 -1.1991264363352911e-05 0 0.0049426384499670498 2.0477126953028845e-06 0 0.0049398752425304114 -2.8786521916969031e-06 0 0.0049118066917318492 8.5296619978217938e-06 0 0.0049398752425304114 -2.8786521916969031e-06 0 0.0049154372549100669 -8.2036712920024754e-06 0 0.0049118066917318492 8.5296619978217938e-06 0 0.0048615499177334575 0.00010221590257886264 0 0.0048605525375911198 0.00010151742400747847 0 0.0048618035601637778 0.00010131263075808284 0 0.0049426384499670498 2.0477126953028845e-06 0 0.0049398752425304114 -2.8786521916969031e-06 0 0.0049405287207326207 -6.9621917108641589e-06 0 0.0049398752425304114 -2.8786521916969031e-06 0 0.0049319161403786971 -1.5823274418641633e-05 0 0.004942508328632824 -2.5179638538036849e-05 0 0.0049398752425304114 -2.8786521916969031e-06 0 0.0049319161403786971 -1.5823274418641633e-05 0 0.0049154372549100669 -8.2036712920024754e-06 0 0.0049319161403786971 -1.5823274418641633e-05 0 0.0049336904399636256 -2.4560606947309318e-05 0 0.004942508328632824 -2.5179638538036849e-05 0 0.0049319161403786971 -1.5823274418641633e-05 0 0.0049197903986196627 -2.4094822242559714e-05 0 0.0049154372549100669 -8.2036712920024754e-06 0 0.0049319161403786971 -1.5823274418641633e-05 0 0.0049336904399636256 -2.4560606947309318e-05 0 0.0049197903986196627 -2.4094822242559714e-05 0 0.0049426384499670498 2.0477126953028845e-06 0 0.0049405287207326207 -6.9621917108641589e-06 0 0.0049416110526352463 -1.2756219694357956e-05 0 0.0045967406574350996 -0.00011594779528087628 0 0.0042338508436349431 -0.00018247211869225918 0 0.0048605525375911198 0.00010151742400747847 0 0.0048619507738158867 0.00010015216370725061 0 0.0048619249546983856 9.742204800631701e-05 0 0.0048645222829598253 0.00010307968587264027 0 0.0048639832942140105 0.00010114494860949706 0 0.0048632182266883121 0.00010217847036524745 0 0.0048639832942140105 0.00010114494860949706 0 0.0048632182266883121 0.00010217847036524745 0 0.0048627804672691961 0.00010082282124545459 0 0.0048605525375911198 0.00010151742400747847 0 0.0048618035601637778 0.00010131263075808284 0 0.0048619507738158867 0.00010015216370725061 0 0.0048627804672691961 0.00010082282124545459 0 0.0048618035601637778 0.00010131263075808284 0 0.0048619507738158867 0.00010015216370725061 0 0.0048623141201229493 0.00010265300027162405 0 0.0048632182266883121 0.00010217847036524745 0 0.0048618035601637778 0.00010131263075808284 0 0.0048632182266883121 0.00010217847036524745 0 0.0048627804672691961 0.00010082282124545459 0 0.0048618035601637778 0.00010131263075808284 0 0.0048623141201229493 0.00010265300027162405 0 0.0048615499177334575 0.00010221590257886264 0 0.0048618035601637778 0.00010131263075808284 0 0.0048635569745778184 9.8069859130901321e-05 0 0.0048639832942140105 0.00010114494860949706 0 0.0048627896411855805 9.9513714162690432e-05 0 0.0048619507738158867 0.00010015216370725061 0 0.0048627896411855805 9.9513714162690432e-05 0 0.0048619249546983856 9.742204800631701e-05 0 0.0048627804672691961 0.00010082282124545459 0 0.0048619507738158867 0.00010015216370725061 0 0.0048627896411855805 9.9513714162690432e-05 0 0.0048639832942140105 0.00010114494860949706 0 0.0048627804672691961 0.00010082282124545459 0 0.0048627896411855805 9.9513714162690432e-05 0 0.0048635569745778184 9.8069859130901321e-05 0 0.0048627896411855805 9.9513714162690432e-05 0 0.0048619249546983856 9.742204800631701e-05 0 0.0041662812131436832 -0.00021294347412572853 0 0.004179137725998352 -0.00019012503592909008 0 0.0042603291681189044 -0.00017235305833202512 0 0.0042438491162451273 -0.00012256638662565297 0 0.0042338508436349431 -0.00018247211869225918 0 0.0041997682343957558 -0.00015808321519866019 0 0.0042338508436349431 -0.00018247211869225918 0 0.00404661500191661 -0.00013979182508125804 0 0.0040563733219569059 -0.00013772411659273835 0 0.0040512646252883894 -0.00013151827806540635 0 0.0049405287207326207 -6.9621917108641589e-06 0 0.0049416110526352463 -1.2756219694357956e-05 0 0.0049402672483804203 -1.0377592121865585e-05 0 0.0049405287207326207 -6.9621917108641589e-06 0 0.0049402672483804203 -1.0377592121865585e-05 0 0.0049391356207067385 -1.1991264363352911e-05 0 0.0049416110526352463 -1.2756219694357956e-05 0 0.0049401363698345548 -1.1601686939268233e-05 0 0.0049402672483804203 -1.0377592121865585e-05 0 0.0042338508436349431 -0.00018247211869225918 0 0.0042676863127492767 -0.00017725807953865286 0 0.0049401363698345548 -1.1601686939268233e-05 0 0.0049402672483804203 -1.0377592121865585e-05 0 0.0049391356207067385 -1.1991264363352911e-05 0 0.0042338508436349431 -0.00018247211869225918 0 0.0041818252533985549 -0.00026711737375108443 0 0.0040242832039063979 -0.00029539948987092188 0 0.0040582198993162275 -0.00028792160092843625 0 0.0040125812004439178 -0.00028106390181218403 0 0.0040373241568676388 -0.00023666712295512067 0 0.0040582198993162275 -0.00028792160092843625 0 0.0040125812004439178 -0.00028106390181218403 0 0.0049411643497363385 -1.1372010667938814e-05 0 0.0049401363698345548 -1.1601686939268233e-05 0 0.0049391356207067385 -1.1991264363352911e-05 0 0.0042338508436349431 -0.00018247211869225918 0 0.0040916225163770328 -0.00023034744516958866 0 0.0041997682343957558 -0.00015808321519866019 0 0.0040916225163770328 -0.00023034744516958866 0 0.0049398752425304114 -2.8786521916969031e-06 0 0.004954688382882033 -4.5121388585334846e-05 0 0.004942508328632824 -2.5179638538036849e-05 0 0.0042867937441679795 -0.00024567334847903102 0 0.0041818252533985549 -0.00026711737375108443 0 0.004931163840275277 -3.3359608095568613e-05 0 0.0049359641014243942 -4.079248410553776e-05 0 0.0049177513068740042 -4.0805066395160786e-05 0 0.004931163840275277 -3.3359608095568613e-05 0 0.0049359641014243942 -4.079248410553776e-05 0 0.0049385352536661037 -3.5193388779334288e-05 0 0.004931163840275277 -3.3359608095568613e-05 0 0.0049380991587805127 -2.9555750246590277e-05 0 0.0049385352536661037 -3.5193388779334288e-05 0 0.004931163840275277 -3.3359608095568613e-05 0 0.0049177513068740042 -4.0805066395160786e-05 0 0.0049197903986196627 -2.4094822242559714e-05 0 0.004931163840275277 -3.3359608095568613e-05 0 0.0049336904399636256 -2.4560606947309318e-05 0 0.0049197903986196627 -2.4094822242559714e-05 0 0.004931163840275277 -3.3359608095568613e-05 0 0.0049336904399636256 -2.4560606947309318e-05 0 0.0049380991587805127 -2.9555750246590277e-05 0 0.004942508328632824 -2.5179638538036849e-05 0 0.0049423818491337842 -3.242951843305168e-05 0 0.004948127844553599 -3.9291966817284814e-05 0 0.004954688382882033 -4.5121388585334846e-05 0 0.004942508328632824 -2.5179638538036849e-05 0 0.004948127844553599 -3.9291966817284814e-05 0 0.0049336904399636256 -2.4560606947309318e-05 0 0.004942508328632824 -2.5179638538036849e-05 0 0.0049380991587805127 -2.9555750246590277e-05 0 0.004942508328632824 -2.5179638538036849e-05 0 0.0049423818491337842 -3.242951843305168e-05 0 0.0049380991587805127 -2.9555750246590277e-05 0 0.0049423818491337842 -3.242951843305168e-05 0 0.0049380991587805127 -2.9555750246590277e-05 0 0.0049385352536661037 -3.5193388779334288e-05 0 0.0049423818491337842 -3.242951843305168e-05 0 0.0049385352536661037 -3.5193388779334288e-05 0 0.0049427151734745857 -3.640510810765518e-05 0 0.0049423818491337842 -3.242951843305168e-05 0 0.004948127844553599 -3.9291966817284814e-05 0 0.0049427151734745857 -3.640510810765518e-05 0 0.004948127844553599 -3.9291966817284814e-05 0 0.0049427151734745857 -3.640510810765518e-05 0 0.0049422797467345231 -4.200180293477602e-05 0 0.0049359641014243942 -4.079248410553776e-05 0 0.0049427151734745857 -3.640510810765518e-05 0 0.0049422797467345231 -4.200180293477602e-05 0 0.0049359641014243942 -4.079248410553776e-05 0 0.0049385352536661037 -3.5193388779334288e-05 0 0.0049427151734745857 -3.640510810765518e-05 0 0.0037392713223693419 -0.00039453140595509045 0 0.0037489382250034111 -0.00033781224018205772 0 0.0037144291606547816 -0.0003454737189569465 0 0.0049359641014243942 -4.079248410553776e-05 0 0.0049422797467345231 -4.200180293477602e-05 0 0.0049406855965145784 -4.8065116258004337e-05 0 0.004948127844553599 -3.9291966817284814e-05 0 0.0049422797467345231 -4.200180293477602e-05 0 0.0049406855965145784 -4.8065116258004337e-05 0 0.0041818252533985549 -0.00026711737375108443 0 0.0042349874909377461 -0.00030751348545884742 0 0.004954688382882033 -4.5121388585334846e-05 0 0.004948127844553599 -3.9291966817284814e-05 0 0.0049406855965145784 -4.8065116258004337e-05 0 0.0042349874909377461 -0.00030751348545884742 0 0.0043937198612317915 -0.00026564647830233326 0 0.0049066331176993916 -6.9399398536321367e-05 0 0.0049312327561323215 -4.9450460198111731e-05 0 0.004910364556165457 -5.3593253416048257e-05 0 0.0049406855965145784 -4.8065116258004337e-05 0 0.004910364556165457 -5.3593253416048257e-05 0 0.0049177513068740042 -4.0805066395160786e-05 0 0.0049359641014243942 -4.079248410553776e-05 0 0.0049406855965145784 -4.8065116258004337e-05 0 0.0049177513068740042 -4.0805066395160786e-05 0 0.004910364556165457 -5.3593253416048257e-05 0 0.0049177513068740042 -4.0805066395160786e-05 0 0.0048919383477166369 -2.144059276254608e-05 0 0.0043683953396985798 -0.00034209829565695274 0 0.0044881639410908848 -0.00025906659532473874 0 0.0049011193950105232 -0.0001346543711196843 0 0.0049513418150133196 -0.00012953191482193273 0 0.0048919383477166369 -2.144059276254608e-05 0 0.0049066331176993916 -6.9399398536321367e-05 0 0.004910364556165457 -5.3593253416048257e-05 0 0.0048919383477166369 -2.144059276254608e-05 0 0.0049177513068740042 -4.0805066395160786e-05 0 0.0049197903986196627 -2.4094822242559714e-05 0 0.0048919383477166369 -2.144059276254608e-05 0 0.0049154372549100669 -8.2036712920024754e-06 0 0.0048919383477166369 -2.144059276254608e-05 0 0.0049118066917318492 8.5296619978217938e-06 0 0.0049197903986196627 -2.4094822242559714e-05 0 0.0049154372549100669 -8.2036712920024754e-06 0 0.0048919383477166369 -2.144059276254608e-05 0 0.0048919383477166369 -2.144059276254608e-05 0 0.0049118066917318492 8.5296619978217938e-06 0 0.0048656801605323156 2.5841656543275745e-05 0 0.0048919383477166369 -2.144059276254608e-05 0 0.0048252569812933547 -3.0403229847357364e-05 0 0.0048656801605323156 2.5841656543275745e-05 0 0.0048919383477166369 -2.144059276254608e-05 0 0.0048581376535640807 -7.5880014772885333e-05 0 0.0048252569812933547 -3.0403229847357364e-05 0 0.0049011193950105232 -0.0001346543711196843 0 0.0048919383477166369 -2.144059276254608e-05 0 0.0048581376535640807 -7.5880014772885333e-05 0 0.0048197260098424921 -0.00011723246549260543 0 0.0048581376535640807 -7.5880014772885333e-05 0 0.0048252569812933547 -3.0403229847357364e-05 0 0.0048197260098424921 -0.00011723246549260543 0 0.0047660456084134143 -4.7061202201308305e-05 0 0.0048252569812933547 -3.0403229847357364e-05 0 0.0047660456084134143 -4.7061202201308305e-05 0 0.0047777206710983107 1.565125779693765e-05 0 0.0048252569812933547 -3.0403229847357364e-05 0 0.0047777206710983107 1.565125779693765e-05 0 0.0048252569812933547 -3.0403229847357364e-05 0 0.0048141712027975738 4.769378110561383e-05 0 0.0048252569812933547 -3.0403229847357364e-05 0 0.0048141712027975738 4.769378110561383e-05 0 0.0048656801605323156 2.5841656543275745e-05 0 0.0047777206710983107 1.565125779693765e-05 0 0.0048141712027975738 4.769378110561383e-05 0 0.0047719846271269632 6.5396291054445378e-05 0 0.0048141712027975738 4.769378110561383e-05 0 0.0047719846271269632 6.5396291054445378e-05 0 0.0048221943275201413 9.9527612399354993e-05 0 0.0047719846271269632 6.5396291054445378e-05 0 0.0047760729894683485 0.00010967699217047326 0 0.0048221943275201413 9.9527612399354993e-05 0 0.0048141712027975738 4.769378110561383e-05 0 0.0048515637435358212 6.9021386171515015e-05 0 0.0048221943275201413 9.9527612399354993e-05 0 0.0048515637435358212 6.9021386171515015e-05 0 0.0048587498327625185 0.00010559227856538723 0 0.0048221943275201413 9.9527612399354993e-05 0 0.0048515637435358212 6.9021386171515015e-05 0 0.004910118837057463 5.5580090650688561e-05 0 0.0048587498327625185 0.00010559227856538723 0 0.0047167970368993655 -4.2646377271446998e-05 0 0.0047437303709441546 -1.2579574237061228e-05 0 0.0048588053425143423 0.00010489162708244735 0 0.0048590077960924665 0.00011261527136810894 0 0.0048587498327625185 0.00010559227856538723 0 0.0049118066917318492 8.5296619978217938e-06 0 0.004910118837057463 5.5580090650688561e-05 0 0.0048656801605323156 2.5841656543275745e-05 0 0.0048515637435358212 6.9021386171515015e-05 0 0.004910118837057463 5.5580090650688561e-05 0 0.0048656801605323156 2.5841656543275745e-05 0 0.0048141712027975738 4.769378110561383e-05 0 0.0048515637435358212 6.9021386171515015e-05 0 0.0048656801605323156 2.5841656543275745e-05 0 0.0046109454183241392 5.39364348768357e-05 0 0.0046309585686243621 -8.6242416025602126e-06 0 0.0046731623890514705 1.5350847470508558e-05 0 0.0045694060455428454 -5.3972098737859588e-07 0 0.0046109454183241392 5.39364348768357e-05 0 0.0046309585686243621 -8.6242416025602126e-06 0 0.0046133974050818725 -4.4345049740394092e-05 0 0.0045694060455428454 -5.3972098737859588e-07 0 0.0046309585686243621 -8.6242416025602126e-06 0 0.0046569423330709066 -3.1122106035618916e-05 0 0.0046384033052653071 -3.7331818520338184e-05 0 0.0046309585686243621 -8.6242416025602126e-06 0 0.0046569423330709066 -3.1122106035618916e-05 0 0.0046309585686243621 -8.6242416025602126e-06 0 0.0046731623890514705 1.5350847470508558e-05 0 0.0046569423330709066 -3.1122106035618916e-05 0 0.0046731623890514705 1.5350847470508558e-05 0 0.0046933255142474978 -1.0137281614847788e-05 0 0.0046109454183241392 5.39364348768357e-05 0 0.0046731623890514705 1.5350847470508558e-05 0 0.004682806891225892 5.1008592482698127e-05 0 0.0046731623890514705 1.5350847470508558e-05 0 0.004682806891225892 5.1008592482698127e-05 0 0.004717544863120867 1.9747732609808063e-05 0 0.0046731623890514705 1.5350847470508558e-05 0 0.0046933255142474978 -1.0137281614847788e-05 0 0.004717544863120867 1.9747732609808063e-05 0 0.0045730990545854635 -8.01297312140615e-05 0 0.0046797785581498049 -7.3139732640148614e-05 0 0.004717544863120867 1.9747732609808063e-05 0 0.0046118897786494749 -7.2438520990825852e-05 0 0.0046521315917869791 -3.0361473660466985e-05 0 0.0047291142499234565 -0.00013694195877723319 0 0.0047660456084134143 -4.7061202201308305e-05 0 0.0046797785581498049 -7.3139732640148614e-05 0 0.0047660456084134143 -4.7061202201308305e-05 0 0.0046797785581498049 -7.3139732640148614e-05 0 0.004717544863120867 1.9747732609808063e-05 0 0.0047660456084134143 -4.7061202201308305e-05 0 0.0047777206710983107 1.565125779693765e-05 0 0.004717544863120867 1.9747732609808063e-05 0 0.0047719846271269632 6.5396291054445378e-05 0 0.004717544863120867 1.9747732609808063e-05 0 0.0047248929676660398 7.8819953368979118e-05 0 0.0047777206710983107 1.565125779693765e-05 0 0.0047719846271269632 6.5396291054445378e-05 0 0.004717544863120867 1.9747732609808063e-05 0 0.0047719846271269632 6.5396291054445378e-05 0 0.0047248929676660398 7.8819953368979118e-05 0 0.0047760729894683485 0.00010967699217047326 0 0.0047248929676660398 7.8819953368979118e-05 0 0.004725425750217456 0.00012027154409471138 0 0.0047760729894683485 0.00010967699217047326 0 0.004682806891225892 5.1008592482698127e-05 0 0.004717544863120867 1.9747732609808063e-05 0 0.0047248929676660398 7.8819953368979118e-05 0 0.004682806891225892 5.1008592482698127e-05 0 0.0047248929676660398 7.8819953368979118e-05 0 0.0046620674978008958 9.0831530294697719e-05 0 0.0046109454183241392 5.39364348768357e-05 0 0.004682806891225892 5.1008592482698127e-05 0 0.0046620674978008958 9.0831530294697719e-05 0 0.0047248929676660398 7.8819953368979118e-05 0 0.0046620674978008958 9.0831530294697719e-05 0 0.004725425750217456 0.00012027154409471138 0 0.0045859144391073104 0.00010692399476872671 0 0.0046620674978008958 9.0831530294697719e-05 0 0.0046589742806264827 0.00014514016790480834 0 0.0045859144391073104 0.00010692399476872671 0 0.0046109454183241392 5.39364348768357e-05 0 0.0046620674978008958 9.0831530294697719e-05 0 0.0046589742806264827 0.00014514016790480834 0 0.0047209560390299513 0.00014972081694122292 0 0.004702006030064875 0.0001730317617268777 0 0.0046589742806264827 0.00014514016790480834 0 0.0047209560390299513 0.00014972081694122292 0 0.004725425750217456 0.00012027154409471138 0 0.0046620674978008958 9.0831530294697719e-05 0 0.0046589742806264827 0.00014514016790480834 0 0.004725425750217456 0.00012027154409471138 0 0.0047209560390299513 0.00014972081694122292 0 0.004725425750217456 0.00012027154409471138 0 0.0047822315358235943 0.00014039398388761667 0 0.004725425750217456 0.00012027154409471138 0 0.0047760729894683485 0.00010967699217047326 0 0.0047822315358235943 0.00014039398388761667 0 0.0047760729894683485 0.00010967699217047326 0 0.0047822315358235943 0.00014039398388761667 0 0.004817231241090166 0.00012682289374161144 0 0.0047822315358235943 0.00014039398388761667 0 0.004817231241090166 0.00012682289374161144 0 0.0048266509327410121 0.00014319669472423872 0 0.0047822315358235943 0.00014039398388761667 0 0.0048303622624196151 0.00015901426425464905 0 0.0048266509327410121 0.00014319669472423872 0 0.0048303622624196151 0.00015901426425464905 0 0.0047611221076344001 0.00015898280897181787 0 0.0047438577796156947 0.00018392035960429547 0 0.0047822315358235943 0.00014039398388761667 0 0.0048303622624196151 0.00015901426425464905 0 0.0047611221076344001 0.00015898280897181787 0 0.0047209560390299513 0.00014972081694122292 0 0.0047822315358235943 0.00014039398388761667 0 0.0047611221076344001 0.00015898280897181787 0 0.0047209560390299513 0.00014972081694122292 0 0.0047611221076344001 0.00015898280897181787 0 0.004702006030064875 0.0001730317617268777 0 0.0047611221076344001 0.00015898280897181787 0 0.0047438577796156947 0.00018392035960429547 0 0.004702006030064875 0.0001730317617268777 0 0.0047259144981476259 0.00019507605477640214 0 0.0047438577796156947 0.00018392035960429547 0 0.004702006030064875 0.0001730317617268777 0 0.004847250735952712 0.0001253946842022751 0 0.0048590077960924665 0.00011261527136810894 0 0.0048507915436020932 0.00013130755957638799 0 0.004847250735952712 0.0001253946842022751 0 0.0048587498327625185 0.00010559227856538723 0 0.0048221943275201413 9.9527612399354993e-05 0 0.004847250735952712 0.0001253946842022751 0 0.0048590077960924665 0.00011261527136810894 0 0.0048587498327625185 0.00010559227856538723 0 0.004847250735952712 0.0001253946842022751 0 0.0048221943275201413 9.9527612399354993e-05 0 0.004817231241090166 0.00012682289374161144 0 0.0047760729894683485 0.00010967699217047326 0 0.0048221943275201413 9.9527612399354993e-05 0 0.004817231241090166 0.00012682289374161144 0 0.004847250735952712 0.0001253946842022751 0 0.004817231241090166 0.00012682289374161144 0 0.0048392431607956737 0.00013516056679826094 0 0.0048392431607956737 0.00013516056679826094 0 0.0048266509327410121 0.00014319669472423872 0 0.0048519009385895378 0.00013538054217024576 0 0.004817231241090166 0.00012682289374161144 0 0.0048392431607956737 0.00013516056679826094 0 0.0048266509327410121 0.00014319669472423872 0 0.0048303622624196151 0.00015901426425464905 0 0.0048266509327410121 0.00014319669472423872 0 0.0048519009385895378 0.00013538054217024576 0 0.0048519009385895378 0.00013538054217024576 0 0.004850373365628065 0.00013230299755312427 0 0.0048611884776260696 0.00011767621148882017 0 0.0048392431607956737 0.00013516056679826094 0 0.0048519009385895378 0.00013538054217024576 0 0.004850373365628065 0.00013230299755312427 0 0.004850373365628065 0.00013230299755312427 0 0.0048475562749848069 0.00012533850862912703 0 0.0048529413878060446 0.00011737569996621487 0 0.004847250735952712 0.0001253946842022751 0 0.004850373365628065 0.00013230299755312427 0 0.0048507915436020932 0.00013130755957638799 0 0.004847250735952712 0.0001253946842022751 0 0.0048392431607956737 0.00013516056679826094 0 0.004850373365628065 0.00013230299755312427 0 0.0048380730515472977 0.00012454379231727067 0 0.0048507915436020932 0.00013130755957638799 0 0.0048475562749848069 0.00012533850862912703 0 0.004850373365628065 0.00013230299755312427 0 0.0048507915436020932 0.00013130755957638799 0 0.0048475562749848069 0.00012533850862912703 0 0.0048463482888093023 0.00010266214223729711 0 0.0048529413878060446 0.00011737569996621487 0 0.0048396235125058966 0.00011539267314364286 0 0.0048475562749848069 0.00012533850862912703 0 0.0048529413878060446 0.00011737569996621487 0 0.0048396235125058966 0.00011539267314364286 0 0.0048463482888093023 0.00010266214223729711 0 0.0048466023142379206 7.5439065076985014e-05 0 0.004829278911746419 0.00010367474923166024 0 0.0048463482888093023 0.00010266214223729711 0 0.0048715409053690104 9.4506727402142486e-05 0 0.0048466023142379206 7.5439065076985014e-05 0 0.0048463482888093023 0.00010266214223729711 0 0.0048715409053690104 9.4506727402142486e-05 0 0.0048529413878060446 0.00011737569996621487 0 0.004850373365628065 0.00013230299755312427 0 0.0048529413878060446 0.00011737569996621487 0 0.0048611884776260696 0.00011767621148882017 0 0.0048715409053690104 9.4506727402142486e-05 0 0.0048529413878060446 0.00011737569996621487 0 0.0048611884776260696 0.00011767621148882017 0 0.0048519009385895378 0.00013538054217024576 0 0.0048611884776260696 0.00011767621148882017 0 0.0048847441952049632 9.5202769629098625e-05 0 0.0048519009385895378 0.00013538054217024576 0 0.0048847441952049632 9.5202769629098625e-05 0 0.0048768650554006912 0.00011255193413433656 0 0.0048715409053690104 9.4506727402142486e-05 0 0.0048847441952049632 9.5202769629098625e-05 0 0.0049000081657302411 6.7176575972280295e-05 0 0.0048715409053690104 9.4506727402142486e-05 0 0.0048611884776260696 0.00011767621148882017 0 0.0048847441952049632 9.5202769629098625e-05 0 0.0048715409053690104 9.4506727402142486e-05 0 0.0049000081657302411 6.7176575972280295e-05 0 0.0049170154360605343 3.111818465427828e-05 0 0.0048847441952049632 9.5202769629098625e-05 0 0.0049000081657302411 6.7176575972280295e-05 0 0.0049222675399393911 4.9480623526320535e-05 0 0.0049222675399393911 4.9480623526320535e-05 0 0.0049170154360605343 3.111818465427828e-05 0 0.0049453488530280792 2.8900446148825106e-05 0 0.0049000081657302411 6.7176575972280295e-05 0 0.0049222675399393911 4.9480623526320535e-05 0 0.0049170154360605343 3.111818465427828e-05 0 0.0049170154360605343 3.111818465427828e-05 0 0.0049713990394872056 1.507530962116689e-05 0 0.0049529530223253746 2.7222419750279634e-05 0 0.0049170154360605343 3.111818465427828e-05 0 0.0049713990394872056 1.507530962116689e-05 0 0.0049560006639839133 -1.3661659646426095e-05 0 0.0049713990394872056 1.507530962116689e-05 0 0.0049560006639839133 -1.3661659646426095e-05 0 0.0049796474680136897 -1.4513191651561645e-05 0 0.0048715409053690104 9.4506727402142486e-05 0 0.0049170154360605343 3.111818465427828e-05 0 0.0048466023142379206 7.5439065076985014e-05 0 0.0049126372297263673 3.4338920372159611e-05 0 0.0049132344257940925 3.5074056568240912e-05 0 0.0047983734245707343 0.00018343628383357864 0 0.00476924469335169 0.00019269523149732513 0 0.0048124596012544991 0.00015274232748921566 0 0.0047259144981476259 0.00019507605477640214 0 0.0047438577796156947 0.00018392035960429547 0 0.00476924469335169 0.00019269523149732513 0 0.0047438577796156947 0.00018392035960429547 0 0.00476924469335169 0.00019269523149732513 0 0.0047668649202229612 0.00019976884946824918 0 0.0048519255630775403 0.00013027278004232459 0 0.0048622097346717828 0.00010998874929446293 0 0.00476924469335169 0.00019269523149732513 0 0.0047668649202229612 0.00019976884946824918 0 0.0047717793414417554 0.00014636812886463136 0 0.0049296652116278279 0.0001002180044179834 0 0.0048768650554006912 0.00011255193413433656 0 0.0049248893459695204 6.1610768063143672e-05 0 0.0048473120902199039 0.00013783085438919248 0 0.0048519255630775403 0.00013027278004232459 0 0.0048303622624196151 0.00015901426425464905 0 0.0049296652116278279 0.0001002180044179834 0 0.0048768650554006912 0.00011255193413433656 0 0.0048303622624196151 0.00015901426425464905 0 0.0047438577796156947 0.00018392035960429547 0 0.0047668649202229612 0.00019976884946824918 0 0.0048303622624196151 0.00015901426425464905 0 0.0048519009385895378 0.00013538054217024576 0 0.0048768650554006912 0.00011255193413433656 0 0.0048847441952049632 9.5202769629098625e-05 0 0.0048768650554006912 0.00011255193413433656 0 0.0049248893459695204 6.1610768063143672e-05 0 0.0048847441952049632 9.5202769629098625e-05 0 0.0049222675399393911 4.9480623526320535e-05 0 0.0049248893459695204 6.1610768063143672e-05 0 0.0049222675399393911 4.9480623526320535e-05 0 0.0049455213548578614 4.1297908252417158e-05 0 0.0049428549445333821 3.6289098402856905e-05 0 0.0049222675399393911 4.9480623526320535e-05 0 0.0049248893459695204 6.1610768063143672e-05 0 0.0049455213548578614 4.1297908252417158e-05 0 0.0049248893459695204 6.1610768063143672e-05 0 0.0049483276298938131 4.6065671691953767e-05 0 0.0049455213548578614 4.1297908252417158e-05 0 0.0049296652116278279 0.0001002180044179834 0 0.0049248893459695204 6.1610768063143672e-05 0 0.0049484106003108404 5.0767126669374138e-05 0 0.0049248893459695204 6.1610768063143672e-05 0 0.0049484106003108404 5.0767126669374138e-05 0 0.0049483276298938131 4.6065671691953767e-05 0 0.004877678038939055 9.9952367642980479e-05 0 0.0047717793414417554 0.00014636812886463136 0 0.0049006150275469678 5.6810425484980487e-05 0 0.0048622097346717828 0.00010998874929446293 0 0.0048721146778514229 9.4592886097102246e-05 0 0.0049484106003108404 5.0767126669374138e-05 0 0.0049006150275469678 5.6810425484980487e-05 0 0.0049483276298938131 4.6065671691953767e-05 0 0.00476924469335169 0.00019269523149732513 0 0.0047717793414417554 0.00014636812886463136 0 0.0048124596012544991 0.00015274232748921566 0 0.004877678038939055 9.9952367642980479e-05 0 0.0047717793414417554 0.00014636812886463136 0 0.0048124596012544991 0.00015274232748921566 0 0.0049814846237900782 5.1990594665625893e-05 0 0.0049533900181176127 4.6163057938201889e-05 0 0.0049940352510384495 7.1712416635401276e-06 0 0.0048049215861708204 9.8229423627430997e-05 0 0.0048421635008700911 9.8928952065441823e-05 0 0.0049006150275469678 5.6810425484980487e-05 0 0.0049365806725450113 5.1472177572259358e-05 0 0.0049483276298938131 4.6065671691953767e-05 0 0.0049188064954097162 4.2262283172436383e-05 0 0.0049006150275469678 5.6810425484980487e-05 0 0.0049365806725450113 5.1472177572259358e-05 0 0.0049188064954097162 4.2262283172436383e-05 0 0.0049533900181176127 4.6163057938201889e-05 0 0.0049365806725450113 5.1472177572259358e-05 0 0.0049533900181176127 4.6163057938201889e-05 0 0.0049365806725450113 5.1472177572259358e-05 0 0.0049580406259901967 3.8064192130406698e-05 0 0.0049365806725450113 5.1472177572259358e-05 0 0.0049483276298938131 4.6065671691953767e-05 0 0.0049580406259901967 3.8064192130406698e-05 0 0.0049533900181176127 4.6163057938201889e-05 0 0.0049580406259901967 3.8064192130406698e-05 0 0.0049747289918960673 2.1051671851988176e-05 0 0.0049580406259901967 3.8064192130406698e-05 0 0.0049591999395859161 2.7020312141995911e-05 0 0.0049781343559306404 1.5776246856393961e-05 0 0.0049580406259901967 3.8064192130406698e-05 0 0.0049455213548578614 4.1297908252417158e-05 0 0.0049591999395859161 2.7020312141995911e-05 0 0.0049483276298938131 4.6065671691953767e-05 0 0.0049580406259901967 3.8064192130406698e-05 0 0.0049455213548578614 4.1297908252417158e-05 0 0.0049455213548578614 4.1297908252417158e-05 0 0.0049591999395859161 2.7020312141995911e-05 0 0.0049428549445333821 3.6289098402856905e-05 0 0.0049591999395859161 2.7020312141995911e-05 0 0.0049792639304002935 1.22341250989822e-05 0 0.0049781343559306404 1.5776246856393961e-05 0 0.0049792639304002935 1.22341250989822e-05 0 0.0049999721044360849 1.1810082950393522e-08 0 0.0049781343559306404 1.5776246856393961e-05 0 0.0049999721044360849 1.1810082950393522e-08 0 0.0049781343559306404 1.5776246856393961e-05 0 0.004999970415007029 5.8314165102399648e-09 0 0.0049781343559306404 1.5776246856393961e-05 0 0.0049747289918960673 2.1051671851988176e-05 0 0.004999970415007029 5.8314165102399648e-09 0 0.0049580406259901967 3.8064192130406698e-05 0 0.0049781343559306404 1.5776246856393961e-05 0 0.0049747289918960673 2.1051671851988176e-05 0 0.004999999732475168 2.9493835159589224e-09 0 0.004999970415007029 5.8314165102399648e-09 0 0.0049940352510384495 7.1712416635401276e-06 0 0.0049747289918960673 2.1051671851988176e-05 0 0.004999970415007029 5.8314165102399648e-09 0 0.0049940352510384495 7.1712416635401276e-06 0 0.0049533900181176127 4.6163057938201889e-05 0 0.0049747289918960673 2.1051671851988176e-05 0 0.0049940352510384495 7.1712416635401276e-06 0 0.0049648690291184934 2.2645380876926726e-05 0 0.0049529530223253746 2.7222419750279634e-05 0 0.0049453488530280792 2.8900446148825106e-05 0 0.0049648690291184934 2.2645380876926726e-05 0 0.0049708012866981344 2.0728845337798244e-05 0 0.0049821029942305195 1.2813590527169362e-05 0 0.0049648690291184934 2.2645380876926726e-05 0 0.0049708012866981344 2.0728845337798244e-05 0 0.0049529530223253746 2.7222419750279634e-05 0 0.0049708012866981344 2.0728845337798244e-05 0 0.0049857949719356465 1.3013976417411432e-05 0 0.0049763321252372875 2.0133734149500658e-05 0 0.0049708012866981344 2.0728845337798244e-05 0 0.0049529530223253746 2.7222419750279634e-05 0 0.0049763321252372875 2.0133734149500658e-05 0 0.0049713990394872056 1.507530962116689e-05 0 0.0049529530223253746 2.7222419750279634e-05 0 0.0049763321252372875 2.0133734149500658e-05 0 0.0049170154360605343 3.111818465427828e-05 0 0.0049529530223253746 2.7222419750279634e-05 0 0.0049453488530280792 2.8900446148825106e-05 0 0.0049222675399393911 4.9480623526320535e-05 0 0.0049453488530280792 2.8900446148825106e-05 0 0.0049428549445333821 3.6289098402856905e-05 0 0.0049591999395859161 2.7020312141995911e-05 0 0.0049453488530280792 2.8900446148825106e-05 0 0.0049428549445333821 3.6289098402856905e-05 0 0.0049591999395859161 2.7020312141995911e-05 0 0.0049453488530280792 2.8900446148825106e-05 0 0.0049673726824538749 1.6129027551514588e-05 0 0.0049648690291184934 2.2645380876926726e-05 0 0.0049453488530280792 2.8900446148825106e-05 0 0.0049812225159570509 1.5697787272009932e-05 0 0.0049800310253991908 1.7330725457871163e-05 0 0.0049866358126107882 1.2535966803747826e-05 0 0.0049648690291184934 2.2645380876926726e-05 0 0.0049812225159570509 1.5697787272009932e-05 0 0.0049821029942305195 1.2813590527169362e-05 0 0.0049591999395859161 2.7020312141995911e-05 0 0.0049792639304002935 1.22341250989822e-05 0 0.0049673726824538749 1.6129027551514588e-05 0 0.0049792639304002935 1.22341250989822e-05 0 0.0049673726824538749 1.6129027551514588e-05 0 0.0049999474349155439 5.5603557256317918e-09 0 0.0049792639304002935 1.22341250989822e-05 0 0.0049999721044360849 1.1810082950393522e-08 0 0.0049999474349155439 5.5603557256317918e-09 0 0.0049866358126107882 1.2535966803747826e-05 0 0.0049999708239073341 1.7485647035871761e-08 0 0.0049812225159570509 1.5697787272009932e-05 0 0.0049999951129920481 5.1566717436977133e-09 0 0.0049821029942305195 1.2813590527169362e-05 0 0.0049999951129920481 5.1566717436977133e-09 0 0.0049999750250956272 9.5833243067483194e-09 0 0.0049821029942305195 1.2813590527169362e-05 0 0.0049708012866981344 2.0728845337798244e-05 0 0.0049821029942305195 1.2813590527169362e-05 0 0.0049857949719356465 1.3013976417411432e-05 0 0.0049999750250956272 9.5833243067483194e-09 0 0.0049857949719356465 1.3013976417411432e-05 0 0.0049999872125990217 7.1898358259789628e-09 0 0.0049999750250956272 9.5833243067483194e-09 0 0.0049821029942305195 1.2813590527169362e-05 0 0.0049857949719356465 1.3013976417411432e-05 0 0.0049857949719356465 1.3013976417411432e-05 0 0.0049999872125990217 7.1898358259789628e-09 0 0.004993159030037767 8.0806559357871523e-06 0 0.004993159030037767 8.0806559357871523e-06 0 0.0049999942151124858 6.2654488473644398e-09 0 0.004993079825211375 8.8911328337102264e-06 0 0.0049999872125990217 7.1898358259789628e-09 0 0.004993159030037767 8.0806559357871523e-06 0 0.0049999942151124858 6.2654488473644398e-09 0 0.004993159030037767 8.0806559357871523e-06 0 0.004993079825211375 8.8911328337102264e-06 0 0.0049863978592342567 1.4483941639651286e-05 0 0.0049857949719356465 1.3013976417411432e-05 0 0.004993159030037767 8.0806559357871523e-06 0 0.0049863978592342567 1.4483941639651286e-05 0 0.0049999828604283172 -1.2740279729216586e-09 0 0.0049906739522378625 -4.7993899836325629e-07 0 0.0049999942151124858 6.2654488473644398e-09 0 0.004999980231765057 4.6642129585552467e-09 0 0.004993079825211375 8.8911328337102264e-06 0 0.004999980231765057 4.6642129585552467e-09 0 0.004993079825211375 8.8911328337102264e-06 0 0.0049901210195802733 1.0161905419307937e-05 0 0.0049906739522378625 -4.7993899836325629e-07 0 0.0049826306297772243 -4.0835280087900216e-06 0 0.0049901210195802733 1.0161905419307937e-05 0 0.0049877353224319727 1.389448446091752e-05 0 0.0049891638911121333 1.2795047601736711e-05 0 0.004993079825211375 8.8911328337102264e-06 0 0.0049901210195802733 1.0161905419307937e-05 0 0.0049877353224319727 1.389448446091752e-05 0 0.0049877353224319727 1.389448446091752e-05 0 0.0049891638911121333 1.2795047601736711e-05 0 0.0049874118803808938 1.0659405160012977e-05 0 0.0049763321252372875 2.0133734149500658e-05 0 0.0049863978592342567 1.4483941639651286e-05 0 0.0049820129584456771 1.586996487405671e-05 0 0.0049857949719356465 1.3013976417411432e-05 0 0.0049763321252372875 2.0133734149500658e-05 0 0.0049863978592342567 1.4483941639651286e-05 0 0.0049877353224319727 1.389448446091752e-05 0 0.0049863978592342567 1.4483941639651286e-05 0 0.0049820129584456771 1.586996487405671e-05 0 0.004993079825211375 8.8911328337102264e-06 0 0.0049877353224319727 1.389448446091752e-05 0 0.0049863978592342567 1.4483941639651286e-05 0 0.0049877353224319727 1.389448446091752e-05 0 0.0049820129584456771 1.586996487405671e-05 0 0.0049832091547861775 1.1940767712469797e-05 0 0.0049713990394872056 1.507530962116689e-05 0 0.0049763321252372875 2.0133734149500658e-05 0 0.0049820129584456771 1.586996487405671e-05 0 0.0049713990394872056 1.507530962116689e-05 0 0.0049820129584456771 1.586996487405671e-05 0 0.0049832091547861775 1.1940767712469797e-05 0 0.0049713990394872056 1.507530962116689e-05 0 0.004980512499884032 8.1637654750073784e-06 0 0.0049832091547861775 1.1940767712469797e-05 0 0.0049713990394872056 1.507530962116689e-05 0 0.0049763783566262772 6.4326007876284854e-06 0 0.004980512499884032 8.1637654750073784e-06 0 0.0049550208495379991 5.252691733196721e-06 0 0.0049514138929478155 5.5878972264279628e-06 0 0.0049763783566262772 6.4326007876284854e-06 0 0.004980512499884032 8.1637654750073784e-06 0 0.0049794614619199217 5.3899228652873941e-06 0 0.0049560006639839133 -1.3661659646426095e-05 0 0.0049775491387991913 -1.834749334501094e-05 0 0.0049796474680136897 -1.4513191651561645e-05 0 0.004980512499884032 8.1637654750073784e-06 0 0.0049832091547861775 1.1940767712469797e-05 0 0.0049844824270138246 6.8328534236633991e-06 0 0.004980512499884032 8.1637654750073784e-06 0 0.0049844824270138246 6.8328534236633991e-06 0 0.0049814978859609588 5.0903353436463575e-06 0 0.004980512499884032 8.1637654750073784e-06 0 0.0049794614619199217 5.3899228652873941e-06 0 0.0049814978859609588 5.0903353436463575e-06 0 0.0049877353224319727 1.389448446091752e-05 0 0.0049832091547861775 1.1940767712469797e-05 0 0.0049874118803808938 1.0659405160012977e-05 0 0.0049832091547861775 1.1940767712469797e-05 0 0.0049874118803808938 1.0659405160012977e-05 0 0.0049844824270138246 6.8328534236633991e-06 0 0.0049891638911121333 1.2795047601736711e-05 0 0.0049874118803808938 1.0659405160012977e-05 0 0.0049905337031426137 8.6695821437634478e-06 0 0.0049826306297772243 -4.0835280087900216e-06 0 0.0049757757748992281 -1.0229027993041824e-05 0 0.0049874118803808938 1.0659405160012977e-05 0 0.0049880779463743648 6.3964365287028245e-06 0 0.0049905337031426137 8.6695821437634478e-06 0 0.0049874118803808938 1.0659405160012977e-05 0 0.0049880779463743648 6.3964365287028245e-06 0 0.0049844824270138246 6.8328534236633991e-06 0 0.0049844824270138246 6.8328534236633991e-06 0 0.0049868899540464117 3.0537387296693926e-06 0 0.0049836164342680267 2.5979848576111105e-06 0 0.0049880779463743648 6.3964365287028245e-06 0 0.0049844824270138246 6.8328534236633991e-06 0 0.0049868899540464117 3.0537387296693926e-06 0 0.0049880779463743648 6.3964365287028245e-06 0 0.0049910427925542664 2.6211954671559559e-06 0 0.0049905337031426137 8.6695821437634478e-06 0 0.0049880779463743648 6.3964365287028245e-06 0 0.0049868899540464117 3.0537387296693926e-06 0 0.0049910427925542664 2.6211954671559559e-06 0 0.0049868899540464117 3.0537387296693926e-06 0 0.004988192047102648 -2.4606448622370658e-07 0 0.0049910427925542664 2.6211954671559559e-06 0 0.0049844540784678157 -7.1351112221955892e-07 0 0.0049868899540464117 3.0537387296693926e-06 0 0.0049836164342680267 2.5979848576111105e-06 0 0.0049844540784678157 -7.1351112221955892e-07 0 0.0049868899540464117 3.0537387296693926e-06 0 0.004988192047102648 -2.4606448622370658e-07 0 0.0049844540784678157 -7.1351112221955892e-07 0 0.0049797080633450499 2.3094147394874485e-06 0 0.0049836164342680267 2.5979848576111105e-06 0 0.0049508579801687781 2.6101994842805045e-05 0 0.0049312078653402699 2.943920995028095e-05 0 0.0049420318206450384 5.9303740724601134e-05 0 0.0049595125639468928 5.3277126267001464e-05 0 0.0049645201549846727 3.8978740001887348e-05 0 0.0049059641160765647 5.8283249193308597e-05 0 0.0049312078653402699 2.943920995028095e-05 0 0.0048285581015385321 0.00011579382899785477 0 0.0048396235125058966 0.00011539267314364286 0 0.004829278911746419 0.00010367474923166024 0 0.0048380730515472977 0.00012454379231727067 0 0.0048285581015385321 0.00011579382899785477 0 0.0048396235125058966 0.00011539267314364286 0 0.0048463482888093023 0.00010266214223729711 0 0.0048396235125058966 0.00011539267314364286 0 0.004829278911746419 0.00010367474923166024 0 0.0049059641160765647 5.8283249193308597e-05 0 0.0049261539403877286 3.1840140660892317e-05 0 0.0049116258085796947 5.5875434710743642e-05 0 0.0049206359873400834 3.0455731279041298e-05 0 0.004925362593336426 2.6198310258735409e-05 0 0.0049763783566262772 6.4326007876284854e-06 0 0.0049797080633450499 2.3094147394874485e-06 0 0.0049794614619199217 5.3899228652873941e-06 0 0.0049796474680136897 -1.4513191651561645e-05 0 0.0049875558567971188 -3.974640951265749e-05 0 0.0049846178628149386 -3.697152657119654e-05 0 0.0049514138929478155 5.5878972264279628e-06 0 0.0049312078653402699 2.943920995028095e-05 0 0.0049560006639839133 -1.3661659646426095e-05 0 0.0049775491387991913 -1.834749334501094e-05 0 0.0049865830313934548 -3.9577862400239421e-05 0 0.0049132344257940925 3.5074056568240912e-05 0 0.0049261539403877286 3.1840140660892317e-05 0 0.0049775491387991913 -1.834749334501094e-05 0 0.0049796474680136897 -1.4513191651561645e-05 0 0.0049846178628149386 -3.697152657119654e-05 0 0.0049312078653402699 2.943920995028095e-05 0 0.0049261539403877286 3.1840140660892317e-05 0 0.0049370244807122564 1.2120631929372055e-05 0 0.0049261539403877286 3.1840140660892317e-05 0 0.0049797080633450499 2.3094147394874485e-06 0 0.0049814978859609588 5.0903353436463575e-06 0 0.0049836164342680267 2.5979848576111105e-06 0 0.0049797080633450499 2.3094147394874485e-06 0 0.0049794614619199217 5.3899228652873941e-06 0 0.0049814978859609588 5.0903353436463575e-06 0 0.0049844824270138246 6.8328534236633991e-06 0 0.0049814978859609588 5.0903353436463575e-06 0 0.0049836164342680267 2.5979848576111105e-06 0 0.0049825899420973176 -3.6845529123114888e-05 0 0.0049627632151129954 -4.5993071670905449e-05 0 0.0049558804283030018 -6.1688076954794475e-05 0 0.0049825899420973176 -3.6845529123114888e-05 0 0.0049627632151129954 -4.5993071670905449e-05 0 0.004967213038877369 -3.4383764939218764e-05 0 0.0049092700737837208 -9.2241207587641711e-05 0 0.0049081047318436724 -8.4022719223583403e-05 0 0.0048258759887935664 -0.00016327825748664769 0 0.0048148716952316319 -0.00015095020251367825 0 0.0048274703849993496 -0.00014635853217139462 0 0.0048258759887935664 -0.00016327825748664769 0 0.0048148716952316319 -0.00015095020251367825 0 0.0048077127796154889 -0.00015856293106348415 0 0.0048148716952316319 -0.00015095020251367825 0 0.0048108063031258204 -0.00013633804502118251 0 0.0048274703849993496 -0.00014635853217139462 0 0.0048108063031258204 -0.00013633804502118251 0 0.004824270353644842 -0.00012918739060410807 0 0.004806012263054874 -0.00011974118584250766 0 0.0048108063031258204 -0.00013633804502118251 0 0.004824270353644842 -0.00012918739060410807 0 0.0048274703849993496 -0.00014635853217139462 0 0.0048332258296257553 -0.0001374421752889022 0 0.0048274703849993496 -0.00014635853217139462 0 0.0048441163276923358 -0.00014056698059196942 0 0.0048258759887935664 -0.00016327825748664769 0 0.0048274703849993496 -0.00014635853217139462 0 0.0048441163276923358 -0.00014056698059196942 0 0.004824270353644842 -0.00012918739060410807 0 0.0048332258296257553 -0.0001374421752889022 0 0.0048393084019359338 -0.00013501534690662633 0 0.004824270353644842 -0.00012918739060410807 0 0.0048332258296257553 -0.0001374421752889022 0 0.0048274703849993496 -0.00014635853217139462 0 0.0049627632151129954 -4.5993071670905449e-05 0 0.0049558804283030018 -6.1688076954794475e-05 0 0.0049527787033315689 -5.5283495177898515e-05 0 0.0048332258296257553 -0.0001374421752889022 0 0.0048441163276923358 -0.00014056698059196942 0 0.0048393084019359338 -0.00013501534690662633 0 0.0049284620663257086 -5.9487601122571372e-05 0 0.0049558804283030018 -6.1688076954794475e-05 0 0.0049414012175979126 -5.9617535954512211e-05 0 0.0049558804283030018 -6.1688076954794475e-05 0 0.0049481534326431759 -5.8938716725421306e-05 0 0.0049414012175979126 -5.9617535954512211e-05 0 0.0049558804283030018 -6.1688076954794475e-05 0 0.0049481534326431759 -5.8938716725421306e-05 0 0.0049527787033315689 -5.5283495177898515e-05 0 0.0049481534326431759 -5.8938716725421306e-05 0 0.0049450448297622095 -5.7459611650871783e-05 0 0.0049527787033315689 -5.5283495177898515e-05 0 0.0049481534326431759 -5.8938716725421306e-05 0 0.0049450448297622095 -5.7459611650871783e-05 0 0.0049414012175979126 -5.9617535954512211e-05 0 0.0049450448297622095 -5.7459611650871783e-05 0 0.0049414012175979126 -5.9617535954512211e-05 0 0.0049381389824846179 -5.9239789066042439e-05 0 0.0049381389824846179 -5.9239789066042439e-05 0 0.0049422708812263353 -5.5638571916950435e-05 0 0.0049362780202379568 -5.9838691947546507e-05 0 0.0049450448297622095 -5.7459611650871783e-05 0 0.0049381389824846179 -5.9239789066042439e-05 0 0.0049422708812263353 -5.5638571916950435e-05 0 0.0049450448297622095 -5.7459611650871783e-05 0 0.0049422708812263353 -5.5638571916950435e-05 0 0.0049519013160508329 -5.130003957814967e-05 0 0.0049422708812263353 -5.5638571916950435e-05 0 0.0049519013160508329 -5.130003957814967e-05 0 0.0049484201907821004 -4.9122238945621747e-05 0 0.0049627632151129954 -4.5993071670905449e-05 0 0.0049519013160508329 -5.130003957814967e-05 0 0.0049527787033315689 -5.5283495177898515e-05 0 0.0049450448297622095 -5.7459611650871783e-05 0 0.0049519013160508329 -5.130003957814967e-05 0 0.0049527787033315689 -5.5283495177898515e-05 0 0.004977134437060062 -6.744415966693431e-06 0 0.0049691377161479094 -1.8819571368104323e-05 0 0.0049302626760565557 -6.5656907305006919e-05 0 0.0049362780202379568 -5.9838691947546507e-05 0 0.0049384409576915724 -5.0331553433336658e-05 0 0.0049905645839702969 -1.7174619041446327e-06 0 0.004988192047102648 -2.4606448622370658e-07 0 0.0049910427925542664 2.6211954671559559e-06 0 0.0049558288129395557 -1.4104442593367908e-05 0 0.0049691377161479094 -1.8819571368104323e-05 0 0.0049422708812263353 -5.5638571916950435e-05 0 0.0049362780202379568 -5.9838691947546507e-05 0 0.0049384409576915724 -5.0331553433336658e-05 0 0.0049422708812263353 -5.5638571916950435e-05 0 0.0049384409576915724 -5.0331553433336658e-05 0 0.0049484201907821004 -4.9122238945621747e-05 0 0.0049384409576915724 -5.0331553433336658e-05 0 0.0049500116879934476 -4.2069628705017219e-05 0 0.0049484032695004008 -3.3624549616496319e-05 0 0.0049691377161479094 -1.8819571368104323e-05 0 0.0049657232459124753 -2.6864541570872809e-05 0 0.0049559742501040314 -3.4586007489198366e-05 0 0.0049591711024914937 -2.3380559739196101e-05 0 0.0049584816583647558 -2.7380113298831131e-05 0 0.0049691377161479094 -1.8819571368104323e-05 0 0.0049757757748992281 -1.0229027993041824e-05 0 0.0049384409576915724 -5.0331553433336658e-05 0 0.0049500116879934476 -4.2069628705017219e-05 0 0.0049484201907821004 -4.9122238945621747e-05 0 0.0049500116879934476 -4.2069628705017219e-05 0 0.0049583931217293299 -3.3954898286793128e-05 0 0.0049484032695004008 -3.3624549616496319e-05 0 0.0049627632151129954 -4.5993071670905449e-05 0 0.0049519013160508329 -5.130003957814967e-05 0 0.0049564005988512443 -4.2940987404373135e-05 0 0.0049500116879934476 -4.2069628705017219e-05 0 0.0049564005988512443 -4.2940987404373135e-05 0 0.0049484201907821004 -4.9122238945621747e-05 0 0.0049519013160508329 -5.130003957814967e-05 0 0.0049564005988512443 -4.2940987404373135e-05 0 0.0049484201907821004 -4.9122238945621747e-05 0 0.0049500116879934476 -4.2069628705017219e-05 0 0.0049564005988512443 -4.2940987404373135e-05 0 0.0049583931217293299 -3.3954898286793128e-05 0 0.0049627632151129954 -4.5993071670905449e-05 0 0.0049564005988512443 -4.2940987404373135e-05 0 0.004967213038877369 -3.4383764939218764e-05 0 0.0049564005988512443 -4.2940987404373135e-05 0 0.004967213038877369 -3.4383764939218764e-05 0 0.0049583931217293299 -3.3954898286793128e-05 0 0.004967213038877369 -3.4383764939218764e-05 0 0.0049583931217293299 -3.3954898286793128e-05 0 0.0049676259797716707 -2.4768576610759168e-05 0 0.0049583931217293299 -3.3954898286793128e-05 0 0.0049676259797716707 -2.4768576610759168e-05 0 0.0049601739426787979 -2.6381668153345904e-05 0 0.004967213038877369 -3.4383764939218764e-05 0 0.0049676259797716707 -2.4768576610759168e-05 0 0.0049769629848304643 -2.5088137006539266e-05 0 0.0049484032695004008 -3.3624549616496319e-05 0 0.0049601739426787979 -2.6381668153345904e-05 0 0.0049626511094793884 -2.0080828889089176e-05 0 0.0049657232459124753 -2.6864541570872809e-05 0 0.0049650365690679247 -2.6920837075805257e-05 0 0.0049591711024914937 -2.3380559739196101e-05 0 0.0049584816583647558 -2.7380113298831131e-05 0 0.0049626511094793884 -2.0080828889089176e-05 0 0.0049583931217293299 -3.3954898286793128e-05 0 0.0049484032695004008 -3.3624549616496319e-05 0 0.0049601739426787979 -2.6381668153345904e-05 0 0.0049676259797716707 -2.4768576610759168e-05 0 0.0049601739426787979 -2.6381668153345904e-05 0 0.0049658797244333747 -2.0392859806972385e-05 0 0.0049717786222138408 -1.1496068224017481e-05 0 0.0049626511094793884 -2.0080828889089176e-05 0 0.004970161051204282 -1.5643638269489808e-05 0 0.0049717786222138408 -1.1496068224017481e-05 0 0.0049591711024914937 -2.3380559739196101e-05 0 0.0049626511094793884 -2.0080828889089176e-05 0 0.0049626511094793884 -2.0080828889089176e-05 0 0.0049658797244333747 -2.0392859806972385e-05 0 0.004970161051204282 -1.5643638269489808e-05 0 0.0049601739426787979 -2.6381668153345904e-05 0 0.0049626511094793884 -2.0080828889089176e-05 0 0.0049658797244333747 -2.0392859806972385e-05 0 0.0049658797244333747 -2.0392859806972385e-05 0 0.004970161051204282 -1.5643638269489808e-05 0 0.0049729508719210079 -1.6337085987973909e-05 0 0.0049676259797716707 -2.4768576610759168e-05 0 0.0049764227329122945 -1.8469105774219497e-05 0 0.0049769629848304643 -2.5088137006539266e-05 0 0.0049676259797716707 -2.4768576610759168e-05 0 0.0049729508719210079 -1.6337085987973909e-05 0 0.0049764227329122945 -1.8469105774219497e-05 0 0.0049676259797716707 -2.4768576610759168e-05 0 0.0049658797244333747 -2.0392859806972385e-05 0 0.0049729508719210079 -1.6337085987973909e-05 0 0.0049729508719210079 -1.6337085987973909e-05 0 0.0049764227329122945 -1.8469105774219497e-05 0 0.0049823220714211277 -1.1030151554761926e-05 0 0.0049764227329122945 -1.8469105774219497e-05 0 0.0049839772619673364 -1.7136682639576488e-05 0 0.0049823220714211277 -1.1030151554761926e-05 0 0.0049839772619673364 -1.7136682639576488e-05 0 0.004985310853943126 -2.2854003023809557e-05 0 0.0049889315866168083 -1.7225322845459949e-05 0 0.0049839772619673364 -1.7136682639576488e-05 0 0.004985310853943126 -2.2854003023809557e-05 0 0.0049769629848304643 -2.5088137006539266e-05 0 0.0049764227329122945 -1.8469105774219497e-05 0 0.0049839772619673364 -1.7136682639576488e-05 0 0.0049769629848304643 -2.5088137006539266e-05 0 0.0049825899420973176 -3.6845529123114888e-05 0 0.004985310853943126 -2.2854003023809557e-05 0 0.0049769629848304643 -2.5088137006539266e-05 0 0.0049825899420973176 -3.6845529123114888e-05 0 0.004967213038877369 -3.4383764939218764e-05 0 0.0049769629848304643 -2.5088137006539266e-05 0 0.0048258759887935664 -0.00016327825748664769 0 0.0048157347197891583 -0.000165152069348177 0 0.0048077127796154889 -0.00015856293106348415 0 0.0049092700737837208 -9.2241207587641711e-05 0 0.0049212382907162389 -8.1380676078078053e-05 0 0.0048258759887935664 -0.00016327825748664769 0 0.0048282300179333633 -0.00016412181381292784 0 0.0048157347197891583 -0.000165152069348177 0 0.0049825899420973176 -3.6845529123114888e-05 0 0.004985310853943126 -2.2854003023809557e-05 0 0.0049943907997040031 -1.9023715223484744e-05 0 0.0048258759887935664 -0.00016327825748664769 0 0.0048282300179333633 -0.00016412181381292784 0 0.0048304408973259784 -0.00016003571474692811 0 0.0049943907997040031 -1.9023715223484744e-05 0 0.0049889315866168083 -1.7225322845459949e-05 0 0.0049917713238984262 -9.8671761127241411e-06 0 0.004985310853943126 -2.2854003023809557e-05 0 0.0049943907997040031 -1.9023715223484744e-05 0 0.0049889315866168083 -1.7225322845459949e-05 0 0.0049839772619673364 -1.7136682639576488e-05 0 0.0049889315866168083 -1.7225322845459949e-05 0 0.0049917713238984262 -9.8671761127241411e-06 0 0.0049943907997040031 -1.9023715223484744e-05 0 0.0049917713238984262 -9.8671761127241411e-06 0 0.0049994442807883644 -8.0847973933820392e-06 0 0.0049839772619673364 -1.7136682639576488e-05 0 0.0049917713238984262 -9.8671761127241411e-06 0 0.0049823220714211277 -1.1030151554761926e-05 0 0.0049917713238984262 -9.8671761127241411e-06 0 0.0049823220714211277 -1.1030151554761926e-05 0 0.0049916639114292198 -3.6236320188991486e-06 0 0.0049917713238984262 -9.8671761127241411e-06 0 0.004997347831290971 -2.4618298658019057e-06 0 0.0049916639114292198 -3.6236320188991486e-06 0 0.0049917713238984262 -9.8671761127241411e-06 0 0.004997347831290971 -2.4618298658019057e-06 0 0.0049994442807883644 -8.0847973933820392e-06 0 0.0049717786222138408 -1.1496068224017481e-05 0 0.004977074419914432 -1.1325798491699733e-05 0 0.0049840708382062112 -5.888279313290605e-06 0 0.0049717786222138408 -1.1496068224017481e-05 0 0.004970161051204282 -1.5643638269489808e-05 0 0.004977074419914432 -1.1325798491699733e-05 0 0.004970161051204282 -1.5643638269489808e-05 0 0.0049729508719210079 -1.6337085987973909e-05 0 0.004977074419914432 -1.1325798491699733e-05 0 0.004977074419914432 -1.1325798491699733e-05 0 0.0049823220714211277 -1.1030151554761926e-05 0 0.0049840708382062112 -5.888279313290605e-06 0 0.0049729508719210079 -1.6337085987973909e-05 0 0.004977074419914432 -1.1325798491699733e-05 0 0.0049823220714211277 -1.1030151554761926e-05 0 0.0049823220714211277 -1.1030151554761926e-05 0 0.0049840708382062112 -5.888279313290605e-06 0 0.0049916639114292198 -3.6236320188991486e-06 0 0.0049867303155525155 -3.1777599316566038e-06 0 0.0049717786222138408 -1.1496068224017481e-05 0 0.0049840708382062112 -5.888279313290605e-06 0 0.0049867303155525155 -3.1777599316566038e-06 0 0.0049840708382062112 -5.888279313290605e-06 0 0.004992633737851802 -1.7184082496446449e-06 0 0.0049840708382062112 -5.888279313290605e-06 0 0.004992633737851802 -1.7184082496446449e-06 0 0.0049916639114292198 -3.6236320188991486e-06 0 0.004992633737851802 -1.7184082496446449e-06 0 0.0049999897392694016 -2.2659471151162566e-09 0 0.0049999943767757554 1.2521455915884586e-09 0 0.0049999861596621903 7.8036873407547307e-10 0 0.0049867303155525155 -3.1777599316566038e-06 0 0.004992633737851802 -1.7184082496446449e-06 0 0.0049999861596621903 7.8036873407547307e-10 0 0.004992633737851802 -1.7184082496446449e-06 0 0.0049999897392694016 -2.2659471151162566e-09 0 0.004992633737851802 -1.7184082496446449e-06 0 0.0049916639114292198 -3.6236320188991486e-06 0 0.0049999943767757554 1.2521455915884586e-09 0 0.004997347831290971 -2.4618298658019057e-06 0 0.0049916639114292198 -3.6236320188991486e-06 0 0.0049999943767757554 1.2521455915884586e-09 0 0.004997347831290971 -2.4618298658019057e-06 0 0.0049999943767757554 1.2521455915884586e-09 0 0.004999999280302936 -6.6258831470988421e-10 0 0.004997347831290971 -2.4618298658019057e-06 0 0.004999999280302936 -6.6258831470988421e-10 0 0.0050009262121465149 -2.0629424759800385e-06 0 0.0049717069555374029 -2.5018108278599882e-05 0 0.0049999591300334215 -2.2886300892339833e-08 0 0.004999999280302936 -6.6258831470988421e-10 0 0.0050009262121465149 -2.0629424759800385e-06 0 0.0050000026391731301 -5.7024096711747447e-10 0 0.0049415154541040248 -2.6135142239988461e-05 0 0.0049999330522641364 9.5623703048098125e-09 0 0.0049884975107662892 -1.6543107456441803e-05 0 0.0049999330522641364 9.5623703048098125e-09 0 0.0050000020332007832 -1.0466218483360289e-08 0 0.0049884975107662892 -1.6543107456441803e-05 0 0.0050000020332007832 -1.0466218483360289e-08 0 0.0050046165505753292 -1.7181997352293408e-05 0 0.0050000399614029785 1.8494601229899405e-09 0 0.0050000020332007832 -1.0466218483360289e-08 0 0.0050046165505753292 -1.7181997352293408e-05 0 0.0049884975107662892 -1.6543107456441803e-05 0 0.0050046165505753292 -1.7181997352293408e-05 0 0.0049940060120935636 -3.9934295844288182e-05 0 0.0049884975107662892 -1.6543107456441803e-05 0 0.0050046165505753292 -1.7181997352293408e-05 0 0.0049940060120935636 -3.9934295844288182e-05 0 0.0050162234902955813 -5.5980086457310301e-05 0 0.0049415154541040248 -2.6135142239988461e-05 0 0.0049884975107662892 -1.6543107456441803e-05 0 0.0049617622380516259 -5.7621575073459856e-05 0 0.0049940060120935636 -3.9934295844288182e-05 0 0.0049884975107662892 -1.6543107456441803e-05 0 0.0049617622380516259 -5.7621575073459856e-05 0 0.0049617622380516259 -5.7621575073459856e-05 0 0.0049917394383533226 -6.8882767494693025e-05 0 0.0049726886264900415 -9.5901348989815279e-05 0 0.0049940060120935636 -3.9934295844288182e-05 0 0.0049617622380516259 -5.7621575073459856e-05 0 0.0049917394383533226 -6.8882767494693025e-05 0 0.0049917394383533226 -6.8882767494693025e-05 0 0.0050120833687514865 -9.224786364243861e-05 0 0.0050162234902955813 -5.5980086457310301e-05 0 0.0049940060120935636 -3.9934295844288182e-05 0 0.0049917394383533226 -6.8882767494693025e-05 0 0.0050162234902955813 -5.5980086457310301e-05 0 0.0049917394383533226 -6.8882767494693025e-05 0 0.0050120833687514865 -9.224786364243861e-05 0 0.0049726886264900415 -9.5901348989815279e-05 0 0.0050120833687514865 -9.224786364243861e-05 0 0.0049726886264900415 -9.5901348989815279e-05 0 0.0049960718605891637 -0.00013035973544185564 0 0.0049617622380516259 -5.7621575073459856e-05 0 0.0049726886264900415 -9.5901348989815279e-05 0 0.0049341982606655298 -0.00010375403530556862 0 0.0049726886264900415 -9.5901348989815279e-05 0 0.0049341982606655298 -0.00010375403530556862 0 0.0049507859966902166 -0.00012409477295580483 0 0.0049617622380516259 -5.7621575073459856e-05 0 0.0049341982606655298 -0.00010375403530556862 0 0.0048902901798941025 -7.6370182280275959e-05 0 0.0049212382907162389 -8.1380676078078053e-05 0 0.0049455789374580009 -5.1741933521737557e-05 0 0.0049341982606655298 -0.00010375403530556862 0 0.0048902901798941025 -7.6370182280275959e-05 0 0.0048924662186027703 -0.00012853779387357367 0 0.0048304408973259784 -0.00016003571474692811 0 0.0048902901798941025 -7.6370182280275959e-05 0 0.0048924662186027703 -0.00012853779387357367 0 0.004997347831290971 -2.4618298658019057e-06 0 0.0050009262121465149 -2.0629424759800385e-06 0 0.0049994442807883644 -8.0847973933820392e-06 0 0.0049717069555374029 -2.5018108278599882e-05 0 0.0049455789374580009 -5.1741933521737557e-05 0 0.0049415154541040248 -2.6135142239988461e-05 0 0.0049617622380516259 -5.7621575073459856e-05 0 0.0048902901798941025 -7.6370182280275959e-05 0 0.0049972175722850874 -2.6496189689929718e-06 0 0.0049984853451060024 -5.5054976745269704e-06 0 0.0050001614353248477 -3.1673539530750303e-06 0 0.0050000030077117959 6.1091999526810358e-10 0 0.0049972175722850874 -2.6496189689929718e-06 0 0.0050001614353248477 -3.1673539530750303e-06 0 0.0049998525302283004 -6.5953542107661913e-08 0 0.0048984792941601536 -3.0817278801782923e-05 0 0.0049999051872836389 -5.9220956800305555e-09 0 0.0049509767413502158 -8.195544316306858e-06 0 0.0050000033313785637 -5.3549168790698558e-10 0 0.0050010507942787096 -2.2523321964473841e-06 0 0.0049996445292771708 -8.5813798565283204e-07 0 0.0050000030077117959 6.1091999526810358e-10 0 0.0049999938915523123 -1.5500524180963971e-09 0 0.0049972175722850874 -2.6496189689929718e-06 0 0.0050010507942787096 -2.2523321964473841e-06 0 0.0049996445292771708 -8.5813798565283204e-07 0 0.0049980306397017929 -2.3170798054871453e-06 0 0.0050010507942787096 -2.2523321964473841e-06 0 0.0049980306397017929 -2.3170798054871453e-06 0 0.0049993991107842159 -4.7184021941366007e-06 0 0.0050000033313785637 -5.3549168790698558e-10 0 0.0049996445292771708 -8.5813798565283204e-07 0 0.004999995307149039 -4.3637600901135395e-10 0 0.0049999434647227357 -4.6779174527595237e-08 0 0.0049693331395569652 -3.5017736405707904e-05 0 0.0049996445292771708 -8.5813798565283204e-07 0 0.004999995307149039 -4.3637600901135395e-10 0 0.0049980306397017929 -2.3170798054871453e-06 0 0.0050046165505753292 -1.7181997352293408e-05 0 0.0050000399614029785 1.8494601229899405e-09 0 0.0050330707502697783 -3.1770704740284483e-05 0 0.0050046165505753292 -1.7181997352293408e-05 0 0.0050330707502697783 -3.1770704740284483e-05 0 0.0050162234902955813 -5.5980086457310301e-05 0 0.0050330707502697783 -3.1770704740284483e-05 0 0.0050162234902955813 -5.5980086457310301e-05 0 0.0050509636002254998 -8.1490886367781168e-05 0 0.0050120833687514865 -9.224786364243861e-05 0 0.0050162234902955813 -5.5980086457310301e-05 0 0.0050509636002254998 -8.1490886367781168e-05 0 0.0050120833687514865 -9.224786364243861e-05 0 0.0050509636002254998 -8.1490886367781168e-05 0 0.0050401178092534206 -0.00011762004922838821 0 0.0049973936873095775 -8.2333559674604969e-06 0 0.0050013258121789821 -7.7020851568480835e-06 0 0.0050005874400181512 -1.5486942989559973e-05 0 0.0049111226680814231 -7.5186420220849838e-05 0 0.004785177427421951 -0.00012648886159266062 0 0.0049693331395569652 -3.5017736405707904e-05 0 0.0049111226680814231 -7.5186420220849838e-05 0 0.0049980306397017929 -2.3170798054871453e-06 0 0.0049973936873095775 -8.2333559674604969e-06 0 0.0049993991107842159 -4.7184021941366007e-06 0 0.0049973936873095775 -8.2333559674604969e-06 0 0.0049993991107842159 -4.7184021941366007e-06 0 0.0050013258121789821 -7.7020851568480835e-06 0 0.0049972175722850874 -2.6496189689929718e-06 0 0.0049953906034529653 -6.5264943529159246e-06 0 0.0049984853451060024 -5.5054976745269704e-06 0 0.0049509767413502158 -8.195544316306858e-06 0 0.0048780584449541805 -3.1429400332772168e-05 0 0.0050010507942787096 -2.2523321964473841e-06 0 0.0049993991107842159 -4.7184021941366007e-06 0 0.0050013258121789821 -7.7020851568480835e-06 0 0.0048780584449541805 -3.1429400332772168e-05 0 0.0047444175867883791 -0.00012405042389214242 0 0.0049953906034529653 -6.5264943529159246e-06 0 0.0049983159350470534 -8.7934657791560271e-06 0 0.0049943809942677398 -1.1066859322199277e-05 0 0.0049953906034529653 -6.5264943529159246e-06 0 0.0049983159350470534 -8.7934657791560271e-06 0 0.0049984853451060024 -5.5054976745269704e-06 0 0.004103649274049056 -0.00011282549417826575 0 0.004102847458163323 -0.00011151854600452616 0 0.0041013330855863882 -0.00011210311715550687 0 0.004103649274049056 -0.00011282549417826575 0 0.0041055355296122529 -0.00011164248058658007 0 0.004102847458163323 -0.00011151854600452616 0 0.0041041825976628216 -0.0001143345394382701 0 0.004103649274049056 -0.00011282549417826575 0 0.0041023071945926783 -0.00011361526321146932 0 0.0041041825976628216 -0.0001143345394382701 0 0.004103649274049056 -0.00011282549417826575 0 0.0041063535053120779 -0.00011356144202057915 0 0.00463437712912587 -9.1555520373455819e-05 0 0.0047444175867883791 -0.00012405042389214242 0 0.0047444175867883791 -0.00012405042389214242 0 0.004785177427421951 -0.00012648886159266062 0 0.0046866843785517229 -9.7878500753327883e-05 0 0.0046852977869920216 -0.00013566617392101452 0 0.0046759617230820042 -0.0001029773410603873 0 0.004103649274049056 -0.00011282549417826575 0 0.0041063535053120779 -0.00011356144202057915 0 0.0041055355296122529 -0.00011164248058658007 0 0.0047444175867883791 -0.00012405042389214242 0 0.0046287330803729057 -0.00011868159058191712 0 0.0046287330803729057 -0.00011868159058191712 0 0.004785177427421951 -0.00012648886159266062 0 0.005064621043604365 -0.00015435092915003375 0 0.0050524817136761496 -0.00013704584218781561 0 0.0050590107426595693 -0.00012614034920639943 0 0.005064621043604365 -0.00015435092915003375 0 0.0050455660800590961 -0.0001491150402099198 0 0.0050524817136761496 -0.00013704584218781561 0 0.0050455660800590961 -0.0001491150402099198 0 0.0050407375090737727 -0.00013419467315069664 0 0.0050320106328247249 -0.00014800662588242139 0 0.0050455660800590961 -0.0001491150402099198 0 0.0050320106328247249 -0.00014800662588242139 0 0.0050383358061927858 -0.00015597458532178 0 0.0050455660800590961 -0.0001491150402099198 0 0.0050407375090737727 -0.00013419467315069664 0 0.0050524817136761496 -0.00013704584218781561 0 0.0050407375090737727 -0.00013419467315069664 0 0.0050524817136761496 -0.00013704584218781561 0 0.0050482009522360236 -0.00013063817153862624 0 0.0050524817136761496 -0.00013704584218781561 0 0.0050560229519054896 -0.00012772298893345404 0 0.0050482009522360236 -0.00013063817153862624 0 0.0050599041003903606 -0.00012608787535593513 0 0.0050560229519054896 -0.00012772298893345404 0 0.0050401178092534206 -0.00011762004922838821 0 0.0050509636002254998 -8.1490886367781168e-05 0 0.0050599041003903606 -0.00012608787535593513 0 0.0050401178092534206 -0.00011762004922838821 0 0.0049973936873095775 -8.2333559674604969e-06 0 0.0050005874400181512 -1.5486942989559973e-05 0 0.0049985559272657 -1.649000994375394e-05 0 0.004785177427421951 -0.00012648886159266062 0 0.0047874403354995852 -0.00012572648001059399 0 0.0050524817136761496 -0.00013704584218781561 0 0.0050590107426595693 -0.00012614034920639943 0 0.0050560229519054896 -0.00012772298893345404 0 0.0050407375090737727 -0.00013419467315069664 0 0.0050401178092534206 -0.00011762004922838821 0 0.0050482009522360236 -0.00013063817153862624 0 0.0050560229519054896 -0.00012772298893345404 0 0.0050401178092534206 -0.00011762004922838821 0 0.0050482009522360236 -0.00013063817153862624 0 0.0050401178092534206 -0.00011762004922838821 0 0.0050179719917714033 -0.00013281472113384234 0 0.0050304604747311455 -0.00013562078434967631 0 0.0050401178092534206 -0.00011762004922838821 0 0.0050179719917714033 -0.00013281472113384234 0 0.0049980457581839839 -0.0001218738601511287 0 0.0050120833687514865 -9.224786364243861e-05 0 0.0050401178092534206 -0.00011762004922838821 0 0.0049960718605891637 -0.00013035973544185564 0 0.0050068032006238081 -0.00012856837793091656 0 0.0049758382714642554 -0.00013395152005964397 0 0.0050407375090737727 -0.00013419467315069664 0 0.0050401178092534206 -0.00011762004922838821 0 0.0050304604747311455 -0.00013562078434967631 0 0.0050179719917714033 -0.00013281472113384234 0 0.0050304604747311455 -0.00013562078434967631 0 0.0050235669387942725 -0.00014566907985030436 0 0.0050304604747311455 -0.00013562078434967631 0 0.0050320106328247249 -0.00014800662588242139 0 0.0050235669387942725 -0.00014566907985030436 0 0.0050407375090737727 -0.00013419467315069664 0 0.0050304604747311455 -0.00013562078434967631 0 0.0050320106328247249 -0.00014800662588242139 0 0.0050320106328247249 -0.00014800662588242139 0 0.0050235669387942725 -0.00014566907985030436 0 0.0050244671410206061 -0.00015658652212289948 0 0.0050179719917714033 -0.00013281472113384234 0 0.0050235669387942725 -0.00014566907985030436 0 0.0050128278768746346 -0.00015512085450148218 0 0.0050235669387942725 -0.00014566907985030436 0 0.0050244671410206061 -0.00015658652212289948 0 0.0050128278768746346 -0.00015512085450148218 0 0.0050244671410206061 -0.00015658652212289948 0 0.005027200812188732 -0.00017742517234271561 0 0.0050128278768746346 -0.00015512085450148218 0 0.0050320106328247249 -0.00014800662588242139 0 0.0050316987033630911 -0.00016280752130694545 0 0.0050383358061927858 -0.00015597458532178 0 0.0050244671410206061 -0.00015658652212289948 0 0.0050316987033630911 -0.00016280752130694545 0 0.005027200812188732 -0.00017742517234271561 0 0.0050320106328247249 -0.00014800662588242139 0 0.0050244671410206061 -0.00015658652212289948 0 0.0050316987033630911 -0.00016280752130694545 0 0.0050316987033630911 -0.00016280752130694545 0 0.005027200812188732 -0.00017742517234271561 0 0.0050357392080105871 -0.00016970771634566386 0 0.005027200812188732 -0.00017742517234271561 0 0.0050357392080105871 -0.00016970771634566386 0 0.0050401872783243633 -0.00017467786490718822 0 0.004712988409535184 -0.00014805357449783192 0 0.0047096538536656081 -0.0001371322252534282 0 0.0047255236898976448 -0.00013632665682841114 0 0.0047096538536656081 -0.0001371322252534282 0 0.0047094997851212369 -0.00012824582581383187 0 0.0047255236898976448 -0.00013632665682841114 0 0.0047094997851212369 -0.00012824582581383187 0 0.0046903373631056256 -0.00013593673673962931 0 0.0046978116782892109 -0.00012170222636126034 0 0.0047096538536656081 -0.0001371322252534282 0 0.0047094997851212369 -0.00012824582581383187 0 0.0046903373631056256 -0.00013593673673962931 0 0.0046449853366947631 -0.00016167719562193767 0 0.0046256021226109218 -0.00015526230815608093 0 0.004712988409535184 -0.00014805357449783192 0 0.0047096538536656081 -0.0001371322252534282 0 0.0046903373631056256 -0.00013593673673962931 0 0.0047054520650695458 -0.00014708961642097439 0 0.004712988409535184 -0.00014805357449783192 0 0.0046909044208262645 -0.00013464248169112314 0 0.0050460659880600597 -0.00018379720102409131 0 0.0050520814778771458 -0.0001741311519562089 0 0.0050401872783243633 -0.00017467786490718822 0 0.005027200812188732 -0.00017742517234271561 0 0.0050460659880600597 -0.00018379720102409131 0 0.0050401872783243633 -0.00017467786490718822 0 0.004793189633891061 -0.00018857505603450298 0 0.0045646088725517717 -0.0001352886069980068 0 0.005027200812188732 -0.00017742517234271561 0 0.0050460659880600597 -0.00018379720102409131 0 0.0050575870038453066 -0.00019985204330294999 0 0.0047054520650695458 -0.00014708961642097439 0 0.0046909044208262645 -0.00013464248169112314 0 0.0046687142640090386 -0.00012087598181735269 0 0.0046256021226109218 -0.00015526230815608093 0 0.0045646088725517717 -0.0001352886069980068 0 0.0050460659880600597 -0.00018379720102409131 0 0.0050555515517146533 -0.00018857459216650848 0 0.0050575870038453066 -0.00019985204330294999 0 0.0050555515517146533 -0.00018857459216650848 0 0.0050520814778771458 -0.0001741311519562089 0 0.0050622220485690723 -0.00017871416347615545 0 0.0050460659880600597 -0.00018379720102409131 0 0.0050555515517146533 -0.00018857459216650848 0 0.0050520814778771458 -0.0001741311519562089 0 0.0050520814778771458 -0.0001741311519562089 0 0.0050401872783243633 -0.00017467786490718822 0 0.0050440012925196311 -0.00016382829965303408 0 0.0050357392080105871 -0.00016970771634566386 0 0.0050401872783243633 -0.00017467786490718822 0 0.0050440012925196311 -0.00016382829965303408 0 0.0050316987033630911 -0.00016280752130694545 0 0.0050383358061927858 -0.00015597458532178 0 0.0050440012925196311 -0.00016382829965303408 0 0.0050316987033630911 -0.00016280752130694545 0 0.0050357392080105871 -0.00016970771634566386 0 0.0050440012925196311 -0.00016382829965303408 0 0.0050455660800590961 -0.0001491150402099198 0 0.0050383358061927858 -0.00015597458532178 0 0.0050440012925196311 -0.00016382829965303408 0 0.005064621043604365 -0.00015435092915003375 0 0.0050520814778771458 -0.0001741311519562089 0 0.0050440012925196311 -0.00016382829965303408 0 0.005064621043604365 -0.00015435092915003375 0 0.0050455660800590961 -0.0001491150402099198 0 0.0050440012925196311 -0.00016382829965303408 0 0.0044887203054119178 -0.00012923464207674723 0 0.00448007641969004 -0.00010282867863401525 0 0.0044886688791889633 -0.0001083056886926766 0 0.0046287330803729057 -0.00011868159058191712 0 0.0044299966931642971 -7.1734627114005569e-05 0 0.005064621043604365 -0.00015435092915003375 0 0.0050520814778771458 -0.0001741311519562089 0 0.0050622220485690723 -0.00017871416347615545 0 0.0046287330803729057 -0.00011868159058191712 0 0.0045887241710744417 -0.00012369139685678359 0 0.0041055355296122529 -0.00011164248058658007 0 0.0041036617612082923 -0.00010956206664026822 0 0.0041025074625068098 -0.00011042124388975834 0 0.0045887241710744417 -0.00012369139685678359 0 0.00450256514635595 -0.00011203449904488371 0 0.00448007641969004 -0.00010282867863401525 0 0.0044886688791889633 -0.0001083056886926766 0 0.0044888838798398537 -8.7015452952670102e-05 0 0.0050555515517146533 -0.00018857459216650848 0 0.0050622220485690723 -0.00017871416347615545 0 0.0050604360275842714 -0.00020216845096111271 0 0.0050555515517146533 -0.00018857459216650848 0 0.0050575870038453066 -0.00019985204330294999 0 0.0050604360275842714 -0.00020216845096111271 0 0.0041004187128245934 -0.00010893289276309612 0 0.0041025074625068098 -0.00011042124388975834 0 0.0041002716421286532 -0.00011016967942339464 0 0.0041036617612082923 -0.00010956206664026822 0 0.0041004187128245934 -0.00010893289276309612 0 0.0041014865546136047 -0.00010647348253891845 0 0.0041036617612082923 -0.00010956206664026822 0 0.0041004187128245934 -0.00010893289276309612 0 0.0041025074625068098 -0.00011042124388975834 0 0.0041055355296122529 -0.00011164248058658007 0 0.0041025074625068098 -0.00011042124388975834 0 0.004102847458163323 -0.00011151854600452616 0 0.0041025074625068098 -0.00011042124388975834 0 0.004102847458163323 -0.00011151854600452616 0 0.0041002716421286532 -0.00011016967942339464 0 0.0047887637155274113 -0.00017634299704606679 0 0.0048027438861065969 -0.00018206042155829693 0 0.0047776274427115493 -0.00018848783458833419 0 0.0047887637155274113 -0.00017634299704606679 0 0.0047719599393212719 -0.00017198997465225254 0 0.0047776274427115493 -0.00018848783458833419 0 0.0047719599393212719 -0.00017198997465225254 0 0.0047873935672469396 -0.00016555085694480276 0 0.0047662676686671714 -0.00015676138414060772 0 0.0047887637155274113 -0.00017634299704606679 0 0.0047719599393212719 -0.00017198997465225254 0 0.0047873935672469396 -0.00016555085694480276 0 0.0047887637155274113 -0.00017634299704606679 0 0.0047873935672469396 -0.00016555085694480276 0 0.0047998680544227151 -0.00017013221179785939 0 0.0047873935672469396 -0.00016555085694480276 0 0.0047998680544227151 -0.00017013221179785939 0 0.0048077127796154889 -0.00015856293106348415 0 0.0048282300179333633 -0.00016412181381292784 0 0.0048157347197891583 -0.000165152069348177 0 0.0048027438861065969 -0.00018206042155829693 0 0.0048157347197891583 -0.000165152069348177 0 0.0047998680544227151 -0.00017013221179785939 0 0.0048077127796154889 -0.00015856293106348415 0 0.0048157347197891583 -0.000165152069348177 0 0.0047998680544227151 -0.00017013221179785939 0 0.0048027438861065969 -0.00018206042155829693 0 0.0047887637155274113 -0.00017634299704606679 0 0.0047998680544227151 -0.00017013221179785939 0 0.0048027438861065969 -0.00018206042155829693 0 0.0048814285618214966 -0.00017095601221046749 0 0.0048924662186027703 -0.00012853779387357367 0 0.0049254833392445149 -0.00014804153427684389 0 0.0048490049116870198 -0.00015828868328565958 0 0.0048572764851833221 -0.00015648586105426434 0 0.0048282300179333633 -0.00016412181381292784 0 0.0048304408973259784 -0.00016003571474692811 0 0.0048814285618214966 -0.00017095601221046749 0 0.0048304408973259784 -0.00016003571474692811 0 0.0048814285618214966 -0.00017095601221046749 0 0.0048924662186027703 -0.00012853779387357367 0 0.0048572764851833221 -0.00015648586105426434 0 0.0048825270261891414 -0.00014941180332282719 0 0.0048814285618214966 -0.00017095601221046749 0 0.0049254833392445149 -0.00014804153427684389 0 0.0049407581189613598 -0.00015894686806905076 0 0.0049341982606655298 -0.00010375403530556862 0 0.0048924662186027703 -0.00012853779387357367 0 0.0049254833392445149 -0.00014804153427684389 0 0.0049254833392445149 -0.00014804153427684389 0 0.0049368018916079344 -0.00015220472788970342 0 0.0049507859966902166 -0.00012409477295580483 0 0.0048837967152651771 -0.00015001793275291406 0 0.0048825270261891414 -0.00014941180332282719 0 0.0049341982606655298 -0.00010375403530556862 0 0.0049254833392445149 -0.00014804153427684389 0 0.0049507859966902166 -0.00012409477295580483 0 0.0049368018916079344 -0.00015220472788970342 0 0.0049507859966902166 -0.00012409477295580483 0 0.0049960718605891637 -0.00013035973544185564 0 0.0048825270261891414 -0.00014941180332282719 0 0.0049758382714642554 -0.00013395152005964397 0 0.0049726886264900415 -9.5901348989815279e-05 0 0.0049507859966902166 -0.00012409477295580483 0 0.0049960718605891637 -0.00013035973544185564 0 0.0050179719917714033 -0.00013281472113384234 0 0.0049980457581839839 -0.0001218738601511287 0 0.0049923581788852596 -0.0001531464707340388 0 0.0050179719917714033 -0.00013281472113384234 0 0.0049923581788852596 -0.0001531464707340388 0 0.0050128278768746346 -0.00015512085450148218 0 0.0049563301348120583 -0.00012670499355457433 0 0.0049980457581839839 -0.0001218738601511287 0 0.0049923581788852596 -0.0001531464707340388 0 0.0048825270261891414 -0.00014941180332282719 0 0.004850972787916537 -0.00017093953236677775 0 0.0047719599393212719 -0.00017198997465225254 0 0.0047776274427115493 -0.00018848783458833419 0 0.0047424011510869011 -0.00016881515470760431 0 0.0047719599393212719 -0.00017198997465225254 0 0.0047424011510869011 -0.00016881515470760431 0 0.0047662676686671714 -0.00015676138414060772 0 0.0047424011510869011 -0.00016881515470760431 0 0.0047662676686671714 -0.00015676138414060772 0 0.0047431949164478404 -0.0001459993966410348 0 0.0047662676686671714 -0.00015676138414060772 0 0.0047431949164478404 -0.0001459993966410348 0 0.0047659214705273031 -0.00013777457931301142 0 0.005027200812188732 -0.00017742517234271561 0 0.0049923581788852596 -0.0001531464707340388 0 0.0050128278768746346 -0.00015512085450148218 0 0.0047054520650695458 -0.00014708961642097439 0 0.004712988409535184 -0.00014805357449783192 0 0.0047424011510869011 -0.00016881515470760431 0 0.004712988409535184 -0.00014805357449783192 0 0.0047424011510869011 -0.00016881515470760431 0 0.0047431949164478404 -0.0001459993966410348 0 0.004793189633891061 -0.00018857505603450298 0 0.004850972787916537 -0.00017093953236677775 0 0.0047431949164478404 -0.0001459993966410348 0 0.0047255236898976448 -0.00013632665682841114 0 0.0047442086857564254 -0.00012368054511869295 0 0.004712988409535184 -0.00014805357449783192 0 0.0047431949164478404 -0.0001459993966410348 0 0.0047255236898976448 -0.00013632665682841114 0 0.0047255236898976448 -0.00013632665682841114 0 0.0047442086857564254 -0.00012368054511869295 0 0.0047232748658244793 -0.00011915333753397115 0 0.0047094997851212369 -0.00012824582581383187 0 0.0047255236898976448 -0.00013632665682841114 0 0.0047232748658244793 -0.00011915333753397115 0 0.0047431949164478404 -0.0001459993966410348 0 0.0047659214705273031 -0.00013777457931301142 0 0.0047442086857564254 -0.00012368054511869295 0 0.0047659214705273031 -0.00013777457931301142 0 0.0047442086857564254 -0.00012368054511869295 0 0.004767435915148251 -0.00011536449916102165 0 0.0047659214705273031 -0.00013777457931301142 0 0.0047890437601387599 -0.00013066626324812299 0 0.004767435915148251 -0.00011536449916102165 0 0.0047659214705273031 -0.00013777457931301142 0 0.0047890437601387599 -0.00013066626324812299 0 0.0047855175308057175 -0.00015011560744068598 0 0.0047662676686671714 -0.00015676138414060772 0 0.0047659214705273031 -0.00013777457931301142 0 0.0047855175308057175 -0.00015011560744068598 0 0.0047873935672469396 -0.00016555085694480276 0 0.0047662676686671714 -0.00015676138414060772 0 0.0047855175308057175 -0.00015011560744068598 0 0.0047873935672469396 -0.00016555085694480276 0 0.0047855175308057175 -0.00015011560744068598 0 0.0048077127796154889 -0.00015856293106348415 0 0.0047855175308057175 -0.00015011560744068598 0 0.0048077127796154889 -0.00015856293106348415 0 0.0048021565091858039 -0.00014665656009715149 0 0.0048148716952316319 -0.00015095020251367825 0 0.0048077127796154889 -0.00015856293106348415 0 0.0048021565091858039 -0.00014665656009715149 0 0.0048108063031258204 -0.00013633804502118251 0 0.0047890437601387599 -0.00013066626324812299 0 0.0048021565091858039 -0.00014665656009715149 0 0.0048108063031258204 -0.00013633804502118251 0 0.0047890437601387599 -0.00013066626324812299 0 0.004806012263054874 -0.00011974118584250766 0 0.0047890437601387599 -0.00013066626324812299 0 0.0047855175308057175 -0.00015011560744068598 0 0.0048021565091858039 -0.00014665656009715149 0 0.0048148716952316319 -0.00015095020251367825 0 0.0048108063031258204 -0.00013633804502118251 0 0.0048021565091858039 -0.00014665656009715149 0 0.0048230408527821711 -0.00010199886697768845 0 0.004806012263054874 -0.00011974118584250766 0 0.0047909078154773285 -0.00010051267832228715 0 0.0047890437601387599 -0.00013066626324812299 0 0.004806012263054874 -0.00011974118584250766 0 0.0047909078154773285 -0.00010051267832228715 0 0.004767435915148251 -0.00011536449916102165 0 0.0047909078154773285 -0.00010051267832228715 0 0.0047636064313460683 -9.1728489100806527e-05 0 0.0047890437601387599 -0.00013066626324812299 0 0.004767435915148251 -0.00011536449916102165 0 0.0047909078154773285 -0.00010051267832228715 0 0.0047909078154773285 -0.00010051267832228715 0 0.0047766638392041146 -7.1936926186181565e-05 0 0.0047636064313460683 -9.1728489100806527e-05 0 0.0047909078154773285 -0.00010051267832228715 0 0.0047998880328776689 -6.8199109663322316e-05 0 0.0047766638392041146 -7.1936926186181565e-05 0 0.0048230408527821711 -0.00010199886697768845 0 0.0047909078154773285 -0.00010051267832228715 0 0.0047998880328776689 -6.8199109663322316e-05 0 0.0047998880328776689 -6.8199109663322316e-05 0 0.0047766638392041146 -7.1936926186181565e-05 0 0.0047737558739015329 -3.473421972355479e-05 0 0.0047766638392041146 -7.1936926186181565e-05 0 0.0047737558739015329 -3.473421972355479e-05 0 0.0047552803083407043 -6.3342386802263888e-05 0 0.0047766638392041146 -7.1936926186181565e-05 0 0.0047552803083407043 -6.3342386802263888e-05 0 0.0047636064313460683 -9.1728489100806527e-05 0 0.0047332222467956651 0.00010512054184512321 0 0.004691619067847836 1.715662110881063e-05 0 0.0046814458641945833 8.9308711339642754e-05 0 0.004691619067847836 1.715662110881063e-05 0 0.0046355497536339331 9.4527749634780111e-05 0 0.0046814458641945833 8.9308711339642754e-05 0 0.0046649580402936654 -8.6947132480638824e-05 0 0.004526672622497647 -9.8946137212442523e-05 0 0.0047285676547179651 -4.397520786338724e-05 0 0.0046970350367983521 -4.3475216242506126e-05 0 0.0047237664935767905 -2.0499106452500899e-05 0 0.0047285676547179651 -4.397520786338724e-05 0 0.0047466963567449928 -2.9940379446806144e-05 0 0.0047237664935767905 -2.0499106452500899e-05 0 0.0047737558739015329 -3.473421972355479e-05 0 0.0047552803083407043 -6.3342386802263888e-05 0 0.0047466963567449928 -2.9940379446806144e-05 0 0.0047285676547179651 -4.397520786338724e-05 0 0.0047552803083407043 -6.3342386802263888e-05 0 0.0047466963567449928 -2.9940379446806144e-05 0 0.0047552803083407043 -6.3342386802263888e-05 0 0.0047329342009672423 -6.7144790419167868e-05 0 0.0047375953332704016 -8.9305126169871208e-05 0 0.0047285676547179651 -4.397520786338724e-05 0 0.0047552803083407043 -6.3342386802263888e-05 0 0.0047329342009672423 -6.7144790419167868e-05 0 0.0047285676547179651 -4.397520786338724e-05 0 0.0047329342009672423 -6.7144790419167868e-05 0 0.0047110670235605469 -6.312466119881502e-05 0 0.0047329342009672423 -6.7144790419167868e-05 0 0.0047135765279192054 -8.4127951514626547e-05 0 0.0047110670235605469 -6.312466119881502e-05 0 0.0047329342009672423 -6.7144790419167868e-05 0 0.0047375953332704016 -8.9305126169871208e-05 0 0.0047135765279192054 -8.4127951514626547e-05 0 0.0047375953332704016 -8.9305126169871208e-05 0 0.0047201268864224787 -0.0001006432261049494 0 0.0047342548230888395 -0.00010772289993022523 0 0.0047375953332704016 -8.9305126169871208e-05 0 0.0047491787571122112 -0.00010583963281939216 0 0.0047342548230888395 -0.00010772289993022523 0 0.0047375953332704016 -8.9305126169871208e-05 0 0.0047201268864224787 -0.0001006432261049494 0 0.0047135765279192054 -8.4127951514626547e-05 0 0.0047375953332704016 -8.9305126169871208e-05 0 0.0047636064313460683 -9.1728489100806527e-05 0 0.0047491787571122112 -0.00010583963281939216 0 0.0047552803083407043 -6.3342386802263888e-05 0 0.0047375953332704016 -8.9305126169871208e-05 0 0.0047636064313460683 -9.1728489100806527e-05 0 0.0047442086857564254 -0.00012368054511869295 0 0.004767435915148251 -0.00011536449916102165 0 0.0047491787571122112 -0.00010583963281939216 0 0.004767435915148251 -0.00011536449916102165 0 0.0047636064313460683 -9.1728489100806527e-05 0 0.0047491787571122112 -0.00010583963281939216 0 0.0047442086857564254 -0.00012368054511869295 0 0.0047491787571122112 -0.00010583963281939216 0 0.0047342548230888395 -0.00010772289993022523 0 0.0047201268864224787 -0.0001006432261049494 0 0.0047342548230888395 -0.00010772289993022523 0 0.0047232748658244793 -0.00011915333753397115 0 0.0047442086857564254 -0.00012368054511869295 0 0.0047342548230888395 -0.00010772289993022523 0 0.0047232748658244793 -0.00011915333753397115 0 0.0047094997851212369 -0.00012824582581383187 0 0.0047232748658244793 -0.00011915333753397115 0 0.0047062483866264901 -0.00011361241632834078 0 0.0047201268864224787 -0.0001006432261049494 0 0.0047232748658244793 -0.00011915333753397115 0 0.0047062483866264901 -0.00011361241632834078 0 0.0047201268864224787 -0.0001006432261049494 0 0.0047062483866264901 -0.00011361241632834078 0 0.0047020189273477451 -9.9403005131784615e-05 0 0.0047062483866264901 -0.00011361241632834078 0 0.0046850780802662724 -0.00010915417059167736 0 0.0047020189273477451 -9.9403005131784615e-05 0 0.0047062483866264901 -0.00011361241632834078 0 0.0046978116782892109 -0.00012170222636126034 0 0.0046850780802662724 -0.00010915417059167736 0 0.0047094997851212369 -0.00012824582581383187 0 0.0047062483866264901 -0.00011361241632834078 0 0.0046978116782892109 -0.00012170222636126034 0 0.0046903373631056256 -0.00013593673673962931 0 0.0046978116782892109 -0.00012170222636126034 0 0.0046850780802662724 -0.00010915417059167736 0 0.0046850780802662724 -0.00010915417059167736 0 0.0046653262146617615 -0.00012024697563344353 0 0.0046647120150537799 -7.5754169176110681e-05 0 0.0046903373631056256 -0.00013593673673962931 0 0.0046850780802662724 -0.00010915417059167736 0 0.0046688043971335937 -0.0001227916939100488 0 0.0046850780802662724 -0.00010915417059167736 0 0.0046688043971335937 -0.0001227916939100488 0 0.0046653262146617615 -0.00012024697563344353 0 0.0046850780802662724 -0.00010915417059167736 0 0.0046931963899776215 -7.9490239831938054e-05 0 0.0046647120150537799 -7.5754169176110681e-05 0 0.0046850780802662724 -0.00010915417059167736 0 0.0046931963899776215 -7.9490239831938054e-05 0 0.0047020189273477451 -9.9403005131784615e-05 0 0.0046931963899776215 -7.9490239831938054e-05 0 0.0047135765279192054 -8.4127951514626547e-05 0 0.0047020189273477451 -9.9403005131784615e-05 0 0.0047201268864224787 -0.0001006432261049494 0 0.0047135765279192054 -8.4127951514626547e-05 0 0.0047020189273477451 -9.9403005131784615e-05 0 0.0041014865546136047 -0.00010647348253891845 0 0.0040954544459927784 -0.00010795679282237692 0 0.0040980171844624651 -0.00010806664920134914 0 0.0041004187128245934 -0.00010893289276309612 0 0.0041014865546136047 -0.00010647348253891845 0 0.0040980171844624651 -0.00010806664920134914 0 0.0039468250448086309 -3.5453367419683167e-05 0 0.0038903382174115923 9.8373908756164469e-07 0 0.003888892157655849 -0.00012917133860717331 0 0.00448007641969004 -0.00010282867863401525 0 0.0044716000987293069 -7.6220933970335192e-05 0 0.0044888838798398537 -8.7015452952670102e-05 0 0.0044299966931642971 -7.1734627114005569e-05 0 0.0042931243458043614 -1.941925631713855e-05 0 0.0042931243458043614 -1.941925631713855e-05 0 0.00450256514635595 -0.00011203449904488371 0 0.0045646088725517717 -0.0001352886069980068 0 0.00450256514635595 -0.00011203449904488371 0 0.0039468250448086309 -3.5453367419683167e-05 0 0.0039068431792255746 -0.00012515032706991852 0 0.003888892157655849 -0.00012917133860717331 0 0.0039468250448086309 -3.5453367419683167e-05 0 0.0039608367658797205 -9.6538739414820255e-05 0 0.0039068431792255746 -0.00012515032706991852 0 0.00450256514635595 -0.00011203449904488371 0 0.0042630675554365879 -8.2659847816706701e-05 0 0.0039608367658797205 -9.6538739414820255e-05 0 0.0039909731212487967 -0.00015165673343992957 0 0.0039068431792255746 -0.00012515032706991852 0 0.003936395092816296 -1.5984381718746572e-05 0 0.0040093745858645847 -7.6782350245949401e-05 0 0.004091551470602881 -0.00011006722083766215 0 0.0041014865546136047 -0.00010647348253891845 0 0.0040954544459927784 -0.00010795679282237692 0 0.004091551470602881 -0.00011006722083766215 0 0.0042931243458043614 -1.941925631713855e-05 0 0.0041786185004745336 -5.8476877273028066e-06 0 0.0039468250448086309 -3.5453367419683167e-05 0 0.0039608367658797205 -9.6538739414820255e-05 0 0.0040093745858645847 -7.6782350245949401e-05 0 0.0042931243458043614 -1.941925631713855e-05 0 0.0042346777283429025 4.8531750052591042e-06 0 0.0039608367658797205 -9.6538739414820255e-05 0 0.0040093745858645847 -7.6782350245949401e-05 0 0.0039909731212487967 -0.00015165673343992957 0 0.0040093745858645847 -7.6782350245949401e-05 0 0.0039909731212487967 -0.00015165673343992957 0 0.0040560779868803257 -0.00013274255611738569 0 0.0038663541273681566 -0.00011322188929787338 0 0.0038623133789836184 -9.2375346372357427e-05 0 0.0038402665860240502 -0.00012378301920603688 0 0.0038670995575286319 -0.00012922266257387596 0 0.0038853591235900133 -0.00011693817190289182 0 0.0039068431792255746 -0.00012515032706991852 0 0.0038663541273681566 -0.00011322188929787338 0 0.0038670995575286319 -0.00012922266257387596 0 0.0038402665860240502 -0.00012378301920603688 0 0.0038613532855052376 -0.00012348671646777342 0 0.0038780536622944435 -0.00012640077119598726 0 0.0038663541273681566 -0.00011322188929787338 0 0.0038853591235900133 -0.00011693817190289182 0 0.0038791126310980546 -0.00010402722793375302 0 0.0038663541273681566 -0.00011322188929787338 0 0.0038670995575286319 -0.00012922266257387596 0 0.0038853591235900133 -0.00011693817190289182 0 0.0038853591235900133 -0.00011693817190289182 0 0.0038947329786695305 -0.00010916062550256017 0 0.0038791126310980546 -0.00010402722793375302 0 0.0038853591235900133 -0.00011693817190289182 0 0.0038956255952242529 -0.00012149267128840024 0 0.0038947329786695305 -0.00010916062550256017 0 0.0038853591235900133 -0.00011693817190289182 0 0.0039068431792255746 -0.00012515032706991852 0 0.0038956255952242529 -0.00012149267128840024 0 0.0039068431792255746 -0.00012515032706991852 0 0.0038956255952242529 -0.00012149267128840024 0 0.003888892157655849 -0.00012917133860717331 0 0.0038956255952242529 -0.00012149267128840024 0 0.003888892157655849 -0.00012917133860717331 0 0.0038947329786695305 -0.00010916062550256017 0 0.0042630675554365879 -8.2659847816706701e-05 0 0.0040110458171058192 -4.2479275008246262e-05 0 0.003888892157655849 -0.00012917133860717331 0 0.0038947329786695305 -0.00010916062550256017 0 0.0039110654966297851 -8.6992439242811634e-05 0 0.0038947329786695305 -0.00010916062550256017 0 0.0038854367803474159 -9.2275735223958856e-05 0 0.0039110654966297851 -8.6992439242811634e-05 0 0.0038947329786695305 -0.00010916062550256017 0 0.0038854367803474159 -9.2275735223958856e-05 0 0.0038791126310980546 -0.00010402722793375302 0 0.0038663541273681566 -0.00011322188929787338 0 0.0038791126310980546 -0.00010402722793375302 0 0.0038623133789836184 -9.2375346372357427e-05 0 0.0038854367803474159 -9.2275735223958856e-05 0 0.0038791126310980546 -0.00010402722793375302 0 0.0038623133789836184 -9.2375346372357427e-05 0 0.0038854367803474159 -9.2275735223958856e-05 0 0.0038623133789836184 -9.2375346372357427e-05 0 0.0038772675528270049 -6.7983215014689622e-05 0 0.0046931963899776215 -7.9490239831938054e-05 0 0.0047110670235605469 -6.312466119881502e-05 0 0.0046970350367983521 -4.3475216242506126e-05 0 0.0046931963899776215 -7.9490239831938054e-05 0 0.0047135765279192054 -8.4127951514626547e-05 0 0.0047110670235605469 -6.312466119881502e-05 0 0.0046931963899776215 -7.9490239831938054e-05 0 0.0046647120150537799 -7.5754169176110681e-05 0 0.0046970350367983521 -4.3475216242506126e-05 0 0.0046647120150537799 -7.5754169176110681e-05 0 0.0046970350367983521 -4.3475216242506126e-05 0 0.0046627338126205928 -3.0454731026689662e-05 0 0.0047285676547179651 -4.397520786338724e-05 0 0.0047110670235605469 -6.312466119881502e-05 0 0.0046970350367983521 -4.3475216242506126e-05 0 0.0046970350367983521 -4.3475216242506126e-05 0 0.004704140503694095 7.4142887785465057e-06 0 0.0046627338126205928 -3.0454731026689662e-05 0 0.0046970350367983521 -4.3475216242506126e-05 0 0.004704140503694095 7.4142887785465057e-06 0 0.0047237664935767905 -2.0499106452500899e-05 0 0.0046611575464001725 1.6548107200100533e-05 0 0.004704140503694095 7.4142887785465057e-06 0 0.0046627338126205928 -3.0454731026689662e-05 0 0.0035349345346017344 7.0454849062499067e-06 0 0.0040051869142201093 -9.8614627331865533e-05 0 0.0031346156478047364 -0.00016633252589395674 0 0.0034281849331084572 -0.00023229717052737904 0 0.0033313519392018996 -0.0001260984872528021 0 0.0038772675528270049 -6.7983215014689622e-05 0 0.0038298337607170349 -2.5987546138811428e-05 0 0.0037750677621351957 -6.4715070680478227e-05 0 0.0038623133789836184 -9.2375346372357427e-05 0 0.0038772675528270049 -6.7983215014689622e-05 0 0.0038309958741155536 -6.5856361421415231e-05 0 0.0036966546938886698 -7.1063404951322401e-05 0 0.0033410003464396983 -4.9957722033769277e-05 0 0.0038772675528270049 -6.7983215014689622e-05 0 0.0039110654966297851 -8.6992439242811634e-05 0 0.0038777543618239603 -2.4493999053814063e-05 0 0.0035349345346017344 7.0454849062499067e-06 0 0.0040110458171058192 -4.2479275008246262e-05 0 0.0038854367803474159 -9.2275735223958856e-05 0 0.0038772675528270049 -6.7983215014689622e-05 0 0.0039110654966297851 -8.6992439242811634e-05 0 0.0039173774053488817 2.8868623806866275e-06 0 0.0039110654966297851 -8.6992439242811634e-05 0 0.0038777543618239603 -2.4493999053814063e-05 0 0.0039173774053488817 2.8868623806866275e-06 0 0.0038777543618239603 -2.4493999053814063e-05 0 0.0038491770849522606 2.1466042319416151e-05 0 0.0038772675528270049 -6.7983215014689622e-05 0 0.0038777543618239603 -2.4493999053814063e-05 0 0.0038298337607170349 -2.5987546138811428e-05 0 0.0038777543618239603 -2.4493999053814063e-05 0 0.0038298337607170349 -2.5987546138811428e-05 0 0.0038491770849522606 2.1466042319416151e-05 0 0.0024854249435649024 9.041950114387602e-05 0 0.0024765813301403658 0.00013048870881764 0 0.002439473989748993 0.00010046058119953016 0 0.0038298337607170349 -2.5987546138811428e-05 0 0.0038491770849522606 2.1466042319416151e-05 0 0.0037742425704614915 3.8930678444368571e-05 0 0.0025320064016575244 8.0325547264302141e-05 0 0.0024854249435649024 9.041950114387602e-05 0 0.0025314662365922892 0.00013573161242031562 0 0.0035349345346017344 7.0454849062499067e-06 0 0.0031165347777786711 8.5343042327479127e-05 0 0.0024765813301403658 0.00013048870881764 0 0.0025314662365922892 0.00013573161242031562 0 0.0024815743104950349 0.00017436801732378986 0 0.0024854249435649024 9.041950114387602e-05 0 0.0024765813301403658 0.00013048870881764 0 0.0025314662365922892 0.00013573161242031562 0 0.0034281849331084572 -0.00023229717052737904 0 0.0033872311744579785 -8.3775224231228153e-05 0 0.0035817918937193507 -0.00011399574935731021 0 0.0033895870512574448 -1.3368716014589499e-05 0 0.0033872311744579785 -8.3775224231228153e-05 0 0.0035817918937193507 -0.00011399574935731021 0 0.0033895870512574448 -1.3368716014589499e-05 0 0.0034323179594226306 6.8486375378145581e-05 0 0.0035817918937193507 -0.00011399574935731021 0 0.0033167901207032022 -3.7175706530148279e-05 0 0.0033848543060199412 -1.8754849838713057e-05 0 0.003291638655968137 6.2897621618732987e-05 0 0.0033167901207032022 -3.7175706530148279e-05 0 0.0033848543060199412 -1.8754849838713057e-05 0 0.0033313519392018996 -0.0001260984872528021 0 0.0031249034741827183 3.0511183896041447e-05 0 0.0031287256253436013 2.5603491461925533e-05 0 0.0034281849331084572 -0.00023229717052737904 0 0.0033313519392018996 -0.0001260984872528021 0 0.0033872311744579785 -8.3775224231228153e-05 0 0.0031249034741827183 3.0511183896041447e-05 0 0.0031354640903467194 2.4472662777966744e-05 0 0.0033892604047682318 -1.3311376560387478e-05 0 0.0033313519392018996 -0.0001260984872528021 0 0.0033872311744579785 -8.3775224231228153e-05 0 0.0035349345346017344 7.0454849062499067e-06 0 0.0029680753760127554 0.00010111175657569055 0 0.0031346156478047364 -0.00016633252589395674 0 0.00324707909075149 -3.5357127925367396e-05 0 0.0031441215068311783 0.00011488706441549501 0 0.0031346156478047364 -0.00016633252589395674 0 0.0033313519392018996 -0.0001260984872528021 0 0.00324707909075149 -3.5357127925367396e-05 0 0.0033167901207032022 -3.7175706530148279e-05 0 0.00324707909075149 -3.5357127925367396e-05 0 0.003291638655968137 6.2897621618732987e-05 0 0.0033167901207032022 -3.7175706530148279e-05 0 0.0033313519392018996 -0.0001260984872528021 0 0.00324707909075149 -3.5357127925367396e-05 0 0.003291638655968137 6.2897621618732987e-05 0 0.0031441215068311783 0.00011488706441549501 0 0.0032691508605256743 0.00024857101013568369 0 0.00324707909075149 -3.5357127925367396e-05 0 0.003291638655968137 6.2897621618732987e-05 0 0.0031441215068311783 0.00011488706441549501 0 0.0029048786995085323 0.0001795811119802268 0 0.0029160550556309008 0.00016561103214749622 0 0.0028682656080064504 0.00011058667203856281 0 0.003291638655968137 6.2897621618732987e-05 0 0.0033879526380526616 0.00010398103313619178 0 0.0032691508605256743 0.00024857101013568369 0 0.003018729256714136 6.7096531755612114e-05 0 0.0027647658283247107 9.7596076943336934e-05 0 0.0033848543060199412 -1.8754849838713057e-05 0 0.003291638655968137 6.2897621618732987e-05 0 0.0033879526380526616 0.00010398103313619178 0 0.0030334928371752619 0.00013196869344982607 0 0.0029584703176600193 -1.0952260521965401e-05 0 0.0030254160727243521 -9.3704372606192654e-05 0 0.0031249034741827183 3.0511183896041447e-05 0 0.003018729256714136 6.7096531755612114e-05 0 0.0031249034741827183 3.0511183896041447e-05 0 0.0031905273183122649 4.3914924111235844e-05 0 0.0031905273183122649 4.3914924111235844e-05 0 0.003018729256714136 6.7096531755612114e-05 0 0.0045949411567987007 0.00018580117769657447 0 0.0046125689866428213 0.00018746699689353654 0 0.0046072662019048648 0.00020248049604510134 0 0.0031905273183122649 4.3914924111235844e-05 0 0.0034270307764519372 0.00020286200790471914 0 0.0045949411567987007 0.00018580117769657447 0 0.0046125689866428213 0.00018746699689353654 0 0.0046059131339837665 0.00017110386058523036 0 0.0031905273183122649 4.3914924111235844e-05 0 0.0038079215505635216 -8.5059156205607002e-05 0 0.0046125689866428213 0.00018746699689353654 0 0.0046059131339837665 0.00017110386058523036 0 0.0046275615674017268 0.00017978251827580974 0 0.0046059131339837665 0.00017110386058523036 0 0.0046275615674017268 0.00017978251827580974 0 0.0046256583010610237 0.00016415457317911668 0 0.0046125689866428213 0.00018746699689353654 0 0.0046275615674017268 0.00017978251827580974 0 0.004627091711950658 0.00019600730917135943 0 0.0046125689866428213 0.00018746699689353654 0 0.004627091711950658 0.00019600730917135943 0 0.0046072662019048648 0.00020248049604510134 0 0.004627091711950658 0.00019600730917135943 0 0.0046433513519680775 0.00018714674475686413 0 0.0046463141232904528 0.00019846345368376123 0 0.0046275615674017268 0.00017978251827580974 0 0.004627091711950658 0.00019600730917135943 0 0.0046433513519680775 0.00018714674475686413 0 0.0046601076771508633 0.00019250408045173525 0 0.0046634698610833417 0.00018437183130250008 0 0.0046463141232904528 0.00019846345368376123 0 0.0046433513519680775 0.00018714674475686413 0 0.0046634698610833417 0.00018437183130250008 0 0.0046463141232904528 0.00019846345368376123 0 0.0046433513519680775 0.00018714674475686413 0 0.0046634698610833417 0.00018437183130250008 0 0.00464965935402579 0.00017131609244392729 0 0.0046915395994731922 0.00017148572568992523 0 0.0046634698610833417 0.00018437183130250008 0 0.00464965935402579 0.00017131609244392729 0 0.0046275615674017268 0.00017978251827580974 0 0.0046433513519680775 0.00018714674475686413 0 0.00464965935402579 0.00017131609244392729 0 0.0046275615674017268 0.00017978251827580974 0 0.00464965935402579 0.00017131609244392729 0 0.0046256583010610237 0.00016415457317911668 0 0.00464965935402579 0.00017131609244392729 0 0.0046250998401171127 0.00014635404827636133 0 0.0046256583010610237 0.00016415457317911668 0 0.00464965935402579 0.00017131609244392729 0 0.0046250998401171127 0.00014635404827636133 0 0.0046653207851608388 0.00013506062786858229 0 0.0046915395994731922 0.00017148572568992523 0 0.00464965935402579 0.00017131609244392729 0 0.0046653207851608388 0.00013506062786858229 0 0.0047332222467956651 0.00010512054184512321 0 0.0046915395994731922 0.00017148572568992523 0 0.0046653207851608388 0.00013506062786858229 0 0.0047332222467956651 0.00010512054184512321 0 0.0046814458641945833 8.9308711339642754e-05 0 0.0046653207851608388 0.00013506062786858229 0 0.0046355497536339331 9.4527749634780111e-05 0 0.0046814458641945833 8.9308711339642754e-05 0 0.0046653207851608388 0.00013506062786858229 0 0.0046355497536339331 9.4527749634780111e-05 0 0.0046250998401171127 0.00014635404827636133 0 0.0046653207851608388 0.00013506062786858229 0 0.0047737558739015329 -3.473421972355479e-05 0 0.0047466963567449928 -2.9940379446806144e-05 0 0.0047463016468185116 -1.599024699259638e-06 0 0.0046355497536339331 9.4527749634780111e-05 0 0.0046250998401171127 0.00014635404827636133 0 0.0046013700779991701 0.00015244348597778746 0 0.004526672622497647 -9.8946137212442523e-05 0 0.0042396556567764849 -0.00015307036782555693 0 0.0047466963567449928 -2.9940379446806144e-05 0 0.0047237664935767905 -2.0499106452500899e-05 0 0.0047463016468185116 -1.599024699259638e-06 0 0.0034281849331084572 -0.00023229717052737904 0 0.0035817918937193507 -0.00011399574935731021 0 0.0037330273163407677 -0.00029879343002732728 0 0.0040051869142201093 -9.8614627331865533e-05 0 0.0042396556567764849 -0.00015307036782555693 0 0.0038079215505635216 -8.5059156205607002e-05 0 0.0042396556567764849 -0.00015307036782555693 0 0.004704140503694095 7.4142887785465057e-06 0 0.0047237664935767905 -2.0499106452500899e-05 0 0.0047463016468185116 -1.599024699259638e-06 0 0.0046059131339837665 0.00017110386058523036 0 0.0046256583010610237 0.00016415457317911668 0 0.0046165024663084656 0.00015206705270090064 0 0.0046250998401171127 0.00014635404827636133 0 0.0046256583010610237 0.00016415457317911668 0 0.0046165024663084656 0.00015206705270090064 0 0.0042872785760056775 -0.00014814243412935072 0 0.0042396556567764849 -0.00015307036782555693 0 0.0031065308000669425 9.5163328104262763e-05 0 0.0030598845742991149 0.00013864717664508914 0 0.0030594950207386844 4.8084899228159134e-05 0 0.0031065308000669425 9.5163328104262763e-05 0 0.0031407148492205877 8.2373416016811812e-05 0 0.0030594950207386844 4.8084899228159134e-05 0 0.0031065308000669425 9.5163328104262763e-05 0 0.0030598845742991149 0.00013864717664508914 0 0.003154360589909084 0.00011091449912078977 0 0.0029901949903392696 0.00010200924123086087 0 0.0030598845742991149 0.00013864717664508914 0 0.0029355962042820929 0.00015854793365769213 0 0.0029901949903392696 0.00010200924123086087 0 0.0030594950207386844 4.8084899228159134e-05 0 0.0028985791911132612 6.1451224993171668e-05 0 0.0029901949903392696 0.00010200924123086087 0 0.0030598845742991149 0.00013864717664508914 0 0.0030594950207386844 4.8084899228159134e-05 0 0.0033150952835555845 6.9147547548804387e-05 0 0.0032510531415539693 0.00012741745168953921 0 0.0033840458222341402 0.00011835748537510665 0 0.0031558061856136409 0.00010151853172642127 0 0.0031619434996195783 8.5006342674765725e-05 0 0.0033150952835555845 6.9147547548804387e-05 0 0.0032359116289027022 7.3132066915354433e-05 0 0.0032510531415539693 0.00012741745168953921 0 0.0031558061856136409 0.00010151853172642127 0 0.0031552519809094422 0.00010463314112908854 0 0.0031877033322278794 9.7684871290301933e-05 0 0.0031659208037654899 9.2540635268845712e-05 0 0.0032010449387795577 7.4392774142791973e-05 0 0.0032510531415539693 0.00012741745168953921 0 0.0031877033322278794 9.7684871290301933e-05 0 0.003154360589909084 0.00011091449912078977 0 0.0032359116289027022 7.3132066915354433e-05 0 0.0032510531415539693 0.00012741745168953921 0 0.0031877033322278794 9.7684871290301933e-05 0 0.0032359116289027022 7.3132066915354433e-05 0 0.0031877033322278794 9.7684871290301933e-05 0 0.003226649522128245 1.5020120875265035e-05 0 0.0036650659249683297 5.0221542118317792e-05 0 0.0037716259568194603 -4.6802888135259404e-05 0 0.0031659208037654899 9.2540635268845712e-05 0 0.0031738345764757495 0.00010752664299758687 0 0.003154360589909084 0.00011091449912078977 0 0.0031877033322278794 9.7684871290301933e-05 0 0.0031659208037654899 9.2540635268845712e-05 0 0.003154360589909084 0.00011091449912078977 0 0.0039022303352021621 7.8716228217417796e-06 0 0.0039544542169037853 5.9182058799403433e-05 0 0.0031738345764757495 0.00010752664299758687 0 0.003173742268612962 8.7797018902080083e-05 0 0.003154360589909084 0.00011091449912078977 0 0.003173742268612962 8.7797018902080083e-05 0 0.003154360589909084 0.00011091449912078977 0 0.0031407148492205877 8.2373416016811812e-05 0 0.003173742268612962 8.7797018902080083e-05 0 0.0031407148492205877 8.2373416016811812e-05 0 0.0031565215794129259 5.7391500054130597e-05 0 0.0031065308000669425 9.5163328104262763e-05 0 0.003154360589909084 0.00011091449912078977 0 0.0031407148492205877 8.2373416016811812e-05 0 0.0031407148492205877 8.2373416016811812e-05 0 0.0031565215794129259 5.7391500054130597e-05 0 0.0030594950207386844 4.8084899228159134e-05 0 0.0010982548018002062 0.00042081489977080337 0 0.0011509470509757098 0.00035481297282189631 0 0.0012247096038718289 0.00040090509732806158 0 0.003173742268612962 8.7797018902080083e-05 0 0.0031565215794129259 5.7391500054130597e-05 0 0.0031978716753894828 5.8069970189585051e-05 0 0.0021639045325103114 0.00027248570689028951 0 0.0024803456941576742 0.0003147840984223456 0 0.0010982548018002062 0.00042081489977080337 0 0.0011509470509757098 0.00035481297282189631 0 0.0010874377518612596 0.00031352262549309807 0 0.0010982548018002062 0.00042081489977080337 0 0.0010060329575573906 0.00035153746383819275 0 0.0010874377518612596 0.00031352262549309807 0 0.0021639045325103114 0.00027248570689028951 0 0.0020229808913078697 0.00022991359711475851 0 0.0010982548018002062 0.00042081489977080337 0 0.0010060329575573906 0.00035153746383819275 0 0.0009698857004786527 0.00043373630550982029 0 0.0009698857004786527 0.00043373630550982029 0 0.00093136719033156041 0.00036434584701288693 0 0.00089847689684723531 0.00041068771679462498 0 0.0010060329575573906 0.00035153746383819275 0 0.0009698857004786527 0.00043373630550982029 0 0.00093136719033156041 0.00036434584701288693 0 0.0020229808913078697 0.00022991359711475851 0 0.0019379262116210377 0.00017050842843557767 0 0.0010060329575573906 0.00035153746383819275 0 0.00093136719033156041 0.00036434584701288693 0 0.00094587669569492897 0.00029970160048635333 0 0.00093136719033156041 0.00036434584701288693 0 0.0008901072899622685 0.00031532931367536117 0 0.00094587669569492897 0.00029970160048635333 0 0.00089119357153564138 0.00035513540525837587 0 0.00085571540172072315 0.00033455538877053215 0 0.00089847689684723531 0.00041068771679462498 0 0.00093136719033156041 0.00036434584701288693 0 0.0008901072899622685 0.00031532931367536117 0 0.00089119357153564138 0.00035513540525837587 0 0.0008901072899622685 0.00031532931367536117 0 0.00089119357153564138 0.00035513540525837587 0 0.00085571540172072315 0.00033455538877053215 0 0.00085571540172072315 0.00033455538877053215 0 0.00078961399521716865 0.00032591527675488184 0 0.00089847689684723531 0.00041068771679462498 0 0.00093136719033156041 0.00036434584701288693 0 0.00089119357153564138 0.00035513540525837587 0 0.00089847689684723531 0.00041068771679462498 0 0.00089274217807005097 0.00041766907360598103 0 0.00089218734742227358 0.00041633164080594778 0 0.00089341335500002625 0.00041663126773235505 0 0.00089274217807005097 0.00041766907360598103 0 0.00089341335500002625 0.00041663126773235505 0 0.00089463601398096122 0.00041703624962298642 0 0.0010384537352610579 0.00023334187738785497 0 0.00099150107483775133 0.00027879197278150847 0 0.00089218734742227358 0.00041633164080594778 0 0.0008941388443151427 0.00041655170986292184 0 0.0008882067661326919 0.00042451705159896492 0 0.00089274217807005097 0.00041766907360598103 0 0.00089218734742227358 0.00041633164080594778 0 0.00089847689684723531 0.00041068771679462498 0 0.00089218734742227358 0.00041633164080594778 0 0.00089341335500002625 0.00041663126773235505 0 0.0008941388443151427 0.00041655170986292184 0 0.00089218734742227358 0.00041633164080594778 0 0.00089847689684723531 0.00041068771679462498 0 0.0008882067661326919 0.00042451705159896492 0 0.0009698857004786527 0.00043373630550982029 0 0.00089847689684723531 0.00041068771679462498 0 0.0008882067661326919 0.00042451705159896492 0 0.0024765813301403658 0.00013048870881764 0 0.0024386796781360495 0.00014711650281059639 0 0.002439473989748993 0.00010046058119953016 0 0.002085152952901429 0.0002122892674636182 0 0.0025929603317487414 0.00019378797701382011 0 0.0019262133440618549 0.00027407154797247883 0 0.0019825593260200795 0.00028068375437393289 0 0.0019288187428073401 0.00046918487115149381 0 0.0008960602939035861 0.0004170520673607589 0 0.00089825821664412319 0.00041811815549085645 0 0.00089643876664485919 0.00041676491984303477 0 0.0017054619260136088 0.00028138905520305204 0 0.0020922868821763333 0.00027820431866650881 0 0.00089274217807005097 0.00041766907360598103 0 0.00089825821664412319 0.00041811815549085645 0 0.00089463601398096122 0.00041703624962298642 0 0.0008960602939035861 0.0004170520673607589 0 0.00089825821664412319 0.00041811815549085645 0 0.00089463601398096122 0.00041703624962298642 0 0.0008941388443151427 0.00041655170986292184 0 0.00089643876664485919 0.00041676491984303477 0 0.00089708748530876255 0.00041282818485077836 0 0.0019825593260200795 0.00028068375437393289 0 0.0020089096042773228 0.00045189267625053356 0 0.0019288187428073401 0.00046918487115149381 0 0.0020922868821763333 0.00027820431866650881 0 0.0020736310485965801 2.266534301963838e-05 0 0.0026947678454682634 -3.1652915867828383e-05 0 0.0026329643502048272 -1.8273849613033223e-05 0 0.0026768516417914612 9.1681869282632562e-05 0 0.00089341335500002625 0.00041663126773235505 0 0.00089476399332156717 0.00041674239284157595 0 0.0008941388443151427 0.00041655170986292184 0 0.0008960602939035861 0.0004170520673607589 0 0.00089476399332156717 0.00041674239284157595 0 0.00089643876664485919 0.00041676491984303477 0 0.00089341335500002625 0.00041663126773235505 0 0.00089463601398096122 0.00041703624962298642 0 0.00089476399332156717 0.00041674239284157595 0 0.0008960602939035861 0.0004170520673607589 0 0.00089463601398096122 0.00041703624962298642 0 0.00089476399332156717 0.00041674239284157595 0 0.00089476399332156717 0.00041674239284157595 0 0.0008941388443151427 0.00041655170986292184 0 0.00089643876664485919 0.00041676491984303477 0 0.0031165347777786711 8.5343042327479127e-05 0 0.0025929603317487414 0.00019378797701382011 0 0.0020922868821763333 0.00027820431866650881 0 0.0025929603317487414 0.00019378797701382011 0 0.0025929603317487414 0.00019378797701382011 0 0.0033410003464396983 -4.9957722033769277e-05 0 0.0038298337607170349 -2.5987546138811428e-05 0 0.0037742425704614915 3.8930678444368571e-05 0 0.0037750677621351957 -6.4715070680478227e-05 0 0.0026329643502048272 -1.8273849613033223e-05 0 0.0026768516417914612 9.1681869282632562e-05 0 0.0026364493771373772 0.00018449845040832395 0 0.0026947678454682634 -3.1652915867828383e-05 0 0.0026768516417914612 9.1681869282632562e-05 0 0.0027124881120340447 8.5237830763069771e-05 0 0.0020736310485965801 2.266534301963838e-05 0 0.0021118744165841649 5.7300883022132313e-05 0 0.0026768516417914612 9.1681869282632562e-05 0 0.0027128633424224028 8.5207890991832966e-05 0 0.0027251191089458886 0.00016437544072404588 0 0.0021001457220017829 1.9957192277386157e-05 0 0.0020736310485965801 2.266534301963838e-05 0 0.0027148766910574914 8.8633188344674617e-05 0 0.0027251191089458886 0.00016437544072404588 0 0.0027986007085667747 0.00012319114108893126 0 0.0033410003464396983 -4.9957722033769277e-05 0 0.0031918190338321769 4.3053468649966053e-05 0 0.0027251191089458886 0.00016437544072404588 0 0.0026364493771373772 0.00018449845040832395 0 0.0027907596549547084 0.00017338372119535728 0 0.0036248806371375186 9.5907024783118268e-05 0 0.0035059873117863271 0.00010597089656665854 0 0.0035633275836483829 4.7285140084172112e-05 0 0.0027251191089458886 0.00016437544072404588 0 0.0027986007085667747 0.00012319114108893126 0 0.0027907596549547084 0.00017338372119535728 0 0.0035059873117863271 0.00010597089656665854 0 0.0035043428447631515 3.1453838131733204e-05 0 0.0035633275836483829 4.7285140084172112e-05 0 0.0026768516417914612 9.1681869282632562e-05 0 0.0027251191089458886 0.00016437544072404588 0 0.0026364493771373772 0.00018449845040832395 0 0.0036248806371375186 9.5907024783118268e-05 0 0.0036247696303447772 8.5055721488249141e-06 0 0.0035633275836483829 4.7285140084172112e-05 0 0.0033410003464396983 -4.9957722033769277e-05 0 0.0035591583771859923 -6.4998336925143577e-05 0 0.0029901949903392696 0.00010200924123086087 0 0.0028985791911132612 6.1451224993171668e-05 0 0.0029355962042820929 0.00015854793365769213 0 0.0028985791911132612 6.1451224993171668e-05 0 0.0028608969661340087 0.00013087293617239577 0 0.0029355962042820929 0.00015854793365769213 0 0.0008941388443151427 0.00041655170986292184 0 0.00089708748530876255 0.00041282818485077836 0 0.0008882067661326919 0.00042451705159896492 0 0.0020736310485965801 2.266534301963838e-05 0 0.0019379262116210377 0.00017050842843557767 0 0.0027148766910574914 8.8633188344674617e-05 0 0.0028985791911132612 6.1451224993171668e-05 0 0.0027986007085667747 0.00012319114108893126 0 0.0027986007085667747 0.00012319114108893126 0 0.0028608969661340087 0.00013087293617239577 0 0.0027907596549547084 0.00017338372119535728 0 0.0028985791911132612 6.1451224993171668e-05 0 0.0027986007085667747 0.00012319114108893126 0 0.0028608969661340087 0.00013087293617239577 0 0.0031918190338321769 4.3053468649966053e-05 0 0.0031619434996195783 8.5006342674765725e-05 0 0.0035059873117863271 0.00010597089656665854 0 0.0034571213160925415 7.1362233374068496e-05 0 0.0033840458222341402 0.00011835748537510665 0 0.0028608969661340087 0.00013087293617239577 0 0.0027907596549547084 0.00017338372119535728 0 0.0029355962042820929 0.00015854793365769213 0 0.0035059873117863271 0.00010597089656665854 0 0.0034571213160925415 7.1362233374068496e-05 0 0.0035043428447631515 3.1453838131733204e-05 0 0.0033840458222341402 0.00011835748537510665 0 0.0033666102257464848 3.4463187941480601e-05 0 0.0034329982046927476 3.0613979884135292e-05 0 0.0034571213160925415 7.1362233374068496e-05 0 0.0033840458222341402 0.00011835748537510665 0 0.0034329982046927476 3.0613979884135292e-05 0 0.0033150952835555845 6.9147547548804387e-05 0 0.0033840458222341402 0.00011835748537510665 0 0.0033666102257464848 3.4463187941480601e-05 0 0.0033719184237877174 -3.2155828174910696e-05 0 0.0034329982046927476 3.0613979884135292e-05 0 0.0034982655748220046 -5.4883059783713912e-05 0 0.0033666102257464848 3.4463187941480601e-05 0 0.0033719184237877174 -3.2155828174910696e-05 0 0.0034329982046927476 3.0613979884135292e-05 0 0.0034329982046927476 3.0613979884135292e-05 0 0.0035043428447631515 3.1453838131733204e-05 0 0.0034982655748220046 -5.4883059783713912e-05 0 0.0034571213160925415 7.1362233374068496e-05 0 0.0034329982046927476 3.0613979884135292e-05 0 0.0035043428447631515 3.1453838131733204e-05 0 0.0033719184237877174 -3.2155828174910696e-05 0 0.003420733487139564 -0.00014145579426895838 0 0.0032944869815160318 -0.00011586539678384087 0 0.0033719184237877174 -3.2155828174910696e-05 0 0.0035199256332254557 -5.9101969537343207e-05 0 0.003420733487139564 -0.00014145579426895838 0 0.0034713410475706681 -5.1015904921892057e-05 0 0.003548123830490379 -6.6012584807866471e-05 0 0.0038623133789836184 -9.2375346372357427e-05 0 0.0038309958741155536 -6.5856361421415231e-05 0 0.0038308830940085676 -9.4981674375855225e-05 0 0.0036247696303447772 8.5055721488249141e-06 0 0.003563108995740969 -9.3586689731053496e-06 0 0.0036245760198575583 -7.9074061159600166e-05 0 0.0038623133789836184 -9.2375346372357427e-05 0 0.0038308830940085676 -9.4981674375855225e-05 0 0.0038350136361074575 -0.00012563838190299655 0 0.0038054964893654069 -9.1290342154298019e-05 0 0.0037780315651547987 -0.00010715401020086763 0 0.0035043428447631515 3.1453838131733204e-05 0 0.0034982655748220046 -5.4883059783713912e-05 0 0.003563108995740969 -9.3586689731053496e-06 0 0.0036247696303447772 8.5055721488249141e-06 0 0.003563108995740969 -9.3586689731053496e-06 0 0.0035633275836483829 4.7285140084172112e-05 0 0.0035043428447631515 3.1453838131733204e-05 0 0.003563108995740969 -9.3586689731053496e-06 0 0.0035633275836483829 4.7285140084172112e-05 0 0.0035199256332254557 -5.9101969537343207e-05 0 0.0036648436944760349 -0.00010854446871361729 0 0.0036649587487743896 -8.7184498150164752e-05 0 0.0034982655748220046 -5.4883059783713912e-05 0 0.003563108995740969 -9.3586689731053496e-06 0 0.0036245760198575583 -7.9074061159600166e-05 0 0.003548123830490379 -6.6012584807866471e-05 0 0.0037377903055063623 -0.00010361659442430533 0 0.0035591583771859923 -6.4998336925143577e-05 0 0.0037377903055063623 -0.00010361659442430533 0 0.0038308830940085676 -9.4981674375855225e-05 0 0.0038305855046207797 -0.00012476784231973373 0 0.0038350136361074575 -0.00012563838190299655 0 0.0039909731212487967 -0.00015165673343992957 0 0.0040861668972327868 -0.00017163975471802469 0 0.0040560779868803257 -0.00013274255611738569 0 0.0038613532855052376 -0.00012348671646777342 0 0.0037780315651547987 -0.00010715401020086763 0 0.0038067724872847546 -4.2848607635975729e-05 0 0.0038056594344030416 -0.00024797479257774609 0 0.0036627223279106589 -0.00022011198814059088 0 0.003768830904978994 -0.0001171515999900268 0 0.0037780315651547987 -0.00010715401020086763 0 0.003768830904978994 -0.0001171515999900268 0 0.0037377903055063623 -0.00010361659442430533 0 0.0037377903055063623 -0.00010361659442430533 0 0.0037780315651547987 -0.00010715401020086763 0 0.0041016377027369381 -0.00015205985314523267 0 0.0040861668972327868 -0.00017163975471802469 0 0.0040560779868803257 -0.00013274255611738569 0 0.0035199256332254557 -5.9101969537343207e-05 0 0.0036648436944760349 -0.00010854446871361729 0 0.0035514892493308859 -0.0002478002439885704 0 0.0040093745858645847 -7.6782350245949401e-05 0 0.0040560779868803257 -0.00013274255611738569 0 0.004091551470602881 -0.00011006722083766215 0 0.003768830904978994 -0.0001171515999900268 0 0.0037783100072673599 -0.00011721087568817045 0 0.0040954544459927784 -0.00010795679282237692 0 0.004091551470602881 -0.00011006722083766215 0 0.0040965381666646971 -0.0001074522561841711 0 0.0041016377027369381 -0.00015205985314523267 0 0.004091551470602881 -0.00011006722083766215 0 0.0040965381666646971 -0.0001074522561841711 0 0.0041016377027369381 -0.00015205985314523267 0 0.0040560779868803257 -0.00013274255611738569 0 0.004091551470602881 -0.00011006722083766215 0 0.0040954544459927784 -0.00010795679282237692 0 0.0040965381666646971 -0.0001074522561841711 0 0.0040972212450165789 -0.00010795480129361638 0 0.0040965381666646971 -0.0001074522561841711 0 0.0040971705487760756 -0.00010807175088218295 0 0.0040972212450165789 -0.00010795480129361638 0 0.003768830904978994 -0.0001171515999900268 0 0.003891127136692736 -0.00018315574916098331 0 0.0040962037938377851 -0.00010735548639457408 0 0.0040965381666646971 -0.0001074522561841711 0 0.0040971705487760756 -0.00010807175088218295 0 0.0040971705487760756 -0.00010807175088218295 0 0.0040972212450165789 -0.00010795480129361638 0 0.0040983028912474247 -0.00010870784157133888 0 0.0041004187128245934 -0.00010893289276309612 0 0.0040980171844624651 -0.00010806664920134914 0 0.0040983028912474247 -0.00010870784157133888 0 0.0040972212450165789 -0.00010795480129361638 0 0.0040980171844624651 -0.00010806664920134914 0 0.0040983028912474247 -0.00010870784157133888 0 0.0040954544459927784 -0.00010795679282237692 0 0.0040972212450165789 -0.00010795480129361638 0 0.0040980171844624651 -0.00010806664920134914 0 0.0035199256332254557 -5.9101969537343207e-05 0 0.0035514892493308859 -0.0002478002439885704 0 0.003420733487139564 -0.00014145579426895838 0 0.003420733487139564 -0.00014145579426895838 0 0.0033672788173032329 -0.00025133559889708014 0 0.0032944869815160318 -0.00011586539678384087 0 0.0035514892493308859 -0.0002478002439885704 0 0.003420733487139564 -0.00014145579426895838 0 0.0033672788173032329 -0.00025133559889708014 0 0.0035514892493308859 -0.0002478002439885704 0 0.0033672788173032329 -0.00025133559889708014 0 0.0034401603232179839 -0.00038562421551304512 0 0.004881399342436905 -7.2133709488721241e-05 0 0.0048723868069235222 -8.2531489410100987e-05 0 0.0048770857337038778 -8.1475872899648859e-05 0 0.004881399342436905 -7.2133709488721241e-05 0 0.0048723868069235222 -8.2531489410100987e-05 0 0.0048617218415564602 -5.7093263378786889e-05 0 0.0048723868069235222 -8.2531489410100987e-05 0 0.0048328160621613249 -4.9992604513123212e-05 0 0.0048617218415564602 -5.7093263378786889e-05 0 0.0048688788731922981 -7.1292277546863362e-05 0 0.0048648313039312031 -6.5750926602500158e-05 0 0.0048830516380260133 -8.5127796101646167e-05 0 0.0048920954131541549 -9.304681996616783e-05 0 0.0048918085696638899 -8.8064413346447648e-05 0 0.0048723868069235222 -8.2531489410100987e-05 0 0.0048830516380260133 -8.5127796101646167e-05 0 0.0048920954131541549 -9.304681996616783e-05 0 0.0048477092330242904 -4.397247287697631e-05 0 0.0048681338200903925 -3.1075710814160119e-05 0 0.0048325835057987038 -3.3715373670210339e-05 0 0.0048328160621613249 -4.9992604513123212e-05 0 0.0048477092330242904 -4.397247287697631e-05 0 0.0048617218415564602 -5.7093263378786889e-05 0 0.0048328160621613249 -4.9992604513123212e-05 0 0.0048477092330242904 -4.397247287697631e-05 0 0.0048325835057987038 -3.3715373670210339e-05 0 0.004881399342436905 -7.2133709488721241e-05 0 0.0048617218415564602 -5.7093263378786889e-05 0 0.0048681338200903925 -3.1075710814160119e-05 0 0.0041001842027345173 -0.00014202058548842372 0 0.0039765177963995649 -0.00010492200789047585 0 0.0048477092330242904 -4.397247287697631e-05 0 0.0048617218415564602 -5.7093263378786889e-05 0 0.0048681338200903925 -3.1075710814160119e-05 0 0.0033719184237877174 -3.2155828174910696e-05 0 0.0032944869815160318 -0.00011586539678384087 0 0.0032892195909602511 -8.509327432658516e-06 0 0.0039765177963995649 -0.00010492200789047585 0 0.0037716259568194603 -4.6802888135259404e-05 0 0.0048681338200903925 -3.1075710814160119e-05 0 0.0048325835057987038 -3.3715373670210339e-05 0 0.0048406185276706577 3.5683961027792675e-05 0 0.0048325835057987038 -3.3715373670210339e-05 0 0.0048406185276706577 3.5683961027792675e-05 0 0.004769120903262431 2.2201118118838339e-05 0 0.0037716259568194603 -4.6802888135259404e-05 0 0.0036800082186434014 -2.0702589436653413e-05 0 0.0032359116289027022 7.3132066915354433e-05 0 0.003226649522128245 1.5020120875265035e-05 0 0.0032892195909602511 -8.509327432658516e-06 0 0.0033150952835555845 6.9147547548804387e-05 0 0.0032359116289027022 7.3132066915354433e-05 0 0.0032892195909602511 -8.509327432658516e-06 0 0.0032944869815160318 -0.00011586539678384087 0 0.0032267623837617882 1.4794294647169425e-05 0 0.0032892195909602511 -8.509327432658516e-06 0 0.0033150952835555845 6.9147547548804387e-05 0 0.0033666102257464848 3.4463187941480601e-05 0 0.0032892195909602511 -8.509327432658516e-06 0 0.0033666102257464848 3.4463187941480601e-05 0 0.0033719184237877174 -3.2155828174910696e-05 0 0.0032892195909602511 -8.509327432658516e-06 0 0.0039544542169037853 5.9182058799403433e-05 0 0.0044618062754762863 -0.00012991169974124869 0 0.0048434253401709792 -3.5476674614560676e-05 0 0.0048340118116713942 -3.512804912186877e-05 0 0.0048485324596976636 -3.6091394403907324e-05 0 0.0047750850904079 6.4513562674441447e-05 0 0.004699641208818009 9.1698231056852174e-05 0 0.004769120903262431 2.2201118118838339e-05 0 0.0039022303352021621 7.8716228217417796e-06 0 0.0037716259568194603 -4.6802888135259404e-05 0 0.0047750850904079 6.4513562674441447e-05 0 0.0048406185276706577 3.5683961027792675e-05 0 0.004769120903262431 2.2201118118838339e-05 0 0.0045785153587847328 -0.00015342446215119683 0 0.0044618062754762863 -0.00012991169974124869 0 0.0048325835057987038 -3.3715373670210339e-05 0 0.0048340118116713942 -3.512804912186877e-05 0 0.0048334299637168999 -3.1680395431003014e-05 0 0.0048588358087031883 -5.5729653261232456e-05 0 0.0048540460096772675 -4.9506302656393515e-05 0 0.0048340118116713942 -3.512804912186877e-05 0 0.0048334299637168999 -3.1680395431003014e-05 0 0.0048485324596976636 -3.6091394403907324e-05 0 0.0048909984024847822 -7.0417036206417815e-05 0 0.0048768203767063159 -8.31389084666088e-05 0 0.0048593458129273254 -6.0149179583871939e-05 0 0.0048909984024847822 -7.0417036206417815e-05 0 0.0048485324596976636 -3.6091394403907324e-05 0 0.0048593458129273254 -6.0149179583871939e-05 0 0.0048909984024847822 -7.0417036206417815e-05 0 0.0048768203767063159 -8.31389084666088e-05 0 0.0048910955467635952 -8.9971069353368002e-05 0 0.0048768203767063159 -8.31389084666088e-05 0 0.0048910955467635952 -8.9971069353368002e-05 0 0.0048855691958934831 -0.00010127924666676967 0 0.0048768203767063159 -8.31389084666088e-05 0 0.0048855691958934831 -0.00010127924666676967 0 0.0048681772440927716 -9.9823651408507873e-05 0 0.0048648313039312031 -6.5750926602500158e-05 0 0.0048588358087031883 -5.5729653261232456e-05 0 0.0048920954131541549 -9.304681996616783e-05 0 0.0048909984024847822 -7.0417036206417815e-05 0 0.0048910955467635952 -8.9971069353368002e-05 0 0.0048328160621613249 -4.9992604513123212e-05 0 0.0048325835057987038 -3.3715373670210339e-05 0 0.0048334299637168999 -3.1680395431003014e-05 0 0.0048910955467635952 -8.9971069353368002e-05 0 0.0048918085696638899 -8.8064413346447648e-05 0 0.0048855691958934831 -0.00010127924666676967 0 0.0048920954131541549 -9.304681996616783e-05 0 0.0048910955467635952 -8.9971069353368002e-05 0 0.0048918085696638899 -8.8064413346447648e-05 0 0.0048396497994231541 -0.0001387440196176512 0 0.0048543256102947475 -0.00013434188570399515 0 0.0048995802587244877 -0.00012593043400016221 0 0.0048855691958934831 -0.00010127924666676967 0 0.0048923285826562414 -0.00013098027615488102 0 0.0048855691958934831 -0.00010127924666676967 0 0.0048923285826562414 -0.00013098027615488102 0 0.0048794171443816529 -0.00012591881003859535 0 0.0048923285826562414 -0.00013098027615488102 0 0.0048886803193737664 -0.00014044589791940371 0 0.0048794171443816529 -0.00012591881003859535 0 0.0048886803193737664 -0.00014044589791940371 0 0.004891555443845663 -0.00013027534698149376 0 0.0049001793029327303 -0.00011893567809563185 0 0.0048886803193737664 -0.00014044589791940371 0 0.0049001793029327303 -0.00011893567809563185 0 0.0048891142018371043 -0.00013913335936445144 0 0.0048923285826562414 -0.00013098027615488102 0 0.0048886803193737664 -0.00014044589791940371 0 0.004891555443845663 -0.00013027534698149376 0 0.004891555443845663 -0.00013027534698149376 0 0.004892939457574969 -0.00012915737434164286 0 0.0048931453840737205 -0.00013065462313300864 0 0.004891555443845663 -0.00013027534698149376 0 0.0048945461347679551 -0.00012897553098261351 0 0.004892939457574969 -0.00012915737434164286 0 0.0048923285826562414 -0.00013098027615488102 0 0.004891555443845663 -0.00013027534698149376 0 0.0048945461347679551 -0.00012897553098261351 0 0.0048995802587244877 -0.00012593043400016221 0 0.0048923285826562414 -0.00013098027615488102 0 0.0048945461347679551 -0.00012897553098261351 0 0.0048396497994231541 -0.0001387440196176512 0 0.0047549369382468201 -0.00013609243505880006 0 0.0048830516380260133 -8.5127796101646167e-05 0 0.0048918085696638899 -8.8064413346447648e-05 0 0.0048761174822559211 -7.9559936722968901e-05 0 0.0048995802587244877 -0.00012593043400016221 0 0.0048924357566626706 -0.0001273481802097988 0 0.0048842397983540316 -0.00013112611481895829 0 0.0048995802587244877 -0.00012593043400016221 0 0.0048945461347679551 -0.00012897553098261351 0 0.0048924357566626706 -0.0001273481802097988 0 0.0048924357566626706 -0.0001273481802097988 0 0.0048842397983540316 -0.00013112611481895829 0 0.0048835071333077143 -0.00011506415115071009 0 0.0048761174822559211 -7.9559936722968901e-05 0 0.0048764682579234692 -8.2469888815534193e-05 0 0.0048772865458439245 -8.6003405396653933e-05 0 0.0047549369382468201 -0.00013609243505880006 0 0.0044356802473515854 -5.8645116188155917e-05 0 0.0048750020969446032 -8.1380391691889938e-05 0 0.0048764682579234692 -8.2469888815534193e-05 0 0.0048770857337038778 -8.1475872899648859e-05 0 0.0048750020969446032 -8.1380391691889938e-05 0 0.0048761174822559211 -7.9559936722968901e-05 0 0.0048764682579234692 -8.2469888815534193e-05 0 0.0048723868069235222 -8.2531489410100987e-05 0 0.0048750020969446032 -8.1380391691889938e-05 0 0.0048770857337038778 -8.1475872899648859e-05 0 0.0048723868069235222 -8.2531489410100987e-05 0 0.0048830516380260133 -8.5127796101646167e-05 0 0.0048761174822559211 -7.9559936722968901e-05 0 0.0048723868069235222 -8.2531489410100987e-05 0 0.0048750020969446032 -8.1380391691889938e-05 0 0.0048761174822559211 -7.9559936722968901e-05 0 0.0048842397983540316 -0.00013112611481895829 0 0.0048531547202531411 -0.00010670897909844114 0 0.0048339938274408242 -0.00011151844617557687 0 0.0048531547202531411 -0.00010670897909844114 0 0.0048716548678674892 -0.00010665871423871129 0 0.0048605970752646473 -9.794874266266977e-05 0 0.0048842397983540316 -0.00013112611481895829 0 0.0048531547202531411 -0.00010670897909844114 0 0.0048716548678674892 -0.00010665871423871129 0 0.0048842397983540316 -0.00013112611481895829 0 0.0048716548678674892 -0.00010665871423871129 0 0.0048835071333077143 -0.00011506415115071009 0 0.0048716548678674892 -0.00010665871423871129 0 0.0048785535500406648 -9.9035269968234294e-05 0 0.0048835071333077143 -0.00011506415115071009 0 0.0048716548678674892 -0.00010665871423871129 0 0.0048679968793142962 -8.7340361764617815e-05 0 0.0048785535500406648 -9.9035269968234294e-05 0 0.0048679968793142962 -8.7340361764617815e-05 0 0.0048785535500406648 -9.9035269968234294e-05 0 0.0048906936602243854 -8.6566815694826324e-05 0 0.0048716548678674892 -0.00010665871423871129 0 0.0048679968793142962 -8.7340361764617815e-05 0 0.0048605970752646473 -9.794874266266977e-05 0 0.0048679968793142962 -8.7340361764617815e-05 0 0.0048605970752646473 -9.794874266266977e-05 0 0.0048494730407024579 -9.1019737833629972e-05 0 0.0048531547202531411 -0.00010670897909844114 0 0.0048605970752646473 -9.794874266266977e-05 0 0.0048494730407024579 -9.1019737833629972e-05 0 0.0049030183230415218 -0.00010568422709633386 0 0.0049035207810900795 -9.5510675472548946e-05 0 0.0048924357566626706 -0.0001273481802097988 0 0.004892939457574969 -0.00012915737434164286 0 0.0048939925570749259 -0.00012991989313495566 0 0.0048924357566626706 -0.0001273481802097988 0 0.0048835071333077143 -0.00011506415115071009 0 0.0048906936602243854 -8.6566815694826324e-05 0 0.0048945461347679551 -0.00012897553098261351 0 0.0048924357566626706 -0.0001273481802097988 0 0.004892939457574969 -0.00012915737434164286 0 0.0048785535500406648 -9.9035269968234294e-05 0 0.0048835071333077143 -0.00011506415115071009 0 0.0048906936602243854 -8.6566815694826324e-05 0 0.0048931453840737205 -0.00013065462313300864 0 0.0048939925570749259 -0.00012991989313495566 0 0.004894270547478867 -0.00013158754336665659 0 0.0049035207810900795 -9.5510675472548946e-05 0 0.0049059959239815204 -6.925684849528799e-05 0 0.004892939457574969 -0.00012915737434164286 0 0.0048931453840737205 -0.00013065462313300864 0 0.0048939925570749259 -0.00012991989313495566 0 0.0049079167682845688 -9.1571413270370705e-05 0 0.0049059959239815204 -6.925684849528799e-05 0 0.0048906936602243854 -8.6566815694826324e-05 0 0.0048681374439478228 -6.4000407475984714e-05 0 0.0048831378998746523 -4.0918144209515677e-05 0 0.0048679968793142962 -8.7340361764617815e-05 0 0.0048681374439478228 -6.4000407475984714e-05 0 0.0048465582531564818 -6.7947027362554963e-05 0 0.0048679968793142962 -8.7340361764617815e-05 0 0.0048494730407024579 -9.1019737833629972e-05 0 0.0048465582531564818 -6.7947027362554963e-05 0 0.0048679968793142962 -8.7340361764617815e-05 0 0.0048906936602243854 -8.6566815694826324e-05 0 0.0048681374439478228 -6.4000407475984714e-05 0 0.0048681374439478228 -6.4000407475984714e-05 0 0.0048510136502724699 -4.2546103983237896e-05 0 0.0048465582531564818 -6.7947027362554963e-05 0 0.0049059959239815204 -6.925684849528799e-05 0 0.0048873245223203885 -2.4836194310117839e-05 0 0.0048510136502724699 -4.2546103983237896e-05 0 0.0048831378998746523 -4.0918144209515677e-05 0 0.004844015841771146 -7.7575273859992054e-07 0 0.0048681374439478228 -6.4000407475984714e-05 0 0.0048510136502724699 -4.2546103983237896e-05 0 0.0048831378998746523 -4.0918144209515677e-05 0 0.0048741260494820238 -0.00011132542862914975 0 0.0048860192687339363 -0.00010738309660473667 0 0.0048714006602581707 -9.4981166326752411e-05 0 0.0048822673681082531 -0.00012005500204854943 0 0.0048741260494820238 -0.00011132542862914975 0 0.0048860192687339363 -0.00010738309660473667 0 0.0049324510768536537 -7.1951394995128202e-05 0 0.0049211986956183519 -8.6486199925874695e-05 0 0.0049001793029327303 -0.00011893567809563185 0 0.004928158076271151 -7.7919616327261495e-05 0 0.0049286990025865854 -9.1529207980689986e-05 0 0.0049211986956183519 -8.6486199925874695e-05 0 0.0049001793029327303 -0.00011893567809563185 0 0.0049093519708308091 -0.00010381515899143588 0 0.0049211986956183519 -8.6486199925874695e-05 0 0.0049309455694607675 -7.4413502171585274e-05 0 0.0049093519708308091 -0.00010381515899143588 0 0.0048860192687339363 -0.00010738309660473667 0 0.0049001793029327303 -0.00011893567809563185 0 0.0048900184572028878 -0.00011886485844830318 0 0.0048822673681082531 -0.00012005500204854943 0 0.0048860192687339363 -0.00010738309660473667 0 0.0048900184572028878 -0.00011886485844830318 0 0.004891555443845663 -0.00013027534698149376 0 0.0049001793029327303 -0.00011893567809563185 0 0.0048900184572028878 -0.00011886485844830318 0 0.004908431419025595 -9.8387078772199435e-05 0 0.0049079167682845688 -9.1571413270370705e-05 0 0.004891555443845663 -0.00013027534698149376 0 0.0048822673681082531 -0.00012005500204854943 0 0.0048900184572028878 -0.00011886485844830318 0 0.0041002716421286532 -0.00011016967942339464 0 0.0040997572546463351 -0.00011081921470953086 0 0.0041013330855863882 -0.00011210311715550687 0 0.004102847458163323 -0.00011151854600452616 0 0.0041002716421286532 -0.00011016967942339464 0 0.0041013330855863882 -0.00011210311715550687 0 0.0041002716421286532 -0.00011016967942339464 0 0.0040983028912474247 -0.00010870784157133888 0 0.0040984077186502479 -0.00010948948856743394 0 0.0041004187128245934 -0.00010893289276309612 0 0.0041002716421286532 -0.00011016967942339464 0 0.0040983028912474247 -0.00010870784157133888 0 0.0040971705487760756 -0.00010807175088218295 0 0.0040983028912474247 -0.00010870784157133888 0 0.0040984077186502479 -0.00010948948856743394 0 0.0041002716421286532 -0.00011016967942339464 0 0.0040984077186502479 -0.00010948948856743394 0 0.0040997572546463351 -0.00011081921470953086 0 0.0040984077186502479 -0.00010948948856743394 0 0.0040997572546463351 -0.00011081921470953086 0 0.0040985678745598065 -0.00011046014346887682 0 0.0040997572546463351 -0.00011081921470953086 0 0.0040985678745598065 -0.00011046014346887682 0 0.0040993684310251686 -0.00011163158615595842 0 0.0040979688566409392 -0.00011104361748998838 0 0.0040985678745598065 -0.00011046014346887682 0 0.0040970151769324226 -0.00010958517754611895 0 0.0043378326111713087 -9.8469131077639325e-05 0 0.0041815535127713663 -0.00011405659234532502 0 0.0040979688566409392 -0.00011104361748998838 0 0.0040985678745598065 -0.00011046014346887682 0 0.0040993684310251686 -0.00011163158615595842 0 0.0043378326111713087 -9.8469131077639325e-05 0 0.0043074770571882269 -8.8402783804022661e-05 0 0.0040984077186502479 -0.00010948948856743394 0 0.0040985678745598065 -0.00011046014346887682 0 0.0040970151769324226 -0.00010958517754611895 0 0.003891127136692736 -0.00018315574916098331 0 0.0041815535127713663 -0.00011405659234532502 0 0.0040971705487760756 -0.00010807175088218295 0 0.0040984077186502479 -0.00010948948856743394 0 0.0040970151769324226 -0.00010958517754611895 0 0.004881399342436905 -7.2133709488721241e-05 0 0.0048800102954621371 -8.473977487255508e-05 0 0.0048770857337038778 -8.1475872899648859e-05 0 0.0041001842027345173 -0.00014202058548842372 0 0.0041815535127713663 -0.00011405659234532502 0 0.0048800102954621371 -8.473977487255508e-05 0 0.0048778253425197649 -8.4107882739727113e-05 0 0.0048772865458439245 -8.6003405396653933e-05 0 0.0048764682579234692 -8.2469888815534193e-05 0 0.0048778253425197649 -8.4107882739727113e-05 0 0.0048772865458439245 -8.6003405396653933e-05 0 0.0048800102954621371 -8.473977487255508e-05 0 0.0048770857337038778 -8.1475872899648859e-05 0 0.0048778253425197649 -8.4107882739727113e-05 0 0.0048764682579234692 -8.2469888815534193e-05 0 0.0048770857337038778 -8.1475872899648859e-05 0 0.0048778253425197649 -8.4107882739727113e-05 0 0.0043092826175727805 -0.00016558950862134112 0 0.0042212720174706862 1.1740167756608973e-06 0 0.0041521466441320149 -8.4000676073195266e-05 0 0.0048531547202531411 -0.00010670897909844114 0 0.0048430494663820062 -0.0001077130331998855 0 0.0048339938274408242 -0.00011151844617557687 0 0.0048531547202531411 -0.00010670897909844114 0 0.0048430494663820062 -0.0001077130331998855 0 0.0048413824342071424 -9.9806445155886097e-05 0 0.0048430494663820062 -0.0001077130331998855 0 0.0048339938274408242 -0.00011151844617557687 0 0.0048413824342071424 -9.9806445155886097e-05 0 0.0041815535127713663 -0.00011405659234532502 0 0.0044356802473515854 -5.8645116188155917e-05 0 0.0047990033304088162 -9.397032530256567e-05 0 0.0048339938274408242 -0.00011151844617557687 0 0.0048265203600270498 -8.8081778153305802e-05 0 0.0043378326111713087 -9.8469131077639325e-05 0 0.0044356802473515854 -5.8645116188155917e-05 0 0.0048265203600270498 -8.8081778153305802e-05 0 0.0048494730407024579 -9.1019737833629972e-05 0 0.0048413824342071424 -9.9806445155886097e-05 0 0.0048339938274408242 -0.00011151844617557687 0 0.0048265203600270498 -8.8081778153305802e-05 0 0.0048413824342071424 -9.9806445155886097e-05 0 0.0048531547202531411 -0.00010670897909844114 0 0.0048494730407024579 -9.1019737833629972e-05 0 0.0048413824342071424 -9.9806445155886097e-05 0 0.0048510136502724699 -4.2546103983237896e-05 0 0.0048465582531564818 -6.7947027362554963e-05 0 0.0048105290840646381 -5.0207278982369957e-05 0 0.0048265203600270498 -8.8081778153305802e-05 0 0.0048465582531564818 -6.7947027362554963e-05 0 0.0048105290840646381 -5.0207278982369957e-05 0 0.0048265203600270498 -8.8081778153305802e-05 0 0.0048494730407024579 -9.1019737833629972e-05 0 0.0048465582531564818 -6.7947027362554963e-05 0 0.0048105290840646381 -5.0207278982369957e-05 0 0.0047979079884383309 -7.5948103932952956e-06 0 0.004844015841771146 -7.7575273859992054e-07 0 0.0048510136502724699 -4.2546103983237896e-05 0 0.0048105290840646381 -5.0207278982369957e-05 0 0.004844015841771146 -7.7575273859992054e-07 0 0.0048105290840646381 -5.0207278982369957e-05 0 0.0047714335355867775 -4.1859980112605252e-05 0 0.0047979079884383309 -7.5948103932952956e-06 0 0.0040988386429520463 -0.00011124533494543362 0 0.0040993684310251686 -0.00011163158615595842 0 0.0041003233170664012 -0.00011310814538609481 0 0.0043378326111713087 -9.8469131077639325e-05 0 0.0044910179911803599 -5.5696410756150755e-05 0 0.0047990033304088162 -9.397032530256567e-05 0 0.0048105290840646381 -5.0207278982369957e-05 0 0.0047714335355867775 -4.1859980112605252e-05 0 0.0047990033304088162 -9.397032530256567e-05 0 0.0048265203600270498 -8.8081778153305802e-05 0 0.0048105290840646381 -5.0207278982369957e-05 0 0.0041001816952520118 -0.00011192162116343558 0 0.0041003233170664012 -0.00011310814538609481 0 0.0041013330855863882 -0.00011210311715550687 0 0.0040993684310251686 -0.00011163158615595842 0 0.0041001816952520118 -0.00011192162116343558 0 0.0041003233170664012 -0.00011310814538609481 0 0.0040997572546463351 -0.00011081921470953086 0 0.0040993684310251686 -0.00011163158615595842 0 0.0041001816952520118 -0.00011192162116343558 0 0.0040997572546463351 -0.00011081921470953086 0 0.0041001816952520118 -0.00011192162116343558 0 0.0041013330855863882 -0.00011210311715550687 0 0.0041003233170664012 -0.00011310814538609481 0 0.0041023071945926783 -0.00011361526321146932 0 0.0041027028744459503 -0.00011516704183827565 0 0.0041003233170664012 -0.00011310814538609481 0 0.0041023071945926783 -0.00011361526321146932 0 0.0041013330855863882 -0.00011210311715550687 0 0.004103649274049056 -0.00011282549417826575 0 0.0041023071945926783 -0.00011361526321146932 0 0.0041013330855863882 -0.00011210311715550687 0 0.0049984853451060024 -5.5054976745269704e-06 0 0.0050011890915888984 -6.868868439114806e-06 0 0.0050001614353248477 -3.1673539530750303e-06 0 0.0046862279868451267 -1.6492402071430648e-05 0 0.0048984792941601536 -3.0817278801782923e-05 0 0.004996869752282372 8.8701561884410358e-06 0 0.0049971318252103646 4.3595190975895414e-06 0 0.0049997447749076289 3.1353607609702958e-06 0 0.0041041825976628216 -0.0001143345394382701 0 0.0041023071945926783 -0.00011361526321146932 0 0.0041027028744459503 -0.00011516704183827565 0 0.0049983159350470534 -8.7934657791560271e-06 0 0.0049984853451060024 -5.5054976745269704e-06 0 0.0050011890915888984 -6.868868439114806e-06 0 0.00463437712912587 -9.1555520373455819e-05 0 0.0046862279868451267 -1.6492402071430648e-05 0 0.0047714335355867775 -4.1859980112605252e-05 0 0.0047439741252158149 1.0213526684248537e-05 0 0.0047979079884383309 -7.5948103932952956e-06 0 0.0044910179911803599 -5.5696410756150755e-05 0 0.0046862279868451267 -1.6492402071430648e-05 0 0.0046862279868451267 -1.6492402071430648e-05 0 0.00489225996327024 -2.974144560921069e-06 0 0.004996869752282372 8.8701561884410358e-06 0 0.0049912151056903465 6.3421736313430058e-06 0 0.0049971318252103646 4.3595190975895414e-06 0 0.0047439741252158149 1.0213526684248537e-05 0 0.0048050935342423906 3.9170731154117264e-05 0 0.0047979079884383309 -7.5948103932952956e-06 0 0.0048050935342423906 3.9170731154117264e-05 0 0.0047979079884383309 -7.5948103932952956e-06 0 0.004844015841771146 -7.7575273859992054e-07 0 0.00489225996327024 -2.974144560921069e-06 0 0.0048873245223203885 -2.4836194310117839e-05 0 0.0049969870082621033 6.2625751717757481e-06 0 0.0049921935838505753 3.9682383129130156e-06 0 0.0049830573990975041 1.775045161624014e-05 0 0.0049115498346687407 -3.5880965173540959e-05 0 0.0049093607758373776 -2.9074799975445763e-05 0 0.00491552942522013 -3.4183614942012331e-05 0 0.0049063600510893951 -3.0487104453288238e-05 0 0.0049115498346687407 -3.5880965173540959e-05 0 0.0049093607758373776 -2.9074799975445763e-05 0 0.00489225996327024 -2.974144560921069e-06 0 0.0049318458975108432 -9.4411981484893536e-07 0 0.0049318458975108432 -9.4411981484893536e-07 0 0.0049368473024554473 8.5370176245416902e-07 0 0.0049959733570666149 4.4329818846731783e-06 0 0.004997378203652523 -1.1985153041660109e-06 0 0.0049932782398900127 -8.203827525217937e-07 0 0.0049959733570666149 4.4329818846731783e-06 0 0.0049921935838505753 3.9682383129130156e-06 0 0.0049932782398900127 -8.203827525217937e-07 0 0.004997378203652523 -1.1985153041660109e-06 0 0.0049932782398900127 -8.203827525217937e-07 0 0.0049960859551848227 -3.2840840227267601e-06 0 0.0049960859551848227 -3.2840840227267601e-06 0 0.005000001648863257 -2.2932523506670575e-09 0 0.0049999727170717311 -9.5383213210630134e-09 0 0.004997378203652523 -1.1985153041660109e-06 0 0.0049960859551848227 -3.2840840227267601e-06 0 0.005000001648863257 -2.2932523506670575e-09 0 0.0049932782398900127 -8.203827525217937e-07 0 0.0049960859551848227 -3.2840840227267601e-06 0 0.0049862549223213442 -6.9505310113519868e-06 0 0.004997378203652523 -1.1985153041660109e-06 0 0.005000001648863257 -2.2932523506670575e-09 0 0.0050001416134480454 -5.7775073716350173e-07 0 0.0049959733570666149 4.4329818846731783e-06 0 0.004997378203652523 -1.1985153041660109e-06 0 0.0050001416134480454 -5.7775073716350173e-07 0 0.0049900358782597179 8.179856417326222e-06 0 0.0049867124713791899 6.6487396869874623e-06 0 0.0049938465904669702 1.4128885829290502e-06 0 0.0049900358782597179 8.179856417326222e-06 0 0.0049938465904669702 1.4128885829290502e-06 0 0.0049949024897835625 3.1790747286364487e-06 0 0.0049318458975108432 -9.4411981484893536e-07 0 0.0049797461519721087 -5.651542852269664e-06 0 0.00489225996327024 -2.974144560921069e-06 0 0.0049228345642365178 -1.6802685403314335e-05 0 0.0049912151056903465 6.3421736313430058e-06 0 0.0049971318252103646 4.3595190975895414e-06 0 0.0049949024897835625 3.1790747286364487e-06 0 0.0049938465904669702 1.4128885829290502e-06 0 0.0049949024897835625 3.1790747286364487e-06 0 0.0049985398761645747 1.7100123653471944e-06 0 0.0049971318252103646 4.3595190975895414e-06 0 0.0049949024897835625 3.1790747286364487e-06 0 0.0049985398761645747 1.7100123653471944e-06 0 0.0049938465904669702 1.4128885829290502e-06 0 0.0049999899807747971 2.249983182443043e-10 0 0.0049985398761645747 1.7100123653471944e-06 0 0.005000001648863257 -2.2932523506670575e-09 0 0.0050001416134480454 -5.7775073716350173e-07 0 0.0049999988082366801 9.4579558511985254e-10 0 0.0049797461519721087 -5.651542852269664e-06 0 0.0049999740039786073 -1.7681772618327758e-08 0 0.005000007426757362 -4.704358333913438e-13 0 0.0049999899807747971 2.249983182443043e-10 0 0.0049985398761645747 1.7100123653471944e-06 0 0.005000007426757362 -4.704358333913438e-13 0 0.0049985398761645747 1.7100123653471944e-06 0 0.0049997447749076289 3.1353607609702958e-06 0 0.0049971318252103646 4.3595190975895414e-06 0 0.0049985398761645747 1.7100123653471944e-06 0 0.0049997447749076289 3.1353607609702958e-06 0 0.0049623531556220804 -3.8526492274200553e-05 0 0.0049442043675606787 -5.9142615687814043e-05 0 0.0049616494697747714 -3.7455685180010676e-05 0 0.0049623531556220804 -3.8526492274200553e-05 0 0.0049524622754956778 -4.9640577734272368e-05 0 0.0049442043675606787 -5.9142615687814043e-05 0 0.0049524622754956778 -4.9640577734272368e-05 0 0.0049309455694607675 -7.4413502171585274e-05 0 0.0049442043675606787 -5.9142615687814043e-05 0 0.0049211986956183519 -8.6486199925874695e-05 0 0.0049309455694607675 -7.4413502171585274e-05 0 0.0049442043675606787 -5.9142615687814043e-05 0 0.0049524622754956778 -4.9640577734272368e-05 0 0.0049309455694607675 -7.4413502171585274e-05 0 0.0049392314714285686 -6.4384739489974001e-05 0 0.0049324510768536537 -7.1951394995128202e-05 0 0.0049211986956183519 -8.6486199925874695e-05 0 0.0049442043675606787 -5.9142615687814043e-05 0 0.0049324510768536537 -7.1951394995128202e-05 0 0.0049442043675606787 -5.9142615687814043e-05 0 0.0049495550865671905 -4.9490323191997621e-05 0 0.004928158076271151 -7.7919616327261495e-05 0 0.0049291782810691074 -4.4904162268063931e-05 0 0.0049167963510699103 -4.1364008656522391e-05 0 0.0049115498346687407 -3.5880965173540959e-05 0 0.00491552942522013 -3.4183614942012331e-05 0 0.0049059959239815204 -6.925684849528799e-05 0 0.0049291782810691074 -4.4904162268063931e-05 0 0.0049318458975108432 -9.4411981484893536e-07 0 0.0049291782810691074 -4.4904162268063931e-05 0 0.0049291782810691074 -4.4904162268063931e-05 0 0.0049419274807723399 -3.2481253466214261e-05 0 0.0049921935838505753 3.9682383129130156e-06 0 0.0049830573990975041 1.775045161624014e-05 0 0.0049853158335033563 5.8252099186235157e-06 0 0.0049495550865671905 -4.9490323191997621e-05 0 0.0049600232640779236 -3.2113392043531247e-05 0 0.0049616494697747714 -3.7455685180010676e-05 0 0.0049442043675606787 -5.9142615687814043e-05 0 0.0049495550865671905 -4.9490323191997621e-05 0 0.0049616494697747714 -3.7455685180010676e-05 0 0.0049623531556220804 -3.8526492274200553e-05 0 0.0049616494697747714 -3.7455685180010676e-05 0 0.0049775268744080732 -2.0623874937106393e-05 0 0.0049616494697747714 -3.7455685180010676e-05 0 0.004975012302363282 -1.9889230139479914e-05 0 0.0049775268744080732 -2.0623874937106393e-05 0 0.004975012302363282 -1.9889230139479914e-05 0 0.0049775268744080732 -2.0623874937106393e-05 0 0.004986770207081854 -9.4099461675063222e-06 0 0.0049600232640779236 -3.2113392043531247e-05 0 0.004975012302363282 -1.9889230139479914e-05 0 0.0049862549223213442 -6.9505310113519868e-06 0 0.0049932782398900127 -8.203827525217937e-07 0 0.0049853158335033563 5.8252099186235157e-06 0 0.0049862549223213442 -6.9505310113519868e-06 0 0.0049419274807723399 -3.2481253466214261e-05 0 0.0049466859248669792 -2.9568120389592005e-05 0 0.0049921935838505753 3.9682383129130156e-06 0 0.0049932782398900127 -8.203827525217937e-07 0 0.0049853158335033563 5.8252099186235157e-06 0 0.0049600232640779236 -3.2113392043531247e-05 0 0.0049616494697747714 -3.7455685180010676e-05 0 0.004975012302363282 -1.9889230139479914e-05 0 0.004975012302363282 -1.9889230139479914e-05 0 0.0049862549223213442 -6.9505310113519868e-06 0 0.004986770207081854 -9.4099461675063222e-06 0 0.0049960859551848227 -3.2840840227267601e-06 0 0.0049862549223213442 -6.9505310113519868e-06 0 0.0049999727170717311 -9.5383213210630134e-09 0 0.0049862549223213442 -6.9505310113519868e-06 0 0.0049999727170717311 -9.5383213210630134e-09 0 0.004986770207081854 -9.4099461675063222e-06 0 0.0049999727170717311 -9.5383213210630134e-09 0 0.004986770207081854 -9.4099461675063222e-06 0 0.0049999634372111437 -1.6777739462792047e-08 0 0.0049775268744080732 -2.0623874937106393e-05 0 0.004986770207081854 -9.4099461675063222e-06 0 0.0049999634372111437 -1.6777739462792047e-08 0 0.0049999634372111437 -1.6777739462792047e-08 0 0.004976350834530816 -2.3714618174719842e-05 0 0.0049999746182987689 -6.1723463823802806e-09 0 0.0049775268744080732 -2.0623874937106393e-05 0 0.0049999634372111437 -1.6777739462792047e-08 0 0.004976350834530816 -2.3714618174719842e-05 0 0.0049623531556220804 -3.8526492274200553e-05 0 0.0049524622754956778 -4.9640577734272368e-05 0 0.004976350834530816 -2.3714618174719842e-05 0 0.0049623531556220804 -3.8526492274200553e-05 0 0.0049775268744080732 -2.0623874937106393e-05 0 0.004976350834530816 -2.3714618174719842e-05 0 0.0049524622754956778 -4.9640577734272368e-05 0 0.004976350834530816 -2.3714618174719842e-05 0 0.0049682222232346838 -3.3301276936310735e-05 0 0.004976350834530816 -2.3714618174719842e-05 0 0.0049999746182987689 -6.1723463823802806e-09 0 0.0049682222232346838 -3.3301276936310735e-05 0 0.0049999746182987689 -6.1723463823802806e-09 0 0.0049999344644697692 -6.1560732129159487e-08 0 0.0049682222232346838 -3.3301276936310735e-05 0 0.0049999344644697692 -6.1560732129159487e-08 0 0.0049696476474267396 -3.3120284679213086e-05 0 0.0049682222232346838 -3.3301276936310735e-05 0 0.0049696476474267396 -3.3120284679213086e-05 0 0.0049682222232346838 -3.3301276936310735e-05 0 0.0049498209700333477 -5.3232650785564274e-05 0 0.0049524622754956778 -4.9640577734272368e-05 0 0.0049682222232346838 -3.3301276936310735e-05 0 0.0049392314714285686 -6.4384739489974001e-05 0 0.0049682222232346838 -3.3301276936310735e-05 0 0.0049498209700333477 -5.3232650785564274e-05 0 0.0049392314714285686 -6.4384739489974001e-05 0 0.0049498209700333477 -5.3232650785564274e-05 0 0.004928204299462469 -7.8524171390801015e-05 0 0.0049392314714285686 -6.4384739489974001e-05 0 0.0049309455694607675 -7.4413502171585274e-05 0 0.0049392314714285686 -6.4384739489974001e-05 0 0.0049093519708308091 -0.00010381515899143588 0 0.004928204299462469 -7.8524171390801015e-05 0 0.0049392314714285686 -6.4384739489974001e-05 0 0.0049093519708308091 -0.00010381515899143588 0 0.0049398276255608236 -6.7731324867403235e-05 0 0.0049637432856743267 -5.6654450347527536e-05 0 0.0049388102720336387 -8.2817224709413339e-05 0 0.0049637432856743267 -5.6654450347527536e-05 0 0.0049612307715140797 -7.8142182603560214e-05 0 0.0049388102720336387 -8.2817224709413339e-05 0 0.0049498209700333477 -5.3232650785564274e-05 0 0.004928204299462469 -7.8524171390801015e-05 0 0.0049398276255608236 -6.7731324867403235e-05 0 0.004928204299462469 -7.8524171390801015e-05 0 0.0049398276255608236 -6.7731324867403235e-05 0 0.0049021448864073058 -0.00011256781651626826 0 0.0049696476474267396 -3.3120284679213086e-05 0 0.0049498209700333477 -5.3232650785564274e-05 0 0.0049591229661191619 -4.4328858485154817e-05 0 0.0049498209700333477 -5.3232650785564274e-05 0 0.0049398276255608236 -6.7731324867403235e-05 0 0.0049591229661191619 -4.4328858485154817e-05 0 0.0049398276255608236 -6.7731324867403235e-05 0 0.0049591229661191619 -4.4328858485154817e-05 0 0.0049637432856743267 -5.6654450347527536e-05 0 0.0049591229661191619 -4.4328858485154817e-05 0 0.0049678304358643666 -4.0096635806657205e-05 0 0.0049637432856743267 -5.6654450347527536e-05 0 0.0049893366107138766 -9.0011607923816904e-06 0 0.0049902888754865581 -2.100040468827503e-05 0 0.005000007954599147 2.983088921858181e-09 0 0.0049979735339630692 -2.6630092253510567e-06 0 0.0049999748782517733 -9.4374375768981914e-09 0 0.0049591229661191619 -4.4328858485154817e-05 0 0.0049706845357667829 -3.0223762246075654e-05 0 0.0049678304358643666 -4.0096635806657205e-05 0 0.0049696476474267396 -3.3120284679213086e-05 0 0.0049591229661191619 -4.4328858485154817e-05 0 0.0049706845357667829 -3.0223762246075654e-05 0 0.0049999344644697692 -6.1560732129159487e-08 0 0.0049696476474267396 -3.3120284679213086e-05 0 0.0049706845357667829 -3.0223762246075654e-05 0 0.0049999732890942342 -1.5976018040707943e-08 0 0.0049893366107138766 -9.0011607923816904e-06 0 0.0049979735339630692 -2.6630092253510567e-06 0 0.0049999748782517733 -9.4374375768981914e-09 0 0.0049905261645460204 -1.1858031934957251e-05 0 0.0049999748782517733 -9.4374375768981914e-09 0 0.0049919214837258509 -1.4991601001741315e-05 0 0.0050000200702409207 -5.9577921734064025e-09 0 0.0049999748782517733 -9.4374375768981914e-09 0 0.0049919214837258509 -1.4991601001741315e-05 0 0.0049905261645460204 -1.1858031934957251e-05 0 0.0049919214837258509 -1.4991601001741315e-05 0 0.0050000200702409207 -5.9577921734064025e-09 0 0.0049978619883499888 -1.6163704577914618e-05 0 0.0050000200702409207 -5.9577921734064025e-09 0 0.0049978619883499888 -1.6163704577914618e-05 0 0.0049876662595557857 -1.1847591889622072e-05 0 0.0049603610073755324 -7.2021780066896745e-05 0 0.0049527842740713359 -5.5305232532739361e-05 0 0.0049345720750341403 -6.0162160013469317e-05 0 0.0049603610073755324 -7.2021780066896745e-05 0 0.0049741783957978408 -5.7977765823959644e-05 0 0.0049856959062033572 -4.466238051185896e-05 0 0.0049919214837258509 -1.4991601001741315e-05 0 0.0049978619883499888 -1.6163704577914618e-05 0 0.0049856959062033572 -4.466238051185896e-05 0 0.004967405677406115 -3.923846688768868e-05 0 0.0049698728695849815 -4.0688571700218342e-05 0 0.0049741783957978408 -5.7977765823959644e-05 0 0.0049527842740713359 -5.5305232532739361e-05 0 0.0049724774771026147 -6.0101715917965386e-05 0 0.0049779160042954318 -5.9248749658980501e-05 0 0.0049741783957978408 -5.7977765823959644e-05 0 0.0049809084051584294 -5.3948328339487718e-05 0 0.0049741783957978408 -5.7977765823959644e-05 0 0.0049856959062033572 -4.466238051185896e-05 0 0.0049809084051584294 -5.3948328339487718e-05 0 0.0049779160042954318 -5.9248749658980501e-05 0 0.0049741783957978408 -5.7977765823959644e-05 0 0.0049724774771026147 -6.0101715917965386e-05 0 0.0049779160042954318 -5.9248749658980501e-05 0 0.0049786450526580883 -6.5842123436909915e-05 0 0.0049724774771026147 -6.0101715917965386e-05 0 0.0049603610073755324 -7.2021780066896745e-05 0 0.0049741783957978408 -5.7977765823959644e-05 0 0.0049527842740713359 -5.5305232532739361e-05 0 0.0049678304358643666 -4.0096635806657205e-05 0 0.0049728753736153894 -4.7954853215418607e-05 0 0.0049637432856743267 -5.6654450347527536e-05 0 0.0049678304358643666 -4.0096635806657205e-05 0 0.0049728753736153894 -4.7954853215418607e-05 0 0.0049840659055086639 -4.2157023416561397e-05 0 0.0049902888754865581 -2.100040468827503e-05 0 0.0049938054773561412 -2.7875707708455098e-05 0 0.0049728753736153894 -4.7954853215418607e-05 0 0.0049781965613856739 -5.0143703216052085e-05 0 0.0049723379369386832 -5.9441153704671626e-05 0 0.0049919214837258509 -1.4991601001741315e-05 0 0.0049856959062033572 -4.466238051185896e-05 0 0.0049840659055086639 -4.2157023416561397e-05 0 0.0049919214837258509 -1.4991601001741315e-05 0 0.0049905261645460204 -1.1858031934957251e-05 0 0.0049840659055086639 -4.2157023416561397e-05 0 0.0049856959062033572 -4.466238051185896e-05 0 0.0049824599221625805 -4.8651142763022696e-05 0 0.0049809084051584294 -5.3948328339487718e-05 0 0.0049856959062033572 -4.466238051185896e-05 0 0.0049840659055086639 -4.2157023416561397e-05 0 0.0049824599221625805 -4.8651142763022696e-05 0 0.0049728753736153894 -4.7954853215418607e-05 0 0.0049840659055086639 -4.2157023416561397e-05 0 0.0049781965613856739 -5.0143703216052085e-05 0 0.0049824599221625805 -4.8651142763022696e-05 0 0.0049781965613856739 -5.0143703216052085e-05 0 0.0049805954584020663 -5.2813212220277725e-05 0 0.0049840659055086639 -4.2157023416561397e-05 0 0.0049824599221625805 -4.8651142763022696e-05 0 0.0049781965613856739 -5.0143703216052085e-05 0 0.0049781965613856739 -5.0143703216052085e-05 0 0.0049779953109095358 -5.8438525584370119e-05 0 0.0049723379369386832 -5.9441153704671626e-05 0 0.0049781965613856739 -5.0143703216052085e-05 0 0.0049779953109095358 -5.8438525584370119e-05 0 0.0049805954584020663 -5.2813212220277725e-05 0 0.0049824599221625805 -4.8651142763022696e-05 0 0.0049809084051584294 -5.3948328339487718e-05 0 0.0049805954584020663 -5.2813212220277725e-05 0 0.0049809084051584294 -5.3948328339487718e-05 0 0.0049805954584020663 -5.2813212220277725e-05 0 0.0049796723209305305 -5.8042932549085991e-05 0 0.0049779953109095358 -5.8438525584370119e-05 0 0.0049805954584020663 -5.2813212220277725e-05 0 0.0049796723209305305 -5.8042932549085991e-05 0 0.0049779160042954318 -5.9248749658980501e-05 0 0.0049809084051584294 -5.3948328339487718e-05 0 0.0049796723209305305 -5.8042932549085991e-05 0 0.0049779160042954318 -5.9248749658980501e-05 0 0.0049796723209305305 -5.8042932549085991e-05 0 0.0049786450526580883 -6.5842123436909915e-05 0 0.0049779953109095358 -5.8438525584370119e-05 0 0.0049796723209305305 -5.8042932549085991e-05 0 0.0049786450526580883 -6.5842123436909915e-05 0 0.0049779953109095358 -5.8438525584370119e-05 0 0.0049786450526580883 -6.5842123436909915e-05 0 0.0049754202779275147 -7.0258015457549456e-05 0 0.0049779953109095358 -5.8438525584370119e-05 0 0.0049754202779275147 -7.0258015457549456e-05 0 0.0049723379369386832 -5.9441153704671626e-05 0 0.0049754202779275147 -7.0258015457549456e-05 0 0.0049723379369386832 -5.9441153704671626e-05 0 0.0049612307715140797 -7.8142182603560214e-05 0 0.0049728753736153894 -4.7954853215418607e-05 0 0.0049723379369386832 -5.9441153704671626e-05 0 0.0049637432856743267 -5.6654450347527536e-05 0 0.0049723379369386832 -5.9441153704671626e-05 0 0.0049637432856743267 -5.6654450347527536e-05 0 0.0049612307715140797 -7.8142182603560214e-05 0 0.0049754202779275147 -7.0258015457549456e-05 0 0.0049789568005571515 -7.8799089870894705e-05 0 0.0049726945469062986 -0.00011599093633203275 0 0.0049754202779275147 -7.0258015457549456e-05 0 0.0049612307715140797 -7.8142182603560214e-05 0 0.0049726945469062986 -0.00011599093633203275 0 0.0049786450526580883 -6.5842123436909915e-05 0 0.0049754202779275147 -7.0258015457549456e-05 0 0.0049789568005571515 -7.8799089870894705e-05 0 0.0049786450526580883 -6.5842123436909915e-05 0 0.0049789568005571515 -7.8799089870894705e-05 0 0.0049724774771026147 -6.0101715917965386e-05 0 0.0050977144736639619 -0.00014963385430254863 0 0.0049726945469062986 -0.00011599093633203275 0 0.0050718349550170358 -0.00023411758258710158 0 0.0049804794003298208 -0.00011693665949280357 0 0.0049806613618100177 -0.00011594857460667268 0 0.0049789568005571515 -7.8799089870894705e-05 0 0.0049774469997814451 -7.2887669115282396e-05 0 0.0049726945469062986 -0.00011599093633203275 0 0.0049789568005571515 -7.8799089870894705e-05 0 0.0049774469997814451 -7.2887669115282396e-05 0 0.0049717826100988396 -6.3908875219597953e-05 0 0.0049724774771026147 -6.0101715917965386e-05 0 0.0049717826100988396 -6.3908875219597953e-05 0 0.0049551356859281427 -5.1688655425264826e-05 0 0.0049527842740713359 -5.5305232532739361e-05 0 0.0049724774771026147 -6.0101715917965386e-05 0 0.0049551356859281427 -5.1688655425264826e-05 0 0.0049789568005571515 -7.8799089870894705e-05 0 0.0049724774771026147 -6.0101715917965386e-05 0 0.0049717826100988396 -6.3908875219597953e-05 0 0.0049774469997814451 -7.2887669115282396e-05 0 0.0049717826100988396 -6.3908875219597953e-05 0 0.0049677749437318378 -5.7263979317548398e-05 0 0.0049804794003298208 -0.00011693665949280357 0 0.0048838793979807836 -0.00010187980153576833 0 0.0048692441158272592 -5.5469363980685741e-05 0 0.0048731108926525291 -5.1177308816619569e-05 0 0.0048731170686449748 -5.6721579503041495e-05 0 0.0048838793979807836 -0.00010187980153576833 0 0.0049030496340929939 -6.8620591906811004e-05 0 0.0049717826100988396 -6.3908875219597953e-05 0 0.0049677749437318378 -5.7263979317548398e-05 0 0.0049551356859281427 -5.1688655425264826e-05 0 0.004797784086683513 -4.1312498635065442e-05 0 0.0048032155253203432 -6.4866169568359217e-05 0 0.0048376422803742382 -5.1018397877046317e-05 0 0.0048838793979807836 -0.00010187980153576833 0 0.0048618352463843349 -8.1332553036803757e-05 0 0.0048032155253203432 -6.4866169568359217e-05 0 0.0048085682805510685 -8.8855298493777075e-05 0 0.0048376422803742382 -5.1018397877046317e-05 0 0.0052215882285797585 -0.00018029204568587829 0 0.0051308452000849211 -0.000297274641075917 0 0.0050718349550170358 -0.00023411758258710158 0 0.004797784086683513 -4.1312498635065442e-05 0 0.0048032155253203432 -6.4866169568359217e-05 0 0.0047687209906692616 -7.8367400520465986e-05 0 0.0048838793979807836 -0.00010187980153576833 0 0.0046945681521840896 -0.00016504609013393365 0 0.0050977144736639619 -0.00014963385430254863 0 0.0052215882285797585 -0.00018029204568587829 0 0.0050718349550170358 -0.00023411758258710158 0 0.0046945681521840896 -0.00016504609013393365 0 0.0044222870729162846 -0.00010848944834793293 0 0.0041539467732222739 -0.00028982558210005372 0 0.004269002498958994 -0.00036207040689499457 0 0.0042656352579618197 -0.00018814951382738809 0 0.0048032155253203432 -6.4866169568359217e-05 0 0.0047687209906692616 -7.8367400520465986e-05 0 0.0048085682805510685 -8.8855298493777075e-05 0 0.0042413273674124863 -0.00039961477057455042 0 0.0041539467732222739 -0.00028982558210005372 0 0.0039369924398314883 -0.0003701663245194281 0 0.0046945681521840896 -0.00016504609013393365 0 0.0046902438270065745 -0.00016935102732786893 0 0.0042413273674124863 -0.00039961477057455042 0 0.0041539467732222739 -0.00028982558210005372 0 0.004269002498958994 -0.00036207040689499457 0 0.0049726945469062986 -0.00011599093633203275 0 0.0049870752332489606 -0.00025921809928678878 0 0.0050718349550170358 -0.00023411758258710158 0 0.0051308452000849211 -0.000297274641075917 0 0.0049870752332489606 -0.00025921809928678878 0 0.0050718349550170358 -0.00023411758258710158 0 0.0046945681521840896 -0.00016504609013393365 0 0.0047403390065222321 -0.00022111868770961988 0 0.004269002498958994 -0.00036207040689499457 0 0.0044623949269295086 -0.00025521890288955846 0 0.0042656352579618197 -0.00018814951382738809 0 0.0042478857928476867 -0.00039085002906249589 0 0.0045623653981790042 -0.0003537750916935717 0 0.004269002498958994 -0.00036207040689499457 0 0.0045623653981790042 -0.0003537750916935717 0 0.004269002498958994 -0.00036207040689499457 0 0.0044623949269295086 -0.00025521890288955846 0 0.0045623653981790042 -0.0003537750916935717 0 0.0044623949269295086 -0.00025521890288955846 0 0.0046871317970396216 -0.00020513484339851817 0 0.0049726945469062986 -0.00011599093633203275 0 0.0049870752332489606 -0.00025921809928678878 0 0.0048403117549693595 -0.0002262402568751387 0 0.0045623653981790042 -0.0003537750916935717 0 0.0046871317970396216 -0.00020513484339851817 0 0.0048403117549693595 -0.0002262402568751387 0 0.0047403390065222321 -0.00022111868770961988 0 0.0047602481420444499 -0.00022897257493452303 0 0.0048403117549693595 -0.0002262402568751387 0 0.0048223641437634135 -0.000184503159803481 0 0.0048664105011628194 -0.00016838238128442725 0 0.0048223641437634135 -0.000184503159803481 0 0.0048595524941488543 -0.00014251721508996438 0 0.0048006481459808561 -0.00012905352863855712 0 0.0046871317970396216 -0.00020513484339851817 0 0.0048403117549693595 -0.0002262402568751387 0 0.0048223641437634135 -0.000184503159803481 0 0.0046871317970396216 -0.00020513484339851817 0 0.0048223641437634135 -0.000184503159803481 0 0.0048006481459808561 -0.00012905352863855712 0 0.0048223641437634135 -0.000184503159803481 0 0.0048595524941488543 -0.00014251721508996438 0 0.0048664105011628194 -0.00016838238128442725 0 0.0048886803193737664 -0.00014044589791940371 0 0.0048595524941488543 -0.00014251721508996438 0 0.0048664105011628194 -0.00016838238128442725 0 0.0048886803193737664 -0.00014044589791940371 0 0.0048595524941488543 -0.00014251721508996438 0 0.0048794171443816529 -0.00012591881003859535 0 0.0048886803193737664 -0.00014044589791940371 0 0.0048664105011628194 -0.00016838238128442725 0 0.0048891142018371043 -0.00013913335936445144 0 0.0048403117549693595 -0.0002262402568751387 0 0.0048664105011628194 -0.00016838238128442725 0 0.0048821359725022117 -0.00014648135587370798 0 0.0048664105011628194 -0.00016838238128442725 0 0.0048821359725022117 -0.00014648135587370798 0 0.0048891142018371043 -0.00013913335936445144 0 0.0049001793029327303 -0.00011893567809563185 0 0.0048891142018371043 -0.00013913335936445144 0 0.0049093519708308091 -0.00010381515899143588 0 0.0048821359725022117 -0.00014648135587370798 0 0.0048891142018371043 -0.00013913335936445144 0 0.0049093519708308091 -0.00010381515899143588 0 0.0048821359725022117 -0.00014648135587370798 0 0.0049093519708308091 -0.00010381515899143588 0 0.0049021448864073058 -0.00011256781651626826 0 0.004928204299462469 -7.8524171390801015e-05 0 0.0049093519708308091 -0.00010381515899143588 0 0.0049021448864073058 -0.00011256781651626826 0 0.0049398276255608236 -6.7731324867403235e-05 0 0.0049021448864073058 -0.00011256781651626826 0 0.0049388102720336387 -8.2817224709413339e-05 0 0.0049612307715140797 -7.8142182603560214e-05 0 0.0049726945469062986 -0.00011599093633203275 0 0.0049190595509870372 -0.00011886553232548001 0 0.0049021448864073058 -0.00011256781651626826 0 0.0049388102720336387 -8.2817224709413339e-05 0 0.0049190595509870372 -0.00011886553232548001 0 0.0049612307715140797 -7.8142182603560214e-05 0 0.0049388102720336387 -8.2817224709413339e-05 0 0.0049190595509870372 -0.00011886553232548001 0 0.0049726945469062986 -0.00011599093633203275 0 0.0048403117549693595 -0.0002262402568751387 0 0.0049190595509870372 -0.00011886553232548001 0 0.0048403117549693595 -0.0002262402568751387 0 0.0048821359725022117 -0.00014648135587370798 0 0.0049021448864073058 -0.00011256781651626826 0 0.0048403117549693595 -0.0002262402568751387 0 0.0049021448864073058 -0.00011256781651626826 0 0.0049190595509870372 -0.00011886553232548001 0 0.0049995967356831015 2.8466953794870138e-08 0 0.0049519457303832315 -8.4514450723741252e-06 0 0.0049998829412791065 -5.3004012798384344e-08 0 0.0049995967356831015 2.8466953794870138e-08 0 0.0047903323511262258 9.2414473404371846e-06 0 0.0040013751204142824 3.1193456757547695e-08 0 0.0042556512400963708 -1.3739854952892372e-05 0 0.0047903323511262258 9.2414473404371846e-06 0 0.0040013751204142824 3.1193456757547695e-08 0 0.0042556512400963708 -1.3739854952892372e-05 0 0.0044077596194518611 2.4004812473732114e-05 0 0.0047903323511262258 9.2414473404371846e-06 0 0.0049995967356831015 2.8466953794870138e-08 0 0.0047903323511262258 9.2414473404371846e-06 0 0.0049519457303832315 -8.4514450723741252e-06 0 0.004912919065225947 2.1902880311295923e-05 0 0.0047903323511262258 9.2414473404371846e-06 0 0.0049519457303832315 -8.4514450723741252e-06 0 0.0046758049313178427 -2.2531434485602683e-05 0 0.0046892195300428279 -1.5737752528118631e-05 0 0.0049519457303832315 -8.4514450723741252e-06 0 0.004940123230126609 -2.3469081988396637e-05 0 0.0049335528463086472 -1.0195167025248909e-05 0 0.0046758049313178427 -2.2531434485602683e-05 0 0.0046940395769621696 -2.9190487589309972e-05 0 0.004912919065225947 2.1902880311295923e-05 0 0.0049519457303832315 -8.4514450723741252e-06 0 0.004940123230126609 -2.3469081988396637e-05 0 0.0042556512400963708 -1.3739854952892372e-05 0 0.0044077596194518611 2.4004812473732114e-05 0 0.0043477913439540798 -0.00010215835619200896 0 0.0042556512400963708 -1.3739854952892372e-05 0 0.0043477913439540798 -0.00010215835619200896 0 0.0043249332434915234 2.3607518738166296e-05 0 0.0043477913439540798 -0.00010215835619200896 0 0.0045555223628568446 1.6958990300023014e-05 0 0.0043249332434915234 2.3607518738166296e-05 0 0.0046940395769621696 -2.9190487589309972e-05 0 0.0047302307175480221 -2.2708209309037388e-05 0 0.0043477913439540798 -0.00010215835619200896 0 0.0047602136542661422 -7.1411507932041152e-05 0 0.0045555223628568446 1.6958990300023014e-05 0 0.004940123230126609 -2.3469081988396637e-05 0 0.0047602136542661422 -7.1411507932041152e-05 0 0.0048694240828164722 -3.9286679373386123e-05 0 0.0047602136542661422 -7.1411507932041152e-05 0 0.0048711958801468504 -5.8237539065906813e-05 0 0.0048694240828164722 -3.9286679373386123e-05 0 0.0047602136542661422 -7.1411507932041152e-05 0 0.0048711958801468504 -5.8237539065906813e-05 0 0.004877962018942336 -4.842951075748201e-05 0 0.0047602136542661422 -7.1411507932041152e-05 0 0.004877962018942336 -4.842951075748201e-05 0 0.0047610107056252219 4.3447946892717534e-05 0 0.0048711958801468504 -5.8237539065906813e-05 0 0.0048694240828164722 -3.9286679373386123e-05 0 0.0048996148480271156 -5.3085163207108158e-05 0 0.0048694240828164722 -3.9286679373386123e-05 0 0.0049327914820521202 -1.3750557858729541e-05 0 0.0048996148480271156 -5.3085163207108158e-05 0 0.0048694240828164722 -3.9286679373386123e-05 0 0.0049335528463086472 -1.0195167025248909e-05 0 0.0049327914820521202 -1.3750557858729541e-05 0 0.004940123230126609 -2.3469081988396637e-05 0 0.0048694240828164722 -3.9286679373386123e-05 0 0.0049335528463086472 -1.0195167025248909e-05 0 0.0049998829412791065 -5.3004012798384344e-08 0 0.0049327914820521202 -1.3750557858729541e-05 0 0.0049876662595557857 -1.1847591889622072e-05 0 0.0049519457303832315 -8.4514450723741252e-06 0 0.0049335528463086472 -1.0195167025248909e-05 0 0.0049998829412791065 -5.3004012798384344e-08 0 0.0049335528463086472 -1.0195167025248909e-05 0 0.0049998829412791065 -5.3004012798384344e-08 0 0.0049327914820521202 -1.3750557858729541e-05 0 0.0050000200702409207 -5.9577921734064025e-09 0 0.0049998829412791065 -5.3004012798384344e-08 0 0.0049876662595557857 -1.1847591889622072e-05 0 0.0049517479743517159 -3.3142969530702577e-05 0 0.0049573043786130368 -3.6080836511925999e-05 0 0.0049603610073755324 -7.2021780066896745e-05 0 0.0049345720750341403 -6.0162160013469317e-05 0 0.0049066643124382201 -6.6024133125128234e-05 0 0.0049345720750341403 -6.0162160013469317e-05 0 0.0049066643124382201 -6.6024133125128234e-05 0 0.0049253301536473486 -5.0708185502100229e-05 0 0.004967405677406115 -3.923846688768868e-05 0 0.0049573043786130368 -3.6080836511925999e-05 0 0.0049327914820521202 -1.3750557858729541e-05 0 0.0049066643124382201 -6.6024133125128234e-05 0 0.0048996148480271156 -5.3085163207108158e-05 0 0.0049066643124382201 -6.6024133125128234e-05 0 0.0048996148480271156 -5.3085163207108158e-05 0 0.0049253301536473486 -5.0708185502100229e-05 0 0.0049003205837397602 -6.2780315196253069e-05 0 0.0049021976803646757 -6.2810763942185231e-05 0 0.0048711958801468504 -5.8237539065906813e-05 0 0.004877962018942336 -4.842951075748201e-05 0 0.0048805376066554896 -4.9575038373206351e-05 0 0.0048711958801468504 -5.8237539065906813e-05 0 0.0048996148480271156 -5.3085163207108158e-05 0 0.0048805376066554896 -4.9575038373206351e-05 0 0.0049527842740713359 -5.5305232532739361e-05 0 0.0049253301536473486 -5.0708185502100229e-05 0 0.0049551356859281427 -5.1688655425264826e-05 0 0.0049527842740713359 -5.5305232532739361e-05 0 0.0049345720750341403 -6.0162160013469317e-05 0 0.0049253301536473486 -5.0708185502100229e-05 0 0.0048805376066554896 -4.9575038373206351e-05 0 0.0048731108926525291 -5.1177308816619569e-05 0 0.0048772594544530803 -5.0448012967929643e-05 0 0.0049021976803646757 -6.2810763942185231e-05 0 0.0049030496340929939 -6.8620591906811004e-05 0 0.004877962018942336 -4.842951075748201e-05 0 0.0048805376066554896 -4.9575038373206351e-05 0 0.0048772594544530803 -5.0448012967929643e-05 0 0.004877962018942336 -4.842951075748201e-05 0 0.0048772594544530803 -5.0448012967929643e-05 0 0.0048790681453679671 -5.1655291301804096e-05 0 0.0048753315966016354 -5.3856144210124176e-05 0 0.0048759613184347446 -6.2937625102055294e-05 0 0.0048790681453679671 -5.1655291301804096e-05 0 0.0048772594544530803 -5.0448012967929643e-05 0 0.0048753315966016354 -5.3856144210124176e-05 0 0.0048790681453679671 -5.1655291301804096e-05 0 0.0048731108926525291 -5.1177308816619569e-05 0 0.0048753315966016354 -5.3856144210124176e-05 0 0.0048731170686449748 -5.6721579503041495e-05 0 0.0048731108926525291 -5.1177308816619569e-05 0 0.0048772594544530803 -5.0448012967929643e-05 0 0.0048753315966016354 -5.3856144210124176e-05 0 0.0039369924398314883 -0.0003701663245194281 0 0.0036495958087902993 -0.00030692211652334712 0 0.0036740385008240104 -0.00029400414431473681 0 0.0048085682805510685 -8.8855298493777075e-05 0 0.0048526766382712893 -7.3814637787915574e-05 0 0.0048477566859716475 -9.7981265594784497e-05 0 0.0044222870729162846 -0.00010848944834793293 0 0.0042194111669192989 -1.2726848687534849e-05 0 0.0048085682805510685 -8.8855298493777075e-05 0 0.0048376422803742382 -5.1018397877046317e-05 0 0.0048526766382712893 -7.3814637787915574e-05 0 0.0042052048179693803 6.8651584612445629e-05 0 0.0042194111669192989 -1.2726848687534849e-05 0 0.0048526766382712893 -7.3814637787915574e-05 0 0.0048759613184347446 -6.2937625102055294e-05 0 0.0048834811146350656 -7.3939149023204134e-05 0 0.0041058925923602866 -2.7566949295039186e-05 0 0.0041049863766817523 -2.2060526505130647e-05 0 0.0041129138133481425 -2.4436428075652563e-05 0 0.0048526766382712893 -7.3814637787915574e-05 0 0.0048834811146350656 -7.3939149023204134e-05 0 0.0048477566859716475 -9.7981265594784497e-05 0 0.0048376422803742382 -5.1018397877046317e-05 0 0.0048526766382712893 -7.3814637787915574e-05 0 0.0048759613184347446 -6.2937625102055294e-05 0 0.0048753315966016354 -5.3856144210124176e-05 0 0.0048731170686449748 -5.6721579503041495e-05 0 0.0048759613184347446 -6.2937625102055294e-05 0 0.0048618352463843349 -8.1332553036803757e-05 0 0.0048642231897032141 -7.7750662799950767e-05 0 0.0042052048179693803 6.8651584612445629e-05 0 0.004533137189850483 5.9502468534349733e-05 0 0.0048759613184347446 -6.2937625102055294e-05 0 0.0048834811146350656 -7.3939149023204134e-05 0 0.0048790681453679671 -5.1655291301804096e-05 0 0.0047089190481165791 0.00041516488564660514 0 0.0048294149590370049 0.00063886302136675769 0 0.0048663394706975087 0.00023452523996644092 0 0.0042052048179693803 6.8651584612445629e-05 0 0.0038852958265597967 8.8958331075577595e-05 0 0.0034827190551820412 0.00015230741446263743 0 0.0035535653846467037 0.00011610122672469642 0 0.0035073483628151833 9.2106388604325153e-05 0 0.0034827190551820412 0.00015230741446263743 0 0.0035535653846467037 0.00011610122672469642 0 0.0035919288829519302 0.00022579609395868497 0 0.0035535653846467037 0.00011610122672469642 0 0.0035919288829519302 0.00022579609395868497 0 0.0036420073824653784 0.00013626110252205109 0 0.0042052048179693803 6.8651584612445629e-05 0 0.0041185927144767971 0.00016818067360919493 0 0.0047089190481165791 0.00041516488564660514 0 0.0048294149590370049 0.00063886302136675769 0 0.0044960975334544353 0.00049173333831780276 0 0.0047089190481165791 0.00041516488564660514 0 0.0044960975334544353 0.00049173333831780276 0 0.0045963749554449301 0.00028656738533567959 0 0.0044960975334544353 0.00049173333831780276 0 0.0045963749554449301 0.00028656738533567959 0 0.0043793028295786521 0.00018912975948621086 0 0.0045963749554449301 0.00028656738533567959 0 0.0046124446241405364 0.00012961336309693129 0 0.0043793028295786521 0.00018912975948621086 0 0.0047089190481165791 0.00041516488564660514 0 0.0045963749554449301 0.00028656738533567959 0 0.0048663394706975087 0.00023452523996644092 0 0.0045963749554449301 0.00028656738533567959 0 0.0048663394706975087 0.00023452523996644092 0 0.0046124446241405364 0.00012961336309693129 0 0.004877962018942336 -4.842951075748201e-05 0 0.0048663394706975087 0.00023452523996644092 0 0.0047610107056252219 4.3447946892717534e-05 0 0.0046266686593699089 4.3635017915995156e-06 0 0.004533137189850483 5.9502468534349733e-05 0 0.0048663394706975087 0.00023452523996644092 0 0.0047610107056252219 4.3447946892717534e-05 0 0.0046124446241405364 0.00012961336309693129 0 0.0045555223628568446 1.6958990300023014e-05 0 0.0046124446241405364 0.00012961336309693129 0 0.0043249332434915234 2.3607518738166296e-05 0 0.0047602136542661422 -7.1411507932041152e-05 0 0.0047610107056252219 4.3447946892717534e-05 0 0.0045555223628568446 1.6958990300023014e-05 0 0.0047610107056252219 4.3447946892717534e-05 0 0.0045555223628568446 1.6958990300023014e-05 0 0.0046124446241405364 0.00012961336309693129 0 0.0046124446241405364 0.00012961336309693129 0 0.0043249332434915234 2.3607518738166296e-05 0 0.0043793028295786521 0.00018912975948621086 0 0.0042556512400963708 -1.3739854952892372e-05 0 0.0042102385496700177 4.4211808660639591e-05 0 0.0040832259943503124 7.728953561917187e-05 0 0.0042556512400963708 -1.3739854952892372e-05 0 0.0043249332434915234 2.3607518738166296e-05 0 0.0042102385496700177 4.4211808660639591e-05 0 0.0043249332434915234 2.3607518738166296e-05 0 0.0042102385496700177 4.4211808660639591e-05 0 0.0041886975782768985 9.0467665973858173e-05 0 0.0041886975782768985 9.0467665973858173e-05 0 0.0040832259943503124 7.728953561917187e-05 0 0.0040257724239707877 0.00021724555042970797 0 0.0042102385496700177 4.4211808660639591e-05 0 0.0041886975782768985 9.0467665973858173e-05 0 0.0040832259943503124 7.728953561917187e-05 0 0.0040832259943503124 7.728953561917187e-05 0 0.0040257724239707877 0.00021724555042970797 0 0.0038670714499339132 0.00020985004420955329 0 0.0043249332434915234 2.3607518738166296e-05 0 0.0041886975782768985 9.0467665973858173e-05 0 0.0043793028295786521 0.00018912975948621086 0 0.0041886975782768985 9.0467665973858173e-05 0 0.0040257724239707877 0.00021724555042970797 0 0.0043793028295786521 0.00018912975948621086 0 0.0044960975334544353 0.00049173333831780276 0 0.0040257724239707877 0.00021724555042970797 0 0.0043793028295786521 0.00018912975948621086 0 0.0035919288829519302 0.00022579609395868497 0 0.0037839085349450421 0.00017769749642253003 0 0.0036420073824653784 0.00013626110252205109 0 0.0035919288829519302 0.00022579609395868497 0 0.0040257724239707877 0.00021724555042970797 0 0.0037839085349450421 0.00017769749642253003 0 0.0041185927144767971 0.00016818067360919493 0 0.0040656696009692735 0.00017220492390846608 0 0.0037839085349450421 0.00017769749642253003 0 0.0036420073824653784 0.00013626110252205109 0 0.0036859480703867356 0.00013180879152900488 0 0.0036420073824653784 0.00013626110252205109 0 0.0036859480703867356 0.00013180879152900488 0 0.0035822965304552201 0.00010563377464473084 0 0.0035535653846467037 0.00011610122672469642 0 0.0036420073824653784 0.00013626110252205109 0 0.0035822965304552201 0.00010563377464473084 0 0.0036859480703867356 0.00013180879152900488 0 0.0038670714499339132 0.00020985004420955329 0 0.003659030697033769 8.9677603462033411e-05 0 0.0037839085349450421 0.00017769749642253003 0 0.0036859480703867356 0.00013180879152900488 0 0.0038670714499339132 0.00020985004420955329 0 0.0037711218173221935 8.4567088724035448e-05 0 0.0036782135170871423 4.7836660609908052e-05 0 0.0040257724239707877 0.00021724555042970797 0 0.0037839085349450421 0.00017769749642253003 0 0.0038670714499339132 0.00020985004420955329 0 0.0038157635458676222 8.9502135403778818e-05 0 0.0037711218173221935 8.4567088724035448e-05 0 0.0040832259943503124 7.728953561917187e-05 0 0.0038910124288030466 1.3649181748932071e-05 0 0.0040013751204142824 3.1193456757547695e-08 0 0.0038910124288030466 1.3649181748932071e-05 0 0.0040013751204142824 3.1193456757547695e-08 0 0.0036934504861715744 -6.0874438744275332e-06 0 0.0042556512400963708 -1.3739854952892372e-05 0 0.0040832259943503124 7.728953561917187e-05 0 0.0040013751204142824 3.1193456757547695e-08 0 0.0040013751204142824 3.1193456757547695e-08 0 0.0032546554145211582 4.9175149908124816e-09 0 0.0034650837220828695 -7.895804748918391e-06 0 0.0032546554145211582 4.9175149908124816e-09 0 0.0034650837220828695 -7.895804748918391e-06 0 0.0031072949289328083 -5.9707929074615883e-06 0 0.0034650837220828695 -7.895804748918391e-06 0 0.0032836015800991394 -1.1829006870550842e-05 0 0.0031072949289328083 -5.9707929074615883e-06 0 0.0034650837220828695 -7.895804748918391e-06 0 0.003487052849195389 -7.816274673426354e-06 0 0.0032836015800991394 -1.1829006870550842e-05 0 0.0040013751204142824 3.1193456757547695e-08 0 0.0034650837220828695 -7.895804748918391e-06 0 0.0036934504861715744 -6.0874438744275332e-06 0 0.0034650837220828695 -7.895804748918391e-06 0 0.003487052849195389 -7.816274673426354e-06 0 0.0036934504861715744 -6.0874438744275332e-06 0 0.0034644470474704029 1.4963654219201217e-05 0 0.003659030697033769 8.9677603462033411e-05 0 0.0034421034366836239 2.6817818415398017e-05 0 0.0034644470474704029 1.4963654219201217e-05 0 0.0034421034366836239 2.6817818415398017e-05 0 0.0033643566340633788 -1.2857575669870594e-06 0 0.0036859480703867356 0.00013180879152900488 0 0.003659030697033769 8.9677603462033411e-05 0 0.0034421034366836239 2.6817818415398017e-05 0 0.0035860065723376318 1.2848049201519838e-05 0 0.0036782135170871423 4.7836660609908052e-05 0 0.0035155776416593023 8.5816296599986928e-05 0 0.0035822965304552201 0.00010563377464473084 0 0.0035104239206363548 6.280105897937806e-05 0 0.0034887574959679927 8.545090450913826e-05 0 0.0034385415889018837 5.1060939053911212e-05 0 0.0035535653846467037 0.00011610122672469642 0 0.0035155776416593023 8.5816296599986928e-05 0 0.0035822965304552201 0.00010563377464473084 0 0.0036859480703867356 0.00013180879152900488 0 0.0035822965304552201 0.00010563377464473084 0 0.0035104239206363548 6.280105897937806e-05 0 0.0035155776416593023 8.5816296599986928e-05 0 0.0035104239206363548 6.280105897937806e-05 0 0.0034226918654237147 4.6129087443547708e-05 0 0.0033554095883473385 3.6573113139867982e-05 0 0.0033578530607044832 4.3452809632382909e-05 0 0.0034226918654237147 4.6129087443547708e-05 0 0.0034421034366836239 2.6817818415398017e-05 0 0.0033643566340633788 -1.2857575669870594e-06 0 0.0032631033848725109 -2.0715098700491344e-05 0 0.0035104239206363548 6.280105897937806e-05 0 0.0033554095883473385 3.6573113139867982e-05 0 0.0034226918654237147 4.6129087443547708e-05 0 0.0034385415889018837 5.1060939053911212e-05 0 0.0033568209991911048 3.1938066633615907e-05 0 0.0035860065723376318 1.2848049201519838e-05 0 0.0035424451736959912 -3.0843863421747306e-07 0 0.0034644470474704029 1.4963654219201217e-05 0 0.0033643566340633788 -1.2857575669870594e-06 0 0.0032836015800991394 -1.1829006870550842e-05 0 0.0033643566340633788 -1.2857575669870594e-06 0 0.0032836015800991394 -1.1829006870550842e-05 0 0.0032631033848725109 -2.0715098700491344e-05 0 0.0032836015800991394 -1.1829006870550842e-05 0 0.0031642272781119423 2.3369215023385759e-06 0 0.0031072949289328083 -5.9707929074615883e-06 0 0.0032836015800991394 -1.1829006870550842e-05 0 0.0032631033848725109 -2.0715098700491344e-05 0 0.0031642272781119423 2.3369215023385759e-06 0 0.0033554095883473385 3.6573113139867982e-05 0 0.0033152030526753997 4.7738450500443742e-05 0 0.0032506729617454316 5.4580231478634386e-05 0 0.0033554095883473385 3.6573113139867982e-05 0 0.0033578530607044832 4.3452809632382909e-05 0 0.0033152030526753997 4.7738450500443742e-05 0 0.0033578530607044832 4.3452809632382909e-05 0 0.00337952043624508 7.58197012973682e-05 0 0.0033212193555813125 6.7300078015037094e-05 0 0.0033578530607044832 4.3452809632382909e-05 0 0.0033152030526753997 4.7738450500443742e-05 0 0.0033212193555813125 6.7300078015037094e-05 0 0.0033152030526753997 4.7738450500443742e-05 0 0.0033212193555813125 6.7300078015037094e-05 0 0.0032506729617454316 5.4580231478634386e-05 0 0.00337952043624508 7.58197012973682e-05 0 0.0033803397553887719 0.00010582788815226174 0 0.0033212193555813125 6.7300078015037094e-05 0 0.00337952043624508 7.58197012973682e-05 0 0.0034336016435181347 0.00013110549513235258 0 0.0033803397553887719 0.00010582788815226174 0 0.0034336016435181347 0.00013110549513235258 0 0.0034350145021345957 0.00014534474509990489 0 0.0033803397553887719 0.00010582788815226174 0 0.00337952043624508 7.58197012973682e-05 0 0.0034402921487654008 5.9374256002724273e-05 0 0.0034336016435181347 0.00013110549513235258 0 0.0033578530607044832 4.3452809632382909e-05 0 0.00337952043624508 7.58197012973682e-05 0 0.003385774809578091 3.1837728119952217e-05 0 0.00337952043624508 7.58197012973682e-05 0 0.0034402921487654008 5.9374256002724273e-05 0 0.003385774809578091 3.1837728119952217e-05 0 0.0034402921487654008 5.9374256002724273e-05 0 0.003385774809578091 3.1837728119952217e-05 0 0.0034843218033934992 -2.7583320787167879e-05 0 0.0033578530607044832 4.3452809632382909e-05 0 0.003385774809578091 3.1837728119952217e-05 0 0.0034226918654237147 4.6129087443547708e-05 0 0.003385774809578091 3.1837728119952217e-05 0 0.0034226918654237147 4.6129087443547708e-05 0 0.003425156415787718 6.5851324786741843e-05 0 0.0035155776416593023 8.5816296599986928e-05 0 0.0034226918654237147 4.6129087443547708e-05 0 0.003425156415787718 6.5851324786741843e-05 0 0.0035535653846467037 0.00011610122672469642 0 0.0035155776416593023 8.5816296599986928e-05 0 0.0035073483628151833 9.2106388604325153e-05 0 0.0035155776416593023 8.5816296599986928e-05 0 0.003425156415787718 6.5851324786741843e-05 0 0.0033751931570783315 0.00012663510955308746 0 0.0036531495757287538 0.00013061933200957001 0 0.0038852958265597967 8.8958331075577595e-05 0 0.003385774809578091 3.1837728119952217e-05 0 0.003425156415787718 6.5851324786741843e-05 0 0.0033751931570783315 0.00012663510955308746 0 0.003385774809578091 3.1837728119952217e-05 0 0.0034011967859458509 -0.00021604498389610324 0 0.0034843218033934992 -2.7583320787167879e-05 0 0.0037436072547843958 5.243359985791815e-05 0 0.0038852958265597967 8.8958331075577595e-05 0 0.0034011967859458509 -0.00021604498389610324 0 0.0034843218033934992 -2.7583320787167879e-05 0 0.0035594854733206858 -0.00010971002313510602 0 0.0034843218033934992 -2.7583320787167879e-05 0 0.0035649802028335036 -2.7753902675791919e-05 0 0.0035594854733206858 -0.00010971002313510602 0 0.0035649802028335036 -2.7753902675791919e-05 0 0.0036708170633818933 -2.8413674382273495e-05 0 0.0035510166610377486 4.8748312168640697e-05 0 0.0035649802028335036 -2.7753902675791919e-05 0 0.0035594854733206858 -0.00010971002313510602 0 0.0036708170633818933 -2.8413674382273495e-05 0 0.0034011967859458509 -0.00021604498389610324 0 0.0035594854733206858 -0.00010971002313510602 0 0.0036239325478868629 -0.00022142679081582614 0 0.0038852958265597967 8.8958331075577595e-05 0 0.0042194111669192989 -1.2726848687534849e-05 0 0.0034011967859458509 -0.00021604498389610324 0 0.0036239325478868629 -0.00022142679081582614 0 0.0036517356561204771 -0.00030226720103678032 0 0.0035594854733206858 -0.00010971002313510602 0 0.0036239325478868629 -0.00022142679081582614 0 0.0036947462551596391 -0.00013774201960862857 0 0.0039369924398314883 -0.0003701663245194281 0 0.0038284623810018962 -0.000229297710606147 0 0.0036740385008240104 -0.00029400414431473681 0 0.0038284623810018962 -0.000229297710606147 0 0.0036740385008240104 -0.00029400414431473681 0 0.0037178763090032771 -0.00020696932695394435 0 0.0036239325478868629 -0.00022142679081582614 0 0.0036740385008240104 -0.00029400414431473681 0 0.0037178763090032771 -0.00020696932695394435 0 0.0036239325478868629 -0.00022142679081582614 0 0.0036517356561204771 -0.00030226720103678032 0 0.0036740385008240104 -0.00029400414431473681 0 0.0042194111669192989 -1.2726848687534849e-05 0 0.0042155678819116912 -1.4647677322441618e-05 0 0.0036239325478868629 -0.00022142679081582614 0 0.0037178763090032771 -0.00020696932695394435 0 0.0036947462551596391 -0.00013774201960862857 0 0.0037178763090032771 -0.00020696932695394435 0 0.0037682346192210361 -0.00016284707116521978 0 0.0036947462551596391 -0.00013774201960862857 0 0.0038284623810018962 -0.000229297710606147 0 0.0037178763090032771 -0.00020696932695394435 0 0.0037682346192210361 -0.00016284707116521978 0 0.0038284623810018962 -0.000229297710606147 0 0.0037682346192210361 -0.00016284707116521978 0 0.0038233819303868286 -8.8463256436526199e-05 0 0.0037682346192210361 -0.00016284707116521978 0 0.0036947462551596391 -0.00013774201960862857 0 0.0038233819303868286 -8.8463256436526199e-05 0 0.0036947462551596391 -0.00013774201960862857 0 0.0036708170633818933 -2.8413674382273495e-05 0 0.0038233819303868286 -8.8463256436526199e-05 0 0.0035594854733206858 -0.00010971002313510602 0 0.0036947462551596391 -0.00013774201960862857 0 0.0036708170633818933 -2.8413674382273495e-05 0 0.0036708170633818933 -2.8413674382273495e-05 0 0.0038287185770582485 1.6935009460446308e-05 0 0.0038233819303868286 -8.8463256436526199e-05 0 0.0036708170633818933 -2.8413674382273495e-05 0 0.0037629425495678695 0.00013310434929408415 0 0.0038287185770582485 1.6935009460446308e-05 0 0.0036708170633818933 -2.8413674382273495e-05 0 0.0037629425495678695 0.00013310434929408415 0 0.0035510166610377486 4.8748312168640697e-05 0 0.0037629425495678695 0.00013310434929408415 0 0.0035510166610377486 4.8748312168640697e-05 0 0.0034336016435181347 0.00013110549513235258 0 0.0034402921487654008 5.9374256002724273e-05 0 0.0035510166610377486 4.8748312168640697e-05 0 0.0034336016435181347 0.00013110549513235258 0 0.0034402921487654008 5.9374256002724273e-05 0 0.0034843218033934992 -2.7583320787167879e-05 0 0.0035510166610377486 4.8748312168640697e-05 0 0.0034843218033934992 -2.7583320787167879e-05 0 0.0035649802028335036 -2.7753902675791919e-05 0 0.0035510166610377486 4.8748312168640697e-05 0 0.0037012781647199791 6.4901500853813387e-05 0 0.0034336016435181347 0.00013110549513235258 0 0.0034876358475361435 0.00018603224855276218 0 0.0034336016435181347 0.00013110549513235258 0 0.0034876358475361435 0.00018603224855276218 0 0.0034350145021345957 0.00014534474509990489 0 0.0037890877988384542 8.815476934411406e-05 0 0.0036371937522618482 0.0001397522169779314 0 0.0034876358475361435 0.00018603224855276218 0 0.0033960011266471238 0.00017084517366166692 0 0.0033224805477415939 0.00026587967563591197 0 0.0037012781647199791 6.4901500853813387e-05 0 0.0034876358475361435 0.00018603224855276218 0 0.0038639967229151671 0.00025422857633995542 0 0.0035711376276950442 0.00021797454314754713 0 0.0036178100737319415 0.00021394871204991983 0 0.0033960011266471238 0.00017084517366166692 0 0.0034444672055874512 0.00014146494167514015 0 0.0034315602150551644 0.00012516887528652486 0 0.0034876358475361435 0.00018603224855276218 0 0.0033960011266471238 0.00017084517366166692 0 0.0034444672055874512 0.00014146494167514015 0 0.0034876358475361435 0.00018603224855276218 0 0.0034350145021345957 0.00014534474509990489 0 0.0034444672055874512 0.00014146494167514015 0 0.0034350145021345957 0.00014534474509990489 0 0.0034444672055874512 0.00014146494167514015 0 0.0033947454994814629 0.00013157876287963168 0 0.0030918491443612558 0.00024563525161962381 0 0.0030788788605364565 0.00027929015889586014 0 0.0034444672055874512 0.00014146494167514015 0 0.003399519659460093 0.00021774588380953335 0 0.0033947454994814629 0.00013157876287963168 0 0.0034444672055874512 0.00014146494167514015 0 0.0034315602150551644 0.00012516887528652486 0 0.003399519659460093 0.00021774588380953335 0 0.0027856076825015876 0.00033278873447293515 0 0.0027858032623025494 0.00037640246109862995 0 0.0027653036393888832 0.00038060759301395021 0 0.0027856076825015876 0.00033278873447293515 0 0.0027858032623025494 0.00037640246109862995 0 0.0028520710607644411 0.0003514707949960803 0 0.0027858032623025494 0.00037640246109862995 0 0.0028392544495078271 0.0004295367566614169 0 0.0027249138770106688 0.00038877949290268754 0 0.0027858032623025494 0.00037640246109862995 0 0.0027653036393888832 0.00038060759301395021 0 0.0027249138770106688 0.00038877949290268754 0 0.0027856076825015876 0.00033278873447293515 0 0.0027653036393888832 0.00038060759301395021 0 0.0027911427116985104 0.00040268619317350391 0 0.0027653036393888832 0.00038060759301395021 0 0.0028629669438819745 0.00032641039187279383 0 0.0028048582305253305 0.00028779785927167401 0 0.0027653036393888832 0.00038060759301395021 0 0.0027911427116985104 0.00040268619317350391 0 0.0028629669438819745 0.00032641039187279383 0 0.0028629669438819745 0.00032641039187279383 0 0.0030125781841781438 0.00033956784556192612 0 0.0029197756659268014 0.00031824543665867058 0 0.003399519659460093 0.00021774588380953335 0 0.0030125781841781438 0.00033956784556192612 0 0.0031974853381000505 0.00019712691155047919 0 0.0030788788605364565 0.00027929015889586014 0 0.0030535605692652242 0.0002991649627442072 0 0.0027911427116985104 0.00040268619317350391 0 0.0028629669438819745 0.00032641039187279383 0 0.0030125781841781438 0.00033956784556192612 0 0.0030125781841781438 0.00033956784556192612 0 0.0031974853381000505 0.00019712691155047919 0 0.0030710920272535285 0.00022912500614416685 0 0.0031974853381000505 0.00019712691155047919 0 0.0031867755808092342 0.00012855926890866287 0 0.0030710920272535285 0.00022912500614416685 0 0.0031867755808092342 0.00012855926890866287 0 0.0030909462958720697 9.4467377966925365e-05 0 0.0030710920272535285 0.00022912500614416685 0 0.0031867755808092342 0.00012855926890866287 0 0.0031811907409821792 8.2773124838944563e-05 0 0.00325566204846486 8.9668918937105876e-05 0 0.0031867755808092342 0.00012855926890866287 0 0.0031811907409821792 8.2773124838944563e-05 0 0.0030909462958720697 9.4467377966925365e-05 0 0.0031867755808092342 0.00012855926890866287 0 0.003293621627246428 0.00013392293315957557 0 0.00325566204846486 8.9668918937105876e-05 0 0.0031974853381000505 0.00019712691155047919 0 0.0031867755808092342 0.00012855926890866287 0 0.003293621627246428 0.00013392293315957557 0 0.003399519659460093 0.00021774588380953335 0 0.0031974853381000505 0.00019712691155047919 0 0.003293621627246428 0.00013392293315957557 0 0.003399519659460093 0.00021774588380953335 0 0.003293621627246428 0.00013392293315957557 0 0.0033947454994814629 0.00013157876287963168 0 0.003293621627246428 0.00013392293315957557 0 0.0033276914986103663 9.5809924433759878e-05 0 0.0033947454994814629 0.00013157876287963168 0 0.0033276914986103663 9.5809924433759878e-05 0 0.0033947454994814629 0.00013157876287963168 0 0.0033803397553887719 0.00010582788815226174 0 0.0034350145021345957 0.00014534474509990489 0 0.0033947454994814629 0.00013157876287963168 0 0.0033803397553887719 0.00010582788815226174 0 0.0033276914986103663 9.5809924433759878e-05 0 0.0033803397553887719 0.00010582788815226174 0 0.0033212193555813125 6.7300078015037094e-05 0 0.0033276914986103663 9.5809924433759878e-05 0 0.0033212193555813125 6.7300078015037094e-05 0 0.00325566204846486 8.9668918937105876e-05 0 0.0033212193555813125 6.7300078015037094e-05 0 0.0032506729617454316 5.4580231478634386e-05 0 0.00325566204846486 8.9668918937105876e-05 0 0.0031811907409821792 8.2773124838944563e-05 0 0.0032506729617454316 5.4580231478634386e-05 0 0.00325566204846486 8.9668918937105876e-05 0 0.003293621627246428 0.00013392293315957557 0 0.0033276914986103663 9.5809924433759878e-05 0 0.00325566204846486 8.9668918937105876e-05 0 0.0032631033848725109 -2.0715098700491344e-05 0 0.0031642272781119423 2.3369215023385759e-06 0 0.0031362552768435014 5.8561150195938203e-05 0 0.0033568209991911048 3.1938066633615907e-05 0 0.003313761005616095 4.4397917674903537e-05 0 0.0033554095883473385 3.6573113139867982e-05 0 0.0032506729617454316 5.4580231478634386e-05 0 0.0031362552768435014 5.8561150195938203e-05 0 0.0031642272781119423 2.3369215023385759e-06 0 0.0031081185706607864 2.9872531436126877e-05 0 0.0031362552768435014 5.8561150195938203e-05 0 0.0031811907409821792 8.2773124838944563e-05 0 0.0032506729617454316 5.4580231478634386e-05 0 0.0031362552768435014 5.8561150195938203e-05 0 0.0031642272781119423 2.3369215023385759e-06 0 0.0030684916706309371 1.42546010471857e-05 0 0.0031072949289328083 -5.9707929074615883e-06 0 0.0031642272781119423 2.3369215023385759e-06 0 0.0030684916706309371 1.42546010471857e-05 0 0.0031081185706607864 2.9872531436126877e-05 0 0.0030531310344073109 4.8016564945793572e-05 0 0.0029705063121514461 3.4152587656782835e-05 0 0.0029354377689703556 9.5063419347140604e-06 0 0.0030684916706309371 1.42546010471857e-05 0 0.0030531310344073109 4.8016564945793572e-05 0 0.0029354377689703556 9.5063419347140604e-06 0 0.0030684916706309371 1.42546010471857e-05 0 0.0031081185706607864 2.9872531436126877e-05 0 0.0030531310344073109 4.8016564945793572e-05 0 0.0030531310344073109 4.8016564945793572e-05 0 0.0030909462958720697 9.4467377966925365e-05 0 0.0029705063121514461 3.4152587656782835e-05 0 0.0031081185706607864 2.9872531436126877e-05 0 0.0030531310344073109 4.8016564945793572e-05 0 0.0031362552768435014 5.8561150195938203e-05 0 0.0030531310344073109 4.8016564945793572e-05 0 0.0031362552768435014 5.8561150195938203e-05 0 0.0030909462958720697 9.4467377966925365e-05 0 0.0031811907409821792 8.2773124838944563e-05 0 0.0031362552768435014 5.8561150195938203e-05 0 0.0030909462958720697 9.4467377966925365e-05 0 0.0029462600401642292 9.2439245119724269e-05 0 0.0029043009594740738 0.00012719995181718186 0 0.0030125781841781438 0.00033956784556192612 0 0.0030710920272535285 0.00022912500614416685 0 0.0029422787728367846 0.00035690695580570502 0 0.0030909462958720697 9.4467377966925365e-05 0 0.0028777199396124438 6.3663391061524097e-06 0 0.0029705063121514461 3.4152587656782835e-05 0 0.0030909462958720697 9.4467377966925365e-05 0 0.0030710920272535285 0.00022912500614416685 0 0.0029422787728367846 0.00035690695580570502 0 0.0030125781841781438 0.00033956784556192612 0 0.0029422787728367846 0.00035690695580570502 0 0.0029197756659268014 0.00031824543665867058 0 0.0028777199396124438 6.3663391061524097e-06 0 0.0028488484450391888 2.3125812181917843e-06 0 0.0027400259107857265 -8.6576922048272118e-06 0 0.0028777199396124438 6.3663391061524097e-06 0 0.0028488484450391888 2.3125812181917843e-06 0 0.0029705063121514461 3.4152587656782835e-05 0 0.0028488484450391888 2.3125812181917843e-06 0 0.0029705063121514461 3.4152587656782835e-05 0 0.0029354377689703556 9.5063419347140604e-06 0 0.0029354377689703556 9.5063419347140604e-06 0 0.0027231277143988965 -5.4901422877018015e-06 0 0.0027005087590768048 -2.5515212314865632e-07 0 0.0028488484450391888 2.3125812181917843e-06 0 0.0029354377689703556 9.5063419347140604e-06 0 0.0027231277143988965 -5.4901422877018015e-06 0 0.0032546554145211582 4.9175149908124816e-09 0 0.0027005087590768048 -2.5515212314865632e-07 0 0.0031072949289328083 -5.9707929074615883e-06 0 0.0029354377689703556 9.5063419347140604e-06 0 0.0027005087590768048 -2.5515212314865632e-07 0 0.0031072949289328083 -5.9707929074615883e-06 0 0.0030684916706309371 1.42546010471857e-05 0 0.0029354377689703556 9.5063419347140604e-06 0 0.0031072949289328083 -5.9707929074615883e-06 0 0.0048186149304910936 -5.2337930050937933e-05 0 0.0048256642664047745 -5.4412968063257554e-05 0 0.0048224019011089258 -6.0156508435286526e-05 0 0.00402196476351131 -7.6426212948404275e-05 0 0.0040739649967621748 -8.4199320263107956e-05 0 0.00402196476351131 -7.6426212948404275e-05 0 0.0038266122717127509 9.7536904244507582e-05 0 0.0048380287170779086 9.7357856342577073e-05 0 0.0045862768637453004 0.00015446720351284735 0 0.0046991607675182729 4.7907722975989406e-05 0 0.0030818178379342274 0.00023511172042123437 0 0.0030494583014572646 0.00025378742469458983 0 0.003069056255374061 0.00025096379174480377 0 0.0030494583014572646 0.00025378742469458983 0 0.003069056255374061 0.00025096379174480377 0 0.0030633528845600807 0.00025408411038575985 0 0.0030748369125809046 0.00025634987720662066 0 0.003069056255374061 0.00025096379174480377 0 0.0030633528845600807 0.00025408411038575985 0 0.0030748369125809046 0.00025634987720662066 0 0.003069056255374061 0.00025096379174480377 0 0.0030866283182163657 0.00025561483920323851 0 0.0030818178379342274 0.00023511172042123437 0 0.003069056255374061 0.00025096379174480377 0 0.0030866283182163657 0.00025561483920323851 0 0.00402196476351131 -7.6426212948404275e-05 0 0.0038467718000746226 0.00012273046578422975 0 0.0048198326687303545 -5.3322575346488234e-05 0 0.0048233331662858149 -3.3911843419782055e-05 0 0.0048275022259232896 -4.534207636477552e-05 0 0.0048233331662858149 -3.3911843419782055e-05 0 0.0048343720383122778 -3.1488387485118442e-05 0 0.0048317462312078919 -3.799512298036428e-05 0 0.0048343720383122778 -3.1488387485118442e-05 0 0.0048391264349518254 -3.669024543872846e-05 0 0.0048416530324713308 -3.2535183451244199e-05 0 0.0048343720383122778 -3.1488387485118442e-05 0 0.0048391264349518254 -3.669024543872846e-05 0 0.0048317462312078919 -3.799512298036428e-05 0 0.0048391264349518254 -3.669024543872846e-05 0 0.0048338673617313596 -4.3090768885923147e-05 0 0.0048317462312078919 -3.799512298036428e-05 0 0.0048391264349518254 -3.669024543872846e-05 0 0.0048338673617313596 -4.3090768885923147e-05 0 0.0048426146670429481 -4.5078973560948009e-05 0 0.0048338673617313596 -4.3090768885923147e-05 0 0.0048317462312078919 -3.799512298036428e-05 0 0.0048275022259232896 -4.534207636477552e-05 0 0.0048233331662858149 -3.3911843419782055e-05 0 0.0048317462312078919 -3.799512298036428e-05 0 0.0048275022259232896 -4.534207636477552e-05 0 0.0048434253401709792 -3.5476674614560676e-05 0 0.0048485324596976636 -3.6091394403907324e-05 0 0.0048416530324713308 -3.2535183451244199e-05 0 0.0048391264349518254 -3.669024543872846e-05 0 0.0048485324596976636 -3.6091394403907324e-05 0 0.0048416530324713308 -3.2535183451244199e-05 0 0.0048391264349518254 -3.669024543872846e-05 0 0.0048485324596976636 -3.6091394403907324e-05 0 0.0048426146670429481 -4.5078973560948009e-05 0 0.0048485324596976636 -3.6091394403907324e-05 0 0.0048426146670429481 -4.5078973560948009e-05 0 0.0048593458129273254 -6.0149179583871939e-05 0 0.0048426146670429481 -4.5078973560948009e-05 0 0.0048593458129273254 -6.0149179583871939e-05 0 0.0048435734630680764 -5.6224969344445412e-05 0 0.0048593458129273254 -6.0149179583871939e-05 0 0.0048435734630680764 -5.6224969344445412e-05 0 0.0048544642992367094 -7.1353036908151509e-05 0 0.0048275022259232896 -4.534207636477552e-05 0 0.0048335769273710307 -5.0500070240002143e-05 0 0.0048256642664047745 -5.4412968063257554e-05 0 0.0048198326687303545 -5.3322575346488234e-05 0 0.0048275022259232896 -4.534207636477552e-05 0 0.0048256642664047745 -5.4412968063257554e-05 0 0.0048338673617313596 -4.3090768885923147e-05 0 0.0048275022259232896 -4.534207636477552e-05 0 0.0048335769273710307 -5.0500070240002143e-05 0 0.0048338673617313596 -4.3090768885923147e-05 0 0.0048426146670429481 -4.5078973560948009e-05 0 0.0048335769273710307 -5.0500070240002143e-05 0 0.0048426146670429481 -4.5078973560948009e-05 0 0.0048335769273710307 -5.0500070240002143e-05 0 0.0048435734630680764 -5.6224969344445412e-05 0 0.0048363698144581989 -6.1387739675709273e-05 0 0.0048435734630680764 -5.6224969344445412e-05 0 0.0048544642992367094 -7.1353036908151509e-05 0 0.0048335769273710307 -5.0500070240002143e-05 0 0.0048363698144581989 -6.1387739675709273e-05 0 0.0048435734630680764 -5.6224969344445412e-05 0 0.0048335769273710307 -5.0500070240002143e-05 0 0.0048363698144581989 -6.1387739675709273e-05 0 0.0048256642664047745 -5.4412968063257554e-05 0 0.0048363698144581989 -6.1387739675709273e-05 0 0.0048256642664047745 -5.4412968063257554e-05 0 0.0048224019011089258 -6.0156508435286526e-05 0 0.0048363698144581989 -6.1387739675709273e-05 0 0.0048224019011089258 -6.0156508435286526e-05 0 0.0048414253037790409 -8.5695713508567346e-05 0 0.0048363698144581989 -6.1387739675709273e-05 0 0.0048414253037790409 -8.5695713508567346e-05 0 0.0048544642992367094 -7.1353036908151509e-05 0 0.0048224019011089258 -6.0156508435286526e-05 0 0.0048414253037790409 -8.5695713508567346e-05 0 0.004804048898557743 -5.7931053228212688e-05 0 0.0048768203767063159 -8.31389084666088e-05 0 0.0048593458129273254 -6.0149179583871939e-05 0 0.0048544642992367094 -7.1353036908151509e-05 0 0.0048414253037790409 -8.5695713508567346e-05 0 0.0048544642992367094 -7.1353036908151509e-05 0 0.0048681772440927716 -9.9823651408507873e-05 0 0.0048768203767063159 -8.31389084666088e-05 0 0.0048544642992367094 -7.1353036908151509e-05 0 0.0048681772440927716 -9.9823651408507873e-05 0 0.0048595524941488543 -0.00014251721508996438 0 0.0048794171443816529 -0.00012591881003859535 0 0.0048681772440927716 -9.9823651408507873e-05 0 0.0048855691958934831 -0.00010127924666676967 0 0.0048794171443816529 -0.00012591881003859535 0 0.0048681772440927716 -9.9823651408507873e-05 0 0.0048595524941488543 -0.00014251721508996438 0 0.0048414253037790409 -8.5695713508567346e-05 0 0.0048681772440927716 -9.9823651408507873e-05 0 0.0048595524941488543 -0.00014251721508996438 0 0.0048414253037790409 -8.5695713508567346e-05 0 0.0048006481459808561 -0.00012905352863855712 0 0.0048006481459808561 -0.00012905352863855712 0 0.004804048898557743 -5.7931053228212688e-05 0 0.0047002881364921903 -9.589242592502299e-05 0 0.0048414253037790409 -8.5695713508567346e-05 0 0.0048006481459808561 -0.00012905352863855712 0 0.004804048898557743 -5.7931053228212688e-05 0 0.00402196476351131 -7.6426212948404275e-05 0 0.004108166146583497 -3.1336611725494593e-05 0 0.0048186149304910936 -5.2337930050937933e-05 0 0.0048224019011089258 -6.0156508435286526e-05 0 0.004804048898557743 -5.7931053228212688e-05 0 0.0048380287170779086 9.7357856342577073e-05 0 0.0046991607675182729 4.7907722975989406e-05 0 0.004804048898557743 -5.7931053228212688e-05 0 0.0046991607675182729 4.7907722975989406e-05 0 0.0047002881364921903 -9.589242592502299e-05 0 0.0044637006155519299 -0.00010757714775657159 0 0.0046991607675182729 4.7907722975989406e-05 0 0.004804048898557743 -5.7931053228212688e-05 0 0.0047002881364921903 -9.589242592502299e-05 0 0.0046871317970396216 -0.00020513484339851817 0 0.0048006481459808561 -0.00012905352863855712 0 0.0047002881364921903 -9.589242592502299e-05 0 0.0046871317970396216 -0.00020513484339851817 0 0.0047002881364921903 -9.589242592502299e-05 0 0.0044637006155519299 -0.00010757714775657159 0 0.0044623949269295086 -0.00025521890288955846 0 0.0046871317970396216 -0.00020513484339851817 0 0.0044637006155519299 -0.00010757714775657159 0 0.0044623949269295086 -0.00025521890288955846 0 0.0044637006155519299 -0.00010757714775657159 0 0.0042656352579618197 -0.00018814951382738809 0 0.0042402047717278362 -7.9037783296341074e-05 0 0.0040693771364466421 -1.2945943370924932e-05 0 0.0044637006155519299 -0.00010757714775657159 0 0.0041066091852622116 -5.0742621371295824e-05 0 0.0043434801573631584 3.9966053049755313e-05 0 0.0044637006155519299 -0.00010757714775657159 0 0.0042656352579618197 -0.00018814951382738809 0 0.0041261962359397586 4.0340509475585638e-05 0 0.0045862768637453004 0.00015446720351284735 0 0.0046991607675182729 4.7907722975989406e-05 0 0.0044637006155519299 -0.00010757714775657159 0 0.0045862768637453004 0.00015446720351284735 0 0.0044637006155519299 -0.00010757714775657159 0 0.0043434801573631584 3.9966053049755313e-05 0 0.0041539467732222739 -0.00028982558210005372 0 0.0039369924398314883 -0.0003701663245194281 0 0.0040224570865743875 -0.00018591025733998462 0 0.0038284623810018962 -0.000229297710606147 0 0.0040224570865743875 -0.00018591025733998462 0 0.0038233819303868286 -8.8463256436526199e-05 0 0.0039369924398314883 -0.0003701663245194281 0 0.0038284623810018962 -0.000229297710606147 0 0.0040224570865743875 -0.00018591025733998462 0 0.0042656352579618197 -0.00018814951382738809 0 0.0040224570865743875 -0.00018591025733998462 0 0.0041261962359397586 4.0340509475585638e-05 0 0.0041539467732222739 -0.00028982558210005372 0 0.0042656352579618197 -0.00018814951382738809 0 0.0040224570865743875 -0.00018591025733998462 0 0.0040224570865743875 -0.00018591025733998462 0 0.0041261962359397586 4.0340509475585638e-05 0 0.0038233819303868286 -8.8463256436526199e-05 0 0.0041261962359397586 4.0340509475585638e-05 0 0.0038287185770582485 1.6935009460446308e-05 0 0.0038233819303868286 -8.8463256436526199e-05 0 0.0037012781647199791 6.4901500853813387e-05 0 0.0040555881892804287 0.00012824349475236164 0 0.0038639967229151671 0.00025422857633995542 0 0.0037890877988384542 8.815476934411406e-05 0 0.0040693771364466421 -1.2945943370924932e-05 0 0.0037629425495678695 0.00013310434929408415 0 0.0041261962359397586 4.0340509475585638e-05 0 0.0038287185770582485 1.6935009460446308e-05 0 0.0037012781647199791 6.4901500853813387e-05 0 0.0041066091852622116 -5.0742621371295824e-05 0 0.0040555881892804287 0.00012824349475236164 0 0.0041066091852622116 -5.0742621371295824e-05 0 0.0040555881892804287 0.00012824349475236164 0 0.0043434801573631584 3.9966053049755313e-05 0 0.0040555881892804287 0.00012824349475236164 0 0.0038639967229151671 0.00025422857633995542 0 0.0042741181967700286 0.00022679337191832557 0 0.0036178100737319415 0.00021394871204991983 0 0.003707102124979344 0.00018161234611489306 0 0.0032073434926359746 0.00023235648598075712 0 0.0033224805477415939 0.00026587967563591197 0 0.003112960741785169 0.00029171569462131214 0 0.0038266122717127509 9.7536904244507582e-05 0 0.003707102124979344 0.00018161234611489306 0 0.0045862768637453004 0.00015446720351284735 0 0.0043434801573631584 3.9966053049755313e-05 0 0.0042741181967700286 0.00022679337191832557 0 0.0040555881892804287 0.00012824349475236164 0 0.0043434801573631584 3.9966053049755313e-05 0 0.0042741181967700286 0.00022679337191832557 0 0.0032073434926359746 0.00023235648598075712 0 0.003112960741785169 0.00029171569462131214 0 0.0030462763357157942 0.00022787112804967014 0 0.0030494583014572646 0.00025378742469458983 0 0.003112960741785169 0.00029171569462131214 0 0.0030462763357157942 0.00022787112804967014 0 0.0030494583014572646 0.00025378742469458983 0 0.0030462763357157942 0.00022787112804967014 0 0.0030633528845600807 0.00025408411038575985 0 0.0030462763357157942 0.00022787112804967014 0 0.0030538896153828148 0.00027207144132011476 0 0.0030633528845600807 0.00025408411038575985 0 0.0030462763357157942 0.00022787112804967014 0 0.0030044583430930186 0.00028938894497469378 0 0.0030538896153828148 0.00027207144132011476 0 0.0030462763357157942 0.00022787112804967014 0 0.0030044583430930186 0.00028938894497469378 0 0.0028933862648055481 0.00025892589547934732 0 0.0030623521205862614 0.00022777558383883093 0 0.0030761760680066376 0.00022784574859558234 0 0.0030044583430930186 0.00028938894497469378 0 0.0029276458689765721 0.00032559798979689576 0 0.0029740580724847104 0.00035893439312386711 0 0.0030044583430930186 0.00028938894497469378 0 0.0030538896153828148 0.00027207144132011476 0 0.0030506629171187113 0.00031787387504948663 0 0.0030044583430930186 0.00028938894497469378 0 0.0030506629171187113 0.00031787387504948663 0 0.0029740580724847104 0.00035893439312386711 0 0.0033960011266471238 0.00017084517366166692 0 0.0034315602150551644 0.00012516887528652486 0 0.0032496497822453482 0.00012772830897173098 0 0.0033960011266471238 0.00017084517366166692 0 0.0033224805477415939 0.00026587967563591197 0 0.0032496497822453482 0.00012772830897173098 0 0.0032073434926359746 0.00023235648598075712 0 0.0033224805477415939 0.00026587967563591197 0 0.0032496497822453482 0.00012772830897173098 0 0.0032073434926359746 0.00023235648598075712 0 0.0030462763357157942 0.00022787112804967014 0 0.0032496497822453482 0.00012772830897173098 0 0.0028933862648055481 0.00025892589547934732 0 0.0029276458689765721 0.00032559798979689576 0 0.0028520710607644411 0.0003514707949960803 0 0.0030044583430930186 0.00028938894497469378 0 0.0028933862648055481 0.00025892589547934732 0 0.0029276458689765721 0.00032559798979689576 0 0.0027856076825015876 0.00033278873447293515 0 0.0028933862648055481 0.00025892589547934732 0 0.0028520710607644411 0.0003514707949960803 0 0.0030918491443612558 0.00024563525161962381 0 0.0030761760680066376 0.00022784574859558234 0 0.0029276458689765721 0.00032559798979689576 0 0.0028520710607644411 0.0003514707949960803 0 0.0029081681516786948 0.00037986028920878906 0 0.0029276458689765721 0.00032559798979689576 0 0.0029081681516786948 0.00037986028920878906 0 0.0029740580724847104 0.00035893439312386711 0 0.0029081681516786948 0.00037986028920878906 0 0.0029550185878757175 0.00042820273801179353 0 0.0028392544495078271 0.0004295367566614169 0 0.0025232392472386337 0.00047434627293097638 0 0.0026094355028142735 0.0004586282186191847 0 0.0027858032623025494 0.00037640246109862995 0 0.0028520710607644411 0.0003514707949960803 0 0.0028392544495078271 0.0004295367566614169 0 0.0028520710607644411 0.0003514707949960803 0 0.0029081681516786948 0.00037986028920878906 0 0.0028392544495078271 0.0004295367566614169 0 0.0031099326777486694 0.00037994080395215436 0 0.0030632029300285812 0.0003861028034434263 0 0.0030387236172826782 0.00033781578573724522 0 0.0029740580724847104 0.00035893439312386711 0 0.0030508568560721739 0.00040801016684741088 0 0.0029081681516786948 0.00037986028920878906 0 0.0029740580724847104 0.00035893439312386711 0 0.0029550185878757175 0.00042820273801179353 0 0.0029740580724847104 0.00035893439312386711 0 0.0029550185878757175 0.00042820273801179353 0 0.0030508568560721739 0.00040801016684741088 0 0.0020946988841130097 0.00058505182926562162 0 0.0018194552391934101 0.00062667221206194536 0 0.0019568512300472511 0.00044393614435413089 0 0.0025232392472386337 0.00047434627293097638 0 0.0024382338955438771 0.00047142801225492047 0 0.0030508568560721739 0.00040801016684741088 0 0.0031365739838158453 0.00039151308250558496 0 0.0031018705993036016 0.00035857314067608102 0 0.0018194552391934101 0.00062667221206194536 0 0.0015640043240822432 0.00066521995754624519 0 0.0016477807918432346 0.00051661047014216037 0 0.0024382338955438771 0.00047142801225492047 0 0.002381287161668287 0.00043484108563320088 0 0.0015640043240822432 0.00066521995754624519 0 0.0014740174036623073 0.000511704699049241 0 0.0016477807918432346 0.00051661047014216037 0 0.0031365739838158453 0.00039151308250558496 0 0.0031456898199173446 0.00036208468296618321 0 0.0031770205286873673 0.00036302747973049706 0 0.0031365739838158453 0.00039151308250558496 0 0.0031456898199173446 0.00036208468296618321 0 0.0031018705993036016 0.00035857314067608102 0 0.0031355710252598014 0.0003361320285649372 0 0.0031018705993036016 0.00035857314067608102 0 0.0031024805608269399 0.00031580806141080759 0 0.0031456898199173446 0.00036208468296618321 0 0.0031355710252598014 0.0003361320285649372 0 0.0031018705993036016 0.00035857314067608102 0 0.0031456898199173446 0.00036208468296618321 0 0.0031355710252598014 0.0003361320285649372 0 0.0031560484214347329 0.00033860154353510322 0 0.0030387236172826782 0.00033781578573724522 0 0.0030508568560721739 0.00040801016684741088 0 0.0031018705993036016 0.00035857314067608102 0 0.0030387236172826782 0.00033781578573724522 0 0.0031018705993036016 0.00035857314067608102 0 0.0031024805608269399 0.00031580806141080759 0 0.0031099326777486694 0.00037994080395215436 0 0.0032511396742107576 0.0003664487861185167 0 0.0030538896153828148 0.00027207144132011476 0 0.0030506629171187113 0.00031787387504948663 0 0.0030790862375781945 0.00028782522613878957 0 0.0030790862375781945 0.00028782522613878957 0 0.0030813853912096904 0.00026657506978203244 0 0.0030950216791394889 0.00027595059985544132 0 0.0031355710252598014 0.0003361320285649372 0 0.0031024805608269399 0.00031580806141080759 0 0.0031658757912317753 0.00029322282554442079 0 0.0032511396742107576 0.0003664487861185167 0 0.0036238858374754717 0.00031167662069010087 0 0.0031355710252598014 0.0003361320285649372 0 0.0031658757912317753 0.00029322282554442079 0 0.0031560484214347329 0.00033860154353510322 0 0.0030866283182163657 0.00025561483920323851 0 0.0030813853912096904 0.00026657506978203244 0 0.0030950216791394889 0.00027595059985544132 0 0.0030748369125809046 0.00025634987720662066 0 0.0030866283182163657 0.00025561483920323851 0 0.0030813853912096904 0.00026657506978203244 0 0.0030748369125809046 0.00025634987720662066 0 0.0030813853912096904 0.00026657506978203244 0 0.0030633528845600807 0.00025408411038575985 0 0.0030790862375781945 0.00028782522613878957 0 0.0030813853912096904 0.00026657506978203244 0 0.0030633528845600807 0.00025408411038575985 0 0.0030538896153828148 0.00027207144132011476 0 0.0030790862375781945 0.00028782522613878957 0 0.0030633528845600807 0.00025408411038575985 0 0.0048434253401709792 -3.5476674614560676e-05 0 0.0048416530324713308 -3.2535183451244199e-05 0 0.0048378128325186169 -2.7462308842065643e-05 0 0.0039544542169037853 5.9182058799403433e-05 0 0.0036677881859469822 0.0002156180527555892 0 0.0048343720383122778 -3.1488387485118442e-05 0 0.0048363092138534493 -1.2841972705201456e-05 0 0.0048239368043368896 -8.3584031217674467e-06 0 0.0037778684972610203 0.00020513632324083053 0 0.0036677881859469822 0.0002156180527555892 0 0.0048343720383122778 -3.1488387485118442e-05 0 0.0048416530324713308 -3.2535183451244199e-05 0 0.0048378128325186169 -2.7462308842065643e-05 0 0.0038467718000746226 0.00012273046578422975 0 0.0036238858374754717 0.00031167662069010087 0 0.0048233331662858149 -3.3911843419782055e-05 0 0.0048343720383122778 -3.1488387485118442e-05 0 0.0048239368043368896 -8.3584031217674467e-06 0 0.0036677881859469822 0.0002156180527555892 0 0.0033224861322077941 0.00028082449426897996 0 0.0036677881859469822 0.0002156180527555892 0 0.0036238858374754717 0.00031167662069010087 0 0.0031658757912317753 0.00029322282554442079 0 0.0031560484214347329 0.00033860154353510322 0 0.0031770205286873673 0.00036302747973049706 0 0.0031666264041722539 0.0002912816932920594 0 0.0032098531859781768 0.00031767888113441538 0 0.0031798352797361342 0.00034922367780277806 0 0.0032003080545221752 0.00027898213773197469 0 0.0031666264041722539 0.0002912816932920594 0 0.0032098531859781768 0.00031767888113441538 0 0.0036238858374754717 0.00031167662069010087 0 0.0035447441042980739 0.00030007473264194857 0 0.0033224861322077941 0.00028082449426897996 0 0.0032998671652518497 0.00030005933770955464 0 0.0039544542169037853 5.9182058799403433e-05 0 0.0033224861322077941 0.00028082449426897996 0 0.0036968509637780181 5.2154107033599454e-05 0 0.0035061377471118562 0.00012207315958560059 0 0.0035338074964739786 0.00022946839417330921 0 0.0031738345764757495 0.00010752664299758687 0 0.003173742268612962 8.7797018902080083e-05 0 0.0032033036551432277 8.4900472531765646e-05 0 0.0033224861322077941 0.00028082449426897996 0 0.0024803456941576742 0.0003147840984223456 0 0.003173742268612962 8.7797018902080083e-05 0 0.0032033036551432277 8.4900472531765646e-05 0 0.0031978716753894828 5.8069970189585051e-05 0 0.0031365739838158453 0.00039151308250558496 0 0.0032215949521687774 0.00037538046019622789 0 0.0031770205286873673 0.00036302747973049706 0 0.0032074600609404871 0.00031901507816577926 0 0.0032215949521687774 0.00037538046019622789 0 0.0031798352797361342 0.00034922367780277806 0 0.002381287161668287 0.00043484108563320088 0 0.0024803456941576742 0.0003147840984223456 0 0.0031666264041722539 0.0002912816932920594 0 0.0031798352797361342 0.00034922367780277806 0 0.0031770205286873673 0.00036302747973049706 0 0.0031456898199173446 0.00036208468296618321 0 0.0031560484214347329 0.00033860154353510322 0 0.0031770205286873673 0.00036302747973049706 0 0.0032215949521687774 0.00037538046019622789 0 0.0031798352797361342 0.00034922367780277806 0 0.0031770205286873673 0.00036302747973049706 0 0.0015640043240822432 0.00066521995754624519 0 0.0013142020634574476 0.00070788203256040843 0 0.0014740174036623073 0.000511704699049241 0 0.0024803456941576742 0.0003147840984223456 0 0.0018286301888759309 0.00023457474349810153 0 0.0013142020634574476 0.00070788203256040843 0 0.0012437111968414695 0.00044507882202916935 0 0.0014740174036623073 0.000511704699049241 0 0.0011509470509757098 0.00035481297282189631 0 0.0012247096038718289 0.00040090509732806158 0 0.0011930125412695902 0.00028357156025529044 0 0.0012437111968414695 0.00044507882202916935 0 0.0014740174036623073 0.000511704699049241 0 0.0014669866853753712 0.00035320103506379457 0 0.0014669866853753712 0.00035320103506379457 0 0.0013761585377560586 0.00021558439057189912 0 0.0015631369379118516 0.00021503779944855343 0 0.0012437111968414695 0.00044507882202916935 0 0.0014669866853753712 0.00035320103506379457 0 0.0013761585377560586 0.00021558439057189912 0 0.0012437111968414695 0.00044507882202916935 0 0.0013761585377560586 0.00021558439057189912 0 0.0011749239146339955 0.00017326475483372101 0 0.0013761585377560586 0.00021558439057189912 0 0.0013291337148071448 3.4366652078473272e-05 0 0.0011749239146339955 0.00017326475483372101 0 0.0013761585377560586 0.00021558439057189912 0 0.0014781408170025587 9.8512387658871429e-05 0 0.0013291337148071448 3.4366652078473272e-05 0 0.0013761585377560586 0.00021558439057189912 0 0.0014781408170025587 9.8512387658871429e-05 0 0.0015631369379118516 0.00021503779944855343 0 0.0014781408170025587 9.8512387658871429e-05 0 0.0013291337148071448 3.4366652078473272e-05 0 0.0015389507662712475 -5.2096730737862165e-05 0 0.0013291337148071448 3.4366652078473272e-05 0 0.0011749239146339955 0.00017326475483372101 0 0.0011658550134349881 5.0596880894170583e-05 0 0.0013291337148071448 3.4366652078473272e-05 0 0.0011658550134349881 5.0596880894170583e-05 0 0.0011889000535729105 -9.1272239827398639e-05 0 0.0017298456453125315 -1.70986369958801e-05 0 0.0016081183118385391 8.1638917935080018e-05 0 0.0017302325376454208 0.00020017934649925708 0 0.0014781408170025587 9.8512387658871429e-05 0 0.0016081183118385391 8.1638917935080018e-05 0 0.0015389507662712475 -5.2096730737862165e-05 0 0.0017298456453125315 -1.70986369958801e-05 0 0.0016081183118385391 8.1638917935080018e-05 0 0.0015389507662712475 -5.2096730737862165e-05 0 0.0016081183118385391 8.1638917935080018e-05 0 0.0015631369379118516 0.00021503779944855343 0 0.0017302325376454208 0.00020017934649925708 0 0.0014781408170025587 9.8512387658871429e-05 0 0.0016081183118385391 8.1638917935080018e-05 0 0.0015631369379118516 0.00021503779944855343 0 0.0017298456453125315 -1.70986369958801e-05 0 0.0017302325376454208 0.00020017934649925708 0 0.0019059848148141568 8.9396600954695413e-05 0 0.0017302325376454208 0.00020017934649925708 0 0.0016054332317554233 0.00037223511884813246 0 0.0017808873368213322 0.00040697639778305972 0 0.0017302325376454208 0.00020017934649925708 0 0.0017808873368213322 0.00040697639778305972 0 0.0019237904257436884 0.00026700291767887925 0 0.0015631369379118516 0.00021503779944855343 0 0.0017302325376454208 0.00020017934649925708 0 0.0016054332317554233 0.00037223511884813246 0 0.0014669866853753712 0.00035320103506379457 0 0.0015631369379118516 0.00021503779944855343 0 0.0016054332317554233 0.00037223511884813246 0 0.0014740174036623073 0.000511704699049241 0 0.0016054332317554233 0.00037223511884813246 0 0.0016477807918432346 0.00051661047014216037 0 0.0014740174036623073 0.000511704699049241 0 0.0014669866853753712 0.00035320103506379457 0 0.0016054332317554233 0.00037223511884813246 0 0.0016054332317554233 0.00037223511884813246 0 0.0016477807918432346 0.00051661047014216037 0 0.0017808873368213322 0.00040697639778305972 0 0.0018194552391934101 0.00062667221206194536 0 0.0016477807918432346 0.00051661047014216037 0 0.0017808873368213322 0.00040697639778305972 0 0.0018194552391934101 0.00062667221206194536 0 0.0017808873368213322 0.00040697639778305972 0 0.0019568512300472511 0.00044393614435413089 0 0.0020946988841130097 0.00058505182926562162 0 0.0019568512300472511 0.00044393614435413089 0 0.0021802508512069525 0.00033136798985569855 0 0.0019568512300472511 0.00044393614435413089 0 0.0019237904257436884 0.00026700291767887925 0 0.0021802508512069525 0.00033136798985569855 0 0.0019237904257436884 0.00026700291767887925 0 0.0021802508512069525 0.00033136798985569855 0 0.0020683477524584882 0.00016342245318228348 0 0.0017808873368213322 0.00040697639778305972 0 0.0019568512300472511 0.00044393614435413089 0 0.0019237904257436884 0.00026700291767887925 0 0.0023976129679162085 0.00052147582050038224 0 0.0021802508512069525 0.00033136798985569855 0 0.0024539259242508066 0.00029311352898029269 0 0.0020946988841130097 0.00058505182926562162 0 0.0023976129679162085 0.00052147582050038224 0 0.0021802508512069525 0.00033136798985569855 0 0.0024539259242508066 0.00029311352898029269 0 0.0023860523893876164 8.02974614265946e-05 0 0.002667229868516387 0.00020168063274623646 0 0.0021802508512069525 0.00033136798985569855 0 0.0024539259242508066 0.00029311352898029269 0 0.0023860523893876164 8.02974614265946e-05 0 0.0021802508512069525 0.00033136798985569855 0 0.0023860523893876164 8.02974614265946e-05 0 0.0020683477524584882 0.00016342245318228348 0 0.0023860523893876164 8.02974614265946e-05 0 0.0020683477524584882 0.00016342245318228348 0 0.0021061306253221299 3.0625635770072782e-06 0 0.0023901258456170966 0.00017561526258790114 0 0.0021061306253221299 3.0625635770072782e-06 0 0.0023265905629556846 -0.000128524300847851 0 0.0024122615112141797 0.00012826397695657026 0 0.0022913412798984127 6.909226914263523e-05 0 0.0023901258456170966 0.00017561526258790114 0 0.002477277179331403 2.7159468726019406e-05 0 0.0023265905629556846 -0.000128524300847851 0 0.0019237904257436884 0.00026700291767887925 0 0.0019059848148141568 8.9396600954695413e-05 0 0.0020683477524584882 0.00016342245318228348 0 0.0017302325376454208 0.00020017934649925708 0 0.0019237904257436884 0.00026700291767887925 0 0.0019059848148141568 8.9396600954695413e-05 0 0.0019059848148141568 8.9396600954695413e-05 0 0.0020683477524584882 0.00016342245318228348 0 0.0021061306253221299 3.0625635770072782e-06 0 0.0019059848148141568 8.9396600954695413e-05 0 0.0021061306253221299 3.0625635770072782e-06 0 0.0018916391844950931 -9.523884075448571e-05 0 0.0017298456453125315 -1.70986369958801e-05 0 0.0019059848148141568 8.9396600954695413e-05 0 0.0018916391844950931 -9.523884075448571e-05 0 0.0018916391844950931 -9.523884075448571e-05 0 0.0020223896389243269 -0.0001699460805282297 0 0.0019436611999013359 -0.00031214606263666676 0 0.0021061306253221299 3.0625635770072782e-06 0 0.0018916391844950931 -9.523884075448571e-05 0 0.0020223896389243269 -0.0001699460805282297 0 0.0017994368802602433 -0.00032283835924320928 0 0.0018773874371991138 -0.00028290760891346543 0 0.0020223896389243269 -0.0001699460805282297 0 0.0019436611999013359 -0.00031214606263666676 0 0.002077635688302203 -0.00022062488398055525 0 0.0018916391844950931 -9.523884075448571e-05 0 0.0019436611999013359 -0.00031214606263666676 0 0.0017083145657345567 -0.00018499612720838569 0 0.0020741098542897689 -0.0002090593486119637 0 0.0020217956157137762 -0.00022264192033936202 0 0.0020429526551183647 -0.00020249512297495202 0 0.0020741098542897689 -0.0002090593486119637 0 0.002077635688302203 -0.00022062488398055525 0 0.0020429526551183647 -0.00020249512297495202 0 0.0021786930684792832 -0.00013908187032966727 0 0.002261586647250386 -0.0001110123358416375 0 0.002477277179331403 2.7159468726019406e-05 0 0.0023265905629556846 -0.000128524300847851 0 0.0025924374809891933 -4.2245113598337327e-05 0 0.0020223896389243269 -0.0001699460805282297 0 0.0020741098542897689 -0.0002090593486119637 0 0.002077635688302203 -0.00022062488398055525 0 0.0021132092693552837 -0.00015141106630624571 0 0.0021786930684792832 -0.00013908187032966727 0 0.0021061306253221299 3.0625635770072782e-06 0 0.0020223896389243269 -0.0001699460805282297 0 0.0023265905629556846 -0.000128524300847851 0 0.0017088715178072266 -0.00032214722535880953 0 0.0017898227091708977 -0.00033789235873760273 0 0.0017455554690719234 -0.00038682338518112685 0 0.0018773874371991138 -0.00028290760891346543 0 0.0019328439018511574 -0.00025266396538648931 0 0.0017088715178072266 -0.00032214722535880953 0 0.0017898227091708977 -0.00033789235873760273 0 0.0018377962922769982 -0.00025865618655109376 0 0.0017898227091708977 -0.00033789235873760273 0 0.0018165010847979574 -0.00040239853415171786 0 0.0017455554690719234 -0.00038682338518112685 0 0.0017088715178072266 -0.00032214722535880953 0 0.0017455554690719234 -0.00038682338518112685 0 0.0016768424254739547 -0.00040360924242493151 0 0.0017455554690719234 -0.00038682338518112685 0 0.0016768424254739547 -0.00040360924242493151 0 0.0017667830735736976 -0.00052103246062755947 0 0.0016991230148688894 -0.00041184714627792214 0 0.0017031066184480742 -0.00040815720143649669 0 0.0016768424254739547 -0.00040360924242493151 0 0.0016598581451764999 -0.00041319839848330179 0 0.0016469314160157873 -0.00041771496531951613 0 0.0018516684489026263 -0.00047348904589314189 0 0.0018498150504603211 -0.00053392840706257953 0 0.0017667830735736976 -0.00052103246062755947 0 0.0018165010847979574 -0.00040239853415171786 0 0.0017455554690719234 -0.00038682338518112685 0 0.0017667830735736976 -0.00052103246062755947 0 0.0018165010847979574 -0.00040239853415171786 0 0.0018516684489026263 -0.00047348904589314189 0 0.0017667830735736976 -0.00052103246062755947 0 0.0016519337499289069 -0.00038195088181545018 0 0.001657470603990154 -0.00040320754913388375 0 0.0016697015211197194 -0.00038119166889405859 0 0.0017994368802602433 -0.00032283835924320928 0 0.0017475000203477395 -0.00034487929805760738 0 0.0016519337499289069 -0.00038195088181545018 0 0.0016768424254739547 -0.00040360924242493151 0 0.001657470603990154 -0.00040320754913388375 0 0.0016519337499289069 -0.00038195088181545018 0 0.0017088715178072266 -0.00032214722535880953 0 0.0016768424254739547 -0.00040360924242493151 0 0.001657470603990154 -0.00040320754913388375 0 0.001651147268693565 -0.00041846649565017367 0 0.0016469314160157873 -0.00041771496531951613 0 0.0016768424254739547 -0.00040360924242493151 0 0.001657470603990154 -0.00040320754913388375 0 0.0016469314160157873 -0.00041771496531951613 0 0.001657470603990154 -0.00040320754913388375 0 0.0016697015211197194 -0.00038119166889405859 0 0.001651147268693565 -0.00041846649565017367 0 0.0016697015211197194 -0.00038119166889405859 0 0.0015928409723331355 -0.00041641398665337762 0 0.0016359894546291349 -0.00043678762344274676 0 0.0016697015211197194 -0.00038119166889405859 0 0.0016359894546291349 -0.00043678762344274676 0 0.001651147268693565 -0.00041846649565017367 0 0.0016697015211197194 -0.00038119166889405859 0 0.0015204484426552137 -0.00035032944806748348 0 0.0015280292099106214 -0.00022709930830281733 0 0.0016697015211197194 -0.00038119166889405859 0 0.0015928409723331355 -0.00041641398665337762 0 0.0015204484426552137 -0.00035032944806748348 0 0.0015370269545200981 -0.00041900648151406124 0 0.0015928409723331355 -0.00041641398665337762 0 0.0015204484426552137 -0.00035032944806748348 0 0.0015370269545200981 -0.00041900648151406124 0 0.0015928409723331355 -0.00041641398665337762 0 0.0015955178462620369 -0.00045794208884778105 0 0.0012582323631152522 -0.00041071577285584798 0 0.0012697445714917809 -0.0004001555388965794 0 0.0013559495273783315 -0.00057423598781375666 0 0.0015370269545200981 -0.00041900648151406124 0 0.0014432814027607798 -0.00042011307998366499 0 0.0015955178462620369 -0.00045794208884778105 0 0.0013519411425191165 -0.00038680482491348304 0 0.0014373587392585341 -0.00049704263334683836 0 0.0011564891157093214 -0.00050321885196599671 0 0.0010809233141633727 -0.0005702890975721862 0 0.0012582323631152522 -0.00041071577285584798 0 0.0011685183937336094 -0.00053377738029544881 0 0.0011644754741395652 -0.00039075406317374872 0 0.0012582323631152522 -0.00041071577285584798 0 0.0012480168131515832 -0.00025794041292864187 0 0.0011644754741395652 -0.00039075406317374872 0 0.0012582323631152522 -0.00041071577285584798 0 0.0012697445714917809 -0.0004001555388965794 0 0.0012480168131515832 -0.00025794041292864187 0 0.0013519411425191165 -0.00038680482491348304 0 0.0012994975786982162 -0.00031793387351177095 0 0.0014432814027607798 -0.00042011307998366499 0 0.0015204484426552137 -0.00035032944806748348 0 0.0012480168131515832 -0.00025794041292864187 0 0.0015370269545200981 -0.00041900648151406124 0 0.0014432814027607798 -0.00042011307998366499 0 0.0015204484426552137 -0.00035032944806748348 0 0.0015204484426552137 -0.00035032944806748348 0 0.0012480168131515832 -0.00025794041292864187 0 0.0015280292099106214 -0.00022709930830281733 0 0.0012480168131515832 -0.00025794041292864187 0 0.0013651262130117208 -0.00011736365272126699 0 0.0015280292099106214 -0.00022709930830281733 0 0.0012480168131515832 -0.00025794041292864187 0 0.0013651262130117208 -0.00011736365272126699 0 0.0011889000535729105 -9.1272239827398639e-05 0 0.0013291337148071448 3.4366652078473272e-05 0 0.0013651262130117208 -0.00011736365272126699 0 0.0011889000535729105 -9.1272239827398639e-05 0 0.0013291337148071448 3.4366652078473272e-05 0 0.0013651262130117208 -0.00011736365272126699 0 0.0015389507662712475 -5.2096730737862165e-05 0 0.0013651262130117208 -0.00011736365272126699 0 0.0015389507662712475 -5.2096730737862165e-05 0 0.0015280292099106214 -0.00022709930830281733 0 0.0015389507662712475 -5.2096730737862165e-05 0 0.0017083145657345567 -0.00018499612720838569 0 0.0015280292099106214 -0.00022709930830281733 0 0.0017298456453125315 -1.70986369958801e-05 0 0.0018916391844950931 -9.523884075448571e-05 0 0.0017083145657345567 -0.00018499612720838569 0 0.0017298456453125315 -1.70986369958801e-05 0 0.0015389507662712475 -5.2096730737862165e-05 0 0.0017083145657345567 -0.00018499612720838569 0 0.0016697015211197194 -0.00038119166889405859 0 0.0017083145657345567 -0.00018499612720838569 0 0.0015280292099106214 -0.00022709930830281733 0 0.0019436611999013359 -0.00031214606263666676 0 0.0016697015211197194 -0.00038119166889405859 0 0.0017083145657345567 -0.00018499612720838569 0 0.0027005087590768048 -2.5515212314865632e-07 0 0.0019850170473028274 6.943300197185621e-07 0 0.0025136548287771929 -8.9536875061117234e-06 0 0.0019841386735071067 6.6064459763968171e-08 0 0.0020772930724623031 2.6957876078494681e-05 0 0.0019837291519565863 2.0129907113851135e-07 0 0.0017342212990107189 5.7581732929794353e-05 0 0.0018159789045885358 -1.1842271655246061e-05 0 0.0024419458595138005 0.00021641168325117023 0 0.0025136548287771929 -8.9536875061117234e-06 0 0.0027063937452520004 0.00015933277834210776 0 0.0019850170473028274 6.943300197185621e-07 0 0.0024419458595138005 0.00021641168325117023 0 0.0025136548287771929 -8.9536875061117234e-06 0 0.0027231277143988965 -5.4901422877018015e-06 0 0.0027005087590768048 -2.5515212314865632e-07 0 0.0025136548287771929 -8.9536875061117234e-06 0 0.0027231277143988965 -5.4901422877018015e-06 0 0.0025136548287771929 -8.9536875061117234e-06 0 0.0027400259107857265 -8.6576922048272118e-06 0 0.0025136548287771929 -8.9536875061117234e-06 0 0.0027400259107857265 -8.6576922048272118e-06 0 0.0027063937452520004 0.00015933277834210776 0 0.0028443299892344704 0.00015285509406779094 0 0.0028089463545031422 0.00018563398319162668 0 0.0028488484450391888 2.3125812181917843e-06 0 0.0027231277143988965 -5.4901422877018015e-06 0 0.0027400259107857265 -8.6576922048272118e-06 0 0.0029422787728367846 0.00035690695580570502 0 0.0029197756659268014 0.00031824543665867058 0 0.0028951036277254393 0.00022976756106523371 0 0.0029043009594740738 0.00012719995181718186 0 0.0028443299892344704 0.00015285509406779094 0 0.0029197756659268014 0.00031824543665867058 0 0.0028951036277254393 0.00022976756106523371 0 0.0028708806072002321 0.00028375365306252911 0 0.0028951036277254393 0.00022976756106523371 0 0.0028272075689727404 0.00018245835423137647 0 0.0028499169557539609 0.0002302573777953239 0 0.0028951036277254393 0.00022976756106523371 0 0.0028499169557539609 0.0002302573777953239 0 0.0028708806072002321 0.00028375365306252911 0 0.002830006523278522 0.0001847182949096177 0 0.0028272075689727404 0.00018245835423137647 0 0.0028370801740732056 0.00019364936860997959 0 0.002830006523278522 0.0001847182949096177 0 0.0028118123141185731 0.00018857635544808067 0 0.0028357163531604855 0.00017999607587509061 0 0.002830006523278522 0.0001847182949096177 0 0.0028272075689727404 0.00018245835423137647 0 0.0028118123141185731 0.00018857635544808067 0 0.0028272075689727404 0.00018245835423137647 0 0.0028118123141185731 0.00018857635544808067 0 0.0027762149973791926 0.00019185641750228777 0 0.0028272075689727404 0.00018245835423137647 0 0.0027063937452520004 0.00015933277834210776 0 0.0027762149973791926 0.00019185641750228777 0 0.0028951036277254393 0.00022976756106523371 0 0.0028272075689727404 0.00018245835423137647 0 0.0027063937452520004 0.00015933277834210776 0 0.0024419458595138005 0.00021641168325117023 0 0.0027063937452520004 0.00015933277834210776 0 0.0027455458948719537 0.00026586038002223127 0 0.0020772930724623031 2.6957876078494681e-05 0 0.0021199184707659424 1.1170434517157872e-05 0 0.0017342212990107189 5.7581732929794353e-05 0 0.0015882057191237025 1.4544995310663247e-05 0 0.0015567205252215734 2.796972947285987e-05 0 0.0027063937452520004 0.00015933277834210776 0 0.0027455458948719537 0.00026586038002223127 0 0.0027762149973791926 0.00019185641750228777 0 0.0015882057191237025 1.4544995310663247e-05 0 0.0015567205252215734 2.796972947285987e-05 0 0.0015629098193955821 9.8361881877077489e-06 0 0.0015567205252215734 2.796972947285987e-05 0 0.0015629098193955821 9.8361881877077489e-06 0 0.0015495746019696004 1.2859590254762331e-05 0 0.0027455458948719537 0.00026586038002223127 0 0.0028058336874755541 0.00020804329419193293 0 0.0028512213209864268 0.00018775777911252096 0 0.0021199184707659424 1.1170434517157872e-05 0 0.0020965694045497491 -6.3122721365794785e-05 0 0.0015567205252215734 2.796972947285987e-05 0 0.0015495746019696004 1.2859590254762331e-05 0 0.0015357538114745097 7.5688214925036482e-06 0 0.00283307684054151 0.00018769113210658744 0 0.0028058336874755541 0.00020804329419193293 0 0.0028454562255209367 0.00018495765039162594 0 0.0028058336874755541 0.00020804329419193293 0 0.0028454562255209367 0.00018495765039162594 0 0.0028512213209864268 0.00018775777911252096 0 0.00283307684054151 0.00018769113210658744 0 0.002824647049710876 0.00019061561430796928 0 0.0028058336874755541 0.00020804329419193293 0 0.002824647049710876 0.00019061561430796928 0 0.0028118123141185731 0.00018857635544808067 0 0.0028058336874755541 0.00020804329419193293 0 0.002824647049710876 0.00019061561430796928 0 0.0028118123141185731 0.00018857635544808067 0 0.0028357163531604855 0.00017999607587509061 0 0.00283307684054151 0.00018769113210658744 0 0.002824647049710876 0.00019061561430796928 0 0.0028384901929058457 0.00017935009182388272 0 0.0028118123141185731 0.00018857635544808067 0 0.0027762149973791926 0.00019185641750228777 0 0.0028058336874755541 0.00020804329419193293 0 0.0027455458948719537 0.00026586038002223127 0 0.0027762149973791926 0.00019185641750228777 0 0.0028058336874755541 0.00020804329419193293 0 0.002846463303620103 0.00016635781130404278 0 0.0028140670281391767 0.00013620086688752374 0 0.0027716291327791773 6.0165082295219627e-05 0 0.0020965694045497491 -6.3122721365794785e-05 0 0.0022848655465472802 -7.7617296231589388e-05 0 0.0028252114868408829 0.00015860014303079376 0 0.0028140670281391767 0.00013620086688752374 0 0.0028073490736872232 0.00014684486869660825 0 0.0028252114868408829 0.00015860014303079376 0 0.0028073490736872232 0.00014684486869660825 0 0.0028283943911645223 0.00017263149801398709 0 0.0028252114868408829 0.00015860014303079376 0 0.0028342280142850786 0.00017139290215090802 0 0.0028283943911645223 0.00017263149801398709 0 0.0028357163531604855 0.00017999607587509061 0 0.0028342280142850786 0.00017139290215090802 0 0.0028283943911645223 0.00017263149801398709 0 0.002824647049710876 0.00019061561430796928 0 0.0028357163531604855 0.00017999607587509061 0 0.0028384901929058457 0.00017935009182388272 0 0.0028357163531604855 0.00017999607587509061 0 0.0028384901929058457 0.00017935009182388272 0 0.0028342280142850786 0.00017139290215090802 0 0.0028384901929058457 0.00017935009182388272 0 0.0028342280142850786 0.00017139290215090802 0 0.0028375624565165659 0.00016593988793537422 0 0.0028252114868408829 0.00015860014303079376 0 0.0028342280142850786 0.00017139290215090802 0 0.0028375624565165659 0.00016593988793537422 0 0.0028375624565165659 0.00016593988793537422 0 0.002846463303620103 0.00016635781130404278 0 0.0028140670281391767 0.00013620086688752374 0 0.00283307684054151 0.00018769113210658744 0 0.0028384901929058457 0.00017935009182388272 0 0.0028416347393061215 0.0001784935143552318 0 0.00283307684054151 0.00018769113210658744 0 0.0028416347393061215 0.0001784935143552318 0 0.0028454562255209367 0.00018495765039162594 0 0.0028384901929058457 0.00017935009182388272 0 0.0028375624565165659 0.00016593988793537422 0 0.0028416347393061215 0.0001784935143552318 0 0.0028375624565165659 0.00016593988793537422 0 0.0028432157542775316 0.00017489048804628345 0 0.002846463303620103 0.00016635781130404278 0 0.0028416347393061215 0.0001784935143552318 0 0.0028432157542775316 0.00017489048804628345 0 0.0028454562255209367 0.00018495765039162594 0 0.0028375624565165659 0.00016593988793537422 0 0.0028416347393061215 0.0001784935143552318 0 0.0028432157542775316 0.00017489048804628345 0 0.0020994691996769244 -6.0107539115378003e-05 0 0.0020965694045497491 -6.3122721365794785e-05 0 0.0028432157542775316 0.00017489048804628345 0 0.0028454562255209367 0.00018495765039162594 0 0.002846463303620103 0.00016635781130404278 0 0.0028252114868408829 0.00015860014303079376 0 0.0028375624565165659 0.00016593988793537422 0 0.0028140670281391767 0.00013620086688752374 0 0.0028140670281391767 0.00013620086688752374 0 0.0027910078618885222 0.0001163312488593869 0 0.0027716291327791773 6.0165082295219627e-05 0 0.0028140670281391767 0.00013620086688752374 0 0.0027910078618885222 0.0001163312488593869 0 0.0028073490736872232 0.00014684486869660825 0 0.0027712257672646919 0.00012050803921937049 0 0.0027346196395360589 9.2424857160220902e-05 0 0.0027716291327791773 6.0165082295219627e-05 0 0.0027910078618885222 0.0001163312488593869 0 0.0027712257672646919 0.00012050803921937049 0 0.0027716291327791773 6.0165082295219627e-05 0 0.0027712257672646919 0.00012050803921937049 0 0.0027905707429973156 0.00016421607553607548 0 0.0027163271884288924 0.00015520729838961858 0 0.0028073490736872232 0.00014684486869660825 0 0.0027905707429973156 0.00016421607553607548 0 0.0028283943911645223 0.00017263149801398709 0 0.0027910078618885222 0.0001163312488593869 0 0.0027712257672646919 0.00012050803921937049 0 0.0028073490736872232 0.00014684486869660825 0 0.0027712257672646919 0.00012050803921937049 0 0.0028073490736872232 0.00014684486869660825 0 0.0027905707429973156 0.00016421607553607548 0 0.0027905707429973156 0.00016421607553607548 0 0.0028043329217889053 0.00021177145827724081 0 0.0028283943911645223 0.00017263149801398709 0 0.0027905707429973156 0.00016421607553607548 0 0.0028043329217889053 0.00021177145827724081 0 0.0027163271884288924 0.00015520729838961858 0 0.0028043329217889053 0.00021177145827724081 0 0.0028283943911645223 0.00017263149801398709 0 0.0028370801740732056 0.00019364936860997959 0 0.0028043329217889053 0.00021177145827724081 0 0.0028370801740732056 0.00019364936860997959 0 0.0028499169557539609 0.0002302573777953239 0 0.002830006523278522 0.0001847182949096177 0 0.0028357163531604855 0.00017999607587509061 0 0.0028370801740732056 0.00019364936860997959 0 0.0028357163531604855 0.00017999607587509061 0 0.0028283943911645223 0.00017263149801398709 0 0.0028370801740732056 0.00019364936860997959 0 0.0028272075689727404 0.00018245835423137647 0 0.0028370801740732056 0.00019364936860997959 0 0.0028499169557539609 0.0002302573777953239 0 0.0028499169557539609 0.0002302573777953239 0 0.0028708806072002321 0.00028375365306252911 0 0.0028048582305253305 0.00028779785927167401 0 0.0028629669438819745 0.00032641039187279383 0 0.0029197756659268014 0.00031824543665867058 0 0.0028708806072002321 0.00028375365306252911 0 0.0028629669438819745 0.00032641039187279383 0 0.0028708806072002321 0.00028375365306252911 0 0.0028048582305253305 0.00028779785927167401 0 0.0028043329217889053 0.00021177145827724081 0 0.0028499169557539609 0.0002302573777953239 0 0.0028048582305253305 0.00028779785927167401 0 0.0028048582305253305 0.00028779785927167401 0 0.0027249138770106688 0.00038877949290268754 0 0.002667229868516387 0.00020168063274623646 0 0.0028043329217889053 0.00021177145827724081 0 0.0028048582305253305 0.00028779785927167401 0 0.0026322511429888473 0.00026101678190285787 0 0.002682368911907167 0.00025533332240814494 0 0.0025942074440617356 0.00021425850802417481 0 0.0027653036393888832 0.00038060759301395021 0 0.0028048582305253305 0.00028779785927167401 0 0.0027249138770106688 0.00038877949290268754 0 0.0026094355028142735 0.0004586282186191847 0 0.0026611615373249233 0.00044301922837363983 0 0.0023976129679162085 0.00052147582050038224 0 0.0024539259242508066 0.00029311352898029269 0 0.0027249138770106688 0.00038877949290268754 0 0.0024539259242508066 0.00029311352898029269 0 0.0027249138770106688 0.00038877949290268754 0 0.002667229868516387 0.00020168063274623646 0 0.0023901258456170966 0.00017561526258790114 0 0.0026322511429888473 0.00026101678190285787 0 0.0025872915060205985 0.00010331530823789498 0 0.0024122615112141797 0.00012826397695657026 0 0.0025942074440617356 0.00021425850802417481 0 0.0028043329217889053 0.00021177145827724081 0 0.0026322511429888473 0.00026101678190285787 0 0.0027163271884288924 0.00015520729838961858 0 0.0026322511429888473 0.00026101678190285787 0 0.0027163271884288924 0.00015520729838961858 0 0.0025872915060205985 0.00010331530823789498 0 0.0027163271884288924 0.00015520729838961858 0 0.0026797726250529694 5.6745394278256013e-05 0 0.0025872915060205985 0.00010331530823789498 0 0.0027712257672646919 0.00012050803921937049 0 0.0027163271884288924 0.00015520729838961858 0 0.0027346196395360589 9.2424857160220902e-05 0 0.0027163271884288924 0.00015520729838961858 0 0.0027346196395360589 9.2424857160220902e-05 0 0.0026797726250529694 5.6745394278256013e-05 0 0.0027346196395360589 9.2424857160220902e-05 0 0.0026797726250529694 5.6745394278256013e-05 0 0.0027716291327791773 6.0165082295219627e-05 0 0.0023901258456170966 0.00017561526258790114 0 0.002477277179331403 2.7159468726019406e-05 0 0.0025872915060205985 0.00010331530823789498 0 0.002477277179331403 2.7159468726019406e-05 0 0.0025872915060205985 0.00010331530823789498 0 0.0025924374809891933 -4.2245113598337327e-05 0 0.0026797726250529694 5.6745394278256013e-05 0 0.0025872915060205985 0.00010331530823789498 0 0.0025924374809891933 -4.2245113598337327e-05 0 0.0019328439018511574 -0.00025266396538648931 0 0.0019587881077477477 -0.00024079644942742644 0 0.0020217956157137762 -0.00022264192033936202 0 0.0020429526551183647 -0.00020249512297495202 0 0.0019930719422617581 -0.00022328358235977451 0 0.0018377962922769982 -0.00025865618655109376 0 0.0019930719422617581 -0.00022328358235977451 0 0.0019245062130990227 -0.00028499238097527961 0 0.0026797726250529694 5.6745394278256013e-05 0 0.0025924374809891933 -4.2245113598337327e-05 0 0.0027716291327791773 6.0165082295219627e-05 0 0.002261586647250386 -0.0001110123358416375 0 0.0022848655465472802 -7.7617296231589388e-05 0 0.0020217956157137762 -0.00022264192033936202 0 0.0019930719422617581 -0.00022328358235977451 0 0.0019884230719434972 -0.00022659060845797675 0 0.0019930719422617581 -0.00022328358235977451 0 0.0019245062130990227 -0.00028499238097527961 0 0.0019829206213494593 -0.00027642324065551774 0 0.0019930719422617581 -0.00022328358235977451 0 0.0019829206213494593 -0.00027642324065551774 0 0.0019933394944107396 -0.00023383119917149992 0 0.0019245062130990227 -0.00028499238097527961 0 0.0019829206213494593 -0.00027642324065551774 0 0.0019362691079417361 -0.0003339286486745842 0 0.0019829206213494593 -0.00027642324065551774 0 0.0019362691079417361 -0.0003339286486745842 0 0.0019981330334070666 -0.00040015431941428024 0 0.0019245062130990227 -0.00028499238097527961 0 0.0019362691079417361 -0.0003339286486745842 0 0.0018686881951943183 -0.00033862862119957035 0 0.0018377962922769982 -0.00025865618655109376 0 0.0019245062130990227 -0.00028499238097527961 0 0.0018686881951943183 -0.00033862862119957035 0 0.0017898227091708977 -0.00033789235873760273 0 0.0018377962922769982 -0.00025865618655109376 0 0.0018686881951943183 -0.00033862862119957035 0 0.0017898227091708977 -0.00033789235873760273 0 0.0018165010847979574 -0.00040239853415171786 0 0.0018686881951943183 -0.00033862862119957035 0 0.0018165010847979574 -0.00040239853415171786 0 0.0018686881951943183 -0.00033862862119957035 0 0.0019038233599353801 -0.00040569894653478671 0 0.0018165010847979574 -0.00040239853415171786 0 0.0019038233599353801 -0.00040569894653478671 0 0.0018516684489026263 -0.00047348904589314189 0 0.0019362691079417361 -0.0003339286486745842 0 0.0018686881951943183 -0.00033862862119957035 0 0.0019038233599353801 -0.00040569894653478671 0 0.0019038233599353801 -0.00040569894653478671 0 0.0018516684489026263 -0.00047348904589314189 0 0.0019271814404854975 -0.00051707504609771124 0 0.0018516684489026263 -0.00047348904589314189 0 0.0019271814404854975 -0.00051707504609771124 0 0.0018498150504603211 -0.00053392840706257953 0 0.0019038233599353801 -0.00040569894653478671 0 0.0019981330334070666 -0.00040015431941428024 0 0.0019271814404854975 -0.00051707504609771124 0 0.0015127703888219394 1.4374401273705778e-05 0 0.0015126113583629928 4.5052647745122646e-06 0 0.0015072868039627812 6.1105037878222399e-06 0 0.0017479699574785403 -0.00018888707232713947 0 0.0016772425401697739 -0.000224672040213815 0 0.0019362691079417361 -0.0003339286486745842 0 0.0019038233599353801 -0.00040569894653478671 0 0.0019981330334070666 -0.00040015431941428024 0 0.0015127703888219394 1.4374401273705778e-05 0 0.0015178586406150579 9.3048873673462299e-06 0 0.0015126113583629928 4.5052647745122646e-06 0 0.0015178586406150579 9.3048873673462299e-06 0 0.0015213695768884466 1.6373052153293298e-05 0 0.001525026660569515 1.230188507534134e-05 0 0.0015127703888219394 1.4374401273705778e-05 0 0.0015178586406150579 9.3048873673462299e-06 0 0.0015213695768884466 1.6373052153293298e-05 0 0.0015127703888219394 1.4374401273705778e-05 0 0.0015213695768884466 1.6373052153293298e-05 0 0.0015178005893495938 2.1050020121276742e-05 0 0.0016419683003563545 -1.2043100221824727e-05 0 0.0018175622456865596 -0.00014590781598196068 0 0.0015428908383240756 -9.0625248871359905e-06 0 0.0015346884586049873 -6.3261994732279219e-06 0 0.0015415754701800619 -7.4093216188891862e-06 0 0.0015346884586049873 -6.3261994732279219e-06 0 0.0015390908382529953 -1.200873757183807e-06 0 0.0015415754701800619 -7.4093216188891862e-06 0 0.0019829206213494593 -0.00027642324065551774 0 0.0019981330334070666 -0.00040015431941428024 0 0.0020149987187819164 -0.00028390822317688483 0 0.0017479699574785403 -0.00018888707232713947 0 0.0018175622456865596 -0.00014590781598196068 0 0.0019981330334070666 -0.00040015431941428024 0 0.0020572553704183046 -0.00028826676035191974 0 0.0020149987187819164 -0.00028390822317688483 0 0.0018175622456865596 -0.00014590781598196068 0 0.0018577620637966544 -0.00018572609700278394 0 0.0020617521133112116 -0.00021436519640909371 0 0.0020047574471605731 -0.00024211950005909158 0 0.0019884230719434972 -0.00022659060845797675 0 0.0020572553704183046 -0.00028826676035191974 0 0.0020149987187819164 -0.00028390822317688483 0 0.0020047574471605731 -0.00024211950005909158 0 0.0019829206213494593 -0.00027642324065551774 0 0.0020149987187819164 -0.00028390822317688483 0 0.0020047574471605731 -0.00024211950005909158 0 0.0019829206213494593 -0.00027642324065551774 0 0.0020047574471605731 -0.00024211950005909158 0 0.0019933394944107396 -0.00023383119917149992 0 0.0019930719422617581 -0.00022328358235977451 0 0.0019933394944107396 -0.00023383119917149992 0 0.0019884230719434972 -0.00022659060845797675 0 0.0020047574471605731 -0.00024211950005909158 0 0.0019933394944107396 -0.00023383119917149992 0 0.0019884230719434972 -0.00022659060845797675 0 0.0020965694045497491 -6.3122721365794785e-05 0 0.0018175622456865596 -0.00014590781598196068 0 0.0020617521133112116 -0.00021436519640909371 0 0.0020274224618102537 -0.00027058660509755151 0 0.0020047574471605731 -0.00024211950005909158 0 0.0015357538114745097 7.5688214925036482e-06 0 0.0015346884586049873 -6.3261994732279219e-06 0 0.0015390908382529953 -1.200873757183807e-06 0 0.0015357538114745097 7.5688214925036482e-06 0 0.0015390908382529953 -1.200873757183807e-06 0 0.0015406524476683514 2.8962850661986847e-06 0 0.0015495943078474186 -1.1199455712150406e-06 0 0.0015435159913340373 -2.266563333741227e-06 0 0.001545079006110926 5.8279869978646047e-06 0 0.0015495943078474186 -1.1199455712150406e-06 0 0.0015540472570100892 -2.998443582418036e-06 0 0.0015473348680698933 -6.2602578143496972e-06 0 0.0015495943078474186 -1.1199455712150406e-06 0 0.0015435159913340373 -2.266563333741227e-06 0 0.0015473348680698933 -6.2602578143496972e-06 0 0.0015390908382529953 -1.200873757183807e-06 0 0.0015435159913340373 -2.266563333741227e-06 0 0.0015415754701800619 -7.4093216188891862e-06 0 0.0015390908382529953 -1.200873757183807e-06 0 0.0015435159913340373 -2.266563333741227e-06 0 0.0015406524476683514 2.8962850661986847e-06 0 0.0015357538114745097 7.5688214925036482e-06 0 0.0015406524476683514 2.8962850661986847e-06 0 0.001545079006110926 5.8279869978646047e-06 0 0.0015495746019696004 1.2859590254762331e-05 0 0.0015357538114745097 7.5688214925036482e-06 0 0.001545079006110926 5.8279869978646047e-06 0 0.0015435159913340373 -2.266563333741227e-06 0 0.0015406524476683514 2.8962850661986847e-06 0 0.001545079006110926 5.8279869978646047e-06 0 0.0015495746019696004 1.2859590254762331e-05 0 0.001545079006110926 5.8279869978646047e-06 0 0.0015562064818947935 4.7613484333618443e-06 0 0.0015495943078474186 -1.1199455712150406e-06 0 0.001545079006110926 5.8279869978646047e-06 0 0.0015562064818947935 4.7613484333618443e-06 0 0.0015882057191237025 1.4544995310663247e-05 0 0.0015629098193955821 9.8361881877077489e-06 0 0.0015639536273625804 6.2568868454041404e-08 0 0.0015629098193955821 9.8361881877077489e-06 0 0.0015495746019696004 1.2859590254762331e-05 0 0.0015562064818947935 4.7613484333618443e-06 0 0.0015882057191237025 1.4544995310663247e-05 0 0.0015639536273625804 6.2568868454041404e-08 0 0.0015334015863399182 -1.1332434179431275e-05 0 0.0015629098193955821 9.8361881877077489e-06 0 0.0015562064818947935 4.7613484333618443e-06 0 0.0015639536273625804 6.2568868454041404e-08 0 0.0015562064818947935 4.7613484333618443e-06 0 0.0015639536273625804 6.2568868454041404e-08 0 0.0015540472570100892 -2.998443582418036e-06 0 0.0015495943078474186 -1.1199455712150406e-06 0 0.0015562064818947935 4.7613484333618443e-06 0 0.0015540472570100892 -2.998443582418036e-06 0 0.0015639536273625804 6.2568868454041404e-08 0 0.0015540472570100892 -2.998443582418036e-06 0 0.0015490123670126453 -7.7438701783528194e-06 0 0.0015540472570100892 -2.998443582418036e-06 0 0.0015490123670126453 -7.7438701783528194e-06 0 0.0015473348680698933 -6.2602578143496972e-06 0 0.0015490123670126453 -7.7438701783528194e-06 0 0.0015422619487647578 -1.0292171883119336e-05 0 0.0015326925298947555 -1.0957587428595847e-05 0 0.0015490123670126453 -7.7438701783528194e-06 0 0.0015422619487647578 -1.0292171883119336e-05 0 0.0015473348680698933 -6.2602578143496972e-06 0 0.0015428908383240756 -9.0625248871359905e-06 0 0.0015422619487647578 -1.0292171883119336e-05 0 0.0015415754701800619 -7.4093216188891862e-06 0 0.0015422619487647578 -1.0292171883119336e-05 0 0.0015473348680698933 -6.2602578143496972e-06 0 0.0015415754701800619 -7.4093216188891862e-06 0 0.0015435159913340373 -2.266563333741227e-06 0 0.0015473348680698933 -6.2602578143496972e-06 0 0.0015415754701800619 -7.4093216188891862e-06 0 0.0015428908383240756 -9.0625248871359905e-06 0 0.0015422619487647578 -1.0292171883119336e-05 0 0.0015425172318357233 -1.8522387480606696e-08 0 0.0016419683003563545 -1.2043100221824727e-05 0 0.001585426035671734 1.8303725015079291e-05 0 0.001525026660569515 1.230188507534134e-05 0 0.0015291102058707254 1.7280689762433342e-05 0 0.0015224628852081917 7.8461402615347314e-06 0 0.0015178586406150579 9.3048873673462299e-06 0 0.001525026660569515 1.230188507534134e-05 0 0.0015224628852081917 7.8461402615347314e-06 0 0.001585426035671734 1.8303725015079291e-05 0 0.0015711541967115264 2.4564573648823797e-05 0 0.0015425172318357233 -1.8522387480606696e-08 0 0.0015289722767104397 3.5140522239861746e-06 0 0.0015291102058707254 1.7280689762433342e-05 0 0.0015425172318357233 -1.8522387480606696e-08 0 0.0015289722767104397 3.5140522239861746e-06 0 0.0015326925298947555 -1.0957587428595847e-05 0 0.0015422619487647578 -1.0292171883119336e-05 0 0.0015425172318357233 -1.8522387480606696e-08 0 0.0015326925298947555 -1.0957587428595847e-05 0 0.0015326925298947555 -1.0957587428595847e-05 0 0.0015222842244987558 -1.9902728338357419e-05 0 0.0014987256452127361 -2.1116076586892941e-06 0 0.0015289722767104397 3.5140522239861746e-06 0 0.0015326925298947555 -1.0957587428595847e-05 0 0.0014987256452127361 -2.1116076586892941e-06 0 0.0015289722767104397 3.5140522239861746e-06 0 0.0014987256452127361 -2.1116076586892941e-06 0 0.0015028018340739742 4.2538845872921056e-05 0 0.0014987256452127361 -2.1116076586892941e-06 0 0.0013589555381746121 1.1592966656444718e-08 0 0.0015028018340739742 4.2538845872921056e-05 0 0.0013580733872645518 -3.3053915084237349e-08 0 0.0012962253571079004 -1.8619045353242062e-05 0 0.0015222842244987558 -1.9902728338357419e-05 0 0.0014987256452127361 -2.1116076586892941e-06 0 0.0013589555381746121 1.1592966656444718e-08 0 0.0015222842244987558 -1.9902728338357419e-05 0 0.0013589555381746121 1.1592966656444718e-08 0 0.0015541512042854836 -4.1795668386634792e-08 0 0.0015222842244987558 -1.9902728338357419e-05 0 0.0015541512042854836 -4.1795668386634792e-08 0 0.0015334015863399182 -1.1332434179431275e-05 0 0.0015551551974345289 9.2179073739858895e-08 0 0.0017668941491719066 -4.4860957836621745e-05 0 0.0017693820390129247 -1.5630212962915912e-07 0 0.0015549265416220509 -3.4375108842588734e-08 0 0.0015977224895850511 -1.7219664808245437e-05 0 0.0015490123670126453 -7.7438701783528194e-06 0 0.0015222842244987558 -1.9902728338357419e-05 0 0.0015334015863399182 -1.1332434179431275e-05 0 0.0015490123670126453 -7.7438701783528194e-06 0 0.0015326925298947555 -1.0957587428595847e-05 0 0.0015222842244987558 -1.9902728338357419e-05 0 0.0015845434725341994 9.842853032831811e-07 0 0.0015977224895850511 -1.7219664808245437e-05 0 0.0015639536273625804 6.2568868454041404e-08 0 0.0015490123670126453 -7.7438701783528194e-06 0 0.0015334015863399182 -1.1332434179431275e-05 0 0.0017342212990107189 5.7581732929794353e-05 0 0.0015882057191237025 1.4544995310663247e-05 0 0.0017668941491719066 -4.4860957836621745e-05 0 0.0017342212990107189 5.7581732929794353e-05 0 0.0017668941491719066 -4.4860957836621745e-05 0 0.0018159789045885358 -1.1842271655246061e-05 0 0.0019837291519565863 2.0129907113851135e-07 0 0.0018159789045885358 -1.1842271655246061e-05 0 0.0017693820390129247 -1.5630212962915912e-07 0 0.0017668941491719066 -4.4860957836621745e-05 0 0.0018159789045885358 -1.1842271655246061e-05 0 0.0017693820390129247 -1.5630212962915912e-07 0 0.00081847596874600696 -1.4297870584701753e-05 0 0.00071098224134676915 1.0299530131068123e-07 0 0.00088610626750715857 9.2333485716009431e-05 0 0.00071037325911253518 2.7393544159921561e-08 0 0.00067341433732636931 1.3050898031981164e-05 0 0.00081847596874600696 -1.4297870584701753e-05 0 0.00097012618364550004 9.2017560508376444e-05 0 0.00088610626750715857 9.2333485716009431e-05 0 0.00097836461525713605 4.8716597108699202e-05 0 0.00099866618582223439 5.1932059629165114e-05 0 0.00097012618364550004 9.2017560508376444e-05 0 0.00097836461525713605 4.8716597108699202e-05 0 0.00099866618582223439 5.1932059629165114e-05 0 0.0010051272180828692 2.2197707853400262e-05 0 0.00092516969162330332 2.2995858457335162e-05 0 0.00094735720171413326 5.1250871652777679e-05 0 0.00097836461525713605 4.8716597108699202e-05 0 0.0010051272180828692 2.2197707853400262e-05 0 0.001011495975921213 -1.0904730781956952e-05 0 0.0010051272180828692 2.2197707853400262e-05 0 0.001011495975921213 -1.0904730781956952e-05 0 0.0010248136222451706 -1.0865701407179584e-05 0 0.00097836461525713605 4.8716597108699202e-05 0 0.00091495264574209447 7.6887895222244647e-08 0 0.001011495975921213 -1.0904730781956952e-05 0 0.00092516969162330332 2.2995858457335162e-05 0 0.00091453622409505976 1.3482503410695069e-08 0 0.00081847596874600696 -1.4297870584701753e-05 0 0.00071098224134676915 1.0299530131068123e-07 0 0.00091408006627179789 -1.0963421051623821e-07 0 0.0011362806872705739 -1.0707318637554469e-07 0 0.0010683105219930805 1.0799375722170928e-05 0 0.001011495975921213 -1.0904730781956952e-05 0 0.00091495264574209447 7.6887895222244647e-08 0 0.0011362806872705739 -1.0707318637554469e-07 0 0.001011495975921213 -1.0904730781956952e-05 0 0.0013579363506205856 1.4082895124037255e-07 0 0.0011362806872705739 -1.0707318637554469e-07 0 0.0010683105219930805 1.0799375722170928e-05 0 0.0010683105219930805 1.0799375722170928e-05 0 0.001011495975921213 -1.0904730781956952e-05 0 0.0010248136222451706 -1.0865701407179584e-05 0 0.0012962253571079004 -1.8619045353242062e-05 0 0.0012854333045938275 -1.1663818042959596e-05 0 0.0015355863683121777 -5.8631571789346364e-07 0 0.0015291102058707254 1.7280689762433342e-05 0 0.0015247107586060455 -2.3734489419276548e-06 0 0.0015028018340739742 4.2538845872921056e-05 0 0.0015355863683121777 -5.8631571789346364e-07 0 0.0015291102058707254 1.7280689762433342e-05 0 0.0015289722767104397 3.5140522239861746e-06 0 0.0015028018340739742 4.2538845872921056e-05 0 0.0015291102058707254 1.7280689762433342e-05 0 0.0015291102058707254 1.7280689762433342e-05 0 0.0015224628852081917 7.8461402615347314e-06 0 0.0015247107586060455 -2.3734489419276548e-06 0 0.0015355863683121777 -5.8631571789346364e-07 0 0.0015247107586060455 -2.3734489419276548e-06 0 0.0015248493691141049 -4.50693373364559e-05 0 0.0012854333045938275 -1.1663818042959596e-05 0 0.0012858494950651435 -1.2175282862318339e-06 0 0.0010051272180828692 2.2197707853400262e-05 0 0.0010248136222451706 -1.0865701407179584e-05 0 0.0010261347633061216 3.0272612133249563e-05 0 0.0010248136222451706 -1.0865701407179584e-05 0 0.0010797926051601232 2.392790832763331e-05 0 0.0010261347633061216 3.0272612133249563e-05 0 0.00099866618582223439 5.1932059629165114e-05 0 0.0010051272180828692 2.2197707853400262e-05 0 0.0010261347633061216 3.0272612133249563e-05 0 0.00099866618582223439 5.1932059629165114e-05 0 0.0010261347633061216 3.0272612133249563e-05 0 0.0010489238178962342 7.4861832604034397e-05 0 0.00099866618582223439 5.1932059629165114e-05 0 0.0010489238178962342 7.4861832604034397e-05 0 0.00097012618364550004 9.2017560508376444e-05 0 0.0010797926051601232 2.392790832763331e-05 0 0.0010261347633061216 3.0272612133249563e-05 0 0.0010489238178962342 7.4861832604034397e-05 0 0.0010797926051601232 2.392790832763331e-05 0 0.0010489238178962342 7.4861832604034397e-05 0 0.0011429771567266031 8.039127882990358e-05 0 0.0015248493691141049 -4.50693373364559e-05 0 0.0015104622286271504 -7.2641637945305073e-05 0 0.0015064241099328119 -5.5443870652650457e-05 0 0.0012858494950651435 -1.2175282862318339e-06 0 0.0012654797729777123 3.3454449009599691e-06 0 0.0015104622286271504 -7.2641637945305073e-05 0 0.0015064241099328119 -5.5443870652650457e-05 0 0.0015017722375256053 -7.2089479534721401e-05 0 0.0015248493691141049 -4.50693373364559e-05 0 0.0015064241099328119 -5.5443870652650457e-05 0 0.0015097996048897243 -2.7384322978733247e-05 0 0.0015338286542975086 -8.0147717442177733e-05 0 0.0015318971753845694 -9.4436750857554384e-05 0 0.0015247107586060455 -2.3734489419276548e-06 0 0.0015248493691141049 -4.50693373364559e-05 0 0.0015097996048897243 -2.7384322978733247e-05 0 0.0015224628852081917 7.8461402615347314e-06 0 0.0015247107586060455 -2.3734489419276548e-06 0 0.0015164721059060323 -4.5154122248732814e-07 0 0.0015178586406150579 9.3048873673462299e-06 0 0.0015224628852081917 7.8461402615347314e-06 0 0.0015164721059060323 -4.5154122248732814e-07 0 0.0015178586406150579 9.3048873673462299e-06 0 0.0015164721059060323 -4.5154122248732814e-07 0 0.0015126113583629928 4.5052647745122646e-06 0 0.0015318971753845694 -9.4436750857554384e-05 0 0.0015364727518062361 -0.00013883585212807833 0 0.0015164721059060323 -4.5154122248732814e-07 0 0.0015126113583629928 4.5052647745122646e-06 0 0.0015100724782749341 -1.2759738085025654e-06 0 0.0015064241099328119 -5.5443870652650457e-05 0 0.0015097996048897243 -2.7384322978733247e-05 0 0.0015021121872350748 -4.5001293239253373e-05 0 0.0015100724782749341 -1.2759738085025654e-06 0 0.0015062485584300975 6.7978764587374785e-07 0 0.0015026451507390585 -2.2272939264921147e-06 0 0.0015021121872350748 -4.5001293239253373e-05 0 0.0014788426778662639 -4.8729513634592887e-05 0 0.0014993811280533218 -7.1400482722304025e-05 0 0.0015364727518062361 -0.00013883585212807833 0 0.0015901006630849811 -0.00022982709733831866 0 0.0015126113583629928 4.5052647745122646e-06 0 0.0015100724782749341 -1.2759738085025654e-06 0 0.0015062485584300975 6.7978764587374785e-07 0 0.0015126113583629928 4.5052647745122646e-06 0 0.0015062485584300975 6.7978764587374785e-07 0 0.0015072868039627812 6.1105037878222399e-06 0 0.0019271814404854975 -0.00051707504609771124 0 0.0018498150504603211 -0.00053392840706257953 0 0.0018560854657598282 -0.00063132780189291415 0 0.0015062485584300975 6.7978764587374785e-07 0 0.0015072868039627812 6.1105037878222399e-06 0 0.0015026451507390585 -2.2272939264921147e-06 0 0.0016772425401697739 -0.000224672040213815 0 0.0015901006630849811 -0.00022982709733831866 0 0.0018498150504603211 -0.00053392840706257953 0 0.0018560854657598282 -0.00063132780189291415 0 0.0017667830735736976 -0.00052103246062755947 0 0.0016662009422823741 -0.00042415866788967499 0 0.0016658310566108434 -0.00042500592435040573 0 0.001659765526026461 -0.00042071381599823157 0 0.0014985838332203071 -6.2845178436985604e-05 0 0.0014971327759913085 -6.3041597225894195e-05 0 0.001497576466787104 -7.1017265999795718e-05 0 0.0015901006630849811 -0.00022982709733831866 0 0.0015775588668352708 -0.00024270320457517701 0 0.0014971327759913085 -6.3041597225894195e-05 0 0.001497576466787104 -7.1017265999795718e-05 0 0.0014725265515934665 -9.6823800559111086e-05 0 0.0015901006630849811 -0.00022982709733831866 0 0.0015340170330448793 -0.00015229924022180366 0 0.0014985838332203071 -6.2845178436985604e-05 0 0.001497576466787104 -7.1017265999795718e-05 0 0.0014993811280533218 -7.1400482722304025e-05 0 0.0014986108676215912 -8.2368299019045345e-05 0 0.0015042121646031486 -9.301007145012047e-05 0 0.0014725265515934665 -9.6823800559111086e-05 0 0.001497576466787104 -7.1017265999795718e-05 0 0.0014986108676215912 -8.2368299019045345e-05 0 0.0014725265515934665 -9.6823800559111086e-05 0 0.0014993811280533218 -7.1400482722304025e-05 0 0.0014999685933008268 -7.9097779486219202e-05 0 0.0015042121646031486 -9.301007145012047e-05 0 0.0014986108676215912 -8.2368299019045345e-05 0 0.0014993811280533218 -7.1400482722304025e-05 0 0.0015042121646031486 -9.301007145012047e-05 0 0.001497576466787104 -7.1017265999795718e-05 0 0.0014986108676215912 -8.2368299019045345e-05 0 0.0014993811280533218 -7.1400482722304025e-05 0 0.0015064241099328119 -5.5443870652650457e-05 0 0.0015021121872350748 -4.5001293239253373e-05 0 0.0014993811280533218 -7.1400482722304025e-05 0 0.0015064241099328119 -5.5443870652650457e-05 0 0.0014993811280533218 -7.1400482722304025e-05 0 0.0015017722375256053 -7.2089479534721401e-05 0 0.0014993811280533218 -7.1400482722304025e-05 0 0.0014999685933008268 -7.9097779486219202e-05 0 0.0015017722375256053 -7.2089479534721401e-05 0 0.0014999685933008268 -7.9097779486219202e-05 0 0.0015017722375256053 -7.2089479534721401e-05 0 0.0014992572660276534 -7.5175955691740858e-05 0 0.0013159804044648601 -0.00017025304813657709 0 0.0012755044306024528 -0.00015993613562067323 0 0.0015042121646031486 -9.301007145012047e-05 0 0.0015406856994411562 -0.00014806843144443506 0 0.0014855623743782144 -0.00015245296552681098 0 0.0014999685933008268 -7.9097779486219202e-05 0 0.0015042121646031486 -9.301007145012047e-05 0 0.0014992572660276534 -7.5175955691740858e-05 0 0.0014957642880741131 -0.00017727909514326078 0 0.0015214803851453854 -0.00019123118579622155 0 0.001475410951603099 -0.00019262460192088137 0 0.0014957642880741131 -0.00017727909514326078 0 0.0015406856994411562 -0.00014806843144443506 0 0.0015214803851453854 -0.00019123118579622155 0 0.0014957642880741131 -0.00017727909514326078 0 0.0015406856994411562 -0.00014806843144443506 0 0.0014855623743782144 -0.00015245296552681098 0 0.0015017722375256053 -7.2089479534721401e-05 0 0.0014992572660276534 -7.5175955691740858e-05 0 0.0015009615206404065 -8.0120731606151866e-05 0 0.0015406856994411562 -0.00014806843144443506 0 0.0015683377469495182 -0.00018818559529563901 0 0.0015214803851453854 -0.00019123118579622155 0 0.0012755044306024528 -0.00015993613562067323 0 0.0011115636490754536 -8.1642432035246244e-05 0 0.0011115636490754536 -8.1642432035246244e-05 0 0.0010153794210206351 -0.00021315297657170115 0 0.00079276484872022653 4.4919064956478667e-05 0 0.00061815670093066054 -0.00011472832271075507 0 0.00077403416843044109 -0.00011595860133346134 0 0.0015214803851453854 -0.00019123118579622155 0 0.0015146682627948619 -0.00024080502690755078 0 0.001475410951603099 -0.00019262460192088137 0 0.0015683377469495182 -0.00018818559529563901 0 0.0015214803851453854 -0.00019123118579622155 0 0.0015146682627948619 -0.00024080502690755078 0 0.00061815670093066054 -0.00011472832271075507 0 0.00058228639045610896 -0.00025455008203756417 0 0.00072294097658505343 -0.00026352878261431327 0 0.00051822073005238184 -0.00038070496628850504 0 0.00058228639045610896 -0.00025455008203756417 0 0.00072294097658505343 -0.00026352878261431327 0 0.00015539021439070412 -0.00021862230414719243 0 0.00043711037663320861 -0.00011201290238372212 0 0.00015405192254295383 -2.6440435338897947e-05 0 0.00015779685748245308 -2.6198704520743436e-05 0 0.00015994895366160537 1.0141523614654639e-06 0 0.00017928247979916723 -1.8803538404251754e-05 0 0.00015994895366160537 1.0141523614654639e-06 0 0.00021139430707897561 1.4751113941493125e-06 0 0.00015779685748245308 -2.6198704520743436e-05 0 0.00017928247979916723 -1.8803538404251754e-05 0 0.00015994895366160537 1.0141523614654639e-06 0 0.00072294097658505343 -0.00026352878261431327 0 0.00077403416843044109 -0.00011595860133346134 0 0.0009263437847460824 -0.00014696358080469051 0 0.00061815670093066054 -0.00011472832271075507 0 0.00072294097658505343 -0.00026352878261431327 0 0.00077403416843044109 -0.00011595860133346134 0 0.00043711037663320861 -0.00011201290238372212 0 0.00070259299717081883 -3.2834822645281543e-08 0 0.00015994895366160537 1.0141523614654639e-06 0 0.00022503371614117807 5.1353262542598367e-05 0 0.00021139430707897561 1.4751113941493125e-06 0 0.00022503371614117807 5.1353262542598367e-05 0 0.00021139430707897561 1.4751113941493125e-06 0 0.00026491712736917113 3.0546668093423037e-06 0 0.0002438596465964714 -4.3569670586946814e-05 0 0.00021139430707897561 1.4751113941493125e-06 0 0.00026491712736917113 3.0546668093423037e-06 0 0.00070259299717081883 -3.2834822645281543e-08 0 0.00070298641164553521 3.6577854337361014e-05 0 0.00026360266301105501 1.3465500347260061e-05 0 0.00029478266784341642 1.8282516977177801e-05 0 0.00029114840176191879 7.1442357730120204e-06 0 0.00026360266301105501 1.3465500347260061e-05 0 0.00026491712736917113 3.0546668093423037e-06 0 0.00029114840176191879 7.1442357730120204e-06 0 0.00070259299717081883 -3.2834822645281543e-08 0 0.00061554597321931948 5.5245246963652115e-05 0 0.0011527610491731139 0.00019996173482766204 0 0.0011405646181198027 0.00014334784662253005 0 0.0010933741382418768 0.00016676950449425682 0 0.0011405646181198027 0.00014334784662253005 0 0.0010935521186458848 0.00012268656814425367 0 0.0010933741382418768 0.00016676950449425682 0 0.0011115636490754536 -8.1642432035246244e-05 0 0.00070259299717081883 -3.2834822645281543e-08 0 0.00079276484872022653 4.4919064956478667e-05 0 0.00077403416843044109 -0.00011595860133346134 0 0.0009263437847460824 -0.00014696358080469051 0 0.0011996684115086066 0.00013433713730324982 0 0.0011527610491731139 0.00019996173482766204 0 0.0011405646181198027 0.00014334784662253005 0 0.0015104622286271504 -7.2641637945305073e-05 0 0.0015017722375256053 -7.2089479534721401e-05 0 0.0015009615206404065 -8.0120731606151866e-05 0 0.0012654797729777123 3.3454449009599691e-06 0 0.0011115636490754536 -8.1642432035246244e-05 0 0.0011429771567266031 8.039127882990358e-05 0 0.0011996684115086066 0.00013433713730324982 0 0.0011405646181198027 0.00014334784662253005 0 0.0011429771567266031 8.039127882990358e-05 0 0.0011405646181198027 0.00014334784662253005 0 0.0010935521186458848 0.00012268656814425367 0 0.0010489238178962342 7.4861832604034397e-05 0 0.0011429771567266031 8.039127882990358e-05 0 0.0010935521186458848 0.00012268656814425367 0 0.0010489238178962342 7.4861832604034397e-05 0 0.0010935521186458848 0.00012268656814425367 0 0.0010342516845079548 0.00014204726932083488 0 0.0010489238178962342 7.4861832604034397e-05 0 0.0010342516845079548 0.00014204726932083488 0 0.00097012618364550004 9.2017560508376444e-05 0 0.00032520703924194871 1.0323833051475589e-05 0 0.00031772178674966002 2.2118331614048081e-06 0 0.00033288884301476915 -2.1306061261759147e-05 0 0.00068506537016447546 3.3958733698635608e-05 0 0.00070298641164553521 3.6577854337361014e-05 0 0.0010935521186458848 0.00012268656814425367 0 0.0010342516845079548 0.00014204726932083488 0 0.0010933741382418768 0.00016676950449425682 0 0.00032520703924194871 1.0323833051475589e-05 0 0.00029478266784341642 1.8282516977177801e-05 0 0.00031772178674966002 2.2118331614048081e-06 0 0.00029478266784341642 1.8282516977177801e-05 0 0.00029114840176191879 7.1442357730120204e-06 0 0.00031772178674966002 2.2118331614048081e-06 0 0.00030686876429109289 -1.1543996570390796e-05 0 0.00026491712736917113 3.0546668093423037e-06 0 0.00029114840176191879 7.1442357730120204e-06 0 0.00030686876429109289 -1.1543996570390796e-05 0 0.00029114840176191879 7.1442357730120204e-06 0 0.00031772178674966002 2.2118331614048081e-06 0 9.1290912690823094e-05 -2.681356898022282e-05 0 8.5153584788108579e-05 -1.5706970272257743e-05 0 0.00030686876429109289 -1.1543996570390796e-05 0 0.00031772178674966002 2.2118331614048081e-06 0 0.00031370231745355597 2.2963307396666061e-05 0 0.00031772178674966002 2.2118331614048081e-06 0 0.00031370231745355597 2.2963307396666061e-05 0 0.00033288884301476915 -2.1306061261759147e-05 0 0.00031370231745355597 2.2963307396666061e-05 0 0.00015284402508282984 4.2251128096053454e-06 0 0.00033288884301476915 -2.1306061261759147e-05 0 -0.00015224464605756257 -1.2390365579073063e-07 0 -3.7730514628960418e-05 -1.6911089532466156e-05 0 0.00013537525057404109 1.2976013319187578e-07 0 -0.0001622174236771643 5.6197998706764131e-06 0 -3.7730514628960418e-05 -1.6911089532466156e-05 0 0.00015284402508282984 4.2251128096053454e-06 0 8.5153584788108579e-05 -1.5706970272257743e-05 0 9.2959795924323684e-05 -1.1020877334850754e-05 0 -3.7730514628960418e-05 -1.6911089532466156e-05 0 0.00015284402508282984 4.2251128096053454e-06 0 0.00013537525057404109 1.2976013319187578e-07 0 0.00015284402508282984 4.2251128096053454e-06 0 0.00013537525057404109 1.2976013319187578e-07 0 0.00042297285184249436 -1.6880521683429023e-07 0 0.00015284402508282984 4.2251128096053454e-06 0 0.00042297285184249436 -1.6880521683429023e-07 0 0.00033288884301476915 -2.1306061261759147e-05 0 0.00042297285184249436 -1.6880521683429023e-07 0 0.00033288884301476915 -2.1306061261759147e-05 0 0.00041875112048822929 2.2589500249538208e-05 0 0.00032520703924194871 1.0323833051475589e-05 0 0.00033288884301476915 -2.1306061261759147e-05 0 0.00041875112048822929 2.2589500249538208e-05 0 0.0010342516845079548 0.00014204726932083488 0 0.00097012618364550004 9.2017560508376444e-05 0 0.00088610626750715857 9.2333485716009431e-05 0 0.00068506537016447546 3.3958733698635608e-05 0 0.00067341433732636931 1.3050898031981164e-05 0 0.00071002623763409003 2.4413812433651649e-07 0 0.00042297285184249436 -1.6880521683429023e-07 0 0.00041875112048822929 2.2589500249538208e-05 0 0.0013444777156400016 -0.0008930232187629245 0 0.001470288857686514 -0.00092107729851816133 0 0.0014745307320137254 -0.00075043262099191077 0 0.0013444777156400016 -0.0008930232187629245 0 0.0012652193965314086 -0.00075164046850731197 0 0.0014745307320137254 -0.00075043262099191077 0 0.001470288857686514 -0.00092107729851816133 0 0.0014745307320137254 -0.00075043262099191077 0 0.0016001500746796171 -0.00092949859723954293 0 0.0014991000855355755 -0.00059544263317094944 0 0.001505177547817742 -0.00067988515593356356 0 0.001470288857686514 -0.00092107729851816133 0 0.0016001500746796171 -0.00092949859723954293 0 0.0015331365767055933 -0.001058112968649665 0 0.001470288857686514 -0.00092107729851816133 0 0.0014207794854057829 -0.00097288784177290927 0 0.0015331365767055933 -0.001058112968649665 0 0.0014207794854057829 -0.00097288784177290927 0 0.0013338659359179736 -0.0010169489090032311 0 0.0015331365767055933 -0.001058112968649665 0 0.0013444777156400016 -0.0008930232187629245 0 0.001470288857686514 -0.00092107729851816133 0 0.0014207794854057829 -0.00097288784177290927 0 0.0013444777156400016 -0.0008930232187629245 0 0.0014207794854057829 -0.00097288784177290927 0 0.0013338659359179736 -0.0010169489090032311 0 0.0013024513455423047 -0.00093047571285557865 0 0.0012301982957735312 -0.00092995111102132726 0 0.0013444777156400016 -0.0008930232187629245 0 0.0013338659359179736 -0.0010169489090032311 0 0.0011129357218803461 -0.00096328128706351236 0 0.0011129357218803461 -0.00096328128706351236 0 0.0012652193965314086 -0.00075164046850731197 0 0.0010692136141579724 -0.00075148729878845861 0 0.0013444777156400016 -0.0008930232187629245 0 0.0011129357218803461 -0.00096328128706351236 0 0.0012652193965314086 -0.00075164046850731197 0 0.0012652193965314086 -0.00075164046850731197 0 0.0012050057184853258 -0.00059881410132371713 0 0.0013559495273783315 -0.00057423598781375666 0 0.0012652193965314086 -0.00075164046850731197 0 0.0010692136141579724 -0.00075148729878845861 0 0.0012050057184853258 -0.00059881410132371713 0 0.0012582323631152522 -0.00041071577285584798 0 0.0012050057184853258 -0.00059881410132371713 0 0.001042700664238607 -0.00055462678925308467 0 0.0010692136141579724 -0.00075148729878845861 0 0.0012050057184853258 -0.00059881410132371713 0 0.001042700664238607 -0.00055462678925308467 0 0.0012582323631152522 -0.00041071577285584798 0 0.0012050057184853258 -0.00059881410132371713 0 0.0013559495273783315 -0.00057423598781375666 0 0.0015928409723331355 -0.00041641398665337762 0 0.0015955178462620369 -0.00045794208884778105 0 0.0016359894546291349 -0.00043678762344274676 0 0.0015955178462620369 -0.00045794208884778105 0 0.0016588471915754449 -0.0004280841200009255 0 0.0016359894546291349 -0.00043678762344274676 0 0.0014373587392585341 -0.00049704263334683836 0 0.0014991000855355755 -0.00059544263317094944 0 0.0012652193965314086 -0.00075164046850731197 0 0.0013559495273783315 -0.00057423598781375666 0 0.0014745307320137254 -0.00075043262099191077 0 0.0016588471915754449 -0.0004280841200009255 0 0.0016359894546291349 -0.00043678762344274676 0 0.0016408507909923308 -0.0004281921520899598 0 0.0016359894546291349 -0.00043678762344274676 0 0.001651147268693565 -0.00041846649565017367 0 0.0016408507909923308 -0.0004281921520899598 0 0.001651147268693565 -0.00041846649565017367 0 0.0016408507909923308 -0.0004281921520899598 0 0.0016469314160157873 -0.00041771496531951613 0 0.0016144248276248729 -0.00042141907847379476 0 0.0016408507909923308 -0.0004281921520899598 0 0.0016469314160157873 -0.00041771496531951613 0 0.0016144248276248729 -0.00042141907847379476 0 0.0016408507909923308 -0.0004281921520899598 0 0.0016342398124584874 -0.0003868752089498996 0 0.0016588471915754449 -0.0004280841200009255 0 0.0016408507909923308 -0.0004281921520899598 0 0.0016342398124584874 -0.0003868752089498996 0 0.0015901006630849811 -0.00022982709733831866 0 0.0017031066184480742 -0.00040815720143649669 0 0.0016662009422823741 -0.00042415866788967499 0 0.0016598581451764999 -0.00041319839848330179 0 0.001659765526026461 -0.00042071381599823157 0 0.0016598581451764999 -0.00041319839848330179 0 0.0016469314160157873 -0.00041771496531951613 0 0.001659765526026461 -0.00042071381599823157 0 0.0016469314160157873 -0.00041771496531951613 0 0.0016521497931231417 -0.00042681613653098151 0 0.001659765526026461 -0.00042071381599823157 0 0.0016144248276248729 -0.00042141907847379476 0 0.0016469314160157873 -0.00041771496531951613 0 0.0016521497931231417 -0.00042681613653098151 0 0.001572418807868617 -0.00033582310428969565 0 0.0015583455533321911 -0.00031723504864818088 0 0.0015775588668352708 -0.00024270320457517701 0 0.0015583455533321911 -0.00031723504864818088 0 0.0016658310566108434 -0.00042500592435040573 0 0.0016521497931231417 -0.00042681613653098151 0 0.001659765526026461 -0.00042071381599823157 0 0.0013192912641231765 -0.00046939853579931821 0 0.0014600628175882417 -0.00045229573085871341 0 0.0013986065976144691 -0.00033602376860639632 0 0.0015775588668352708 -0.00024270320457517701 0 0.0015135486147185313 -0.00024103261361618935 0 0.0016144248276248729 -0.00042141907847379476 0 0.0014600628175882417 -0.00045229573085871341 0 0.0015334294791593671 -0.0003692211927149926 0 0.0013986065976144691 -0.00033602376860639632 0 0.0015334294791593671 -0.0003692211927149926 0 0.0014822589320959989 -0.00029591303619953027 0 0.0014600628175882417 -0.00045229573085871341 0 0.0013986065976144691 -0.00033602376860639632 0 0.0015334294791593671 -0.0003692211927149926 0 0.0013986065976144691 -0.00033602376860639632 0 0.0014822589320959989 -0.00029591303619953027 0 0.0014701745245509967 -0.00019244337645313208 0 0.0015334294791593671 -0.0003692211927149926 0 0.0014822589320959989 -0.00029591303619953027 0 0.0015675524964539852 -0.00030824815908289015 0 0.0015063158726997862 -0.00024625571455547243 0 0.0014822589320959989 -0.00029591303619953027 0 0.0015675524964539852 -0.00030824815908289015 0 0.0015063158726997862 -0.00024625571455547243 0 0.0014822589320959989 -0.00029591303619953027 0 0.0014701745245509967 -0.00019244337645313208 0 0.0015135486147185313 -0.00024103261361618935 0 0.0015078807979563194 -0.00022255865073353407 0 0.0015042121646031486 -9.301007145012047e-05 0 0.0014725265515934665 -9.6823800559111086e-05 0 0.0014855623743782144 -0.00015245296552681098 0 0.0014725265515934665 -9.6823800559111086e-05 0 0.0014855623743782144 -0.00015245296552681098 0 0.0014701745245509967 -0.00019244337645313208 0 0.0016588471915754449 -0.0004280841200009255 0 0.0016342398124584874 -0.0003868752089498996 0 0.0016705776084289374 -0.00033634866018693061 0 0.0016144248276248729 -0.00042141907847379476 0 0.0015334294791593671 -0.0003692211927149926 0 0.0016342398124584874 -0.0003868752089498996 0 0.0015334294791593671 -0.0003692211927149926 0 0.0016342398124584874 -0.0003868752089498996 0 0.0015675524964539852 -0.00030824815908289015 0 0.0015675524964539852 -0.00030824815908289015 0 0.0016705776084289374 -0.00033634866018693061 0 0.0015989830920299069 -0.00018790408025791283 0 0.0015063158726997862 -0.00024625571455547243 0 0.0015675524964539852 -0.00030824815908289015 0 0.0015398648816981881 -0.00023117526341050277 0 0.001505177547817742 -0.00067988515593356356 0 0.0014040264492967648 -0.00075699103255105705 0 0.0016342398124584874 -0.0003868752089498996 0 0.0015675524964539852 -0.00030824815908289015 0 0.0016705776084289374 -0.00033634866018693061 0 0.0014040264492967648 -0.00075699103255105705 0 0.0014028228455772473 -0.00089362690021876012 0 0.0013331717961225955 -0.0010285790973175132 0 0.0013083479607833191 -0.0010423388009133856 0 0.0012933961282381107 -0.0010189674337271687 0 0.0016001500746796171 -0.00092949859723954293 0 0.001723686719064419 -0.0011026167191785583 0 0.0015331365767055933 -0.001058112968649665 0 0.0014040264492967648 -0.00075699103255105705 0 0.0014015035059689862 -0.00066038794091777145 0 0.0015675524964539852 -0.00030824815908289015 0 0.0015398648816981881 -0.00023117526341050277 0 0.0015989830920299069 -0.00018790408025791283 0 0.0015398648816981881 -0.00023117526341050277 0 0.0015989830920299069 -0.00018790408025791283 0 0.0014956088413986652 -0.00018771209976184894 0 0.0013712828011990515 -0.00070028397457409222 0 0.0013542217570653083 -0.00067658410183900287 0 0.0013306660390382411 -0.00069022333196757551 0 0.0013331717961225955 -0.0010285790973175132 0 0.0013479049226612218 -0.0010486500058815909 0 0.0013083479607833191 -0.0010423388009133856 0 0.0013118138568382052 -0.00073839882038122706 0 0.0012553923970556997 -0.00090872383024731844 0 0.0013039971534833795 -0.0010666988353130844 0 0.0012846212801596857 -0.0010790596161755427 0 0.0012998668274018764 -0.0010827171454776527 0 0.0014040264492967648 -0.00075699103255105705 0 0.0013118138568382052 -0.00073839882038122706 0 0.0013479049226612218 -0.0010486500058815909 0 0.0013083479607833191 -0.0010423388009133856 0 0.0013163160511289107 -0.001067929724078033 0 0.0013083479607833191 -0.0010423388009133856 0 0.0013163160511289107 -0.001067929724078033 0 0.0012906267070915012 -0.0010606398921711399 0 0.0014855623743782144 -0.00015245296552681098 0 0.0014725688429381547 -0.00017792035888881505 0 0.0014701745245509967 -0.00019244337645313208 0 0.0014957642880741131 -0.00017727909514326078 0 0.0014725688429381547 -0.00017792035888881505 0 0.001475410951603099 -0.00019262460192088137 0 0.0014957642880741131 -0.00017727909514326078 0 0.0014855623743782144 -0.00015245296552681098 0 0.0014725688429381547 -0.00017792035888881505 0 0.0014725688429381547 -0.00017792035888881505 0 0.0014735534634090022 -0.00017154692037531794 0 0.001475410951603099 -0.00019262460192088137 0 0.0015989830920299069 -0.00018790408025791283 0 0.0014822110847045728 -0.00016038780863929992 0 0.0014956088413986652 -0.00018771209976184894 0 0.0014725688429381547 -0.00017792035888881505 0 0.0014710610265343078 -0.00018034717765672435 0 0.0014735534634090022 -0.00017154692037531794 0 0.0014710610265343078 -0.00018034717765672435 0 0.0014735534634090022 -0.00017154692037531794 0 0.0014956088413986652 -0.00018771209976184894 0 0.0014735534634090022 -0.00017154692037531794 0 0.0014822110847045728 -0.00016038780863929992 0 0.0014956088413986652 -0.00018771209976184894 0 0.00140353835930133 -0.0006582011111474894 0 0.0014015035059689862 -0.00066038794091777145 0 0.0014725688429381547 -0.00017792035888881505 0 0.0014710610265343078 -0.00018034717765672435 0 0.0014701745245509967 -0.00019244337645313208 0 0.0014710610265343078 -0.00018034717765672435 0 0.0014701745245509967 -0.00019244337645313208 0 0.0014956088413986652 -0.00018771209976184894 0 0.0015063158726997862 -0.00024625571455547243 0 0.0014701745245509967 -0.00019244337645313208 0 0.0014956088413986652 -0.00018771209976184894 0 0.0015063158726997862 -0.00024625571455547243 0 0.0015398648816981881 -0.00023117526341050277 0 0.0014956088413986652 -0.00018771209976184894 0 0.0014735534634090022 -0.00017154692037531794 0 0.0014729820151698685 -0.00017052065576639668 0 0.001475410951603099 -0.00019262460192088137 0 0.0013118138568382052 -0.00073839882038122706 0 0.0014015035059689862 -0.00066038794091777145 0 0.0013772933152037137 -0.00020319117694856911 0 0.0014181180635441872 -0.00017910020927096115 0 0.0014144721510258114 -0.00020572492815359262 0 0.0013772933152037137 -0.00020319117694856911 0 0.0014144721510258114 -0.00020572492815359262 0 0.0014248865296527735 -0.00023213261278022179 0 0.0013772933152037137 -0.00020319117694856911 0 0.0014248865296527735 -0.00023213261278022179 0 0.0014153605651190226 -0.00025557384873263939 0 0.0013118138568382052 -0.00073839882038122706 0 0.0010407250669602088 -0.00066766881030360552 0 0.0014144721510258114 -0.00020572492815359262 0 0.0014248865296527735 -0.00023213261278022179 0 0.0014375975777555015 -0.00020833224762545154 0 0.0014181180635441872 -0.00017910020927096115 0 0.0014144721510258114 -0.00020572492815359262 0 0.0014375975777555015 -0.00020833224762545154 0 0.0015146682627948619 -0.00024080502690755078 0 0.0014636654680083821 -0.00022653028295294405 0 0.001475410951603099 -0.00019262460192088137 0 0.0014181180635441872 -0.00017910020927096115 0 0.0014375975777555015 -0.00020833224762545154 0 0.001475410951603099 -0.00019262460192088137 0 0.0014015035059689862 -0.00066038794091777145 0 0.0013993671625829982 -0.0006090550985850396 0 0.0014375975777555015 -0.00020833224762545154 0 0.0014636654680083821 -0.00022653028295294405 0 0.001475410951603099 -0.00019262460192088137 0 0.0014248865296527735 -0.00023213261278022179 0 0.0014375975777555015 -0.00020833224762545154 0 0.0014636654680083821 -0.00022653028295294405 0 0.0010153794210206351 -0.00021315297657170115 0 0.00074204082354836461 -0.00049972086269966707 0 0.0015146682627948619 -0.00024080502690755078 0 0.0014612300722794465 -0.00025746974220195682 0 0.0014518183923809 -0.00030170088163744633 0 0.0015146682627948619 -0.00024080502690755078 0 0.0014636654680083821 -0.00022653028295294405 0 0.0014612300722794465 -0.00025746974220195682 0 0.00061815670093066054 -0.00011472832271075507 0 0.00058228639045610896 -0.00025455008203756417 0 0.00044260206295214887 -0.00027553819534787343 0 0.0014248865296527735 -0.00023213261278022179 0 0.0014636654680083821 -0.00022653028295294405 0 0.0014612300722794465 -0.00025746974220195682 0 0.0014612300722794465 -0.00025746974220195682 0 0.0014162521156540948 -0.00025285030000355471 0 0.0014518183923809 -0.00030170088163744633 0 0.0010407250669602088 -0.00066766881030360552 0 0.00090660533916361342 -0.00078902718794257717 0 0.0013156483279881264 -0.0010832328096167041 0 0.0013077006149062318 -0.0011030751910653864 0 0.0012998668274018764 -0.0010827171454776527 0 0.0010407250669602088 -0.00066766881030360552 0 0.00074204082354836461 -0.00049972086269966707 0 0.0014248865296527735 -0.00023213261278022179 0 0.0014612300722794465 -0.00025746974220195682 0 0.0014162521156540948 -0.00025285030000355471 0 0.0010598672812035103 -0.00063041752729577874 0 0.0010407250669602088 -0.00066766881030360552 0 0.000660228123953018 -0.00079823646530787656 0 0.00074204082354836461 -0.00049972086269966707 0 0.00081869264782131503 -0.00080008632190762359 0 0.00084089469262494754 -0.00067346023578500065 0 0.00097547659090228866 -0.00065587813420744446 0 0.00089386302480832646 -0.00054244115310709954 0 0.00084089469262494754 -0.00067346023578500065 0 0.00097547659090228866 -0.00065587813420744446 0 0.00051822073005238184 -0.00038070496628850504 0 0.00058228639045610896 -0.00025455008203756417 0 0.00044260206295214887 -0.00027553819534787343 0 0.00053553579712550857 -0.00055704798337918306 0 0.00064368813472406394 -0.00051583947253006654 0 0.00057042310739201924 -0.00041483006256600217 0 0.00015539021439070412 -0.00021862230414719243 0 0.00074204082354836461 -0.00049972086269966707 0 0.0012553923970556997 -0.00090872383024731844 0 0.0012373896606275359 -0.0009853335716312351 0 0.0012846212801596857 -0.0010790596161755427 0 0.0012782825993509492 -0.001096080808078522 0 0.0012660528166968325 -0.0010913079771940866 0 0.0012846212801596857 -0.0010790596161755427 0 0.0012920432758295563 -0.0010959534884609657 0 0.0012782825993509492 -0.001096080808078522 0 0.0012846212801596857 -0.0010790596161755427 0 0.0012998668274018764 -0.0010827171454776527 0 0.0012920432758295563 -0.0010959534884609657 0 0.0013077006149062318 -0.0011030751910653864 0 0.0012998668274018764 -0.0010827171454776527 0 0.0012920432758295563 -0.0010959534884609657 0 0.0013039971534833795 -0.0010666988353130844 0 0.0013156483279881264 -0.0010832328096167041 0 0.0012998668274018764 -0.0010827171454776527 0 0.0013077006149062318 -0.0011030751910653864 0 0.0012920432758295563 -0.0010959534884609657 0 0.0012961878533352938 -0.001107808206485196 0 0.0012997426268189919 -0.00112236640167156 0 0.0013077006149062318 -0.0011030751910653864 0 0.0012961878533352938 -0.001107808206485196 0 0.0012920432758295563 -0.0010959534884609657 0 0.0012961878533352938 -0.001107808206485196 0 0.0012844297787368915 -0.0011098707855518783 0 0.0012844297787368915 -0.0011098707855518783 0 0.0012782825993509492 -0.001096080808078522 0 0.001262102635730818 -0.0011102414031385216 0 0.0012920432758295563 -0.0010959534884609657 0 0.0012844297787368915 -0.0011098707855518783 0 0.0012782825993509492 -0.001096080808078522 0 0.001262102635730818 -0.0011102414031385216 0 0.0012483194151279825 -0.0011026036629135545 0 0.0012660528166968325 -0.0010913079771940866 0 0.0012782825993509492 -0.001096080808078522 0 0.001262102635730818 -0.0011102414031385216 0 0.0012660528166968325 -0.0010913079771940866 0 0.0012398101638429202 -0.0011160600280569809 0 0.001262102635730818 -0.0011102414031385216 0 0.0012483194151279825 -0.0011026036629135545 0 0.0012298342960070335 -0.0010092657360487273 0 0.0012373896606275359 -0.0009853335716312351 0 0.0012483194151279825 -0.0011026036629135545 0 0.0012818591611112656 -0.0010864833700021238 0 0.001234381405653721 -0.0010631775366058344 0 0.0013163160511289107 -0.001067929724078033 0 0.0012818591611112656 -0.0010864833700021238 0 0.0012906267070915012 -0.0010606398921711399 0 0.0012818591611112656 -0.0010864833700021238 0 0.0012906267070915012 -0.0010606398921711399 0 0.0012660151204932242 -0.0010459703180374939 0 0.0013083479607833191 -0.0010423388009133856 0 0.0012906267070915012 -0.0010606398921711399 0 0.0012660151204932242 -0.0010459703180374939 0 0.0012818591611112656 -0.0010864833700021238 0 0.0012660151204932242 -0.0010459703180374939 0 0.001234381405653721 -0.0010631775366058344 0 0.0012660151204932242 -0.0010459703180374939 0 0.0012509230033727976 -0.0010115883913786091 0 0.001234381405653721 -0.0010631775366058344 0 0.0013024513455423047 -0.00093047571285557865 0 0.0014028228455772473 -0.00089362690021876012 0 0.0012230638079925808 -0.0010717681257284061 0 0.001197252931111825 -0.0011322979487286423 0 0.0012414752468240227 -0.0010064308713879616 0 0.0012509230033727976 -0.0010115883913786091 0 0.0012933961282381107 -0.0010189674337271687 0 0.0012660151204932242 -0.0010459703180374939 0 0.0012509230033727976 -0.0010115883913786091 0 0.0012933961282381107 -0.0010189674337271687 0 0.0013083479607833191 -0.0010423388009133856 0 0.0012660151204932242 -0.0010459703180374939 0 0.0012933961282381107 -0.0010189674337271687 0 0.0011129357218803461 -0.00096328128706351236 0 0.0011523821273654352 -0.0010780172918643176 0 0.0010079131539971768 -0.0011143485154324127 0 0.0012414752468240227 -0.0010064308713879616 0 0.0011129357218803461 -0.00096328128706351236 0 0.0011523821273654352 -0.0010780172918643176 0 0.0012509230033727976 -0.0010115883913786091 0 0.0011523821273654352 -0.0010780172918643176 0 0.0011980081735466432 -0.0011927951260453104 0 0.0012414752468240227 -0.0010064308713879616 0 0.0012509230033727976 -0.0010115883913786091 0 0.0011523821273654352 -0.0010780172918643176 0 0.0011523821273654352 -0.0010780172918643176 0 0.0011980081735466432 -0.0011927951260453104 0 0.0010779829425517603 -0.0011929351281938767 0 0.0011523821273654352 -0.0010780172918643176 0 0.0010779829425517603 -0.0011929351281938767 0 0.0010079131539971768 -0.0011143485154324127 0 0.0010779829425517603 -0.0011929351281938767 0 0.00097771675550020732 -0.0012706410728322618 0 0.0010079131539971768 -0.0011143485154324127 0 0.0010779829425517603 -0.0011929351281938767 0 0.0011136875457764626 -0.0013884178832570925 0 0.00097771675550020732 -0.0012706410728322618 0 0.0012483194151279825 -0.0011026036629135545 0 0.001234381405653721 -0.0010631775366058344 0 0.0012207646588805055 -0.0011066316673319927 0 0.0011980081735466432 -0.0011927951260453104 0 0.0010779829425517603 -0.0011929351281938767 0 0.0011136875457764626 -0.0013884178832570925 0 0.001197252931111825 -0.0011322979487286423 0 0.0011418330268227377 -0.0012391580407780814 0 0.0012398101638429202 -0.0011160600280569809 0 0.0012483194151279825 -0.0011026036629135545 0 0.0012207646588805055 -0.0011066316673319927 0 0.0011136875457764626 -0.0013884178832570925 0 0.00094358190971592854 -0.0013895774663405399 0 0.00097771675550020732 -0.0012706410728322618 0 0.00096971231851375147 -0.0014847628703413536 0 0.0011136875457764626 -0.0013884178832570925 0 0.00094358190971592854 -0.0013895774663405399 0 0.00094358190971592854 -0.0013895774663405399 0 0.00084684813408177865 -0.0014060590283295684 0 0.00086562550081136186 -0.0012973334146818812 0 0.00088323118694230078 -0.0014868205407950526 0 0.00094358190971592854 -0.0013895774663405399 0 0.00084684813408177865 -0.0014060590283295684 0 0.00075734335484497573 -0.0014801220784672173 0 0.00084684813408177865 -0.0014060590283295684 0 0.00076409641933548097 -0.0013476065411463785 0 0.00084684813408177865 -0.0014060590283295684 0 0.00086562550081136186 -0.0012973334146818812 0 0.00076409641933548097 -0.0013476065411463785 0 0.00086562550081136186 -0.0012973334146818812 0 0.00079313199990423448 -0.0012367435523930326 0 0.00076409641933548097 -0.0013476065411463785 0 0.00086562550081136186 -0.0012973334146818812 0 0.00079313199990423448 -0.0012367435523930326 0 0.00087233234412902939 -0.0011507169298899799 0 0.00094358190971592854 -0.0013895774663405399 0 0.00086562550081136186 -0.0012973334146818812 0 0.00097771675550020732 -0.0012706410728322618 0 0.00086562550081136186 -0.0012973334146818812 0 0.00097771675550020732 -0.0012706410728322618 0 0.00087233234412902939 -0.0011507169298899799 0 0.00075734335484497573 -0.0014801220784672173 0 0.00064765417847718724 -0.0014046384628346677 0 0.00076409641933548097 -0.0013476065411463785 0 0.00064765417847718724 -0.0014046384628346677 0 0.00076409641933548097 -0.0013476065411463785 0 0.00068042441709815907 -0.0012596632248943153 0 0.00079313199990423448 -0.0012367435523930326 0 0.00076409641933548097 -0.0013476065411463785 0 0.00068042441709815907 -0.0012596632248943153 0 0.00068042441709815907 -0.0012596632248943153 0 0.00058526490324440554 -0.0012073570951291683 0 0.0005466042066728685 -0.0013049475288561853 0 0.00064765417847718724 -0.0014046384628346677 0 0.00068042441709815907 -0.0012596632248943153 0 0.0005466042066728685 -0.0013049475288561853 0 0.00071907935289344934 -0.001100533817658608 0 0.00055187002570385526 -0.0010952834601277578 0 0.00058526490324440554 -0.0012073570951291683 0 0.00068042441709815907 -0.0012596632248943153 0 0.00071907935289344934 -0.001100533817658608 0 0.00058526490324440554 -0.0012073570951291683 0 0.00079313199990423448 -0.0012367435523930326 0 0.00068042441709815907 -0.0012596632248943153 0 0.00071907935289344934 -0.001100533817658608 0 0.00079313199990423448 -0.0012367435523930326 0 0.00071907935289344934 -0.001100533817658608 0 0.00087233234412902939 -0.0011507169298899799 0 0.00071907935289344934 -0.001100533817658608 0 0.00087452717953807532 -0.0010265179965872912 0 0.00075659900480786997 -0.00097998349724635371 0 0.00071907935289344934 -0.001100533817658608 0 0.00061537512157081769 -0.00097862665007931462 0 0.00055187002570385526 -0.0010952834601277578 0 0.00071907935289344934 -0.001100533817658608 0 0.00075659900480786997 -0.00097998349724635371 0 0.00061537512157081769 -0.00097862665007931462 0 0.0011129357218803461 -0.00096328128706351236 0 0.0010079131539971768 -0.0011143485154324127 0 0.00087452717953807532 -0.0010265179965872912 0 0.00097771675550020732 -0.0012706410728322618 0 0.0010079131539971768 -0.0011143485154324127 0 0.00087233234412902939 -0.0011507169298899799 0 0.00071907935289344934 -0.001100533817658608 0 0.00087233234412902939 -0.0011507169298899799 0 0.00087452717953807532 -0.0010265179965872912 0 0.0010079131539971768 -0.0011143485154324127 0 0.00087233234412902939 -0.0011507169298899799 0 0.00087452717953807532 -0.0010265179965872912 0 0.0011129357218803461 -0.00096328128706351236 0 0.00087452717953807532 -0.0010265179965872912 0 0.00091575087643711776 -0.00087646641598135798 0 0.0011129357218803461 -0.00096328128706351236 0 0.0010692136141579724 -0.00075148729878845861 0 0.00091575087643711776 -0.00087646641598135798 0 0.0010692136141579724 -0.00075148729878845861 0 0.00091575087643711776 -0.00087646641598135798 0 0.00087067704329436499 -0.00070852658166975252 0 0.00091575087643711776 -0.00087646641598135798 0 0.00072702378818804189 -0.00085446051504840489 0 0.00087067704329436499 -0.00070852658166975252 0 0.00087452717953807532 -0.0010265179965872912 0 0.00091575087643711776 -0.00087646641598135798 0 0.00075659900480786997 -0.00097998349724635371 0 0.00091575087643711776 -0.00087646641598135798 0 0.00075659900480786997 -0.00097998349724635371 0 0.00072702378818804189 -0.00085446051504840489 0 0.00079957570526189236 -0.0008212039662634905 0 0.00072119392368038919 -0.00088958627557891043 0 0.00075659900480786997 -0.00097998349724635371 0 0.00072702378818804189 -0.00085446051504840489 0 0.00061537512157081769 -0.00097862665007931462 0 0.00066451965707330118 -0.00077261006553326942 0 0.00082784154667002951 -0.00083985066923376894 0 0.00061537512157081769 -0.00097862665007931462 0 0.00079957570526189236 -0.0008212039662634905 0 0.00094097995680721429 -0.00069548209616586572 0 0.00082784154667002951 -0.00083985066923376894 0 0.00082107329245008158 -0.00066019115283269612 0 0.0010102720710439465 -0.00068617108911236859 0 0.00066451965707330118 -0.00077261006553326942 0 0.00082107329245008158 -0.00066019115283269612 0 0.00058487388412003908 -0.0005940845236469776 0 0.00066451965707330118 -0.00077261006553326942 0 0.00082784154667002951 -0.00083985066923376894 0 0.00082107329245008158 -0.00066019115283269612 0 0.00082107329245008158 -0.00066019115283269612 0 0.00058487388412003908 -0.0005940845236469776 0 0.00078317947969085849 -0.00049516668416823954 0 0.00082107329245008158 -0.00066019115283269612 0 0.00098582867797711413 -0.00047829168410506875 0 0.00078317947969085849 -0.00049516668416823954 0 0.00082107329245008158 -0.00066019115283269612 0 0.0010102720710439465 -0.00068617108911236859 0 0.00098582867797711413 -0.00047829168410506875 0 0.0011685183937336094 -0.00053377738029544881 0 0.0010102720710439465 -0.00068617108911236859 0 0.00098582867797711413 -0.00047829168410506875 0 0.0010809233141633727 -0.0005702890975721862 0 0.00094097995680721429 -0.00069548209616586572 0 0.0010692136141579724 -0.00075148729878845861 0 0.001042700664238607 -0.00055462678925308467 0 0.00087067704329436499 -0.00070852658166975252 0 0.00035658342465591725 -0.00071261723305192501 0 0.00032406085779009241 -0.00057507602032281526 0 0.00043005363457224893 -0.00062382070945405201 0 0.00035658342465591725 -0.00071261723305192501 0 0.00022157358353091689 -0.00071536568406645629 0 0.00032406085779009241 -0.00057507602032281526 0 0.00019728625679957761 -0.00034060471651438943 0 0.0001792682549946526 -0.00042676985497142012 0 0.0002109442598851305 -0.00071805552704273963 0 0.00023175956269727531 -0.00067337791860487333 0 0.00032406085779009241 -0.00057507602032281526 0 0.0010160157363916641 -0.00018887361155018844 0 0.0010182797697096259 -0.00018572314342421044 0 0.0010230742995327731 -0.00019115780928686453 0 0.00019728625679957761 -0.00034060471651438943 0 0.0001634084904366422 -0.00024604498463975618 0 -0.00018210933073963074 -0.00032992639918410957 0 -0.00019730832942163807 -0.00034905999257611172 0 -0.00018829484760752826 -0.00035078367032893496 0 0.0010160157363916641 -0.00018887361155018844 0 0.0010165075818593706 -0.00019346832774926433 0 0.0010230742995327731 -0.00019115780928686453 0 0.0002109442598851305 -0.00071805552704273963 0 0.00023175956269727531 -0.00067337791860487333 0 0.00021179023258439703 -0.00063760197525625825 0 0.00019728625679957761 -0.00034060471651438943 0 0.00038047649238879389 -0.00034026197542872836 0 0.00038168688804311024 -0.00034770591430821168 0 0.00038047649238879389 -0.00034026197542872836 0 0.00021151486312695207 -0.00063808854601898229 0 0.00032406085779009241 -0.00057507602032281526 0 0.00021043134444164154 -0.0003966678365947361 0 0.00072473868610570941 -0.00029179333459061237 0 0.00070114200311039733 -0.00024759410896059848 0 0.00072658430155612985 -0.00022820591506776078 0 0.00023175956269727531 -0.00067337791860487333 0 0.00021151486312695207 -0.00063808854601898229 0 0.00032406085779009241 -0.00057507602032281526 0 0.0010165075818593706 -0.00019346832774926433 0 0.0010230742995327731 -0.00019115780928686453 0 0.0010242762251489105 -0.00020226498949965687 0 0.00038047649238879389 -0.00034026197542872836 0 0.00065450205591946183 -0.00029667635372503874 0 0.00038047649238879389 -0.00034026197542872836 0 0.00050331778132755103 -0.00029238942791452407 0 0.00032406085779009241 -0.00057507602032281526 0 0.00043005363457224893 -0.00062382070945405201 0 0.00039395106887826043 -0.0004492390591599876 0 0.00043005363457224893 -0.00062382070945405201 0 0.00058487388412003908 -0.0005940845236469776 0 0.00039395106887826043 -0.0004492390591599876 0 0.00066451965707330118 -0.00077261006553326942 0 0.00058487388412003908 -0.0005940845236469776 0 0.00048432651497179176 -0.00078713637163230546 0 0.00043005363457224893 -0.00062382070945405201 0 0.00058487388412003908 -0.0005940845236469776 0 0.00048432651497179176 -0.00078713637163230546 0 0.00035658342465591725 -0.00071261723305192501 0 0.00043005363457224893 -0.00062382070945405201 0 0.00048432651497179176 -0.00078713637163230546 0 0.00035658342465591725 -0.00071261723305192501 0 0.00048432651497179176 -0.00078713637163230546 0 0.00034796526214926523 -0.00086999166613162195 0 0.00048432651497179176 -0.00078713637163230546 0 0.00045419805050875333 -0.00098515501784438519 0 0.00034796526214926523 -0.00086999166613162195 0 0.00066451965707330118 -0.00077261006553326942 0 0.00048432651497179176 -0.00078713637163230546 0 0.00061537512157081769 -0.00097862665007931462 0 0.00048432651497179176 -0.00078713637163230546 0 0.00061537512157081769 -0.00097862665007931462 0 0.00045419805050875333 -0.00098515501784438519 0 0.00045419805050875333 -0.00098515501784438519 0 0.00034796526214926523 -0.00086999166613162195 0 0.00034160019079609616 -0.0010491468157877923 0 0.00034796526214926523 -0.00086999166613162195 0 0.00022701851265710226 -0.00095140722372162969 0 0.00034160019079609616 -0.0010491468157877923 0 0.00035658342465591725 -0.00071261723305192501 0 0.00022157358353091689 -0.00071536568406645629 0 0.00034796526214926523 -0.00086999166613162195 0 0.00022157358353091689 -0.00071536568406645629 0 0.00034796526214926523 -0.00086999166613162195 0 0.00022701851265710226 -0.00095140722372162969 0 -0.00018210933073963074 -0.00032992639918410957 0 -0.00018829484760752826 -0.00035078367032893496 0 -0.00018429999650233824 -0.00042494048362299496 0 0.00019728625679957761 -0.00034060471651438943 0 -7.4424325074665785e-05 -0.00063187750467324545 0 -0.00018829484760752826 -0.00035078367032893496 0 -0.00018429999650233824 -0.00042494048362299496 0 -0.00023313782718755742 -0.00039403115263766161 0 -0.00019741554128153987 -0.00034909218215069748 0 -0.00018829484760752826 -0.00035078367032893496 0 -0.00023313782718755742 -0.00039403115263766161 0 0.0001634084904366422 -0.00024604498463975618 0 0.00015888121286956866 -0.0002457925065184499 0 -0.00018429999650233824 -0.00042494048362299496 0 -0.00022678930083642012 -0.00047834301982467635 0 -0.0002281347776166811 -0.00043396782251885712 0 -0.00018429999650233824 -0.00042494048362299496 0 -0.00018571663425685406 -0.00051826395406943569 0 -0.00022678930083642012 -0.00047834301982467635 0 0.00022701851265710226 -0.00095140722372162969 0 0.00034160019079609616 -0.0010491468157877923 0 0.00023188116525104112 -0.0011662547460094192 0 -7.4424325074665785e-05 -0.00063187750467324545 0 -0.00042352026862180322 -0.00063103045491846345 0 0.00034160019079609616 -0.0010491468157877923 0 0.00037235287601712023 -0.0011702570271816366 0 0.0004321997121343706 -0.0011117451243544431 0 0.00034160019079609616 -0.0010491468157877923 0 0.00037235287601712023 -0.0011702570271816366 0 0.00023188116525104112 -0.0011662547460094192 0 0.00037235287601712023 -0.0011702570271816366 0 0.00023188116525104112 -0.0011662547460094192 0 0.00037957022747556174 -0.0013019873126342409 0 -0.0014774600678211648 -0.00021173781749712163 0 -0.0014891832249935033 -0.00017585300514251062 0 -0.0013868529039776714 -0.00028453837326329753 0 -0.00043274686535198031 -0.00061587594722025232 0 -0.00042352026862180322 -0.00063103045491846345 0 -0.0014774600678211648 -0.00021173781749712163 0 -0.0015158819851777974 -0.00026497650483935439 0 -0.001528113927243108 -0.00022017194660100249 0 -0.0014774600678211648 -0.00021173781749712163 0 -0.0014773543915624567 -0.00020367346248603431 0 -0.001528113927243108 -0.00022017194660100249 0 -0.00042352026862180322 -0.00063103045491846345 0 -0.0006930588645572206 -0.00039754477221245506 0 -0.0014773543915624567 -0.00020367346248603431 0 -0.0015409336699700989 -0.000148528546439434 0 -0.001528113927243108 -0.00022017194660100249 0 0.00061537512157081769 -0.00097862665007931462 0 0.00045419805050875333 -0.00098515501784438519 0 0.00055187002570385526 -0.0010952834601277578 0 0.00045419805050875333 -0.00098515501784438519 0 0.00055187002570385526 -0.0010952834601277578 0 0.0004321997121343706 -0.0011117451243544431 0 0.00045419805050875333 -0.00098515501784438519 0 0.00034160019079609616 -0.0010491468157877923 0 0.0004321997121343706 -0.0011117451243544431 0 0.00055187002570385526 -0.0010952834601277578 0 0.0004321997121343706 -0.0011117451243544431 0 0.00047310265383639457 -0.0012169953216147871 0 0.00037235287601712023 -0.0011702570271816366 0 0.0004321997121343706 -0.0011117451243544431 0 0.00047310265383639457 -0.0012169953216147871 0 0.00055187002570385526 -0.0010952834601277578 0 0.00047310265383639457 -0.0012169953216147871 0 0.00058526490324440554 -0.0012073570951291683 0 0.00047310265383639457 -0.0012169953216147871 0 0.00058526490324440554 -0.0012073570951291683 0 0.0005466042066728685 -0.0013049475288561853 0 0.00047310265383639457 -0.0012169953216147871 0 0.0005466042066728685 -0.0013049475288561853 0 0.00037957022747556174 -0.0013019873126342409 0 0.00037235287601712023 -0.0011702570271816366 0 0.00047310265383639457 -0.0012169953216147871 0 0.00037957022747556174 -0.0013019873126342409 0 0.00050989229383382388 -0.0014330371057306665 0 0.0005466042066728685 -0.0013049475288561853 0 0.00037957022747556174 -0.0013019873126342409 0 -1.3068915263634714e-05 -0.0010688153287619837 0 -0.0002953218171964607 -0.00080820257208960816 0 -0.00059905340711910373 -0.00063818830351218287 0 -0.0011906330889918128 -0.00026748302622075641 0 -0.0011571428284769469 -0.00057120990296184834 0 0.00050989229383382388 -0.0014330371057306665 0 0.00064765417847718724 -0.0014046384628346677 0 0.0005466042066728685 -0.0013049475288561853 0 -0.001518120045504308 -0.00033035548018792052 0 -0.0013868529039776714 -0.00028453837326329753 0 -0.001477215807309622 -0.00042574009830874735 0 -0.001518120045504308 -0.00033035548018792052 0 -0.0014766862388507285 -0.00027041311060583802 0 -0.0013868529039776714 -0.00028453837326329753 0 -0.0014774600678211648 -0.00021173781749712163 0 -0.0015158819851777974 -0.00026497650483935439 0 -0.0014766862388507285 -0.00027041311060583802 0 -0.001518120045504308 -0.00033035548018792052 0 -0.0015158819851777974 -0.00026497650483935439 0 -0.0014766862388507285 -0.00027041311060583802 0 -0.0014774600678211648 -0.00021173781749712163 0 -0.0014766862388507285 -0.00027041311060583802 0 -0.0013868529039776714 -0.00028453837326329753 0 -0.00042352026862180322 -0.00063103045491846345 0 -0.0002953218171964607 -0.00080820257208960816 0 -0.0011906330889918128 -0.00026748302622075641 0 -0.0013868529039776714 -0.00028453837326329753 0 -0.001477215807309622 -0.00042574009830874735 0 -0.0014891832249935033 -0.00017585300514251062 0 -0.0011906330889918128 -0.00026748302622075641 0 -0.0013868529039776714 -0.00028453837326329753 0 -0.0011906330889918128 -0.00026748302622075641 0 -0.0011571428284769469 -0.00057120990296184834 0 -0.001477215807309622 -0.00042574009830874735 0 -0.001518120045504308 -0.00033035548018792052 0 -0.001477215807309622 -0.00042574009830874735 0 -0.001563167530344789 -0.00041240769236367393 0 -0.001518120045504308 -0.00033035548018792052 0 -0.001563167530344789 -0.00041240769236367393 0 -0.0015867378096792329 -0.00035677010821644206 0 -0.001518120045504308 -0.00033035548018792052 0 -0.0015732533331229127 -0.00030081529675875089 0 -0.0015867378096792329 -0.00035677010821644206 0 -0.001518120045504308 -0.00033035548018792052 0 -0.0015158819851777974 -0.00026497650483935439 0 -0.0015732533331229127 -0.00030081529675875089 0 -0.0015867378096792329 -0.00035677010821644206 0 -0.0016117520251131869 -0.00035230409757979869 0 -0.0015987015021107257 -0.00030726416928447057 0 -0.0015732533331229127 -0.00030081529675875089 0 -0.0015867378096792329 -0.00035677010821644206 0 -0.0015987015021107257 -0.00030726416928447057 0 -0.0016117520251131869 -0.00035230409757979869 0 -0.0016205451717473092 -0.0003249331062307325 0 -0.0015987015021107257 -0.00030726416928447057 0 -0.0015867378096792329 -0.00035677010821644206 0 -0.0015995954623358674 -0.00039458283635010336 0 -0.0016117520251131869 -0.00035230409757979869 0 -0.001563167530344789 -0.00041240769236367393 0 -0.0015867378096792329 -0.00035677010821644206 0 -0.0015995954623358674 -0.00039458283635010336 0 -0.0015995954623358674 -0.00039458283635010336 0 -0.0016327732753778849 -0.00037877486154569998 0 -0.0016117520251131869 -0.00035230409757979869 0 -0.0016327732753778849 -0.00037877486154569998 0 -0.0016491019217443597 -0.00035255118973386961 0 -0.0016287983890676066 -0.00035229233153076116 0 -0.0016327732753778849 -0.00037877486154569998 0 -0.0016117520251131869 -0.00035230409757979869 0 -0.0016287983890676066 -0.00035229233153076116 0 -0.0016327732753778849 -0.00037877486154569998 0 -0.0016491019217443597 -0.00035255118973386961 0 -0.0016738376765895275 -0.00039085992370821524 0 -0.0016491019217443597 -0.00035255118973386961 0 -0.0016738376765895275 -0.00039085992370821524 0 -0.0016649520163081646 -0.00033134154646899774 0 -0.0016491019217443597 -0.00035255118973386961 0 -0.0016168390278189905 -0.00031473869048775991 0 -0.0016649520163081646 -0.00033134154646899774 0 -0.0014246941598811478 -0.0004450033586351535 0 -0.0013265275350193304 -0.00043517589667400311 0 -0.0016491019217443597 -0.00035255118973386961 0 -0.0016205451717473092 -0.0003249331062307325 0 -0.001623923557066316 -0.00029651642899408085 0 -0.0016491019217443597 -0.00035255118973386961 0 -0.0016287983890676066 -0.00035229233153076116 0 -0.0016205451717473092 -0.0003249331062307325 0 -0.0016117520251131869 -0.00035230409757979869 0 -0.0016287983890676066 -0.00035229233153076116 0 -0.0016205451717473092 -0.0003249331062307325 0 -0.0016491019217443597 -0.00035255118973386961 0 -0.0016168390278189905 -0.00031473869048775991 0 -0.0016032014053467423 -0.00031149696849147894 0 -0.0016205451717473092 -0.0003249331062307325 0 -0.001623923557066316 -0.00029651642899408085 0 -0.0016096823921938111 -0.0003020751887252164 0 -0.0016168390278189905 -0.00031473869048775991 0 -0.0016032014053467423 -0.00031149696849147894 0 -0.0016042848173840423 -0.00031579002019578985 0 -0.0007206646527762806 -0.00032606374491563105 0 -0.0011453146857316682 -0.00045580977402970784 0 -0.0016168390278189905 -0.00031473869048775991 0 -0.0016575047818808961 -0.00026103220680687665 0 -0.0016649520163081646 -0.00033134154646899774 0 -0.0010970649717429977 -0.00013511165343559303 0 -0.0007206646527762806 -0.00032606374491563105 0 -0.0015854935849465253 -0.00031887716045211326 0 -0.0016042848173840423 -0.00031579002019578985 0 -0.0016013588981941751 -0.00032149459662718664 0 -0.0016168390278189905 -0.00031473869048775991 0 -0.0015854935849465253 -0.00031887716045211326 0 -0.0016042848173840423 -0.00031579002019578985 0 -0.0016032014053467423 -0.00031149696849147894 0 -0.0016042848173840423 -0.00031579002019578985 0 -0.001606150603341031 -0.00032158392192558819 0 -0.0016042848173840423 -0.00031579002019578985 0 -0.0016013588981941751 -0.00032149459662718664 0 -0.001606150603341031 -0.00032158392192558819 0 -0.0015904446110976327 -0.00025600438134883754 0 -0.0016008118573042022 -0.00029031623648483046 0 -0.0015826990438824887 -0.00028697218950172608 0 -0.00091491027888435648 -0.0003270594407187358 0 -0.0011216935708133055 -0.00021771930120269471 0 -0.0016032014053467423 -0.00031149696849147894 0 -0.001606150603341031 -0.00032158392192558819 0 -0.001613332139308027 -0.00032130381442190995 0 -0.0016269048331592213 -0.00011061814451445084 0 -0.0015915639640908896 -0.00014333303263008778 0 -0.0016039497439169729 -0.00019151788033421057 0 -0.0013265275350193304 -0.00043517589667400311 0 -0.00091491027888435648 -0.0003270594407187358 0 -0.001623923557066316 -0.00029651642899408085 0 -0.0015904446110976327 -0.00025600438134883754 0 -0.0016008118573042022 -0.00029031623648483046 0 -0.0016269048331592213 -0.00011061814451445084 0 -0.0015915639640908896 -0.00014333303263008778 0 -0.0016075681649641094 -8.551960056115573e-05 0 -0.00022678930083642012 -0.00047834301982467635 0 -0.0002281347776166811 -0.00043396782251885712 0 -0.00026846183845811414 -0.00043843794972741278 0 -0.0006930588645572206 -0.00039754477221245506 0 -0.00076133174489999875 -0.00033000420458442357 0 -0.0015409336699700989 -0.000148528546439434 0 -0.0015915639640908896 -0.00014333303263008778 0 -0.0016075681649641094 -8.551960056115573e-05 0 -0.0015409336699700989 -0.000148528546439434 0 -0.0015915639640908896 -0.00014333303263008778 0 -0.0016039497439169729 -0.00019151788033421057 0 -0.0015732533331229127 -0.00030081529675875089 0 -0.001528113927243108 -0.00022017194660100249 0 -0.0016039497439169729 -0.00019151788033421057 0 -0.0011782428446849298 -0.00020588546488575711 0 -0.0011216935708133055 -0.00021771930120269471 0 -0.0015409336699700989 -0.000148528546439434 0 -0.001528113927243108 -0.00022017194660100249 0 -0.0016039497439169729 -0.00019151788033421057 0 -0.0015158819851777974 -0.00026497650483935439 0 -0.0015732533331229127 -0.00030081529675875089 0 -0.001528113927243108 -0.00022017194660100249 0 -0.0015732533331229127 -0.00030081529675875089 0 -0.0015987015021107257 -0.00030726416928447057 0 -0.0015826990438824887 -0.00028697218950172608 0 -0.0016096823921938111 -0.0003020751887252164 0 -0.0015987015021107257 -0.00030726416928447057 0 -0.0016008118573042022 -0.00029031623648483046 0 -0.0016205451717473092 -0.0003249331062307325 0 -0.0016096823921938111 -0.0003020751887252164 0 -0.0015987015021107257 -0.00030726416928447057 0 -0.001623923557066316 -0.00029651642899408085 0 -0.0016096823921938111 -0.0003020751887252164 0 -0.0016008118573042022 -0.00029031623648483046 0 -0.0015987015021107257 -0.00030726416928447057 0 -0.0016008118573042022 -0.00029031623648483046 0 -0.0015826990438824887 -0.00028697218950172608 0 -0.0010236866392185572 -0.0005925392928023298 0 -0.0010835128818716961 -0.00060107885741277967 0 -0.0010812427432949565 -0.00053892446906257804 0 -0.0010835128818716961 -0.00060107885741277967 0 -0.0010812427432949565 -0.00053892446906257804 0 -0.0011511878745007718 -0.00058075389689467955 0 -0.0010812427432949565 -0.00053892446906257804 0 -0.0011830110679466367 -0.00052911366912827872 0 -0.0011511878745007718 -0.00058075389689467955 0 -0.0010835128818716961 -0.00060107885741277967 0 -0.0011511878745007718 -0.00058075389689467955 0 -0.0011366284425266872 -0.00062753639414398854 0 -0.0011511878745007718 -0.00058075389689467955 0 -0.001199179891195782 -0.00060677529909990895 0 -0.0011366284425266872 -0.00062753639414398854 0 -0.0011511878745007718 -0.00058075389689467955 0 -0.001199179891195782 -0.00060677529909990895 0 -0.0012020618242744776 -0.00055008043086495796 0 -0.001199179891195782 -0.00060677529909990895 0 -0.0012020618242744776 -0.00055008043086495796 0 -0.0012304318855532509 -0.00057147658051383699 0 -0.0012164474629185885 -0.00053123159002968089 0 -0.001247878093713509 -0.00051146293193207498 0 -0.001254808621479837 -0.00048692520654886181 0 -0.0011830110679466367 -0.00052911366912827872 0 -0.0012524431027321052 -0.00056103214384774171 0 -0.0011830110679466367 -0.00052911366912827872 0 -0.0011511878745007718 -0.00058075389689467955 0 -0.0012524431027321052 -0.00056103214384774171 0 -0.0012020618242744776 -0.00055008043086495796 0 -0.0012576738416423688 -0.00051986499528725938 0 -0.0012304318855532509 -0.00057147658051383699 0 -0.0012576738416423688 -0.00051986499528725938 0 -0.0012304318855532509 -0.00057147658051383699 0 -0.0012630251831889023 -0.00060972389447280827 0 -0.001247878093713509 -0.00051146293193207498 0 -0.0013240696339866418 -0.00045764061318589262 0 -0.0013240696339866418 -0.00045764061318589262 0 -0.0011453146857316682 -0.00045580977402970784 0 -0.001199179891195782 -0.00060677529909990895 0 -0.0012304318855532509 -0.00057147658051383699 0 -0.0012630251831889023 -0.00060972389447280827 0 -0.001199179891195782 -0.00060677529909990895 0 -0.0012630251831889023 -0.00060972389447280827 0 -0.0012213079135055371 -0.00065992474710330402 0 -0.0012713586272301253 -0.00071122173514858312 0 -0.0012630251831889023 -0.00060972389447280827 0 -0.0012213079135055371 -0.00065992474710330402 0 -0.0012713586272301253 -0.00071122173514858312 0 -0.0012213079135055371 -0.00065992474710330402 0 -0.0011868698659856865 -0.00071829394866024308 0 -0.0011868698659856865 -0.00071829394866024308 0 -0.0011718763306515401 -0.00066278568951127505 0 -0.0011201978170808165 -0.00069101124020468508 0 -0.0012213079135055371 -0.00065992474710330402 0 -0.0011868698659856865 -0.00071829394866024308 0 -0.0011718763306515401 -0.00066278568951127505 0 -0.001199179891195782 -0.00060677529909990895 0 -0.0012213079135055371 -0.00065992474710330402 0 -0.0011718763306515401 -0.00066278568951127505 0 -0.001199179891195782 -0.00060677529909990895 0 -0.0011718763306515401 -0.00066278568951127505 0 -0.0011366284425266872 -0.00062753639414398854 0 -0.0011718763306515401 -0.00066278568951127505 0 -0.0011366284425266872 -0.00062753639414398854 0 -0.0011201978170808165 -0.00069101124020468508 0 -0.0011366284425266872 -0.00062753639414398854 0 -0.0011201978170808165 -0.00069101124020468508 0 -0.0010892920590777557 -0.00064300304844331106 0 -0.0010835128818716961 -0.00060107885741277967 0 -0.0011366284425266872 -0.00062753639414398854 0 -0.0010892920590777557 -0.00064300304844331106 0 -0.0011868698659856865 -0.00071829394866024308 0 -0.0011201978170808165 -0.00069101124020468508 0 -0.0011321085407134002 -0.00077142875519233911 0 -0.0011201978170808165 -0.00069101124020468508 0 -0.0010597666584476529 -0.00067933300020316752 0 -0.0010892920590777557 -0.00064300304844331106 0 -0.0011201978170808165 -0.00069101124020468508 0 -0.0010597666584476529 -0.00067933300020316752 0 -0.0010729571220783186 -0.00074520067298411441 0 -0.0010597666584476529 -0.00067933300020316752 0 -0.0010408006393751077 -0.00062637219831271546 0 -0.0010892920590777557 -0.00064300304844331106 0 -0.0010236866392185572 -0.0005925392928023298 0 -0.0010835128818716961 -0.00060107885741277967 0 -0.0010408006393751077 -0.00062637219831271546 0 -0.001000751972887395 -0.00066232431506284847 0 -0.0010597666584476529 -0.00067933300020316752 0 -0.0010408006393751077 -0.00062637219831271546 0 -0.0010835128818716961 -0.00060107885741277967 0 -0.0010408006393751077 -0.00062637219831271546 0 -0.0010892920590777557 -0.00064300304844331106 0 -0.00099434251056831923 -0.00078079301372092609 0 -0.0010663837524522084 -0.00080852092544767657 0 -0.0010337923149298389 -0.00088042548194200941 0 -0.00077127673334960944 -0.00079804477107722196 0 -0.00087034189774942488 -0.00071512319434221411 0 -0.00099434251056831923 -0.00078079301372092609 0 -0.0010597666584476529 -0.00067933300020316752 0 -0.0010729571220783186 -0.00074520067298411441 0 -0.00099434251056831923 -0.00078079301372092609 0 -0.0010663837524522084 -0.00080852092544767657 0 -0.0010729571220783186 -0.00074520067298411441 0 -0.0010663837524522084 -0.00080852092544767657 0 -0.0010729571220783186 -0.00074520067298411441 0 -0.0011321085407134002 -0.00077142875519233911 0 -0.0011201978170808165 -0.00069101124020468508 0 -0.0010729571220783186 -0.00074520067298411441 0 -0.0011321085407134002 -0.00077142875519233911 0 -0.0010663837524522084 -0.00080852092544767657 0 -0.0011477219017813338 -0.00087791404241975904 0 -0.0010337923149298389 -0.00088042548194200941 0 -0.0010663837524522084 -0.00080852092544767657 0 -0.0011321085407134002 -0.00077142875519233911 0 -0.0011477219017813338 -0.00087791404241975904 0 0.00063645817850892879 -0.00025513850492297823 0 0.00064344705293237941 -0.00030308840606131383 0 0.0006753392830809639 -0.00030460747502236891 0 -0.0011321085407134002 -0.00077142875519233911 0 -0.0012139555346333294 -0.00079067280987784325 0 -0.0011477219017813338 -0.00087791404241975904 0 -0.00037815884941159327 -0.00051109966033149694 0 -0.00019745264177429363 -0.00055234748156531488 0 -0.0011868698659856865 -0.00071829394866024308 0 -0.0011321085407134002 -0.00077142875519233911 0 -0.0012139555346333294 -0.00079067280987784325 0 -0.0007206646527762806 -0.00032606374491563105 0 -0.00037815884941159327 -0.00051109966033149694 0 -0.0012713586272301253 -0.00071122173514858312 0 -0.0011868698659856865 -0.00071829394866024308 0 -0.0012139555346333294 -0.00079067280987784325 0 0.00059242076208400481 -0.00020537297084913332 0 0.00063645817850892879 -0.00025513850492297823 0 0.00059454145359341226 -0.00026448290550263844 0 0.00063645817850892879 -0.00025513850492297823 0 0.00061667169409641224 -0.00029386450025748828 0 0.00059454145359341226 -0.00026448290550263844 0 0.00063645817850892879 -0.00025513850492297823 0 0.00061667169409641224 -0.00029386450025748828 0 0.00064344705293237941 -0.00030308840606131383 0 0.00061667169409641224 -0.00029386450025748828 0 0.00059454145359341226 -0.00026448290550263844 0 0.00059596405234335354 -0.00032402683023701612 0 0.00061667169409641224 -0.00029386450025748828 0 0.0006243816723620234 -0.00032510192086180462 0 0.00064344705293237941 -0.00030308840606131383 0 0.00061667169409641224 -0.00029386450025748828 0 0.0006243816723620234 -0.00032510192086180462 0 0.00059596405234335354 -0.00032402683023701612 0 0.00023567654905515606 -0.00043676701740431764 0 0.00015945567556559028 -0.00043787304177995154 0 0.0006243816723620234 -0.00032510192086180462 0 0.00064338626496419232 -0.00035799709099831921 0 0.00059794257524122462 -0.00032393095025603537 0 0.00045857462022199925 -0.00049546104149091887 0 0.00015945567556559028 -0.00043787304177995154 0 0.0006243816723620234 -0.00032510192086180462 0 0.00064338626496419232 -0.00035799709099831921 0 0.00065961374531494515 -0.00033208548336713324 0 0.0007287856392833124 -0.0004069539481889798 0 0.00076175121765958888 -0.00043977967757402098 0 0.00076460280013829207 -0.00037907571687265026 0 0.00064338626496419232 -0.00035799709099831921 0 0.00065961374531494515 -0.00033208548336713324 0 0.0006807655323537035 -0.00035752470359712627 0 0.00065961374531494515 -0.00033208548336713324 0 0.00064344705293237941 -0.00030308840606131383 0 0.0006753392830809639 -0.00030460747502236891 0 0.0006243816723620234 -0.00032510192086180462 0 0.00065961374531494515 -0.00033208548336713324 0 0.00064344705293237941 -0.00030308840606131383 0 -0.00019745264177429363 -0.00055234748156531488 0 -2.9101819513468261e-06 -0.00056148791076643281 0 -0.0011477219017813338 -0.00087791404241975904 0 -0.0010730297544605015 -0.0009693754173939347 0 -0.0010337923149298389 -0.00088042548194200941 0 0.00065961374531494515 -0.00033208548336713324 0 0.0006753392830809639 -0.00030460747502236891 0 0.00070318575356434921 -0.00034761987435727611 0 0.00065961374531494515 -0.00033208548336713324 0 0.0006807655323537035 -0.00035752470359712627 0 0.00070318575356434921 -0.00034761987435727611 0 0.0006807655323537035 -0.00035752470359712627 0 0.00070318575356434921 -0.00034761987435727611 0 0.00069503925092253757 -0.00036676537307021791 0 -0.00097092152456342235 -0.00097540270760532275 0 -0.0010730297544605015 -0.0009693754173939347 0 -0.0010337923149298389 -0.00088042548194200941 0 -0.00097092152456342235 -0.00097540270760532275 0 -0.00099421248613410277 -0.001061183784740226 0 -0.0010730297544605015 -0.0009693754173939347 0 -0.00073922403870001251 -0.00028675100116267539 0 -0.00057340586665327695 -0.00036230269667254799 0 -0.00023954008677930542 -0.0002957458253977298 0 -0.00023516298854744653 -0.00025230536677897566 0 -0.00020867447945943808 -0.00033000826520481039 0 -0.00025433856929244972 -0.0002808282661180022 0 -0.00023954008677930542 -0.0002957458253977298 0 -0.00023516298854744653 -0.00025230536677897566 0 -0.00025433856929244972 -0.0002808282661180022 0 -0.00023954008677930542 -0.0002957458253977298 0 -0.00025969640659053822 -0.0003195674862476733 0 -0.00031649203970686169 -0.0003079903154336735 0 -0.00028775092326302937 -0.00026987799885619038 0 -0.00025969640659053822 -0.0003195674862476733 0 -0.00025433856929244972 -0.0002808282661180022 0 -0.00028775092326302937 -0.00026987799885619038 0 -0.00025969640659053822 -0.0003195674862476733 0 0.0001634084904366422 -0.00024604498463975618 0 -0.00029609127014977929 -0.00029548215570209408 0 -0.00029609127014977929 -0.00029548215570209408 0 -0.00076133174489999875 -0.00033000420458442357 0 -0.00025433856929244972 -0.0002808282661180022 0 -0.00028775092326302937 -0.00026987799885619038 0 -0.00025838258995648669 -0.00023042278685450593 0 -0.00023313782718755742 -0.00039403115263766161 0 -0.0002281347776166811 -0.00043396782251885712 0 -0.00026846183845811414 -0.00043843794972741278 0 -0.00018429999650233824 -0.00042494048362299496 0 -0.00023313782718755742 -0.00039403115263766161 0 -0.0002281347776166811 -0.00043396782251885712 0 -0.00091491027888435648 -0.0003270594407187358 0 -0.00076133174489999875 -0.00033000420458442357 0 -0.00091491027888435648 -0.0003270594407187358 0 -0.00073922403870001251 -0.00028675100116267539 0 -0.00076133174489999875 -0.00033000420458442357 0 -0.00073922403870001251 -0.00028675100116267539 0 -0.00025433856929244972 -0.0002808282661180022 0 -0.00025838258995648669 -0.00023042278685450593 0 -0.00023516298854744653 -0.00025230536677897566 0 -0.00086847504810687098 -0.00023469520900714852 0 -0.00090988331610766771 -0.0002879065654788334 0 -0.00082339402510415766 -0.00037132716742547064 0 -0.001606150603341031 -0.00032158392192558819 0 -0.001613332139308027 -0.00032130381442190995 0 -0.0016116670929097274 -0.00033085465157474885 0 -0.001606150603341031 -0.00032158392192558819 0 -0.0016116670929097274 -0.00033085465157474885 0 -0.0015990067938869972 -0.00033245112097318751 0 -0.0016013588981941751 -0.00032149459662718664 0 -0.001606150603341031 -0.00032158392192558819 0 -0.0015990067938869972 -0.00033245112097318751 0 -0.0007206646527762806 -0.00032606374491563105 0 -0.00033267321640867306 -0.0003383171889006206 0 -0.0015854935849465253 -0.00031887716045211326 0 -0.0015990067938869972 -0.00033245112097318751 0 -0.0015793678851946864 -0.00033947269241176329 0 -0.0015854935849465253 -0.00031887716045211326 0 -0.0016013588981941751 -0.00032149459662718664 0 -0.0015990067938869972 -0.00033245112097318751 0 -0.0015990067938869972 -0.00033245112097318751 0 -0.0015793678851946864 -0.00033947269241176329 0 -0.0015975461240503809 -0.00034653289307885542 0 -0.0015793678851946864 -0.00033947269241176329 0 -0.0015975461240503809 -0.00034653289307885542 0 -0.0015765978134878987 -0.00036424427783923757 0 -0.0016116670929097274 -0.00033085465157474885 0 -0.0015990067938869972 -0.00033245112097318751 0 -0.0015975461240503809 -0.00034653289307885542 0 -0.00073922403870001251 -0.00028675100116267539 0 -0.00053055512230056545 -0.00023532353684091096 0 -0.00024561895668959779 -0.00023043619649252547 0 -0.00018302841177479212 -0.00028883990160917582 0 -0.00020867447945943808 -0.00033000826520481039 0 -0.00018302841177479212 -0.00028883990160917582 0 -0.00020064153604065497 -0.000333526202400205 0 -0.00012209271179199006 -0.00034834672677439102 0 -0.00018302841177479212 -0.00028883990160917582 0 -0.00020867447945943808 -0.00033000826520481039 0 -0.00020064153604065497 -0.000333526202400205 0 0.0012875980140647312 -0.00028555816949619507 0 0.0012557830732585955 -0.00026365552549242335 0 0.0012175446618260732 -0.00027417899569942024 0 -0.00053055512230056545 -0.00023532353684091096 0 0.00012388270510034074 -0.00041624094371035998 0 -0.0015793678851946864 -0.00033947269241176329 0 -0.0015744827473905729 -0.00036581776839619145 0 -0.0015765978134878987 -0.00036424427783923757 0 -0.00033267321640867306 -0.0003383171889006206 0 0.00015945567556559028 -0.00043787304177995154 0 0.00060711127607463963 -0.000305474897142655 0 0.00012388270510034074 -0.00041624094371035998 0 0.0012557830732585955 -0.00026365552549242335 0 0.0012126198979049896 -0.00026946721866505445 0 0.0012175446618260732 -0.00027417899569942024 0 0.00015945567556559028 -0.00043787304177995154 0 0.00012388270510034074 -0.00041624094371035998 0 0.00015945567556559028 -0.00043787304177995154 0 0.00077869799888217919 -0.00029090339768348658 0 0.0012557830732585955 -0.00026365552549242335 0 0.0012126198979049896 -0.00026946721866505445 0 0.001248449795285062 -0.00021562141831429495 0 0.0012126198979049896 -0.00026946721866505445 0 0.001248449795285062 -0.00021562141831429495 0 0.0012184639867808488 -0.00017542356347422444 0 0.0012875980140647312 -0.00028555816949619507 0 0.0012557830732585955 -0.00026365552549242335 0 0.0012927883017208976 -0.00020233227110866124 0 0.00060711127607463963 -0.000305474897142655 0 0.00096211577142063499 -0.0002067074000821618 0 0.0012557830732585955 -0.00026365552549242335 0 0.001248449795285062 -0.00021562141831429495 0 0.0012927883017208976 -0.00020233227110866124 0 0.0010399403124318198 -0.00019022500795557622 0 0.0010325152861642953 -0.00019646928782715158 0 0.0010409812182379822 -0.0002016366309182537 0 0.0010399403124318198 -0.00019022500795557622 0 0.0010325152861642953 -0.00019646928782715158 0 0.0010298338298713175 -0.00018786983846646324 0 0.00060711127607463963 -0.000305474897142655 0 0.00038815643860254872 -0.00027232440219864375 0 -0.00023954008677930542 -0.0002957458253977298 0 -0.00020867447945943808 -0.00033000826520481039 0 -0.00025969640659053822 -0.0003195674862476733 0 -0.00020867447945943808 -0.00033000826520481039 0 -0.00020064153604065497 -0.000333526202400205 0 -0.00025969640659053822 -0.0003195674862476733 0 0.0010182797697096259 -0.00018572314342421044 0 0.0010298338298713175 -0.00018786983846646324 0 0.0010230742995327731 -0.00019115780928686453 0 0.0001634084904366422 -0.00024604498463975618 0 0.00038815643860254872 -0.00027232440219864375 0 0.0010325152861642953 -0.00019646928782715158 0 0.0010298338298713175 -0.00018786983846646324 0 0.0010230742995327731 -0.00019115780928686453 0 0.0010325152861642953 -0.00019646928782715158 0 0.0010230742995327731 -0.00019115780928686453 0 0.0010242762251489105 -0.00020226498949965687 0 0.0010242762251489105 -0.00020226498949965687 0 0.0010328223001343432 -0.00020853110957503663 0 0.0010355271327384672 -0.00020547749798588953 0 0.00065450205591946183 -0.00029667635372503874 0 0.00081108574839785076 -0.00022656870424576296 0 0.0010325152861642953 -0.00019646928782715158 0 0.0010242762251489105 -0.00020226498949965687 0 0.0010355271327384672 -0.00020547749798588953 0 0.00070114200311039733 -0.00024759410896059848 0 0.00067696426517755836 -0.00020309059141408598 0 0.00070983405733937371 -0.00019966513408412894 0 0.00067696426517755836 -0.00020309059141408598 0 0.0006892600827664452 -0.00017070325784987654 0 0.00070983405733937371 -0.00019966513408412894 0 0.0010398322792698035 -0.00020864025471363406 0 0.0010355271327384672 -0.00020547749798588953 0 0.0010398369017001925 -0.00021486263541402488 0 0.0010328223001343432 -0.00020853110957503663 0 0.0010398322792698035 -0.00020864025471363406 0 0.0010393978625990975 -0.00021111291620886673 0 0.0010328223001343432 -0.00020853110957503663 0 0.0010398322792698035 -0.00020864025471363406 0 0.0010355271327384672 -0.00020547749798588953 0 0.0010325152861642953 -0.00019646928782715158 0 0.0010355271327384672 -0.00020547749798588953 0 0.0010409812182379822 -0.0002016366309182537 0 0.0012927883017208976 -0.00020233227110866124 0 0.0012625918507618279 -0.00016670840121891243 0 0.0012996357775952479 -0.00011744829355531697 0 0.00096211577142063499 -0.0002067074000821618 0 0.0011986963827113708 -0.00014220558741986729 0 0.0010355271327384672 -0.00020547749798588953 0 0.0010409812182379822 -0.0002016366309182537 0 0.0010398369017001925 -0.00021486263541402488 0 0.001248449795285062 -0.00021562141831429495 0 0.0012927883017208976 -0.00020233227110866124 0 0.0012625918507618279 -0.00016670840121891243 0 0.001248449795285062 -0.00021562141831429495 0 0.0012625918507618279 -0.00016670840121891243 0 0.0012184639867808488 -0.00017542356347422444 0 0.00077869799888217919 -0.00029090339768348658 0 0.0012383263362540369 -0.00021232582497252714 0 0.0012184639867808488 -0.00017542356347422444 0 0.0012571266807550527 -0.00012134419726950349 0 0.0012255381257325997 -7.9163368191327579e-05 0 0.00076460280013829207 -0.00037907571687265026 0 0.00075165690708430043 -0.00036097643274709298 0 0.00076493042918623704 -0.0003533245111410484 0 0.0012625918507618279 -0.00016670840121891243 0 0.0012184639867808488 -0.00017542356347422444 0 0.0012571266807550527 -0.00012134419726950349 0 0.0012625918507618279 -0.00016670840121891243 0 0.0012571266807550527 -0.00012134419726950349 0 0.0012996357775952479 -0.00011744829355531697 0 0.0010398322792698035 -0.00020864025471363406 0 0.0010398369017001925 -0.00021486263541402488 0 0.0010438847652580558 -0.00020015406372763533 0 0.0010398369017001925 -0.00021486263541402488 0 0.0010438847652580558 -0.00020015406372763533 0 0.0010465591699036971 -7.8401797068952098e-05 0 0.0011986963827113708 -0.00014220558741986729 0 0.0014524490864638866 -4.1468646760650356e-05 0 0.0010438847652580558 -0.00020015406372763533 0 0.0010632190414918098 -0.00013184718382609816 0 0.0010465591699036971 -7.8401797068952098e-05 0 0.0012996357775952479 -0.00011744829355531697 0 0.0012695189833788081 -7.5068087254226732e-05 0 0.0013061475682616069 -3.0681672335196204e-05 0 0.0012571266807550527 -0.00012134419726950349 0 0.0012996357775952479 -0.00011744829355531697 0 0.0012695189833788081 -7.5068087254226732e-05 0 0.0012571266807550527 -0.00012134419726950349 0 0.0012695189833788081 -7.5068087254226732e-05 0 0.0012255381257325997 -7.9163368191327579e-05 0 0.0012695189833788081 -7.5068087254226732e-05 0 0.0012255381257325997 -7.9163368191327579e-05 0 0.0012639402460489456 -3.1381990722034457e-05 0 0.00075165690708430043 -0.00036097643274709298 0 0.00082465835673133743 -0.00043845359926771428 0 0.00072318466705868485 -0.00061750557425476556 0 0.0012383263362540369 -0.00021232582497252714 0 0.0018909785805054158 6.6695543646496755e-05 0 0.0012255381257325997 -7.9163368191327579e-05 0 0.0012639402460489456 -3.1381990722034457e-05 0 0.0012325830983212949 1.8175234171242809e-05 0 0.0012639402460489456 -3.1381990722034457e-05 0 0.0012744044284309372 9.2306400713334967e-06 0 0.0012325830983212949 1.8175234171242809e-05 0 0.0010632190414918098 -0.00013184718382609816 0 0.0010465591699036971 -7.8401797068952098e-05 0 0.0010716172260299198 -0.0001060082632367094 0 0.0010465591699036971 -7.8401797068952098e-05 0 0.001086497498822566 -7.7639295780105656e-05 0 0.0010716172260299198 -0.0001060082632367094 0 0.0012695189833788081 -7.5068087254226732e-05 0 0.0012639402460489456 -3.1381990722034457e-05 0 0.0013061475682616069 -3.0681672335196204e-05 0 0.0012639402460489456 -3.1381990722034457e-05 0 0.0012869039584192936 -7.2081836104146924e-06 0 0.0012744044284309372 9.2306400713334967e-06 0 0.0012639402460489456 -3.1381990722034457e-05 0 0.0013061475682616069 -3.0681672335196204e-05 0 0.0012869039584192936 -7.2081836104146924e-06 0 0.001099719840317612 -2.7823916120659932e-05 0 0.0011671102743506482 -1.8103388915035433e-05 0 0.0010968165458408524 4.6237040224567246e-05 0 0.001086497498822566 -7.7639295780105656e-05 0 0.0011671102743506482 -1.8103388915035433e-05 0 0.0011486373252389741 -0.0001859711985066394 0 0.0011671102743506482 -1.8103388915035433e-05 0 0.0012957474910159758 -6.121469074119341e-05 0 0.0011486373252389741 -0.0001859711985066394 0 0.001099719840317612 -2.7823916120659932e-05 0 0.001086497498822566 -7.7639295780105656e-05 0 0.0011671102743506482 -1.8103388915035433e-05 0 0.0010465591699036971 -7.8401797068952098e-05 0 0.001099719840317612 -2.7823916120659932e-05 0 0.0010968165458408524 4.6237040224567246e-05 0 0.0010465591699036971 -7.8401797068952098e-05 0 0.001099719840317612 -2.7823916120659932e-05 0 0.001086497498822566 -7.7639295780105656e-05 0 0.001086497498822566 -7.7639295780105656e-05 0 0.0010716172260299198 -0.0001060082632367094 0 0.0011149533819012198 -0.00014542366184959251 0 0.00096127461950181684 -0.00016192640737373019 0 0.00094832623369019002 -0.00016267771913518558 0 0.0011671102743506482 -1.8103388915035433e-05 0 0.0012957474910159758 -6.121469074119341e-05 0 0.0012174680257819605 4.5119129084480626e-05 0 0.0009558481951021801 -6.0519509487024985e-05 0 0.00094832623369019002 -0.00016267771913518558 0 0.00069047055342351111 -0.0001250999245254609 0 0.0006892600827664452 -0.00017070325784987654 0 0.00065213770702792417 -0.00015826891022295764 0 0.00067696426517755836 -0.00020309059141408598 0 0.0006892600827664452 -0.00017070325784987654 0 0.00065213770702792417 -0.00015826891022295764 0 0.00069047055342351111 -0.0001250999245254609 0 0.0006892600827664452 -0.00017070325784987654 0 0.0007168546260662795 -0.00016676846804586498 0 0.00081108574839785076 -0.00022656870424576296 0 0.00094832623369019002 -0.00016267771913518558 0 0.0010438847652580558 -0.00020015406372763533 0 0.0010632190414918098 -0.00013184718382609816 0 0.0011149533819012198 -0.00014542366184959251 0 0.0010398322792698035 -0.00020864025471363406 0 0.0010438847652580558 -0.00020015406372763533 0 0.0010393978625990975 -0.00021111291620886673 0 0.00096932616135994121 -0.0001565864812108927 0 0.00094832623369019002 -0.00016267771913518558 0 0.0010632190414918098 -0.00013184718382609816 0 0.0010716172260299198 -0.0001060082632367094 0 0.0011149533819012198 -0.00014542366184959251 0 0.00036645601768106953 -0.00060410594192004832 0 0.00075445652248459056 -0.00041583870665294002 0 0.0015010078248885274 -4.753919227091812e-05 0 0.0012281471901607166 -0.00023320906540485174 0 0.0013685105195920721 -0.00024732317797152947 0 0.00056111048027656654 -0.00061947246158080031 0 0.0010300908680804916 -0.00033675603536549689 0 0.0012329536064223121 -0.00022968638212547229 0 0.0010891597875590962 -0.00024369926607311693 0 0.0011051875643118124 -0.00031990068444912875 0 0.0012329536064223121 -0.00022968638212547229 0 0.0012100333721704762 -0.00020172069800045275 0 0.0010891597875590962 -0.00024369926607311693 0 0.00036645601768106953 -0.00060410594192004832 0 -2.9101819513468261e-06 -0.00056148791076643281 0 0.00071516318969475415 -0.00037288140617673887 0 0.00070318575356434921 -0.00034761987435727611 0 0.00069503925092253757 -0.00036676537307021791 0 0.00071516318969475415 -0.00037288140617673887 0 0.00069503925092253757 -0.00036676537307021791 0 0.00069076426267210831 -0.000376210431748285 0 0.00069503925092253757 -0.00036676537307021791 0 0.00069337504670692422 -0.00037715308806696325 0 0.00069076426267210831 -0.000376210431748285 0 0.0006807655323537035 -0.00035752470359712627 0 0.00069503925092253757 -0.00036676537307021791 0 0.00069337504670692422 -0.00037715308806696325 0 0.0010891597875590962 -0.00024369926607311693 0 0.00095186927278206868 -0.00028572482113965606 0 0.0011051875643118124 -0.00031990068444912875 0 0.00069337504670692422 -0.00037715308806696325 0 0.00069076426267210831 -0.000376210431748285 0 0.00071472479054092192 -0.00035634207131288111 0 0.00075445652248459056 -0.00041583870665294002 0 0.00081007278456806091 -0.00037218273363402574 0 0.00071472479054092192 -0.00035634207131288111 0 0.00072575671945536511 -0.0003809137464003683 0 0.00074486108247549549 -0.0003682191916791846 0 0.00069337504670692422 -0.00037715308806696325 0 0.00071472479054092192 -0.00035634207131288111 0 0.00072575671945536511 -0.0003809137464003683 0 0.0007287856392833124 -0.0004069539481889798 0 0.00069337504670692422 -0.00037715308806696325 0 0.00072575671945536511 -0.0003809137464003683 0 0.00064338626496419232 -0.00035799709099831921 0 0.0006807655323537035 -0.00035752470359712627 0 0.00069337504670692422 -0.00037715308806696325 0 0.00045857462022199925 -0.00049546104149091887 0 0.0005246731657770373 -0.00049204972895290015 0 0.0007287856392833124 -0.0004069539481889798 0 0.00076460280013829207 -0.00037907571687265026 0 0.00072575671945536511 -0.0003809137464003683 0 0.00076460280013829207 -0.00037907571687265026 0 0.00072575671945536511 -0.0003809137464003683 0 0.00074486108247549549 -0.0003682191916791846 0 0.00076460280013829207 -0.00037907571687265026 0 0.00074486108247549549 -0.0003682191916791846 0 0.00076493042918623704 -0.0003533245111410484 0 0.00071472479054092192 -0.00035634207131288111 0 0.00074486108247549549 -0.0003682191916791846 0 0.00076493042918623704 -0.0003533245111410484 0 0.00095186927278206868 -0.00028572482113965606 0 0.00076493042918623704 -0.0003533245111410484 0 0.00087609560246069789 -0.00037768422969200547 0 0.00087609560246069789 -0.00037768422969200547 0 0.00082465835673133743 -0.00043845359926771428 0 0.00096286990280099204 -0.00042947801706747689 0 0.00081007278456806091 -0.00037218273363402574 0 0.00080067635499705958 -0.00036896870121454938 0 0.00075165690708430043 -0.00036097643274709298 0 0.00076493042918623704 -0.0003533245111410484 0 0.00082465835673133743 -0.00043845359926771428 0 0.00076493042918623704 -0.0003533245111410484 0 0.00087609560246069789 -0.00037768422969200547 0 0.00082465835673133743 -0.00043845359926771428 0 0.00082465835673133743 -0.00043845359926771428 0 0.00087766194777283901 -0.00054433735982720296 0 0.00096286990280099204 -0.00042947801706747689 0 0.00082465835673133743 -0.00043845359926771428 0 0.00087766194777283901 -0.00054433735982720296 0 0.00072318466705868485 -0.00061750557425476556 0 0.00096286990280099204 -0.00042947801706747689 0 0.0010588955287593879 -0.00051412848295118694 0 0.0011670772234959683 -0.00045915779943920794 0 0.00087766194777283901 -0.00054433735982720296 0 0.00096286990280099204 -0.00042947801706747689 0 0.00099914636574076842 -0.00057388204164602707 0 0.00096286990280099204 -0.00042947801706747689 0 0.00099914636574076842 -0.00057388204164602707 0 0.0010588955287593879 -0.00051412848295118694 0 0.00099914636574076842 -0.00057388204164602707 0 0.0010588955287593879 -0.00051412848295118694 0 0.0010822496295818862 -0.00057047612003723015 0 0.00095186927278206868 -0.00028572482113965606 0 0.00096286990280099204 -0.00042947801706747689 0 0.0011051875643118124 -0.00031990068444912875 0 0.00095186927278206868 -0.00028572482113965606 0 0.00087609560246069789 -0.00037768422969200547 0 0.00096286990280099204 -0.00042947801706747689 0 0.0010229120974389165 -0.00035195228666921419 0 0.0010300908680804916 -0.00033675603536549689 0 0.00096286990280099204 -0.00042947801706747689 0 0.0012038613452108866 -0.00035152802971994486 0 0.0011670772234959683 -0.00045915779943920794 0 0.00096286990280099204 -0.00042947801706747689 0 0.0012281471901607166 -0.00023320906540485174 0 0.0012038613452108866 -0.00035152802971994486 0 0.0012038613452108866 -0.00035152802971994486 0 0.0011670772234959683 -0.00045915779943920794 0 0.001320654821757021 -0.00038548665907111321 0 0.0010588955287593879 -0.00051412848295118694 0 0.0011840624953323394 -0.00055368246942330036 0 0.0011670772234959683 -0.00045915779943920794 0 0.0010588955287593879 -0.00051412848295118694 0 0.0010822496295818862 -0.00057047612003723015 0 0.0011840624953323394 -0.00055368246942330036 0 0.0011840624953323394 -0.00055368246942330036 0 0.0011670772234959683 -0.00045915779943920794 0 0.0013004670308105492 -0.00049170016508618254 0 0.0011670772234959683 -0.00045915779943920794 0 0.0013004670308105492 -0.00049170016508618254 0 0.001320654821757021 -0.00038548665907111321 0 0.0013004670308105492 -0.00049170016508618254 0 0.001416551643921367 -0.00044805221547750091 0 0.001320654821757021 -0.00038548665907111321 0 0.0011840624953323394 -0.00055368246942330036 0 0.0013004670308105492 -0.00049170016508618254 0 0.0014179904420527785 -0.00061289547123555331 0 0.0013004670308105492 -0.00049170016508618254 0 0.001416551643921367 -0.00044805221547750091 0 0.0014179904420527785 -0.00061289547123555331 0 0.001461302889462155 -0.00029924377325959869 0 0.001416551643921367 -0.00044805221547750091 0 0.001320654821757021 -0.00038548665907111321 0 0.0012038613452108866 -0.00035152802971994486 0 0.001320654821757021 -0.00038548665907111321 0 0.0013685105195920721 -0.00024732317797152947 0 0.0012281471901607166 -0.00023320906540485174 0 0.0012038613452108866 -0.00035152802971994486 0 0.0013685105195920721 -0.00024732317797152947 0 0.001461302889462155 -0.00029924377325959869 0 0.001320654821757021 -0.00038548665907111321 0 0.0013685105195920721 -0.00024732317797152947 0 0.001461302889462155 -0.00029924377325959869 0 0.0014814033028399541 -0.00019837347197112294 0 0.0013685105195920721 -0.00024732317797152947 0 0.0046387994013050316 0.00021418976598209708 0 0.004642279760791442 0.00021770548974024551 0 0.0046434877288835316 0.00021365829751458838 0 0.004642279760791442 0.00021770548974024551 0 0.0046434877288835316 0.00021365829751458838 0 0.0046336561563117317 0.00021356565058561083 0 0.0044143859002487582 0.00022805778242377612 0 0.0044499368642245433 0.00036497955576393843 0 0.0042031681583999739 0.00032871504294369763 0 0.0044143859002487582 0.00022805778242377612 0 0.0042031681583999739 0.00032871504294369763 0 0.0041743691472471882 0.00027487201128177934 0 0.0029491446580436043 -0.00014611809237539887 0 0.0029839241588594523 5.677451361352478e-05 0 0.004299009843265169 8.9650730196641742e-05 0 0.0032244899666704547 0.00012990995404814468 0 0.0011840624953323394 -0.00055368246942330036 0 0.0014179904420527785 -0.00061289547123555331 0 0.0010706044096342085 -0.00065136424685276542 0 0.0010822496295818862 -0.00057047612003723015 0 0.0011840624953323394 -0.00055368246942330036 0 0.0010706044096342085 -0.00065136424685276542 0 0.004642279760791442 0.00021770548974024551 0 0.0046242026474624135 0.00022441337350467098 0 0.0046336561563117317 0.00021356565058561083 0 0.0032244899666704547 0.00012990995404814468 0 0.0034261740407772133 0.00020687964929616738 0 0.0046242026474624135 0.00022441337350467098 0 0.0046177473842413455 0.00021439537676379522 0 0.0046336561563117317 0.00021356565058561083 0 0.0027961759074375666 -2.7486939142026815e-05 0 0.0028457681956447524 -3.8029148071566494e-05 0 0.0028320385143296568 4.1591392083783106e-05 0 0.0029839241588594523 5.677451361352478e-05 0 0.0024108698160169298 6.9958396873950353e-05 0 0.00099914636574076842 -0.00057388204164602707 0 0.0010706044096342085 -0.00065136424685276542 0 0.00088654833167479106 -0.00066226955499569854 0 0.0030931995053991748 0.00020195458943628395 0 0.0030300751595314563 8.201675991816375e-05 0 0.0027430894601962563 0.00014254428689040985 0 0.0029839241588594523 5.677451361352478e-05 0 0.0032244899666704547 0.00012990995404814468 0 0.00099914636574076842 -0.00057388204164602707 0 0.0010822496295818862 -0.00057047612003723015 0 0.0010706044096342085 -0.00065136424685276542 0 0.00087766194777283901 -0.00054433735982720296 0 0.00099914636574076842 -0.00057388204164602707 0 0.00088654833167479106 -0.00066226955499569854 0 0.0032244899666704547 0.00012990995404814468 0 0.0024108698160169298 6.9958396873950353e-05 0 0.00220004847679319 -1.7916813925881398e-05 0 0.0020832655512415515 6.5269575167996372e-06 0 0.0020817532129215979 -3.8069263959810306e-05 0 0.0028457681956447524 -3.8029148071566494e-05 0 0.0028740578884293806 1.1349946407982335e-05 0 0.0029068210390354875 -2.7119168616681716e-05 0 0.0024108698160169298 6.9958396873950353e-05 0 0.0020832830115191082 4.4818516071140442e-05 0 0.0024108698160169298 6.9958396873950353e-05 0 0.0018909785805054158 6.6695543646496755e-05 0 0.00087766194777283901 -0.00054433735982720296 0 0.00088654833167479106 -0.00066226955499569854 0 0.00072318466705868485 -0.00061750557425476556 0 0.0028457681956447524 -3.8029148071566494e-05 0 0.0028740578884293806 1.1349946407982335e-05 0 0.0028320385143296568 4.1591392083783106e-05 0 0.0028682656080064504 0.00011058667203856281 0 0.0028320385143296568 4.1591392083783106e-05 0 0.0029115632560952091 6.9062289852912028e-05 0 0.0028740578884293806 1.1349946407982335e-05 0 0.0028320385143296568 4.1591392083783106e-05 0 0.0029115632560952091 6.9062289852912028e-05 0 0.0034270307764519372 0.00020286200790471914 0 0.0034261740407772133 0.00020687964929616738 0 0.004627091711950658 0.00019600730917135943 0 0.0046072662019048648 0.00020248049604510134 0 0.0046235179294476462 0.00020647939212539235 0 0.004627091711950658 0.00019600730917135943 0 0.0046235179294476462 0.00020647939212539235 0 0.0046349254889933361 0.00020494474789856305 0 0.0046177473842413455 0.00021439537676379522 0 0.0046235179294476462 0.00020647939212539235 0 0.0046336561563117317 0.00021356565058561083 0 0.0046072662019048648 0.00020248049604510134 0 0.0046177473842413455 0.00021439537676379522 0 0.0046235179294476462 0.00020647939212539235 0 0.0046336561563117317 0.00021356565058561083 0 0.0046349254889933361 0.00020494474789856305 0 0.0046443085934294737 0.00020803419059057458 0 0.0046235179294476462 0.00020647939212539235 0 0.0046336561563117317 0.00021356565058561083 0 0.0046349254889933361 0.00020494474789856305 0 0.004627091711950658 0.00019600730917135943 0 0.0046349254889933361 0.00020494474789856305 0 0.0046463141232904528 0.00019846345368376123 0 0.0046565900071789028 0.0002019238299270912 0 0.0046463141232904528 0.00019846345368376123 0 0.0046443085934294737 0.00020803419059057458 0 0.0046349254889933361 0.00020494474789856305 0 0.0046463141232904528 0.00019846345368376123 0 0.0046443085934294737 0.00020803419059057458 0 0.0046434877288835316 0.00021365829751458838 0 0.0046336561563117317 0.00021356565058561083 0 0.0046443085934294737 0.00020803419059057458 0 0.0046487288552855876 0.0002100942260009881 0 0.0046434877288835316 0.00021365829751458838 0 0.0046443085934294737 0.00020803419059057458 0 0.0017704670288561971 0.00019437834800020446 0 0.001865951967193783 9.772645720934263e-05 0 0.0017704670288561971 0.00019437834800020446 0 0.0024762297403631865 0.00012838389333625695 0 0.0020798425940288497 0.00020767825628516831 0 0.0021484612351215823 0.00021649405820229841 0 0.0021466559277774312 0.00012651009044639276 0 0.0024617842574039938 0.00021615041045917939 0 0.0024877634746184206 0.0002410969829450332 0 0.0024897976611530453 0.00021184718539883052 0 0.0013418951107506292 0.00026607654099204312 0 0.001344668213512919 0.00019456571543535216 0 0.0012414146752787035 0.00016962247134623775 0 0.0017081616867336568 0.00024983357494290739 0 0.0017704670288561971 0.00019437834800020446 0 0.001344668213512919 0.00019456571543535216 0 0.0012340261787938767 0.00016837287043969701 0 0.0012983531030500187 8.7299550596658943e-05 0 0.0016638312638420176 0.00017594451601472044 0 0.0017704670288561971 0.00019437834800020446 0 0.0012957474910159758 -6.121469074119341e-05 0 0.0012983531030500187 8.7299550596658943e-05 0 0.0014370075109794652 6.0941465502344955e-05 0 0.0017704670288561971 0.00019437834800020446 0 0.0017185370511535645 0.00021864186449168247 0 0.0012957474910159758 -6.121469074119341e-05 0 0.0012983531030500187 8.7299550596658943e-05 0 0.0012174680257819605 4.5119129084480626e-05 0 0.0012305614071784529 0.00017129950084376813 0 0.0012983531030500187 8.7299550596658943e-05 0 0.0012174680257819605 4.5119129084480626e-05 0 0.001237852783162308 0.00017602514277037455 0 0.0010968165458408524 4.6237040224567246e-05 0 0.0010504232113164014 0.00015019258618571062 0 0.0011671102743506482 -1.8103388915035433e-05 0 0.0012174680257819605 4.5119129084480626e-05 0 0.0010968165458408524 4.6237040224567246e-05 0 0.0012305614071784529 0.00017129950084376813 0 0.0012174680257819605 4.5119129084480626e-05 0 0.0010968165458408524 4.6237040224567246e-05 0 0.0017704670288561971 0.00019437834800020446 0 0.0015499319207354901 6.2554430041472279e-05 0 0.0012869039584192936 -7.2081836104146924e-06 0 0.0012744044284309372 9.2306400713334967e-06 0 0.0013099040963454266 5.3114432429166639e-05 0 0.0010465591699036971 -7.8401797068952098e-05 0 0.0010968165458408524 4.6237040224567246e-05 0 0.0010504232113164014 0.00015019258618571062 0 0.0014524490864638866 -4.1468646760650356e-05 0 0.001865951967193783 9.772645720934263e-05 0 0.0013061475682616069 -3.0681672335196204e-05 0 0.0012869039584192936 -7.2081836104146924e-06 0 0.0013099040963454266 5.3114432429166639e-05 0 0.0020832830115191082 4.4818516071140442e-05 0 0.001865951967193783 9.772645720934263e-05 0 0.0012744044284309372 9.2306400713334967e-06 0 0.0012380204167153838 3.955914927593797e-05 0 0.0013099040963454266 5.3114432429166639e-05 0 0.0012744044284309372 9.2306400713334967e-06 0 0.0012374497254543522 1.7785920475734225e-05 0 0.0012380204167153838 3.955914927593797e-05 0 0.0017602160833355678 8.2769421228147204e-05 0 0.0018909785805054158 6.6695543646496755e-05 0 0.0018909785805054158 6.6695543646496755e-05 0 0.0020832830115191082 4.4818516071140442e-05 0 0.0020832830115191082 4.4818516071140442e-05 0 0.0025870126039178498 6.2630196031419194e-05 0 0.0024525345192671342 6.3549264564585772e-05 0 0.0024499964659108748 5.9332173456924687e-05 0 0.002453939154391474 5.6591143337437887e-05 0 0.0028740578884293806 1.1349946407982335e-05 0 0.0029068210390354875 -2.7119168616681716e-05 0 0.0029115632560952091 6.9062289852912028e-05 0 0.0024525345192671342 6.3549264564585772e-05 0 0.0024468982446624239 6.2677353791775725e-05 0 0.0024499964659108748 5.9332173456924687e-05 0 0.0024468982446624239 6.2677353791775725e-05 0 0.0024499964659108748 5.9332173456924687e-05 0 0.0024477721791615033 5.6084220146094456e-05 0 0.001865951967193783 9.772645720934263e-05 0 0.0024762297403631865 0.00012838389333625695 0 0.0024499964659108748 5.9332173456924687e-05 0 0.0024477721791615033 5.6084220146094456e-05 0 0.002453939154391474 5.6591143337437887e-05 0 0.0029160550556309008 0.00016561103214749622 0 0.0028682656080064504 0.00011058667203856281 0 0.0029115632560952091 6.9062289852912028e-05 0 0.003018729256714136 6.7096531755612114e-05 0 0.0025870126039178498 6.2630196031419194e-05 0 0.0024558828772275544 4.8455166888414291e-05 0 0.002453939154391474 5.6591143337437887e-05 0 0.0024515209510157397 5.2317637960284583e-05 0 0.0029680753760127554 0.00010111175657569055 0 0.0024762297403631865 0.00012838389333625695 0 0.0024477721791615033 5.6084220146094456e-05 0 0.002453939154391474 5.6591143337437887e-05 0 0.0024515209510157397 5.2317637960284583e-05 0 0.0031441215068311783 0.00011488706441549501 0 0.0031509489877084395 0.00039241566234224373 0 0.0032691508605256743 0.00024857101013568369 0 0.0024762297403631865 0.00012838389333625695 0 0.0027647658283247107 9.7596076943336934e-05 0 0.0025314662365922892 0.00013573161242031562 0 0.0025311309552008359 0.0001902670505289473 0 0.0024815743104950349 0.00017436801732378986 0 0.0024877634746184206 0.0002410969829450332 0 0.0025311309552008359 0.0001902670505289473 0 0.0024897976611530453 0.00021184718539883052 0 0.0025311309552008359 0.0001902670505289473 0 0.0024897976611530453 0.00021184718539883052 0 0.0024815743104950349 0.00017436801732378986 0 0.0024617842574039938 0.00021615041045917939 0 0.0024897976611530453 0.00021184718539883052 0 0.0024815743104950349 0.00017436801732378986 0 0.0024617842574039938 0.00021615041045917939 0 0.0024815743104950349 0.00017436801732378986 0 0.0024377073286220444 0.00019347047963424408 0 0.0024765813301403658 0.00013048870881764 0 0.0024386796781360495 0.00014711650281059639 0 0.0024815743104950349 0.00017436801732378986 0 0.0019262133440618549 0.00027407154797247883 0 0.0019825593260200795 0.00028068375437393289 0 0.0019561605973225137 0.00011061466022898199 0 0.0024386796781360495 0.00014711650281059639 0 0.0024815743104950349 0.00017436801732378986 0 0.0024377073286220444 0.00019347047963424408 0 0.002085152952901429 0.0002122892674636182 0 0.0015369006901421478 0.00023356367227562175 0 0.0019262133440618549 0.00027407154797247883 0 0.0019561605973225137 0.00011061466022898199 0 0.0019235116425091413 8.0242610467729246e-05 0 0.0017054619260136088 0.00028138905520305204 0 0.0013986168461203165 0.00022577995884199981 0 0.0010384537352610579 0.00023334187738785497 0 0.0013986168461203165 0.00022577995884199981 0 0.00078961399521716865 0.00032591527675488184 0 0.00069893459703478068 0.00023551326825903935 0 0.00077671597201064274 0.00023968864135106392 0 0.00089274217807005097 0.00041766907360598103 0 0.00089825821664412319 0.00041811815549085645 0 0.00090044953285318551 0.00042270381942377213 0 0.00074992398700560138 0.00021155885490228301 0 0.0007268972043179264 0.00018361314814859135 0 0.00079092786421605188 0.00018651028241007636 0 0.00074992398700560138 0.00021155885490228301 0 0.00069893459703478068 0.00023551326825903935 0 0.00077671597201064274 0.00023968864135106392 0 0.00074992398700560138 0.00021155885490228301 0 0.0007268972043179264 0.00018361314814859135 0 0.00069893459703478068 0.00023551326825903935 0 0.0013986168461203165 0.00022577995884199981 0 0.0012561368677128145 0.00016156090639209237 0 0.0015369006901421478 0.00023356367227562175 0 0.0012187275794158035 0.0001543859075395476 0 0.00070961916646749537 0.00023601197079486138 0 0.00069321365912445687 0.00022169823574911106 0 0.00068775801006641191 0.00014856164633117146 0 0.0013418951107506292 0.00026607654099204312 0 0.0014372583025271466 0.00035551181566525954 0 0.001436724142251099 0.0002100631554777352 0 0.0007268972043179264 0.00018361314814859135 0 0.00069893459703478068 0.00023551326825903935 0 0.00068906306818071375 0.00014010291047597881 0 0.0013986168461203165 0.00022577995884199981 0 0.0015369006901421478 0.00023356367227562175 0 0.0017081616867336568 0.00024983357494290739 0 0.0015369006901421478 0.00023356367227562175 0 0.00070961916646749537 0.00023601197079486138 0 0.00068906306818071375 0.00014010291047597881 0 0.00068775801006641191 0.00014856164633117146 0 0.001344668213512919 0.00019456571543535216 0 0.001436724142251099 0.0002100631554777352 0 0.0014370075109794652 6.0941465502344955e-05 0 0.0013418951107506292 0.00026607654099204312 0 0.001344668213512919 0.00019456571543535216 0 0.001436724142251099 0.0002100631554777352 0 0.00068906306818071375 0.00014010291047597881 0 0.00068775801006641191 0.00014856164633117146 0 0.00068715302422412718 7.8457707114669821e-05 0 0.0007268972043179264 0.00018361314814859135 0 0.00076397398293988144 0.00014385243279194912 0 0.00079092786421605188 0.00018651028241007636 0 0.0007268972043179264 0.00018361314814859135 0 0.00068906306818071375 0.00014010291047597881 0 0.00076397398293988144 0.00014385243279194912 0 0.00068906306818071375 0.00014010291047597881 0 0.00076397398293988144 0.00014385243279194912 0 0.00068715302422412718 7.8457707114669821e-05 0 0.00076397398293988144 0.00014385243279194912 0 0.00076568908427448253 5.8797519680215391e-05 0 0.00068388829085332939 7.4584343837402983e-05 0 0.00086242166279239154 3.70300420714913e-05 0 0.00094082547761146303 4.7814150058455448e-05 0 0.001344668213512919 0.00019456571543535216 0 0.0012983531030500187 8.7299550596658943e-05 0 0.0014370075109794652 6.0941465502344955e-05 0 0.0012187275794158035 0.0001543859075395476 0 0.00094082547761146303 4.7814150058455448e-05 0 0.00084920680470752666 0.00012377442394223334 0 0.00091857429307913682 6.5400246210960044e-05 0 0.00083891106988965181 4.0480964129382137e-05 0 0.00076397398293988144 0.00014385243279194912 0 0.00076568908427448253 5.8797519680215391e-05 0 0.00084920680470752666 0.00012377442394223334 0 0.00076568908427448253 5.8797519680215391e-05 0 0.00084920680470752666 0.00012377442394223334 0 0.00083891106988965181 4.0480964129382137e-05 0 0.00076397398293988144 0.00014385243279194912 0 0.00084920680470752666 0.00012377442394223334 0 0.00079092786421605188 0.00018651028241007636 0 0.00084920680470752666 0.00012377442394223334 0 0.00084729751688299062 0.00020975577398153975 0 0.00079092786421605188 0.00018651028241007636 0 0.00084920680470752666 0.00012377442394223334 0 0.00084729751688299062 0.00020975577398153975 0 0.0009093562012901414 0.00018833880010535333 0 0.00084729751688299062 0.00020975577398153975 0 0.00089426358977338146 0.00025408037912646726 0 0.0009093562012901414 0.00018833880010535333 0 0.00084729751688299062 0.00020975577398153975 0 0.00079092786421605188 0.00018651028241007636 0 0.00077671597201064274 0.00023968864135106392 0 0.00084729751688299062 0.00020975577398153975 0 0.00077671597201064274 0.00023968864135106392 0 0.00083398834126821705 0.00027445984047531463 0 0.00074992398700560138 0.00021155885490228301 0 0.00079092786421605188 0.00018651028241007636 0 0.00077671597201064274 0.00023968864135106392 0 0.00078961399521716865 0.00032591527675488184 0 0.00077671597201064274 0.00023968864135106392 0 0.00083398834126821705 0.00027445984047531463 0 0.00085571540172072315 0.00033455538877053215 0 0.00078961399521716865 0.00032591527675488184 0 0.00083398834126821705 0.00027445984047531463 0 0.00084729751688299062 0.00020975577398153975 0 0.00083398834126821705 0.00027445984047531463 0 0.00089426358977338146 0.00025408037912646726 0 0.0008901072899622685 0.00031532931367536117 0 0.00085571540172072315 0.00033455538877053215 0 0.00083398834126821705 0.00027445984047531463 0 0.0008901072899622685 0.00031532931367536117 0 0.00083398834126821705 0.00027445984047531463 0 0.00089426358977338146 0.00025408037912646726 0 0.0008901072899622685 0.00031532931367536117 0 0.00089426358977338146 0.00025408037912646726 0 0.00094587669569492897 0.00029970160048635333 0 0.00089426358977338146 0.00025408037912646726 0 0.00094587669569492897 0.00029970160048635333 0 0.00094768434163394223 0.00023819851276943242 0 0.00094587669569492897 0.00029970160048635333 0 0.0010059838430678981 0.00027126309764488609 0 0.00094768434163394223 0.00023819851276943242 0 0.0010060329575573906 0.00035153746383819275 0 0.00094587669569492897 0.00029970160048635333 0 0.0010059838430678981 0.00027126309764488609 0 0.0010060329575573906 0.00035153746383819275 0 0.0010059838430678981 0.00027126309764488609 0 0.0010874377518612596 0.00031352262549309807 0 0.00098168882897117673 0.00019118034445356129 0 0.0010724378810425452 0.00022602229675767736 0 0.0010271648959812045 0.00014501294537597949 0 0.0010059838430678981 0.00027126309764488609 0 0.00098168882897117673 0.00019118034445356129 0 0.00094768434163394223 0.00023819851276943242 0 0.0010059838430678981 0.00027126309764488609 0 0.00098168882897117673 0.00019118034445356129 0 0.0010724378810425452 0.00022602229675767736 0 0.00098168882897117673 0.00019118034445356129 0 0.0009093562012901414 0.00018833880010535333 0 0.00094768434163394223 0.00023819851276943242 0 0.00089426358977338146 0.00025408037912646726 0 0.0009093562012901414 0.00018833880010535333 0 0.00094768434163394223 0.00023819851276943242 0 0.0011930125412695902 0.00028357156025529044 0 0.0010874377518612596 0.00031352262549309807 0 0.0010724378810425452 0.00022602229675767736 0 0.0011509470509757098 0.00035481297282189631 0 0.0011930125412695902 0.00028357156025529044 0 0.0010874377518612596 0.00031352262549309807 0 0.0010059838430678981 0.00027126309764488609 0 0.0010874377518612596 0.00031352262549309807 0 0.0010724378810425452 0.00022602229675767736 0 0.0011930125412695902 0.00028357156025529044 0 0.0010724378810425452 0.00022602229675767736 0 0.0011749239146339955 0.00017326475483372101 0 0.0018286301888759309 0.00023457474349810153 0 0.0016422692550251176 0.00016827889267132789 0 0.0011749239146339955 0.00017326475483372101 0 0.0010496949180057184 8.2606817177432277e-05 0 0.0011658550134349881 5.0596880894170583e-05 0 0.0010724378810425452 0.00022602229675767736 0 0.0011749239146339955 0.00017326475483372101 0 0.0010271648959812045 0.00014501294537597949 0 0.0011749239146339955 0.00017326475483372101 0 0.0010271648959812045 0.00014501294537597949 0 0.0010496949180057184 8.2606817177432277e-05 0 0.0010496949180057184 8.2606817177432277e-05 0 0.0011658550134349881 5.0596880894170583e-05 0 0.0010846623673858803 -4.9545698923338226e-05 0 0.0010271648959812045 0.00014501294537597949 0 0.0010496949180057184 8.2606817177432277e-05 0 0.0009839531662998312 8.2416718393725833e-05 0 0.00084920680470752666 0.00012377442394223334 0 0.0009093562012901414 0.00018833880010535333 0 0.0009439200292969582 0.00012383718657618784 0 0.00098168882897117673 0.00019118034445356129 0 0.0009093562012901414 0.00018833880010535333 0 0.0009439200292969582 0.00012383718657618784 0 0.00098168882897117673 0.00019118034445356129 0 0.0010271648959812045 0.00014501294537597949 0 0.0009439200292969582 0.00012383718657618784 0 0.0010271648959812045 0.00014501294537597949 0 0.0009439200292969582 0.00012383718657618784 0 0.0009839531662998312 8.2416718393725833e-05 0 0.0009839531662998312 8.2416718393725833e-05 0 0.00091857429307913682 6.5400246210960044e-05 0 0.00098892590136728819 1.8885478746570625e-05 0 0.0010496949180057184 8.2606817177432277e-05 0 0.0009839531662998312 8.2416718393725833e-05 0 0.00098892590136728819 1.8885478746570625e-05 0 0.0009439200292969582 0.00012383718657618784 0 0.0009839531662998312 8.2416718393725833e-05 0 0.00091857429307913682 6.5400246210960044e-05 0 0.00084920680470752666 0.00012377442394223334 0 0.0009439200292969582 0.00012383718657618784 0 0.00091857429307913682 6.5400246210960044e-05 0 0.00071503091035785362 -1.5563133868348894e-05 0 0.00098892590136728819 1.8885478746570625e-05 0 0.00084838161108389566 -0.00010338396814038077 0 0.00091857429307913682 6.5400246210960044e-05 0 0.00089854998753444398 8.4180279778630832e-06 0 0.00098892590136728819 1.8885478746570625e-05 0 0.00079930148057719716 -3.9198932504307692e-05 0 0.00088602212605538074 -1.2585294119863173e-05 0 0.00098892590136728819 1.8885478746570625e-05 0 0.00098626845989443026 -4.0382604584950185e-05 0 0.00084838161108389566 -0.00010338396814038077 0 0.00098626845989443026 -4.0382604584950185e-05 0 0.00084838161108389566 -0.00010338396814038077 0 0.00088660132840336959 -0.00027104230142017266 0 0.0009554443617902094 -0.00011184178694610149 0 0.00088869018546786148 -0.0002749201329411666 0 0.00094998949442655725 -0.00012983109923724343 0 0.00098275281281681552 -0.00022950948141458948 0 0.000872690257577289 -0.00031662896962816243 0 0.00084838161108389566 -0.00010338396814038077 0 0.00088660132840336959 -0.00027104230142017266 0 0.000660459354677312 -0.00023560474106584136 0 0.00071503091035785362 -1.5563133868348894e-05 0 0.00084838161108389566 -0.00010338396814038077 0 0.000660459354677312 -0.00023560474106584136 0 0.0011658550134349881 5.0596880894170583e-05 0 0.0011889000535729105 -9.1272239827398639e-05 0 0.0010846623673858803 -4.9545698923338226e-05 0 0.0011889000535729105 -9.1272239827398639e-05 0 0.0010846623673858803 -4.9545698923338226e-05 0 0.0010582976392259551 -0.00016848506996462357 0 0.00099229256484671419 -2.2458470689028119e-05 0 0.0009554443617902094 -0.00011184178694610149 0 0.0010496949180057184 8.2606817177432277e-05 0 0.00094998949442655725 -0.00012983109923724343 0 0.0010846623673858803 -4.9545698923338226e-05 0 0.0010496949180057184 8.2606817177432277e-05 0 0.00098892590136728819 1.8885478746570625e-05 0 0.00098626845989443026 -4.0382604584950185e-05 0 0.00094998949442655725 -0.00012983109923724343 0 0.0010846623673858803 -4.9545698923338226e-05 0 0.0010582976392259551 -0.00016848506996462357 0 0.00098275281281681552 -0.00022950948141458948 0 0.0010582976392259551 -0.00016848506996462357 0 0.0010518310208569998 -0.00030146515313324328 0 0.00094998949442655725 -0.00012983109923724343 0 0.00098275281281681552 -0.00022950948141458948 0 0.0010582976392259551 -0.00016848506996462357 0 0.0012480168131515832 -0.00025794041292864187 0 0.0011889000535729105 -9.1272239827398639e-05 0 0.0010582976392259551 -0.00016848506996462357 0 0.0012480168131515832 -0.00025794041292864187 0 0.0010582976392259551 -0.00016848506996462357 0 0.0010518310208569998 -0.00030146515313324328 0 0.0012480168131515832 -0.00025794041292864187 0 0.0011644754741395652 -0.00039075406317374872 0 0.0010518310208569998 -0.00030146515313324328 0 0.0011644754741395652 -0.00039075406317374872 0 0.0010518310208569998 -0.00030146515313324328 0 0.00098582867797711413 -0.00047829168410506875 0 0.0010518310208569998 -0.00030146515313324328 0 0.00098582867797711413 -0.00047829168410506875 0 0.000872690257577289 -0.00031662896962816243 0 0.00098275281281681552 -0.00022950948141458948 0 0.0010518310208569998 -0.00030146515313324328 0 0.000872690257577289 -0.00031662896962816243 0 0.0011685183937336094 -0.00053377738029544881 0 0.0011644754741395652 -0.00039075406317374872 0 0.00098582867797711413 -0.00047829168410506875 0 0.00088660132840336959 -0.00027104230142017266 0 0.00078317947969085849 -0.00049516668416823954 0 0.000660459354677312 -0.00023560474106584136 0 0.00088869018546786148 -0.0002749201329411666 0 0.00084786227863536728 -0.00037446253139777181 0 0.00098582867797711413 -0.00047829168410506875 0 0.000872690257577289 -0.00031662896962816243 0 0.00078317947969085849 -0.00049516668416823954 0 0.00058487388412003908 -0.0005940845236469776 0 0.00078317947969085849 -0.00049516668416823954 0 0.00055373946192949631 -0.00039930730720223826 0 0.00078317947969085849 -0.00049516668416823954 0 0.00055373946192949631 -0.00039930730720223826 0 0.000660459354677312 -0.00023560474106584136 0 0.00055373946192949631 -0.00039930730720223826 0 0.000660459354677312 -0.00023560474106584136 0 0.00040785612161429259 -0.00027606579110522927 0 0.00058487388412003908 -0.0005940845236469776 0 0.00055373946192949631 -0.00039930730720223826 0 0.00039395106887826043 -0.0004492390591599876 0 0.00055373946192949631 -0.00039930730720223826 0 0.00040785612161429259 -0.00027606579110522927 0 0.00039395106887826043 -0.0004492390591599876 0 0.00040785612161429259 -0.00027606579110522927 0 0.00039395106887826043 -0.0004492390591599876 0 0.00021043134444164154 -0.0003966678365947361 0 0.00032406085779009241 -0.00057507602032281526 0 0.00039395106887826043 -0.0004492390591599876 0 0.00021043134444164154 -0.0003966678365947361 0 0.00070114200311039733 -0.00024759410896059848 0 0.00072658430155612985 -0.00022820591506776078 0 0.00070983405733937371 -0.00019966513408412894 0 0.00050331778132755103 -0.00029238942791452407 0 0.00064988626526141246 -0.00016821362477416948 0 0.00072658430155612985 -0.00022820591506776078 0 0.00070983405733937371 -0.00019966513408412894 0 0.00072808183543705775 -0.00016393206951767587 0 0.00040785612161429259 -0.00027606579110522927 0 0.00021043134444164154 -0.0003966678365947361 0 0.0002102326520939452 -0.00014834218450838544 0 0.00064988626526141246 -0.00016821362477416948 0 0.0006647248967558806 -9.8650724382818227e-05 0 0.00040785612161429259 -0.00027606579110522927 0 0.0002102326520939452 -0.00014834218450838544 0 0.00045578426713595993 -8.3135438089084496e-05 0 0.00069047055342351111 -0.0001250999245254609 0 0.0007168546260662795 -0.00016676846804586498 0 0.0007284741581798568 -0.00016381427464669254 0 0.0006892600827664452 -0.00017070325784987654 0 0.00070983405733937371 -0.00019966513408412894 0 0.0007168546260662795 -0.00016676846804586498 0 0.00070983405733937371 -0.00019966513408412894 0 0.0007168546260662795 -0.00016676846804586498 0 0.00072808183543705775 -0.00016393206951767587 0 0.00065254609430277441 -0.00016769508910922235 0 0.00064988626526141246 -0.00016821362477416948 0 0.00094082547761146303 4.7814150058455448e-05 0 0.00064988626526141246 -0.00016821362477416948 0 0.0009558481951021801 -6.0519509487024985e-05 0 0.00094082547761146303 4.7814150058455448e-05 0 0.00069047055342351111 -0.0001250999245254609 0 0.00072981173486632634 -9.1563713400179633e-05 0 0.0007284741581798568 -0.00016381427464669254 0 0.00076568908427448253 5.8797519680215391e-05 0 0.00068348611136533673 -4.7454974732758182e-05 0 0.00079288165721521373 -1.9277482041307504e-05 0 0.00076568908427448253 5.8797519680215391e-05 0 0.00068388829085332939 7.4584343837402983e-05 0 0.00068348611136533673 -4.7454974732758182e-05 0 0.00076568908427448253 5.8797519680215391e-05 0 0.00083891106988965181 4.0480964129382137e-05 0 0.00079288165721521373 -1.9277482041307504e-05 0 0.00089854998753444398 8.4180279778630832e-06 0 0.00083891106988965181 4.0480964129382137e-05 0 0.00079288165721521373 -1.9277482041307504e-05 0 0.00079930148057719716 -3.9198932504307692e-05 0 0.0006647248967558806 -9.8650724382818227e-05 0 0.00091857429307913682 6.5400246210960044e-05 0 0.00089854998753444398 8.4180279778630832e-06 0 0.00083891106988965181 4.0480964129382137e-05 0 0.00071503091035785362 -1.5563133868348894e-05 0 0.000660459354677312 -0.00023560474106584136 0 0.00045578426713595993 -8.3135438089084496e-05 0 0.000660459354677312 -0.00023560474106584136 0 0.00040785612161429259 -0.00027606579110522927 0 0.00045578426713595993 -8.3135438089084496e-05 0 
</DataArray>
</PointData>
<CellData Scalars="region_id,cross_section_updated," Vectors="" Tensors="stress,">
<DataArray type="Float64" Name="region_id" format="ascii">
5 5 6 5 5 5 5 6 5 5 5 5 5 5 5 5 5 5 5 5 6 5 5 5 5 6 5 5 5 5 5 5 5 6 5 5 5 5 5 5 5 5 6 5 5 5 5 5 5 5 5 5 5 5 6 6 5 5 5 5 5 5 5 5 6 5 5 5 5 5 5 5 5 5 5 5 5 5 5 5 5 5 5 5 5 5 5 6 5 5 5 5 5 5 5 5 5 5 5 6 5 5 5 6 5 5 5 5 5 5 5 5 5 5 5 5 5 5 5 5 5 5 5 5 5 5 5 5 5 5 5 5 5 5 5 5 5 5 5 5 5 5 5 5 5 5 5 5 5 6 5 6 5 5 5 5 5 5 5 5 5 5 5 5 5 5 5 5 5 5 5 5 5 5 5 5 5 5 6 5 5 6 5 6 5 5 5 5 5 5 5 5 5 5 5 5 5 5 6 5 6 5 5 5 5 5 5 5 6 5 6 5 5 5 5 5 5 6 5 5 6 5 5 5 5 5 5 6 6 5 5 6 5 6 5 6 6 5 5 5 6 5 5 5 5 5 5 5 5 5 5 5 5 5 6 5 5 5 5 5 5 5 6 5 5 5 5 5 5 5 6 5 5 5 5 6 5 5 5 5 5 5 6 5 5 5 6 5 5 5 5 5 5 5 6 5 5 5 5 5 5 6 5 5 5 5 5 5 6 5 5 5 5 5 5 5 6 5 5 5 5 5 5 5 5 5 5 5 5 5 5 5 5 5 5 5 5 5 6 6 5 5 5 5 5 6 5 5 5 5 5 5 5 6 5 6 5 5 5 6 5 5 5 6 5 6 5 5 5 5 5 5 5 6 5 5 5 5 5 5 5 6 5 5 5 6 5 5 5 5 5 5 5 5 5 5 5 5 5 5 5 5 5 5 5 5 5 5 5 5 5 5 5 5 5 5 5 5 6 5 5 5 5 5 5 5 5 5 5 5 5 5 5 5 5 5 5 5 5 5 5 5 5 5 5 5 5 5 5 5 5 6 5 5 5 5 5 5 5 5 5 5 5 5 5 5 5 5 5 5 5 5 6 5 5 5 5 5 5 5 6 5 5 5 5 5 6 5 5 6 5 6 5 5 5 5 6 5 5 6 5 5 5 5 5 5 6 5 5 5 5 5 5 5 5 5 5 5 5 5 5 5 5 5 5 5 6 5 5 5 5 5 5 5 5 5 5 5 6 6 5 5 5 5 5 5 5 5 5 5 5 5 5 5 5 5 5 5 5 5 5 6 5 6 6 5 5 6 5 5 5 5 5 5 5 5 5 5 5 5 5 6 5 5 5 5 5 5 5 6 6 5 5 5 5 5 5 5 5 6 6 5 5 5 6 5 5 5 5 5 5 5 5 5 5 5 5 5 5 5 5 5 5 5 5 5 5 5 5 5 5 5 5 5 5 5 5 5 5 5 6 5 5 6 5 5 5 5 6 5 5 5 6 5 5 5 6 5 5 6 5 5 5 5 5 5 5 5 5 5 5 5 5 5 5 5 5 5 5 5 5 6 5 5 5 6 5 5 5 5 5 6 5 5 5 5 5 5 6 5 5 5 5 5 5 5 5 5 5 5 5 5 5 5 5 5 5 6 5 5 5 5 5 5 5 5 5 5 5 5 5 5 5 5 5 5 5 5 5 6 5 5 5 5 5 5 5 5 5 5 5 5 5 5 5 6 5 5 5 5 5 5 5 5 5 5 5 5 5 5 5 5 5 5 6 5 5 5 5 5 5 5 6 5 5 5 5 5 5 5 5 5 5 5 5 5 5 5 5 5 5 5 5 5 6 5 5 5 5 5 5 5 5 5 6 5 5 5 5 5 5 5 5 6 5 5 5 5 5 5 5 5 5 5 5 5 5 5 5 5 5 5 5 6 5 5 5 5 5 6 5 5 5 6 5 5 5 5 5 5 6 5 5 5 5 5 5 5 5 5 5 6 5 5 5 5 5 5 5 5 5 5 5 5 6 5 6 5 5 5 5 5 5 5 6 5 6 5 5 5 5 5 5 5 5 5 5 5 5 5 5 5 5 5 5 5 5 5 5 5 5 5 5 5 5 5 5 5 5 5 5 5 5 5 5 5 5 5 5 5 5 5 6 6 5 5 6 5 5 5 5 5 5 5 5 5 5 5 5 5 5 5 5 6 5 5 5 5 6 5 5 6 5 5 5 5 5 5 6 5 6 5 5 6 5 5 5 5 5 5 5 5 5 5 6 5 5 5 5 5 6 6 5 5 5 5 6 5 5 6 5 6 5 5 5 5 5 6 5 5 6 5 5 5 5 5 5 5 5 5 5 5 5 6 5 5 5 5 5 5 5 5 5 5 5 5 5 5 5 6 5 6 5 6 6 5 6 5 5 6 5 5 5 5 5 5 6 5 6 5 5 6 5 5 5 6 5 5 6 5 5 5 5 5 6 5 5 6 5 5 5 5 5 6 5 6 5 5 6 5 5 6 5 5 5 5 5 5 5 5 6 5 5 5 5 5 5 5 5 5 5 6 5 5 5 5 6 5 5 6 5 5 5 5 5 6 5 5 5 5 5 6 5 6 5 5 5 5 5 5 6 5 5 5 5 5 5 5 5 6 6 6 5 5 5 5 6 5 6 5 5 5 6 6 5 5 5 6 5 5 5 6 5 6 5 6 6 5 6 5 5 5 5 6 5 5 5 6 5 6 5 6 5 5 5 5 5 5 5 6 5 5 5 5 6 5 5 5 5 5 5 5 5 6 5 6 6 5 5 5 6 5 5 5 5 6 6 5 5 6 6 5 5 5 5 5 6 5 5 5 5 5 5 5 5 6 5 6 5 5 5 5 5 5 5 5 5 5 5 5 5 5 5 5 5 6 5 5 5 5 5 5 5 5 5 5 5 5 5 5 5 5 5 5 5 5 5 5 5 5 5 6 5 6 5 5 5 5 5 6 6 5 5 5 5 6 6 5 6 5 5 6 5 5 6 5 5 5 5 6 6 5 5 5 5 5 5 5 5 6 5 5 6 5 5 5 6 5 5 6 5 5 5 5 5 5 6 5 5 5 5 5 5 6 5 5 5 5 5 6 5 5 6 6 5 5 6 5 5 6 5 5 5 5 5 5 5 5 5 5 5 5 6 5 6 5 5 6 5 5 5 5 5 5 6 5 5 5 6 6 6 5 5 5 6 6 5 6 6 5 5 6 5 5 6 5 6 5 6 5 5 5 6 6 5 5 6 6 6 6 5 5 5 6 6 5 5 6 6 6 5 6 6 5 5 6 5 6 6 5 6 5 5 6 5 6 6 5 5 5 5 6 6 5 5 6 5 5 5 6 5 5 5 5 5 5 5 5 5 5 5 5 5 5 5 5 5 5 5 5 5 5 5 5 5 5 5 5 5 5 5 5 5 5 5 5 5 5 5 5 5 5 5 5 5 5 5 5 5 5 5 5 5 5 5 5 5 5 6 5 6 5 5 5 5 5 5 5 5 5 5 5 5 5 5 6 5 5 5 5 5 5 5 5 5 5 6 5 5 5 5 5 5 5 5 5 5 5 5 5 5 5 5 5 5 5 5 5 5 5 5 5 5 5 5 5 5 5 5 5 5 5 5 5 5 5 5 5 5 5 5 5 5 6 5 5 5 6 5 6 5 5 5 5 5 6 5 6 5 5 5 5 5 5 5 5 5 5 5 5 5 5 5 5 5 5 5 5 5 5 5 5 5 6 5 5 5 5 5 5 6 5 6 5 5 5 6 5 5 6 5 5 5 5 5 5 5 5 5 5 5 5 5 5 5 5 5 5 5 5 5 5 5 5 5 5 5 5 5 5 5 5 5 5 5 5 5 6 5 6 5 5 5 5 5 5 5 5 5 5 6 5 5 5 5 5 5 5 5 5 5 5 5 5 5 5 5 5 6 5 5 5 6 6 5 6 5 5 5 5 5 5 5 5 6 5 5 5 5 6 5 5 5 5 5 5 5 6 5 5 6 5 6 5 5 6 5 5 6 6 5 5 5 5 5 5 5 5 5 5 5 5 5 5 5 6 5 6 5 5 5 6 5 6 5 5 5 5 5 5 5 5 5 5 5 5 6 5 6 5 5 5 5 5 5 5 5 6 5 5 6 5 5 5 6 6 5 5 5 5 5 5 5 5 5 5 5 5 5 5 5 5 5 5 5 5 5 6 5 5 5 5 5 6 5 6 5 5 5 5 6 5 5 6 5 5 5 5 5 6 5 5 5 5 6 5 5 5 5 5 5 5 6 5 5 5 6 5 5 5 5 5 5 5 5 5 5 5 6 5 5 5 5 5 5 5 5 6 5 5 5 5 5 5 6 5 5 5 5 5 5 6 5 5 5 5 5 5 5 5 5 5 5 6 5 5 5 6 5 5 5 6 5 6 5 5 5 5 5 5 6 5 5 5 5 5 5 5 5 5 5 5 5 5 5 5 6 5 5 5 5 5 6 5 5 5 5 5 5 5 5 6 5 5 5 5 5 5 5 5 5 5 5 5 5 5 5 5 6 5 5 5 5 6 5 5 5 5 5 5 5 5 5 5 5 5 5 5 5 5 5 5 5 5 5 5 5 5 5 5 6 5 5 5 6 5 6 5 5 5 5 6 5 6 5 5 5 5 5 6 5 5 5 5 5 5 5 5 5 6 5 5 5 5 5 5 5 5 5 5 5 5 5 5 5 5 5 5 5 5 5 5 5 5 6 6 5 5 5 5 5 6 5 5 5 6 5 5 5 6 5 5 6 5 6 5 5 5 5 6 5 5 5 5 6 6 5 5 5 5 5 5 5 5 5 5 5 5 6 5 5 5 5 6 5 5 5 5 5 6 5 5 6 5 5 5 5 5 5 5 5 5 5 5 5 5 5 5 5 6 5 5 6 5 5 5 6 5 5 5 5 5 5 5 5 5 5 5 6 5 5 5 5 5 5 5 5 5 5 5 5 5 5 5 5 6 5 5 6 5 6 5 5 6 5 6 5 6 5 5 5 5 5 5 5 5 5 5 5 5 5 6 5 6 6 5 5 6 6 5 5 6 6 5 5 5 6 5 6 5 5 6 5 5 5 5 6 6 5 6 5 5 6 6 5 5 6 5 5 5 6 5 5 5 6 6 6 5 5 6 5 6 6 5 5 5 5 5 5 5 5 5 5 5 6 6 5 6 5 6 5 6 5 5 5 6 5 5 5 5 5 6 5 5 5 5 5 5 5 5 5 5 5 5 5 5 5 5 5 5 5 5 5 5 5 5 6 5 5 5 5 5 5 5 5 5 5 5 5 5 5 5 5 5 5 6 5 5 5 5 5 5 5 5 5 5 5 6 5 5 5 5 5 6 5 5 5 5 5 5 5 5 5 5 5 5 5 5 6 5 5 5 5 5 5 5 5 5 5 5 5 5 5 6 5 6 5 5 5 5 6 5 5 5 5 5 5 5 5 5 5 5 5 6 5 6 5 5 5 5 6 5 5 5 5 5 5 5 6 5 5 5 5 5 5 5 6 5 5 5 6 5 6 5 5 5 5 5 5 5 5 5 6 5 5 5 5 5 5 5 5 5 5 5 5 5 5 5 5 5 5 5 5 5 5 5 5 5 5 5 5 5 5 5 5 5 5 5 5 5 5 5 5 5 5 5 6 5 5 6 5 5 5 5 5 5 5 5 5 5 6 5 5 5 5 5 6 5 5 6 5 5 5 5 5 5 6 5 5 5 5 6 5 5 6 5 6 5 5 5 5 5 5 5 5 5 5 5 6 5 6 5 5 5 5 6 5 5 5 5 5 5 5 5 5 5 5 5 5 5 5 5 5 5 5 5 5 6 5 5 5 5 6 5 5 5 5 5 5 5 6 5 5 5 5 5 6 5 5 5 6 5 5 5 6 5 5 6 5 5 5 6 5 5 6 5 5 5 5 5 5 5 5 5 5 5 5 5 5 5 5 5 5 5 5 5 5 5 5 5 5 5 5 5 5 5 6 5 5 5 5 5 5 5 5 5 5 5 6 5 5 5 5 5 5 5 5 5 5 5 5 5 5 5 6 6 5 5 5 6 5 5 5 5 6 5 5 6 5 5 5 5 5 5 5 5 5 5 5 5 5 6 6 5 5 5 5 5 5 5 5 5 5 5 6 5 5 6 5 5 5 5 5 5 5 5 5 5 5 5 5 5 5 5 5 5 5 6 5 5 5 6 5 5 5 5 5 6 5 5 5 5 5 5 5 5 5 5 5 5 5 5 5 5 5 5 5 5 6 5 5 6 5 5 5 5 5 5 5 5 5 5 5 5 5 5 5 5 5 5 5 6 5 5 5 5 5 5 5 5 5 5 5 5 5 5 5 5 5 5 5 5 5 5 5 5 5 5 5 5 5 5 5 5 6 5 5 5 5 5 5 6 5 5 5 5 5 6 5 5 5 5 6 5 5 5 5 5 5 5 5 5 5 5 5 5 5 5 5 5 5 5 5 5 5 6 5 5 5 5 5 5 5 6 5 5 6 5 5 6 5 5 5 5 5 5 6 5 5 5 5 5 5 5 5 5 5 6 5 6 5 5 5 5 5 5 5 5 6 5 5 6 5 5 5 6 5 5 5 6 5 5 5 6 6 5 5 6 5 5 6 5 5 6 5 5 5 5 5 5 5 5 5 6 5 5 5 6 5 5 5 6 5 5 5 6 5 6 5 5 6 5 5 5 5 5 5 5 5 6 5 5 6 5 5 5 5 5 5 5 5 5 5 5 5 5 6 5 6 5 5 5 6 6 5 6 5 5 5 5 6 5 6 5 5 5 5 5 5 5 5 5 6 5 5 5 5 5 5 5 5 5 5 5 5 5 5 5 5 5 5 5 5 5 5 5 5 5 5 5 5 6 5 5 5 5 5 5 6 5 5 5 5 5 5 6 5 5 5 5 5 5 6 5 5 5 6 5 5 5 6 5 5 6 5 5 5 5 5 5 6 5 5 5 6 6 5 5 5 5 5 5 5 5 5 5 5 5 5 5 5 5 5 6 5 5 5 5 5 5 5 6 5 5 5 5 5 6 5 5 5 5 5 6 5 5 6 5 5 5 5 6 5 5 5 5 5 5 6 5 6 5 6 6 5 6 5 5 5 6 5 5 5 5 5 6 5 5 5 6 5 5 5 5 6 6 6 5 5 5 5 6 6 5 6 5 5 5 5 5 5 6 5 6 5 5 6 5 5 5 6 5 5 6 5 5 5 5 5 5 5 5 5 5 5 5 6 5 5 5 5 6 5 5 5 5 6 5 5 5 5 5 5 5 5 5 6 6 6 5 5 5 6 6 5 5 6 5 6 5 5 5 5 5 5 5 6 5 5 5 5 5 5 5 5 5 5 5 5 5 5 5 5 6 5 5 5 5 5 5 5 5 5 6 5 5 6 5 6 5 6 5 5 6 5 5 5 6 6 5 5 6 5 5 5 6 5 5 5 5 6 5 5 5 5 5 5 5 5 5 5 5 6 6 5 5 5 5 5 5 5 5 5 5 5 5 5 5 5 5 5 5 5 5 5 5 5 5 5 5 5 5 5 5 5 5 6 5 5 5 5 5 5 5 5 5 5 5 5 5 5 5 5 5 5 5 6 5 5 5 5 5 5 6 6 5 5 6 6 5 5 5 6 5 5 5 5 5 5 5 5 5 5 5 5 5 5 5 5 5 5 5 5 5 5 5 6 5 6 5 6 5 5 5 5 5 5 6 5 6 6 5 5 6 5 5 5 5 5 5 6 6 5 5 6 6 5 5 6 6 5 5 5 5 5 5 5 5 6 5 5 5 5 5 6 5 5 6 5 5 5 6 5 5 5 5 5 5 5 5 5 5 5 5 5 5 5 5 5 5 5 5 5 5 5 5 5 5 5 5 5 5 5 5 5 5 6 5 5 6 5 6 6 5 5 5 5 5 5 5 5 5 6 5 5 5 5 5 6 5 5 5 5 5 5 5 6 5 5 5 5 5 5 5 5 6 5 5 5 5 5 6 5 5 5 5 5 5 5 5 5 5 5 5 5 5 5 5 5 5 5 5 5 5 5 5 5 5 5 5 5 5 6 6 5 5 5 5 5 5 5 6 5 5 5 6 5 6 5 5 5 5 5 5 5 5 5 5 5 5 5 5 5 5 5 5 5 5 5 6 5 5 5 5 5 5 6 5 5 5 5 5 5 5 6 5 5 6 5 5 5 5 5 5 6 5 5 5 6 5 5 6 6 5 5 5 5 5 5 5 5 5 5 5 5 5 5 5 5 5 5 5 5 5 5 5 5 5 5 5 5 6 5 5 5 5 5 5 5 5 5 5 5 5 5 5 5 5 5 5 5 6 5 5 5 6 6 5 5 5 5 5 6 5 5 5 6 5 5 5 5 5 6 5 5 5 5 5 5 5 5 5 5 5 5 5 5 5 5 5 5 5 5 5 6 5 5 5 5 5 5 6 5 5 5 5 5 5 5 5 5 5 5 5 6 5 5 5 5 6 5 6 5 5 5 5 5 5 5 5 5 5 5 5 5 6 5 5 5 5 5 6 5 5 5 5 5 5 6 5 5 5 5 5 5 5 5 5 5 5 5 6 5 5 6 5 5 6 5 5 6 5 5 5 5 5 5 5 5 5 5 6 5 5 5 5 5 5 5 5 6 5 5 5 6 5 5 5 6 5 5 6 5 5 5 6 5 5 5 5 5 6 5 6 5 5 5 5 6 6 5 5 5 6 5 5 5 5 6 5 5 5 5 5 5 5 5 5 5 5 5 5 5 5 6 5 5 6 6 5 5 5 5 6 5 5 5 5 5 5 6 5 5 5 5 5 5 6 5 5 5 5 5 5 5 5 6 5 5 5 5 5 5 5 5 5 5 6 5 5 6 5 5 6 5 5 5 5 5 6 6 5 5 6 6 5 6 5 6 5 6 6 5 5 6 5 6 5 6 5 6 5 6 5 5 6 5 6 5 6 5 5 5 5 5 5 6 5 5 5 6 5 5 5 5 5 5 5 5 5 6 5 5 6 5 6 5 6 5 5 5 6 6 5 5 5 5 5 5 5 5 5 5 5 6 5 5 5 5 5 6 5 5 5 5 5 5 5 5 5 5 5 5 5 5 5 5 5 6 5 5 5 5 5 5 6 5 5 5 6 5 5 6 5 5 5 6 5 6 6 5 5 5 5 5 5 5 5 5 6 5 5 5 5 5 5 5 6 5 6 5 6 5 5 5 5 5 5 5 5 5 5 5 5 5 5 5 5 5 5 5 5 5 5 5 5 5 5 5 5 5 5 5 5 5 5 5 5 5 6 5 5 6 6 5 5 5 5 6 5 5 5 5 5 6 5 5 6 6 5 5 5 5 5 5 6 5 6 5 5 6 6 5 6 5 5 5 6 5 5 5 5 6 5 5 5 6 5 5 6 6 5 5 5 6 5 5 5 5 6 5 5 6 5 5 5 6 5 5 6 5 5 5 6 5 6 5 5 6 5 5 6 6 5 5 6 5 6 6 5 5 5 5 6 5 5 5 5 6 5 5 5 5 5 5 5 5 5 5 5 5 6 5 5 5 5 6 5 6 5 5 5 5 5 6 6 6 5 5 5 5 5 5 5 5 6 5 5 5 5 5 5 6 5 5 5 5 6 5 5 5 5 5 5 5 5 5 5 5 5 5 5 5 5 5 5 6 5 6 5 5 6 6 5 6 5 5 6 5 6 5 6 5 6 5 5 5 5 6 5 5 5 6 5 5 5 5 5 5 5 5 5 5 5 5 5 5 5 5 5 5 5 5 5 5 5 5 5 6 5 5 5 5 5 6 5 5 5 5 5 5 5 5 5 5 5 6 5 5 5 5 5 6 5 5 6 6 5 5 5 6 5 5 6 6 5 6 5 5 5 5 5 5 5 5 5 5 5 5 5 5 5 5 6 5 5 5 5 6 5 5 5 5 5 5 5 5 6 6 5 5 6 5 5 5 5 5 5 5 5 5 6 6 5 5 6 5 5 5 6 5 5 5 5 5 5 5 5 5 5 5 5 5 5 5 5 5 5 5 5 5 5 5 5 5 5 6 5 5 5 5 5 5 5 5 5 5 5 5 5 5 5 5 5 5 5 5 6 5 5 5 6 6 5 5 5 6 5 5 6 5 5 5 5 5 6 5 6 5 5 5 5 5 5 5 5 6 5 5 5 6 5 5 6 5 6 5 5 5 6 5 5 5 6 5 5 5 5 5 5 5 5 5 5 5 5 5 5 5 5 5 6 5 5 5 5 5 5 5 5 5 6 5 5 5 5 5 5 5 5 6 5 5 5 5 5 5 5 5 5 5 5 5 5 6 5 5 5 6 5 5 5 5 5 5 5 5 5 5 5 5 5 5 5 5 5 5 5 6 5 5 5 6 5 6 5 5 5 6 5 5 5 6 6 5 5 5 5 5 5 5 5 5 5 5 5 5 5 5 5 5 5 5 5 5 5 6 5 5 5 5 6 5 5 5 5 6 5 5 5 5 5 5 5 6 5 5 5 5 6 5 5 5 5 5 5 6 5 5 5 5 5 5 6 5 5 5 6 5 5 5 5 5 5 5 5 5 6 5 5 5 5 5 5 6 5 5 5 5 5 5 5 5 5 5 5 6 5 5 6 5 5 5 5 5 6 5 5 6 5 5 5 5 5 5 5 6 6 5 5 5 5 6 5 5 5 5 5 5 6 5 5 5 5 5 5 5 5 5 5 6 5 5 5 5 5 5 5 5 5 5 5 5 6 5 6 5 5 5 6 5 5 6 5 5 5 5 6 5 5 5 5 5 6 5 5 5 5 5 5 5 5 6 5 5 5 5 6 5 5 5 5 5 5 5 6 5 5 5 5 5 5 5 5 5 5 6 5 5 5 6 5 6 5 5 5 5 5 5 6 5 6 5 6 5 5 5 5 6 5 5 5 5 5 5 5 5 5 5 5 5 5 5 6 5 6 5 5 5 5 5 5 5 6 5 5 5 5 5 5 5 5 5 5 5 5 5 6 5 5 5 5 6 5 5 5 5 5 5 5 5 5 5 5 5 5 5 5 5 5 5 5 5 5 5 5 5 6 5 5 5 5 6 5 5 5 6 5 5 6 5 5 6 5 5 5 5 5 5 5 5 5 5 5 5 5 5 5 6 5 5 6 5 5 5 5 5 5 5 6 5 5 5 5 5 6 5 5 5 6 5 5 5 6 5 5 5 5 5 5 5 6 5 5 5 6 5 6 6 5 5 5 5 5 6 5 5 5 5 5 5 5 5 5 5 6 5 5 5 5 5 5 5 5 5 5 5 5 5 5 5 5 5 5 5 5 5 5 5 5 5 5 5 5 5 5 5 5 5 5 5 5 5 6 5 5 5 5 5 5 5 5 5 5 5 5 5 5 5 5 6 5 5 5 5 5 5 5 5 5 6 5 5 5 5 5 5 5 6 5 5 5 5 5 5 5 5 5 5 5 5 5 5 5 5 5 5 5 5 5 6 5 5 5 5 5 5 5 5 5 5 5 5 5 5 5 5 5 6 5 5 5 5 5 5 5 5 5 5 5 5 5 5 5 5 5 5 5 5 5 5 5 5 5 5 5 5 5 5 5 5 5 5 5 5 5 5 5 5 5 5 5 5 5 5 6 5 5 5 5 5 5 5 5 5 5 5 5 5 6 5 6 5 5 5 5 5 6 5 5 5 5 5 6 6 5 5 5 5 5 5 5 5 5 5 5 5 5 5 5 5 5 6 6 5 5 5 5 5 5 6 5 6 5 5 5 5 5 5 5 5 5 6 5 5 5 5 5 5 5 5 5 5 5 5 5 5 5 5 5 5 5 6 5 5 5 5 5 6 5 6 5 5 5 5 5 5 5 6 5 5 5 6 5 5 5 6 5 5 6 5 5 5 6 5 5 6 5 6 5 6 5 5 6 5 5 5 5 5 5 5 5 5 5 5 5 5 5 5 5 5 5 5 5 5 6 5 6 5 5 5 5 5 5 5 6 5 5 5 5 5 5 5 5 5 5 5 5 5 5 5 5 5 5 5 6 5 5 5 6 5 5 5 5 5 5 5 5 5 5 6 5 5 5 5 6 5 5 6 5 5 5 5 5 6 5 5 5 5 6 5 6 5 5 6 5 5 5 5 5 5 5 6 5 5 6 5 6 5 5 5 5 5 5 5 5 5 5 5 5 5 5 5 5 5 5 6 5 5 5 5 5 5 5 6 5 5 5 5 6 5 5 5 5 5 5 5 5 5 6 5 5 5 5 6 5 5 5 5 5 5 5 5 5 5 5 5 6 5 5 5 5 5 5 5 5 5 6 5 5 5 5 5 5 5 5 5 5 5 5 6 5 5 6 5 5 5 5 5 5 5 5 5 6 6 6 5 5 5 6 5 5 5 5 5 5 6 5 5 5 6 6 5 5 5 5 5 5 5 5 5 5 5 5 6 5 5 5 6 6 5 5 5 5 5 6 5 5 5 5 6 5 5 5 5 6 5 5 5 5 5 6 6 6 5 5 5 6 6 5 5 5 5 5 5 5 5 5 6 6 5 5 5 6 6 5 5 5 5 5 5 5 5 5 5 5 5 5 5 5 5 5 6 5 6 5 5 5 5 6 5 5 5 5 5 5 5 6 5 5 5 5 5 5 5 6 5 5 6 5 6 6 5 5 5 6 6 5 5 5 6 6 5 5 5 5 5 5 5 5 5 5 6 5 5 5 5 5 5 5 6 5 5 5 5 6 5 5 5 5 5 5 6 5 5 5 5 6 5 6 5 5 5 5 5 5 5 5 5 5 5 5 5 5 6 5 5 5 5 5 5 5 6 5 5 5 5 6 5 5 5 6 5 5 5 5 5 5 5 5 5 5 5 5 5 5 5 5 5 5 5 5 5 5 6 5 6 5 5 6 5 5 5 6 5 5 6 5 5 5 5 5 5 5 5 5 5 5 5 5 5 5 5 5 5 5 5 6 6 6 5 5 5 5 5 5 5 5 5 5 5 5 5 6 5 5 5 6 5 5 6 5 5 5 5 6 5 5 6 6 5 5 5 5 6 5 5 6 5 6 5 5 5 5 5 5 5 5 5 5 5 5 6 5 5 5 5 5 5 5 6 5 6 5 5 5 5 6 5 5 5 5 5 5 5 5 5 5 5 5 5 5 5 5 5 5 5 5 5 5 5 6 5 5 5 6 5 6 5 5 5 6 5 5 5 5 5 6 5 5 6 5 5 5 5 5 5 5 5 6 5 5 5 5 5 6 5 5 5 5 5 5 5 5 5 5 5 5 5 5 6 5 5 5 5 6 5 5 5 5 5 5 5 5 5 5 5 5 6 5 5 5 5 6 5 5 5 5 5 5 5 5 5 5 5 5 5 6 5 5 6 5 5 5 6 5 5 5 5 5 5 5 5 5 5 5 5 5 6 6 5 6 6 5 5 5 6 6 5 6 5 6 5 6 5 5 5 6 5 6 5 5 5 5 6 5 5 5 5 5 5 6 5 5 5 5 5 6 5 5 6 5 5 6 5 5 6 5 5 5 5 5 6 5 6 5 5 5 5 5 5 5 5 5 5 5 5 5 6 5 5 6 5 5 5 5 5 5 5 5 5 6 5 5 5 5 5 5 5 5 5 6 5 5 6 5 6 5 5 5 5 5 5 5 6 5 5 5 5 5 5 5 6 5 6 5 5 6 5 5 5 6 5 5 5 5 6 5 5 5 5 5 6 5 5 5 5 5 5 5 5 5 5 5 5 5 5 5 5 5 5 5 5 5 6 5 5 6 5 5 5 6 5 5 5 5 6 5 5 5 5 5 5 5 5 5 5 5 5 5 5 5 5 5 5 5 5 5 5 5 6 5 5 5 5 5 5 6 5 5 5 5 5 5 5 5 5 5 5 5 5 6 5 6 5 5 6 5 5 5 5 6 6 5 6 5 6 5 5 5 5 5 6 5 5 6 6 5 5 5 5 5 6 5 5 6 5 5 5 5 5 5 5 5 6 6 5 5 5 6 5 6 5 5 5 5 5 6 5 6 5 5 5 5 5 6 6 5 5 5 5 6 5 5 5 5 6 5 5 5 5 5 5 5 5 5 5 5 5 5 5 5 5 5 6 5 5 6 5 5 5 6 5 5 5 5 5 5 5 5 5 5 5 5 5 5 5 5 5 5 5 6 5 5 5 5 5 5 5 5 5 5 5 5 5 5 6 6 5 5 5 6 5 5 5 5 5 6 5 5 5 5 5 5 5 5 5 5 5 6 5 5 6 5 5 5 5 5 5 5 5 5 5 6 5 5 5 6 5 6 5 6 5 5 5 6 6 5 6 5 5 6 5 5 6 6 5 5 5 6 5 5 6 5 6 5 5 5 6 5 5 6 6 5 6 5 5 6 5 6 5 5 5 5 5 5 5 5 5 6 5 5 5 5 5 6 5 5 5 5 5 5 5 5 5 5 6 5 5 5 5 6 6 5 5 6 5 6 5 5 5 5 5 6 5 5 6 5 6 5 5 5 5 5 5 5 6 5 5 5 5 5 5 5 5 5 6 5 6 5 6 5 6 5 5 5 5 6 5 5 5 5 5 6 6 5 5 5 5 5 5 6 5 5 5 5 5 6 5 5 5 5 6 5 5 6 5 6 5 5 5 6 5 6 5 5 6 6 6 5 5 5 5 5 5 6 6 6 5 5 5 5 6 5 6 5 6 5 5 5 5 5 5 6 5 5 5 5 5 5 5 5 5 5 5 5 5 5 5 5 5 5 5 5 5 5 5 5 5 5 5 5 5 5 5 5 5 5 5 5 5 5 5 5 5 5 5 5 5 5 5 5 5 6 5 5 5 6 6 5 5 5 5 5 5 5 5 5 5 5 5 5 5 5 5 5 5 5 6 5 5 5 5 5 5 5 6 5 5 6 5 5 6 5 5 6 5 6 5 5 6 5 5 5 6 5 6 5 6 6 5 5 5 6 6 5 5 6 5 5 6 5 5 5 5 5 5 5 5 5 5 5 5 6 5 5 5 5 6 5 5 5 5 6 5 5 5 5 5 5 5 5 5 6 5 6 5 5 5 5 6 5 5 5 6 5 5 5 5 5 5 6 5 5 6 5 5 5 6 5 5 5 5 5 5 5 6 5 5 5 5 5 6 5 5 5 5 5 5 5 5 5 5 5 5 5 5 5 6 5 5 5 5 5 6 5 5 6 5 6 5 5 5 5 6 6 5 5 6 5 5 5 5 5 5 5 5 5 5 5 6 5 6 5 5 5 5 5 6 5 5 5 6 5 5 5 6 5 5 5 5 5 5 5 5 5 5 5 5 5 6 5 5 5 5 5 5 5 6 5 6 5 5 5 5 5 5 5 6 6 5 5 5 5 5 5 5 5 5 6 5 5 5 5 5 5 6 6 6 5 6 5 5 5 5 5 5 6 5 6 5 6 5 6 5 5 5 5 5 5 6 5 5 6 5 5 5 5 6 5 5 5 5 5 5 5 5 5 5 5 5 5 5 5 5 5 5 5 5 5 6 5 6 5 5 5 5 5 5 5 5 5 5 5 5 5 5 5 5 5 5 5 5 5 5 5 5 5 5 5 5 5 5 5 5 5 5 5 5 5 5 5 5 5 5 5 5 5 5 5 5 5 5 5 5 5 5 5 5 5 5 6 5 5 5 5 5 5 5 5 5 5 5 5 5 5 5 5 5 5 5 5 5 5 5 6 5 5 5 6 5 6 5 5 5 5 5 5 5 5 5 5 5 5 5 5 5 5 5 5 5 5 5 5 5 5 5 5 5 5 5 5 5 5 5 5 5 5 5 5 5 6 5 6 5 5 5 5 5 5 5 5 5 5 5 5 5 5 5 5 5 5 5 5 5 5 5 5 5 6 5 5 5 5 5 5 5 5 5 5 5 5 5 5 5 5 5 5 5 5 5 5 5 5 5 5 5 5 5 5 5 5 5 5 5 5 5 5 5 5 5 5 5 5 5 5 5 5 5 5 5 5 5 5 5 5 5 5 5 5 5 5 5 5 5 5 5 5 5 6 5 5 5 5 5 5 5 6 5 5 6 5 5 5 5 5 5 5 5 5 5 5 5 5 5 5 5 5 5 5 5 6 5 5 5 5 5 5 5 5 5 5 5 5 5 5 5 5 5 5 5 5 5 5 5 5 5 5 5 5 5 5 5 5 6 5 5 5 5 6 5 6 5 5 5 5 5 5 6 5 5 6 5 5 6 6 5 6 5 5 5 6 5 5 5 5 5 5 5 5 5 5 5 5 5 5 5 6 5 5 5 5 5 5 5 5 6 5 5 5 5 5 5 5 5 5 5 5 5 5 5 5 5 5 5 5 5 5 5 5 5 5 5 5 5 5 5 5 5 5 5 5 5 6 5 5 5 5 5 5 5 6 5 5 6 5 6 5 5 5 5 5 5 5 5 5 5 5 6 6 5 5 6 5 5 6 6 5 5 5 5 6 5 6 5 5 6 5 6 6 5 6 5 6 5 5 5 5 5 5 5 6 5 6 5 5 5 5 5 6 5 5 5 6 5 5 6 5 6 5 6 6 5 5 6 5 5 5 5 5 5 6 5 5 5 5 5 5 5 5 6 6 5 5 5 6 5 5 5 5 6 6 5 6 5 5 5 6 5 5 5 5 5 5 5 5 5 5 5 5 5 5 5 5 6 5 5 5 5 5 5 6 5 6 5 5 5 6 6 5 5 6 5 6 5 5 5 5 5 5 5 5 5 5 5 5 6 6 5 5 5 5 5 6 5 5 5 5 5 5 5 6 5 5 5 6 5 6 5 5 6 5 5 5 5 5 5 5 5 5 6 5 5 6 5 5 5 5 5 5 5 5 5 5 5 6 5 5 5 5 5 5 5 5 5 5 5 5 5 5 5 5 5 5 5 5 5 5 6 5 5 5 5 5 5 5 5 5 5 5 6 5 5 5 5 6 5 5 5 5 5 5 5 5 5 5 5 6 5 5 5 5 5 6 5 6 5 5 5 5 5 5 5 5 5 6 5 5 6 5 5 6 5 5 5 5 6 5 5 5 5 5 5 5 5 5 5 5 5 5 5 5 5 5 5 5 5 5 6 5 5 6 5 6 5 5 5 5 5 5 5 5 5 6 5 5 6 6 6 5 5 5 6 5 5 5 5 5 5 6 6 5 6 5 5 6 5 5 6 5 5 5 5 6 5 5 5 5 6 5 5 5 5 5 5 5 5 5 5 5 6 5 5 6 5 6 6 5 5 6 6 6 5 5 5 5 5 5 5 5 5 5 6 5 5 5 5 5 5 5 5 5 6 5 5 5 5 5 6 5 5 5 5 5 5 5 5 5 5 6 5 5 5 5 5 5 5 5 5 5 5 5 5 5 5 5 5 5 5 5 5 5 5 5 6 6 5 5 5 5 5 5 5 5 6 5 5 5 5 5 5 5 5 5 5 5 5 5 5 5 5 6 5 5 5 5 6 5 5 5 6 6 5 5 5 5 5 5 6 5 6 5 5 5 6 5 5 5 5 5 5 5 5 6 5 6 6 5 5 5 5 5 5 5 5 5 5 5 5 6 5 5 6 5 6 5 5 5 5 5 5 5 5 5 5 5 5 5 5 5 5 5 5 5 5 5 5 5 6 5 5 5 5 5 6 5 5 5 5 5 5 5 5 5 5 6 5 5 5 6 5 5 5 5 5 5 5 5 5 5 5 6 6 5 5 5 5 5 6 5 5 5 6 5 5 5 5 5 5 5 5 5 5 6 5 5 5 5 5 5 5 6 6 5 6 5 5 5 5 6 5 5 5 5 5 6 5 5 5 5 5 5 5 5 5 5 6 5 5 5 5 5 5 5 5 5 5 6 5 5 5 5 5 5 5 6 5 5 5 5 5 5 5 5 5 5 5 5 5 5 5 5 5 5 5 5 6 5 5 5 6 5 5 5 5 5 5 5 5 5 5 5 5 5 6 5 6 6 5 6 6 5 5 5 5 5 6 5 5 5 5 5 5 5 6 5 5 6 5 5 6 5 5 6 5 5 6 6 6 6 5 5 6 6 5 5 6 5 5 6 5 5 5 5 6 6 6 6 5 5 5 6 5 6 5 6 5 6 6 5 5 5 5 5 5 5 6 5 5 6 5 6 5 5 6 6 5 5 5 5 5 5 5 5 5 5 5 5 5 5 5 5 5 6 5 5 5 5 5 5 5 5 5 5 5 5 5 5 5 5 5 6 5 5 5 5 5 5 5 5 5 5 5 5 5 5 6 6 5 5 5 5 6 5 6 5 5 5 6 6 5 6 5 5 5 5 5 5 5 5 5 5 5 5 5 5 5 5 5 5 5 6 5 6 5 5 5 5 6 5 5 5 5 5 5 5 5 5 5 5 5 5 5 5 5 5 5 5 5 6 5 5 5 5 5 5 5 5 5 5 5 5 5 5 6 5 5 5 5 5 5 5 5 5 5 5 5 5 5 5 5 5 5 5 5 5 5 5 5 5 5 5 5 5 5 5 5 5 5 5 5 5 5 5 5 5 5 5 5 5 5 5 5 5 5 5 5 5 5 5 5 5 5 5 5 5 5 6 5 5 5 6 5 5 6 5 5 5 5 5 5 5 5 5 5 5 6 5 5 5 5 6 5 5 5 5 5 5 5 5 5 5 5 5 5 5 5 5 5 5 5 5 5 5 5 5 5 5 5 5 5 6 5 5 5 5 6 5 5 5 5 5 5 5 5 5 5 6 5 5 6 5 5 5 5 5 5 5 5 5 5 5 5 6 5 5 5 5 5 5 5 5 6 5 5 5 5 5 5 5 5 5 5 6 5 6 5 5 5 6 5 5 5 6 5 6 5 6 6 5 5 5 5 5 6 5 5 5 5 5 5 5 5 5 5 5 5 5 5 5 5 5 5 5 5 5 5 5 6 5 5 6 5 5 5 6 5 6 5 5 5 5 5 5 5 5 5 5 5 5 6 5 5 5 5 5 5 5 5 5 5 5 5 5 5 5 5 5 5 5 6 5 5 5 5 5 5 5 5 5 5 5 5 5 5 5 5 5 5 5 5 5 5 5 5 5 5 5 6 5 5 5 5 5 5 5 5 5 5 5 5 5 5 5 5 5 5 6 5 5 5 6 5 5 5 6 6 5 5 5 5 5 6 5 5 5 5 5 5 5 6 6 5 5 5 6 5 6 5 5 5 5 5 5 6 6 5 5 6 6 5 5 5 5 5 5 5 5 5 5 6 5 5 5 5 5 5 6 5 5 5 5 5 5 5 5 5 5 5 5 5 5 5 5 5 6 5 5 5 5 6 5 5 6 5 5 5 5 5 5 5 5 5 5 5 6 5 6 5 6 5 5 5 5 5 5 5 5 5 5 5 5 5 5 5 5 5 5 5 6 5 5 6 5 5 5 6 5 5 6 5 5 5 5 6 5 5 5 5 5 5 5 6 5 5 5 5 5 5 5 5 5 5 5 5 5 5 5 5 5 5 5 5 5 5 5 5 5 5 5 5 5 6 5 5 5 5 5 5 5 5 5 5 5 5 5 5 5 5 5 5 5 5 5 5 5 5 5 5 5 5 5 5 5 5 5 5 5 5 5 6 6 6 5 5 6 5 5 5 6 5 6 5 5 5 5 5 6 5 5 5 5 5 5 5 6 5 5 5 5 5 5 5 5 5 5 5 5 5 5 6 5 5 5 6 5 6 5 5 5 5 5 5 5 5 6 5 5 5 5 5 5 5 6 5 6 5 6 5 5 5 5 5 5 5 5 6 5 5 6 6 6 5 6 5 6 5 5 5 5 5 5 5 5 5 5 5 5 5 5 5 5 5 5 5 5 5 6 5 5 6 6 5 5 5 6 5 5 5 5 5 5 5 6 5 6 5 5 5 5 6 5 5 6 5 5 5 5 5 5 5 6 5 5 6 5 5 5 6 5 5 5 5 5 5 5 5 5 6 5 5 5 5 5 5 6 5 5 6 5 5 5 5 6 5 5 5 5 5 5 6 6 6 5 5 5 6 5 6 5 6 5 5 5 5 5 5 6 5 5 5 6 5 5 5 6 5 5 5 5 5 5 5 5 5 5 5 5 6 5 5 5 6 5 5 5 5 5 6 6 5 5 6 5 6 6 6 5 5 5 6 5 5 5 5 5 6 5 5 5 5 5 5 5 5 5 5 5 5 6 5 5 5 5 5 5 6 5 5 6 5 5 6 5 5 5 5 5 6 5 5 6 5 6 5 6 5 5 5 5 5 5 6 5 5 5 5 6 5 5 5 5 5 5 5 5 5 5 6 5 5 5 5 5 6 5 5 5 5 5 5 5 5 5 5 5 5 5 5 5 6 5 5 5 5 5 6 5 6 5 5 5 5 5 6 5 5 5 5 5 6 5 5 5 5 5 6 5 5 5 5 5 5 5 5 5 5 6 5 6 5 6 5 5 6 5 5 5 5 5 5 5 5 6 5 6 5 5 5 5 5 5 5 5 5 5 6 5 5 5 5 5 5 5 5 5 5 6 5 5 5 6 5 6 6 5 5 5 6 5 5 5 6 6 5 5 5 5 5 5 5 5 5 5 6 6 5 5 5 5 5 6 5 5 5 5 5 5 5 5 5 5 6 5 6 6 6 5 5 5 5 5 5 5 5 6 5 5 5 5 5 5 5 5 5 5 5 5 5 5 5 5 5 5 5 5 5 5 5 5 5 5 5 5 5 6 5 5 5 5 6 5 5 5 5 5 5 5 5 6 5 5 5 5 5 5 5 5 6 5 5 5 5 5 5 5 5 5 5 5 5 5 5 5 5 5 5 5 5 5 5 5 5 5 5 6 5 5 5 5 5 5 6 5 6 5 5 6 5 5 5 6 5 6 5 5 5 6 5 5 5 6 5 5 5 5 5 5 6 5 5 5 5 5 5 5 5 5 5 5 5 5 5 5 5 5 5 5 5 5 5 5 5 5 5 5 6 5 6 5 5 5 5 6 5 5 5 5 5 5 5 5 5 5 5 5 5 6 5 5 6 5 5 6 5 5 5 5 5 6 5 5 5 5 5 5 5 5 6 5 6 5 5 5 5 5 6 6 5 5 6 5 5 5 6 5 5 5 5 5 5 5 6 5 5 5 5 5 5 5 5 5 5 5 5 5 5 5 5 6 5 5 5 5 5 6 5 6 5 5 5 5 5 5 5 5 5 5 5 5 6 5 6 5 5 5 5 5 5 6 6 5 5 5 5 5 5 5 5 5 5 5 5 5 5 5 5 5 5 5 5 5 6 5 5 6 5 5 5 5 5 6 5 5 5 5 5 5 6 5 5 5 5 5 5 5 5 5 5 5 5 5 5 5 5 6 5 5 6 5 5 5 5 6 5 5 5 5 5 5 5 5 5 5 5 6 5 5 5 5 5 5 5 5 5 5 5 5 5 5 5 5 5 5 5 6 5 5 5 5 5 5 5 5 5 5 5 5 6 5 5 5 5 5 5 5 5 5 5 5 5 5 6 6 5 5 5 5 5 5 6 5 5 5 5 5 5 5 5 5 5 5 5 5 5 5 5 5 5 5 5 5 5 5 5 5 5 5 5 5 5 5 5 5 5 5 6 5 5 5 5 5 5 5 5 6 5 5 5 5 5 5 5 5 5 5 5 5 6 5 5 5 5 6 5 6 5 5 5 5 5 5 5 5 6 5 5 5 5 5 5 5 5 5 5 6 5 5 5 6 5 5 6 5 5 5 5 6 5 5 6 5 5 5 5 5 5 5 5 6 5 5 5 6 5 5 5 5 5 5 5 6 5 6 5 6 5 6 6 5 5 5 6 6 6 5 5 6 5 5 5 6 5 5 5 5 6 5 5 5 5 5 5 5 5 5 5 5 5 5 5 5 5 5 5 5 5 5 5 5 5 5 5 5 5 5 5 5 5 5 5 5 5 5 5 6 5 5 5 5 5 5 5 5 6 5 5 5 5 6 5 5 6 5 5 6 5 5 5 5 6 5 5 5 5 5 6 5 5 5 5 5 5 5 5 5 5 5 5 5 6 6 5 5 5 6 5 5 5 5 5 5 5 5 5 5 5 5 5 5 6 5 5 5 5 5 5 6 5 5 6 5 5 5 5 5 5 5 5 5 5 6 5 5 5 5 5 6 5 5 5 5 5 5 5 5 5 5 6 5 5 5 5 5 5 5 5 5 5 5 5 5 5 5 6 5 5 5 5 5 5 5 5 5 5 5 5 5 5 5 5 5 5 5 5 5 5 5 6 5 6 5 5 5 6 5 5 5 5 5 5 5 5 5 6 5 5 5 6 5 5 5 5 5 5 5 5 5 5 5 5 5 5 5 5 6 5 5 5 5 5 6 5 5 5 6 5 6 5 5 5 5 5 5 6 5 5 5 5 5 5 5 5 5 5 5 5 5 5 5 5 5 5 5 5 5 5 5 5 5 5 5 6 5 5 6 5 5 5 5 5 5 5 6 5 5 5 5 6 5 5 6 5 5 5 5 5 5 6 5 5 5 6 5 5 5 6 5 5 5 5 5 6 5 5 5 5 5 6 5 5 5 5 5 5 5 5 6 5 5 6 5 5 5 5 6 5 5 5 5 6 5 5 5 5 6 5 5 5 6 5 6 5 5 5 5 5 5 5 5 5 5 6 5 5 5 5 5 5 5 6 6 5 5 5 5 5 6 5 5 5 5 5 6 5 5 5 6 5 5 6 5 5 6 5 5 5 6 5 5 5 5 5 5 6 5 5 5 5 5 6 5 5 5 5 5 6 5 5 5 5 5 5 6 5 5 5 5 6 5 5 5 5 5 6 5 5 5 5 5 5 5 5 5 5 6 5 5 5 5 5 5 5 6 5 5 5 5 6 6 5 5 6 5 5 5 5 5 5 5 6 5 5 5 5 5 5 5 6 5 6 5 5 6 5 5 5 5 6 5 6 5 5 5 5 5 5 5 5 5 5 6 5 5 5 5 5 6 5 5 5 6 5 5 5 5 6 5 5 6 5 5 5 5 5 6 5 6 5 6 6 5 5 5 5 6 6 5 5 5 5 5 5 5 5 5 5 5 5 5 6 5 5 5 5 5 5 6 6 5 5 5 5 5 5 5 5 5 5 5 5 5 6 5 5 5 5 5 5 5 5 5 5 5 5 5 5 5 5 5 5 5 5 5 5 5 5 5 5 5 5 5 5 5 5 5 6 5 5 6 5 5 5 5 5 5 5 6 5 5 5 6 5 5 6 5 5 5 6 6 5 5 5 5 6 6 5 5 5 5 5 5 5 5 5 5 5 5 5 5 6 5 5 6 5 5 5 6 5 5 5 5 6 5 5 6 5 5 5 5 5 5 5 5 5 5 5 6 5 5 5 5 5 5 5 6 5 5 5 5 5 5 5 5 5 5 5 5 5 5 5 5 5 5 6 5 5 5 5 5 5 6 5 6 5 5 5 5 5 6 5 5 6 5 5 5 6 5 5 5 6 5 5 5 5 5 5 5 5 5 5 5 5 5 5 6 5 5 5 5 6 6 5 5 5 5 5 5 5 5 5 5 5 5 5 5 5 5 5 5 5 6 5 5 5 5 5 5 5 5 6 5 6 5 5 5 5 5 5 5 6 5 6 5 5 5 5 5 6 5 5 5 5 5 5 6 5 5 5 5 5 6 6 5 5 5 6 6 6 5 5 5 5 5 6 5 5 5 5 5 6 5 5 5 5 6 5 6 6 5 6 6 5 5 5 6 5 5 5 6 5 5 5 6 5 5 5 6 5 5 5 5 5 5 5 5 6 5 5 5 6 5 5 5 5 5 5 6 5 5 5 5 5 5 6 5 5 5 5 5 5 5 5 5 5 5 5 5 5 6 5 6 5 5 5 6 5 5 6 5 6 5 6 5 5 6 5 5 5 5 5 5 6 5 5 5 5 6 5 5 5 5 5 5 6 5 5 5 5 5 5 5 5 5 5 6 5 5 5 5 5 5 5 5 5 5 5 5 5 5 5 5 5 5 5 6 6 5 5 5 6 5 5 6 5 5 6 5 5 6 5 5 6 6 5 5 5 5 6 5 5 5 5 5 5 5 5 5 5 5 6 6 5 5 5 6 5 6 5 6 5 5 5 5 5 6 5 5 6 5 6 5 5 6 6 6 5 5 5 5 6 5 5 6 5 6 5 5 6 5 5 5 5 5 5 5 5 6 5 6 6 5 5 5 5 5 6 6 5 5 5 6 6 5 5 5 5 5 5 5 5 6 5 6 5 5 5 5 5 5 5 5 5 5 5 5 5 5 5 5 5 5 5 5 5 5 5 5 5 5 5 5 5 6 5 5 5 5 5 5 5 5 5 5 5 5 5 5 5 6 5 5 6 5 5 5 5 5 6 5 5 5 5 5 5 5 5 5 5 5 5 5 6 5 5 5 5 5 5 5 5 5 6 5 5 6 5 5 5 5 6 6 6 5 5 5 5 5 6 5 5 5 
</DataArray>
<DataArray type="Float64" Name="stress" NumberOfComponents="9" format="ascii">
251922161.19761276 -72332.148082791828 0 -72332.148082791828 99330.414764794012 0 0 0 0 314724979.77041721 -88903111.757653609 0 -88903111.757653609 -11016.642001927263 0 0 0 0 559750.89124220284 -97503.7283244594 0 -97503.7283244594 -18299.619548250459 0 0 0 0 293758417.09629631 -86790662.58460103 0 -86790662.58460103 6735047.5085171908 0 0 0 0 220918621.2868576 -32362688.13272294 0 -32362688.13272294 122822.65328591396 0 0 0 0 206303444.84949207 -62615683.266422316 0 -62615683.266422316 -19850154.567729414 0 0 0 0 216562849.73317719 -44292834.924878284 0 -44292834.924878284 12259676.276625708 0 0 0 0 577508.29406827316 -80639.856470762286 0 -80639.856470762286 -32495.530145696066 0 0 0 0 246545548.24980354 -44918317.927791223 0 -44918317.927791223 -36565700.339570254 0 0 0 0 225885103.5970211 -74841622.206055582 0 -74841622.206055582 -55495961.218327187 0 0 0 0 225993499.1972841 -61971325.106737696 0 -61971325.106737696 -21418070.711679444 0 0 0 0 156781809.22402477 -74356275.342295736 0 -74356275.342295736 -3624254.2905467637 0 0 0 0 200895050.49194908 -82031370.706530735 0 -82031370.706530735 -5142983.5428212369 0 0 0 0 214046097.99493313 -147904060.12316152 0 -147904060.12316152 -11516143.671733014 0 0 0 0 314677093.25297451 -107887271.6794786 0 -107887271.6794786 -51527708.154310994 0 0 0 0 73301030.082834244 -26659596.017003197 0 -26659596.017003197 20596138.05063913 0 0 0 0 162189379.92919731 -61258710.516438231 0 -61258710.516438231 7821431.7298448225 0 0 0 0 90840792.343767166 -44755100.429391511 0 -44755100.429391511 10246527.568841329 0 0 0 0 95205414.393241882 -7139533.3577428628 0 -7139533.3577428628 1398865.3181388751 0 0 0 0 52231493.310318947 -36279862.194349505 0 -36279862.194349505 26141477.575303052 0 0 0 0 59839.341833816143 -11233.527290069964 0 -11233.527290069964 27531.09071409954 0 0 0 0 176452200.6847496 -26902691.461966213 0 -26902691.461966213 -15586360.117273754 0 0 0 0 169819353.76455784 -30402892.447084587 0 -30402892.447084587 10191499.269392103 0 0 0 0 199356902.26165771 -52888061.600260362 0 -52888061.600260362 7015547.7608398525 0 0 0 0 178672510.24739599 -28797777.40122284 0 -28797777.40122284 -53568.864601497051 0 0 0 0 133448.70500658802 -38933.339241078589 0 -38933.339241078589 16239.049498616812 0 0 0 0 62629332.282838583 -8393410.9831781331 0 -8393410.9831781331 -2562756.9588113911 0 0 0 0 162427784.62059212 -36950853.710220076 0 -36950853.710220076 4856276.3967178408 0 0 0 0 57503225.841784477 -7862859.4146857969 0 -7862859.4146857969 -8038.6092029686706 0 0 0 0 52241114.811630249 -10083394.074208617 0 -10083394.074208617 602015.60763428174 0 0 0 0 52247792.550485253 -16161640.444667488 0 -16161640.444667488 -3996509.4444848038 0 0 0 0 58686423.078507423 -10936379.049305279 0 -10936379.049305279 -1700307.612265937 0 0 0 0 20912781.472758532 12512942.368597871 0 12512942.368597871 -10523559.277300466 0 0 0 0 110558.47184637981 42283.534050789662 0 42283.534050789662 -7279.8518943759918 0 0 0 0 12787498.5014925 -12287843.953646345 0 -12287843.953646345 7549495.5668086149 0 0 0 0 32280951.013904572 -9870511.7955203708 0 -9870511.7955203708 2839.9760885323808 0 0 0 0 31250118.973949432 -20121271.199413519 0 -20121271.199413519 3468523.7904312685 0 0 0 0 32577284.72476387 -9004303.6501404736 0 -9004303.6501404736 2288655.208550639 0 0 0 0 77828343.612199783 -37077163.4772809 0 -37077163.4772809 14117426.121494398 0 0 0 0 133202592.09332466 -54462057.319292448 0 -54462057.319292448 1943931.9790546633 0 0 0 0 79403702.707995415 -3229466.1652775407 0 -3229466.1652775407 -24045476.268589288 0 0 0 0 45444740.677408934 -12062701.20627312 0 -12062701.20627312 -3966358.9039044529 0 0 0 0 238532.56865218235 121019.68530021422 0 121019.68530021422 12025.582774035553 0 0 0 0 42307600.150870323 -501596.17625843361 0 -501596.17625843361 -7579505.6022009552 0 0 0 0 9285719.6919822693 1059992.3006089926 0 1059992.3006089926 -4638110.3546507359 0 0 0 0 50480004.999811172 3692139.7758444846 0 3692139.7758444846 -12691527.103624314 0 0 0 0 16463034.71452713 -3288966.96574229 0 -3288966.96574229 -5988840.833482936 0 0 0 0 55187875.087520599 16572888.994477704 0 16572888.994477704 -8900583.5117306113 0 0 0 0 79814273.538539886 2225611.7725035176 0 2225611.7725035176 -25515037.82268253 0 0 0 0 137490541.25854015 -17325884.565437235 0 -17325884.565437235 -8549831.5304424241 0 0 0 0 86205217.621305466 1564648.830882227 0 1564648.830882227 2720486.7878333055 0 0 0 0 53862316.54822731 -14911520.672185361 0 -14911520.672185361 13873272.768702133 0 0 0 0 51083192.993698597 -33816040.102579966 0 -33816040.102579966 13940834.846102247 0 0 0 0 103321.56041240692 16538034.697210506 0 16538034.697210506 -10764017.794781625 0 0 0 0 254788.77059481107 160776.11033898778 0 160776.11033898778 48025.527283020216 0 0 0 0 -16823.920691053383 3710.5618740641512 0 3710.5618740641512 43506.278370797205 0 0 0 0 106322405.85047197 -23347037.010474853 0 -23347037.010474853 35981418.657045372 0 0 0 0 108218301.94459057 -45652783.593070716 0 -45652783.593070716 12270704.84051422 0 0 0 0 75136786.121816635 -4962363.334904097 0 -4962363.334904097 25906292.899116464 0 0 0 0 72332693.752828598 -6211363.168495208 0 -6211363.168495208 3880573.5100537166 0 0 0 0 70109047.056697845 -15427132.427855231 0 -15427132.427855231 13597474.959087148 0 0 0 0 -25284360.522964716 10347539.910064496 0 10347539.910064496 14801313.770020843 0 0 0 0 60952914.557567596 35802555.997616805 0 35802555.997616805 2007714.2780422866 0 0 0 0 41422759.957853794 7737375.5207863897 0 7737375.5207863897 11312996.012447447 0 0 0 0 61424.322613351746 111959.90013993112 0 111959.90013993112 189941.13026033208 0 0 0 0 62015727.516485214 6787271.7699768096 0 6787271.7699768096 -2258534.5753683448 0 0 0 0 44888431.075977325 6992572.858324185 0 6992572.858324185 -1238046.3280987442 0 0 0 0 41086696.648811817 -4447703.97104026 0 -4447703.97104026 3240639.6046365201 0 0 0 0 52302783.371357918 -8886458.8759405054 0 -8886458.8759405054 4825979.5460457802 0 0 0 0 91690306.266515732 21833301.338510573 0 21833301.338510573 -1992486.9596097469 0 0 0 0 61670666.695543289 5543563.3767053187 0 5543563.3767053187 -8080571.9938311577 0 0 0 0 46043315.253731728 22302087.060345858 0 22302087.060345858 -2321990.5611755848 0 0 0 0 6512618.9868240356 11857730.238120258 0 11857730.238120258 1403870.6424359679 0 0 0 0 3907291.976600647 -22692504.235719115 0 -22692504.235719115 18560325.780286103 0 0 0 0 35207134.466106415 431302.82003504038 0 431302.82003504038 11368784.744364485 0 0 0 0 20869888.273451805 19175852.098659232 0 19175852.098659232 -8012145.8321215808 0 0 0 0 41383734.736503601 17205295.800676256 0 17205295.800676256 39091920.314248323 0 0 0 0 93919241.933120728 9037597.2167633772 0 9037597.2167633772 16829102.026601136 0 0 0 0 90822406.227039337 12464537.025793836 0 12464537.025793836 17468426.402612805 0 0 0 0 61228764.392282486 -19713155.564169765 0 -19713155.564169765 42771217.121615171 0 0 0 0 34666075.035000801 13663001.804929167 0 13663001.804929167 5072292.4011734724 0 0 0 0 17287111.760859489 -18948827.904173747 0 -18948827.904173747 -7082097.2803314626 0 0 0 0 19227236.99833107 7883640.2138281167 0 7883640.2138281167 -16471273.983528346 0 0 0 0 52721051.572048187 -22561105.9305453 0 -22561105.9305453 6607060.5400610156 0 0 0 0 52673741.226186931 13684987.629587842 0 13684987.629587842 -7194665.8636152148 0 0 0 0 55763961.616443634 10514841.273334406 0 10514841.273334406 -6406329.981698215 0 0 0 0 -29011001.944890976 -3443153.2929428965 0 -3443153.2929428965 22696400.322356939 0 0 0 0 32878.797840282903 51162.754507500213 0 51162.754507500213 126116.22498231712 0 0 0 0 20173890.265263557 -25836533.825081795 0 -25836533.825081795 -12989441.266531125 0 0 0 0 11565986.013334274 -32432733.440719306 0 -32432733.440719306 -21552047.88323801 0 0 0 0 32166109.049902678 -15433302.715362582 0 -15433302.715362582 -26029074.042202115 0 0 0 0 24612079.815196991 7379189.3114338666 0 7379189.3114338666 9244512.4874195755 0 0 0 0 32688001.110578537 -34658012.559964813 0 -34658012.559964813 -32007401.032044381 0 0 0 0 15129409.485388756 -14782306.746761166 0 -14782306.746761166 -4724168.6191019565 0 0 0 0 532898.8899936676 -45188471.177337617 0 -45188471.177337617 -10707347.763035297 0 0 0 0 -9558531.3568992615 -33907698.807945162 0 -33907698.807945162 -28353076.97048445 0 0 0 0 -416325.97293758392 -50071486.868945152 0 -50071486.868945152 -37865283.700969338 0 0 0 0 -36487133.804132462 -44716101.38669318 0 -44716101.38669318 -25653959.947038114 0 0 0 0 -36044014.179012299 -53403023.023066401 0 -53403023.023066401 -26122490.948382318 0 0 0 0 453453.4952391095 -257217.55414094916 0 -257217.55414094916 233903.62743038312 0 0 0 0 315007032.5520277 -14724489.953905823 0 -14724489.953905823 7329560.7920849351 0 0 0 0 254891212.87548304 -92563923.487916619 0 -92563923.487916619 33734698.263890244 0 0 0 0 -56698233.591794968 -39268536.015320539 0 -39268536.015320539 -22930579.097939491 0 0 0 0 152474.80858058482 -87797.834264591336 0 -87797.834264591336 98709.601341210539 0 0 0 0 -99314389.535364151 -25340273.758611083 0 -25340273.758611083 -20777663.83574193 0 0 0 0 501094562.83222961 -178029599.34575713 0 -178029599.34575713 56106522.535447754 0 0 0 0 -249691554.84061146 -68237763.541318461 0 -68237763.541318461 68599657.826606736 0 0 0 0 12300439.244455338 -49627171.577729911 0 -49627171.577729911 -32430030.495185971 0 0 0 0 -44457062.613685608 -80488171.486070901 0 -80488171.486070901 -8381116.8193331957 0 0 0 0 6696805.6854834557 -49040507.554944545 0 -49040507.554944545 27595495.868719429 0 0 0 0 -82077441.947465897 -165018673.59649986 0 -165018673.59649986 84994181.520032614 0 0 0 0 24718203.121265411 -68172704.626283228 0 -68172704.626283228 -10164742.059631534 0 0 0 0 188611947.2516346 -198489362.79018959 0 -198489362.79018959 43738516.468122154 0 0 0 0 315113572.75427151 -284377918.19888341 0 -284377918.19888341 96779393.469189614 0 0 0 0 227289746.96011686 -157857369.06231573 0 -157857369.06231573 -2154841.543296325 0 0 0 0 191360871.05288315 -140837153.52678114 0 -140837153.52678114 -9247733.4118505698 0 0 0 0 134932107.16046143 -96125926.985985115 0 -96125926.985985115 22711104.641531803 0 0 0 0 79122282.605315685 -81298640.859907269 0 -81298640.859907269 18772152.412583247 0 0 0 0 141208704.12556076 -175942872.19922352 0 -175942872.19922352 33823035.74694784 0 0 0 0 89480786.938941002 -43497916.507112406 0 -43497916.507112406 20584045.605395019 0 0 0 0 60752034.848794937 -36012420.303712234 0 -36012420.303712234 13572101.027233303 0 0 0 0 55763171.735164642 -39020142.462998539 0 -39020142.462998539 22714388.03993256 0 0 0 0 80457913.707369328 -25031889.326048739 0 -25031889.326048739 18676677.620979086 0 0 0 0 57929631.18176651 -20064108.291202113 0 -20064108.291202113 17800632.103978265 0 0 0 0 67539602.083015919 -24420470.565336633 0 -24420470.565336633 10598689.055915028 0 0 0 0 52297687.50385952 -14005913.387361981 0 -14005913.387361981 -7499061.6969031356 0 0 0 0 36768884.635288835 -16538537.923839845 0 -16538537.923839845 9583349.6678206474 0 0 0 0 39877886.394270778 -42070492.838053264 0 -42070492.838053264 12842441.816129923 0 0 0 0 45242324.990457535 -33223790.266452163 0 -33223790.266452163 -9012396.1156869195 0 0 0 0 64698709.608118057 -78411716.719815597 0 -78411716.719815597 36837943.036117181 0 0 0 0 -880681.50544834137 3585618.3919143546 0 3585618.3919143546 -3287687.1489029704 0 0 0 0 105590.63598823547 5061476.1368360277 0 5061476.1368360277 -8027679.5817205729 0 0 0 0 -6837483.1479282379 10397534.446701357 0 10397534.446701357 -10372124.884951914 0 0 0 0 6366855.1410703659 4698445.4284387361 0 4698445.4284387361 -11690368.429017272 0 0 0 0 5683539.6672011614 1641309.6068751458 0 1641309.6068751458 -11191914.70661141 0 0 0 0 9814956.6359605789 1130425.6017210241 0 1130425.6017210241 -11081956.482336804 0 0 0 0 1848101.7206735611 5903949.9387805983 0 5903949.9387805983 -10790146.254352301 0 0 0 0 241507.03398513794 4314199.0994821042 0 4314199.0994821042 -12017876.629178617 0 0 0 0 16385755.053626537 2520165.0214771703 0 2520165.0214771703 33940.664939384551 0 0 0 0 10235921.68072319 7198287.254880093 0 7198287.254880093 -1229929.1820006957 0 0 0 0 4641488.5887269974 2923443.5663207518 0 2923443.5663207518 -538133.52121592127 0 0 0 0 6926998.3776831627 2020666.7271726034 0 2020666.7271726034 -8526130.4558041114 0 0 0 0 3604183.9568948746 5050239.6954252422 0 5050239.6954252422 -2175030.6451629279 0 0 0 0 4822623.1880249977 3341528.6077952594 0 3341528.6077952594 -8128.205119740498 0 0 0 0 3654965.1604016572 3626042.6300304579 0 3626042.6300304579 -7063067.3022917677 0 0 0 0 6582349.6301970482 744068.03323233314 0 744068.03323233314 -18239665.770416692 0 0 0 0 4884781.8861160278 3030560.4449194558 0 3030560.4449194558 -8931310.9613217637 0 0 0 0 2964925.0000858307 -697998.72631702479 0 -697998.72631702479 -7862596.3507457087 0 0 0 0 -1745970.4350624084 -8626061.2916249931 0 -8626061.2916249931 -16506597.303467639 0 0 0 0 79954.809343673289 68257.496843613219 0 68257.496843613219 36297.697037650229 0 0 0 0 -4655667.8247241974 -11143686.850332614 0 -11143686.850332614 -17016188.527214754 0 0 0 0 86641.883418837562 34802.067125673406 0 34802.067125673406 -74860.284571457509 0 0 0 0 6792536.3066892624 -3653473.9318765486 0 -3653473.9318765486 -29590146.454874229 0 0 0 0 6628146.9063444138 6473711.8328295331 0 6473711.8328295331 -8952931.8092875239 0 0 0 0 5383699.2233057022 7966398.272902308 0 7966398.272902308 -996.64565245525773 0 0 0 0 9733200.6159033775 -1058834.090785861 0 -1058834.090785861 3509933.9646803671 0 0 0 0 28479944.784971237 5549841.082786114 0 5549841.082786114 19948.240637784565 0 0 0 0 12818277.893221855 12454528.251285342 0 12454528.251285342 -8671658.6935587972 0 0 0 0 17658647.327785492 -11434808.816990683 0 -11434808.816990683 -5357656.2840443943 0 0 0 0 61269949.011217117 5378319.6243115067 0 5378319.6243115067 -2576664.2707766825 0 0 0 0 62663534.727657318 -13550352.351940881 0 -13550352.351940881 1869305.7335086698 0 0 0 0 69752628.666584015 -244208.5253940206 0 -244208.5253940206 17697705.489045024 0 0 0 0 116321264.04224396 -19630974.515510935 0 -19630974.515510935 -2297.4339210855928 0 0 0 0 122378722.2174015 1194461.7209681422 0 1194461.7209681422 -2588690.2518693432 0 0 0 0 95221968.389997482 189811.89294648916 0 189811.89294648916 -18379786.456175331 0 0 0 0 72190063.801859379 -17181337.289035462 0 -17181337.289035462 -3612400.7334088385 0 0 0 0 77215985.345579147 1225358.2221616209 0 1225358.2221616209 -30809907.241244584 0 0 0 0 67356154.535503387 -8963055.2777568176 0 -8963055.2777568176 -19997929.052512705 0 0 0 0 67286105.82167244 -10238234.222164221 0 -10238234.222164221 -40968536.187009193 0 0 0 0 61373688.933257103 8523569.4069704711 0 8523569.4069704711 -37278415.848352842 0 0 0 0 26213794.180817604 -3811084.6906549484 0 -3811084.6906549484 -3049055.0523456335 0 0 0 0 75283320.916280746 -3978926.7063512951 0 -3978926.7063512951 -22062095.328265056 0 0 0 0 63547650.489966154 495446.95553793386 0 495446.95553793386 -22223838.030473471 0 0 0 0 88223472.978717327 -5392736.0964080282 0 -5392736.0964080282 24380545.937413573 0 0 0 0 100892243.36726379 8472931.7550043762 0 8472931.7550043762 -16477493.837061107 0 0 0 0 56817972.747666359 -42275474.11901854 0 -42275474.11901854 18935445.084400833 0 0 0 0 27447295.078876019 1978593.2116381004 0 1978593.2116381004 -6805697.1878288388 0 0 0 0 -9745758.4565086365 -7243747.4362234473 0 -7243747.4362234473 12415119.324670136 0 0 0 0 615932.30067795794 -307673.78135501134 0 -307673.78135501134 -91104.081230600219 0 0 0 0 11233008.443497658 648817.04188659787 0 648817.04188659787 -8678182.2716266513 0 0 0 0 185785612.69058514 -29443473.000857502 0 -29443473.000857502 4181896.2745623589 0 0 0 0 76442.543201221153 2808.4935118955909 0 2808.4935118955909 -32462.547416452166 0 0 0 0 195243790.72872162 770451.99691736698 0 770451.99691736698 9747225.2164622545 0 0 0 0 97543.389799934346 -111391.70725035761 0 -111391.70725035761 -11497.819809980516 0 0 0 0 94162238.36790055 20039762.153572325 0 20039762.153572325 69497302.520052314 0 0 0 0 144420420.58285904 -32603246.820706487 0 -32603246.820706487 52438892.595169187 0 0 0 0 102146197.71506119 70322790.323682874 0 70322790.323682874 49638660.810067415 0 0 0 0 208910761.98862457 50134546.533883065 0 50134546.533883065 9604444.6149202585 0 0 0 0 153784686.19903183 108356041.16571558 0 108356041.16571558 64766379.289573684 0 0 0 0 110463499.9838562 33942529.588126779 0 33942529.588126779 -8895900.261921525 0 0 0 0 137668543.53485775 19400796.385335267 0 19400796.385335267 -1619180.0345989466 0 0 0 0 99210718.060085297 -13594903.936470836 0 -13594903.936470836 5429830.582443893 0 0 0 0 89406344.824323654 18008857.049558952 0 18008857.049558952 -20121295.594088972 0 0 0 0 91792117.314849854 20031325.759596542 0 20031325.759596542 -36303581.983199269 0 0 0 0 103500081.82974195 43764438.17272085 0 43764438.17272085 -9516938.9810957909 0 0 0 0 93446301.659572124 40220453.693684392 0 40220453.693684392 5966381.7800089121 0 0 0 0 3891072.2947225571 -602768.54548043013 0 -602768.54548043013 -1389628.8902885914 0 0 0 0 1273548.1992321014 -200254.78826469183 0 -200254.78826469183 -414404.22347211838 0 0 0 0 293022.37242095801 74989.432532579172 0 74989.432532579172 -610388.16656674573 0 0 0 0 -1371418.6327810287 -1976181.899461478 0 -1976181.899461478 421906.37772595882 0 0 0 0 256696.57368446235 -214732.90946114482 0 -214732.90946114482 349077.87412447168 0 0 0 0 2022234.966878891 -2895379.4657980651 0 -2895379.4657980651 -473681.46891003847 0 0 0 0 -965648.79014396667 3079035.0508376956 0 3079035.0508376956 3254480.8975102901 0 0 0 0 1354398.5245895386 -280927.68528738618 0 -280927.68528738618 309796.23856581748 0 0 0 0 666392.78900623322 -1433463.769264102 0 -1433463.769264102 887631.14705628157 0 0 0 0 731751.67614364624 -365485.82848057896 0 -365485.82848057896 363068.64908171445 0 0 0 0 523553.52326869965 -195982.57765318453 0 -195982.57765318453 225069.27943238616 0 0 0 0 1335710.7843780518 47652.111346200109 0 47652.111346200109 -411400.40459656715 0 0 0 0 570584.78444274887 -16464.235666840628 0 -16464.235666840628 181838.14763849269 0 0 0 0 2427371.5539541245 -8131364.9833753258 0 -8131364.9833753258 12429888.538389385 0 0 0 0 338274.11011120654 8614.998608043883 0 8614.998608043883 -258597.75823717666 0 0 0 0 801457.04671692848 -120974.61261381954 0 -120974.61261381954 113390.71624709666 0 0 0 0 791380.33260536194 199894.2545013465 0 199894.2545013465 155690.0718286112 0 0 0 0 2257571.2299041748 565946.57492589578 0 565946.57492589578 -1285544.1020587236 0 0 0 0 2319138.5276900828 2026262.4980371883 0 2026262.4980371883 1217208.8049845845 0 0 0 0 3234774.1775484085 -1555610.4065941689 0 -1555610.4065941689 -6499899.1697077211 0 0 0 0 2076949.608458519 -319127.54329432361 0 -319127.54329432361 -6345028.6239147857 0 0 0 0 309234.72365381755 237515.54868159955 0 237515.54868159955 118601.49540568233 0 0 0 0 1951261.6507177353 313874.69564297877 0 313874.69564297877 -7059216.7551198369 0 0 0 0 1288390.0394239426 1022029.3821908161 0 1022029.3821908161 299760.53290391713 0 0 0 0 557929.59386346396 148813.29127104487 0 148813.29127104487 311211.31895287777 0 0 0 0 91417.093795776367 -210590.85159803182 0 -210590.85159803182 786708.77223680541 0 0 0 0 406330.45400667191 -409851.47535845265 0 -409851.47535845265 847212.24470821023 0 0 0 0 -212485.94511365891 -520546.26704443991 0 -520546.26704443991 854121.17842262983 0 0 0 0 -699644.70469379425 124332.52366894484 0 124332.52366894484 1079912.0244069363 0 0 0 0 -202951.26378107071 -355344.2576449737 0 -355344.2576449737 1250110.897245124 0 0 0 0 269076.96764945984 118329.01452697441 0 118329.01452697441 1079352.8092079461 0 0 0 0 480474.57369868504 386408.81146179326 0 386408.81146179326 662362.4381353932 0 0 0 0 562583.03676746832 658946.71673426731 0 658946.71673426731 1119415.7030885592 0 0 0 0 741674.72964382172 2607769.0413119793 0 2607769.0413119793 -3290094.9926583767 0 0 0 0 89832723.66033268 -72873369.646754026 0 -72873369.646754026 -39469959.657796144 0 0 0 0 81480.787210742943 216082.57390138414 0 216082.57390138414 267745.77267803694 0 0 0 0 18100110.74343586 103247000.01383233 0 103247000.01383233 86878998.973425627 0 0 0 0 642720.86574857589 557536.31149336579 0 557536.31149336579 567244.58734947641 0 0 0 0 139034638.01335621 -99843900.230420947 0 -99843900.230420947 -79630897.877368927 0 0 0 0 8199.3239777330309 194867.52458318439 0 194867.52458318439 145760.60401692681 0 0 0 0 634111.53698930051 411152.35020872764 0 411152.35020872764 319353.553052667 0 0 0 0 52827.565898895264 2379428.5894991802 0 2379428.5894991802 -1233234.2891701269 0 0 0 0 298550.77923965454 347167.06526321173 0 347167.06526321173 122751.3764013052 0 0 0 0 1738838.678103447 1023874.2885753762 0 1023874.2885753762 -3718326.1252921741 0 0 0 0 771554.62123497063 746671.99412871711 0 746671.99412871711 595950.66752973571 0 0 0 0 401284.05522441864 2075809.7070269862 0 2075809.7070269862 -4793858.9917564578 0 0 0 0 108779639.5732069 5002023.1160975695 0 5002023.1160975695 1494777.96945858 0 0 0 0 36411212.397538662 8255976.7606717348 0 8255976.7606717348 -1470537.5834870338 0 0 0 0 29983220.995260239 6217834.0096828938 0 6217834.0096828938 1221762.9248217344 0 0 0 0 14134122.840109825 6718476.812681675 0 6718476.812681675 4459663.6532469988 0 0 0 0 14036653.231710672 5769452.8831119388 0 5769452.8831119388 -3018867.1264014244 0 0 0 0 18329999.591416359 8741693.3668148518 0 8741693.3668148518 -124955.5495455265 0 0 0 0 33335737.301511765 2138895.2125777006 0 2138895.2125777006 -3364578.1538414955 0 0 0 0 36233169.205917358 -3862304.0458240509 0 -3862304.0458240509 -2864795.0452673435 0 0 0 0 35298494.533979893 10012420.360893667 0 10012420.360893667 -3192705.1966927052 0 0 0 0 23670172.878742695 -2521330.1450154185 0 -2521330.1450154185 -5860360.4084486961 0 0 0 0 -8818879.2040996552 11572227.193004727 0 11572227.193004727 -754079.07052224874 0 0 0 0 13776228.062350512 1142534.5503201485 0 1142534.5503201485 -5376013.7164113522 0 0 0 0 460214.76975264959 588955.15328684822 0 588955.15328684822 1190387.8404129175 0 0 0 0 -1973265.2499313354 32823.68783377111 0 32823.68783377111 1165818.307707496 0 0 0 0 -5623357.7169466019 446405.56618927419 0 446405.56618927419 2094353.4374708831 0 0 0 0 -271523.02710533142 -2004627.0390440226 0 -2004627.0390440226 989608.09544828534 0 0 0 0 1007475.3259487152 -1285508.7011467069 0 -1285508.7011467069 653750.69658979774 0 0 0 0 -2260129.0205116272 1155332.5786756128 0 1155332.5786756128 -51507.590156555176 0 0 0 0 -2404033.3180456161 -2344689.6945188493 0 -2344689.6945188493 1439730.4103423804 0 0 0 0 -22457104.651837349 1257369.4323493987 0 1257369.4323493987 4601361.0237023532 0 0 0 0 494325.23454325181 520462.78912031278 0 520462.78912031278 1172908.8953133614 0 0 0 0 -2852165.0770397186 -12826925.768766016 0 -12826925.768766016 -8392459.9027001113 0 0 0 0 -9393495.3715705872 2919765.5567733049 0 2919765.5567733049 4064236.5723392963 0 0 0 0 -14712866.333324194 15506848.982512295 0 15506848.982512295 -4151846.3609406948 0 0 0 0 -3166380.1619262695 5626710.9589471817 0 5626710.9589471817 1349767.1817541122 0 0 0 0 -3281958.0253419876 2939464.1994445324 0 2939464.1994445324 7083255.1679964066 0 0 0 0 -23269330.038856506 10861240.644535422 0 10861240.644535422 4245447.0001673698 0 0 0 0 -14116182.0697155 1344377.6426393986 0 1344377.6426393986 1761264.9903161526 0 0 0 0 680353.3271048055 396341.09936605394 0 396341.09936605394 1055757.1548367604 0 0 0 0 -12418543.00626564 -2569878.1199227124 0 -2569878.1199227124 62734805.174722105 0 0 0 0 -38589699.263597488 28455252.026293397 0 28455252.026293397 47898679.875133127 0 0 0 0 27085714.269696236 4838637.9984078594 0 4838637.9984078594 -13430443.563758731 0 0 0 0 19863190.510398865 -4488870.917438373 0 -4488870.917438373 -16474350.4262508 0 0 0 0 6570.5550161862047 24461.506946829148 0 24461.506946829148 95964.176627585242 0 0 0 0 -12742188.150558472 13482322.742853733 0 13482322.742853733 16742298.736488815 0 0 0 0 37461182.036298752 41752514.331259847 0 41752514.331259847 1673816.2036914108 0 0 0 0 -3889773.1037831306 25585521.165369056 0 25585521.165369056 -384886.64010861516 0 0 0 0 34272824.260835648 23048219.642641902 0 23048219.642641902 -2916118.732622385 0 0 0 0 20353216.236905575 9277267.5757722333 0 9277267.5757722333 -33176850.638554305 0 0 0 0 -70671837.071675301 -26682762.984933369 0 -26682762.984933369 97811307.427663133 0 0 0 0 18726.935732485494 19431.831965741236 0 19431.831965741236 -20445.533303418342 0 0 0 0 10057242.444913864 2959614.4198143743 0 2959614.4198143743 3425197.0035439283 0 0 0 0 8573272.5911388397 4021264.7464925498 0 4021264.7464925498 5792355.124823153 0 0 0 0 -1726591.9184761047 -7716028.7085850984 0 -7716028.7085850984 4629454.5638906462 0 0 0 0 42965.512756414711 -1568.1749590160325 0 -1568.1749590160325 241040.00936869625 0 0 0 0 11298099.987745285 -2881630.4168957993 0 -2881630.4168957993 -545764.958400473 0 0 0 0 3524065.3982725143 -1003461.7292144522 0 -1003461.7292144522 107921.60771276057 0 0 0 0 997645.42104411125 -1295762.7647501342 0 -1295762.7647501342 1418837.138302356 0 0 0 0 1885645.7625608444 -2034760.2439950295 0 -2034760.2439950295 1014627.0807775408 0 0 0 0 1005931.5409660339 -1072855.0914057195 0 -1072855.0914057195 915600.95609850064 0 0 0 0 -7663400.8245363235 -6176837.2393447757 0 -6176837.2393447757 1050998.0044566989 0 0 0 0 11276384.967383385 -8950222.894820869 0 -8950222.894820869 -11306002.847616404 0 0 0 0 112912.89996712445 -66239.949952345341 0 -66239.949952345341 322680.08609417663 0 0 0 0 14911718.936908722 2600370.3204358369 0 2600370.3204358369 -7444955.3338342011 0 0 0 0 -14165070.790354729 3007816.5532347932 0 3007816.5532347932 19033404.854335725 0 0 0 0 155622328.65810013 -70639824.489585474 0 -70639824.489585474 -35800755.290808141 0 0 0 0 -46056987.052801132 22702041.291638345 0 22702041.291638345 152537958.21164066 0 0 0 0 99373270.44486618 9983210.7288440056 0 9983210.7288440056 -28291927.551420726 0 0 0 0 61631552.533434868 -34968364.922483712 0 -34968364.922483712 -47704349.788661726 0 0 0 0 132074.1783917211 31298.338499960955 0 31298.338499960955 -259767.11148131869 0 0 0 0 58907270.809453964 9552740.3899558187 0 9552740.3899558187 -36902598.704662457 0 0 0 0 91903139.121620178 31470610.983137347 0 31470610.983137347 -79495741.12557441 0 0 0 0 160114520.63535976 5347704.7267686725 0 5347704.7267686725 -90902345.818881422 0 0 0 0 72482414.33323288 61238866.255951732 0 61238866.255951732 -107475148.19601417 0 0 0 0 205893164.48756981 -33986835.213899873 0 -33986835.213899873 -14343127.267787278 0 0 0 0 -1032560.486931324 -99846314.842360765 0 -99846314.842360765 227132264.16736317 0 0 0 0 477766.6160395015 -174178.03672252226 0 -174178.03672252226 -23989.897298753978 0 0 0 0 64197102.937812805 78228429.225641474 0 78228429.225641474 94018658.80262503 0 0 0 0 29310665.006495476 -54013192.261113063 0 -54013192.261113063 -14742878.508470319 0 0 0 0 89985373.926168442 -1850380.8964695856 0 -1850380.8964695856 -28177442.037985563 0 0 0 0 22802571.920471191 -10306340.070177257 0 -10306340.070177257 -28706866.830385134 0 0 0 0 -16138410.123563766 -54080065.577673525 0 -54080065.577673525 -7913996.62321648 0 0 0 0 -54697233.114406586 -34761687.991099752 0 -34761687.991099752 4961161.1650627851 0 0 0 0 74287340.786199093 -27701471.586885601 0 -27701471.586885601 11434474.469368577 0 0 0 0 209586.04177692882 154099.68822342344 0 154099.68822342344 -100480.49576044237 0 0 0 0 -14118695.939702988 -2115536.2567757964 0 -2115536.2567757964 -14265245.899743468 0 0 0 0 22169482.21908474 1662206.2639597952 0 1662206.2639597952 8187133.9937452972 0 0 0 0 25027097.021303177 -14087969.564859867 0 -14087969.564859867 -22629155.572438836 0 0 0 0 5444171.4370422363 -18528443.042248666 0 -18528443.042248666 -23478882.630341589 0 0 0 0 34878391.711999893 -1807375.2333880961 0 -1807375.2333880961 -24302104.638895571 0 0 0 0 18209921.084838867 -7814386.8687138557 0 -7814386.8687138557 -23396301.280639954 0 0 0 0 26989968.976663589 4953479.8089419007 0 4953479.8089419007 -20239568.214881063 0 0 0 0 16308087.572914124 -6201927.3425301313 0 -6201927.3425301313 -23366620.396753311 0 0 0 0 -12550591.030395031 -12770028.151888341 0 -12770028.151888341 -15986423.74230051 0 0 0 0 6767108.6058082581 -9319714.5293986797 0 -9319714.5293986797 -21030401.049755871 0 0 0 0 4832057.1260719299 -7409313.4244473577 0 -7409313.4244473577 -18053324.350427747 0 0 0 0 2009665.259267807 -8582597.1154447198 0 -8582597.1154447198 -16917983.651943326 0 0 0 0 -1016806.2225370407 -5420015.2283991575 0 -5420015.2283991575 -4689116.7113970518 0 0 0 0 4659519.4280738831 -5360674.0001158714 0 -5360674.0001158714 -14713480.300112009 0 0 0 0 9291789.1792240143 -551723.83494925499 0 -551723.83494925499 -17683656.970766425 0 0 0 0 11470772.797424316 -7169743.3217247725 0 -7169743.3217247725 -20236978.863319278 0 0 0 0 13585096.899850845 -1666392.3314540684 0 -1666392.3314540684 -19254551.928985953 0 0 0 0 5836727.7081542015 -2794444.7690244317 0 -2794444.7690244317 -9866456.2700853348 0 0 0 0 4251639.1336460114 -2155354.2082283497 0 -2155354.2082283497 -9056651.9102717638 0 0 0 0 5294992.241153717 -5163135.9668833017 0 -5163135.9668833017 -14652354.500321209 0 0 0 0 5417886.9451720715 -1822911.915902406 0 -1822911.915902406 871024.88357329369 0 0 0 0 1026572.4194666853 -7110.7448043967597 0 -7110.7448043967597 -550307.07421091641 0 0 0 0 400376.30281472113 -354755.0722120268 0 -354755.0722120268 -113529.67418211699 0 0 0 0 14938968.709111214 8916398.7523599863 0 8916398.7523599863 -23500278.624687195 0 0 0 0 -1418452.8056745529 -7022830.006508112 0 -7022830.006508112 -10522641.872452021 0 0 0 0 4352819.0948059559 1724290.4613488615 0 1724290.4613488615 -10873084.624563694 0 0 0 0 -1730457.6032104492 -2973873.8095852733 0 -2973873.8095852733 -16377915.678005695 0 0 0 0 -695861.90244436264 -14748745.073251903 0 -14748745.073251903 3549670.1113064289 0 0 0 0 1810730.4704360384 -1110607.5588770953 0 -1110607.5588770953 352498.75895948429 0 0 0 0 1202525.3653888702 160577.78901734203 0 160577.78901734203 1082142.4836423919 0 0 0 0 2297089.6543052197 -2231695.8725214973 0 -2231695.8725214973 -1901745.8450253904 0 0 0 0 3441697.5046172142 -1034716.3344086781 0 -1034716.3344086781 -2586675.7291869223 0 0 0 0 1976948.922744751 -655155.72870706022 0 -655155.72870706022 -2320901.7979404777 0 0 0 0 611084.33952999115 -2251245.7315518856 0 -2251245.7315518856 -1800298.8637610823 0 0 0 0 4884253.0540647507 -867996.26087712869 0 -867996.26087712869 -2938734.0730485246 0 0 0 0 2126738.5337486267 -919272.41096842289 0 -919272.41096842289 -123615.28566227108 0 0 0 0 1142210.157359943 -253879.06401783833 0 -253879.06401783833 -98856.408635356885 0 0 0 0 1841671.3549413681 353744.09305912256 0 353744.09305912256 1874711.2605106831 0 0 0 0 2017535.8880359014 -893059.65154688701 0 -893059.65154688701 -2697.8542492085253 0 0 0 0 20262.135791778564 -2883667.3288744092 0 -2883667.3288744092 -191472.26654291153 0 0 0 0 4675178.697719574 -408176.34693944454 0 -408176.34693944454 -2372376.7414180934 0 0 0 0 3952714.5494651794 -1167643.0099502206 0 -1167643.0099502206 -2688660.3317843974 0 0 0 0 1654955.9488962486 336744.07985141804 0 336744.07985141804 103855.29805886548 0 0 0 0 1775563.9723291397 -842845.30865192413 0 -842845.30865192413 -942356.79100215435 0 0 0 0 3865940.4359092712 -1775810.302644074 0 -1775810.302644074 -1540423.8392430842 0 0 0 0 2446479.384054184 895494.5370208323 0 895494.5370208323 617132.31142473221 0 0 0 0 838577.5865895981 487511.60202801065 0 487511.60202801065 -396496.56289819005 0 0 0 0 3198405.5351891518 -1116493.5944758132 0 -1116493.5944758132 -4892319.1132970005 0 0 0 0 192532.25580232334 -8855.1187583198771 0 -8855.1187583198771 -47494.266890019695 0 0 0 0 3412299.8066616058 -1197275.3212267607 0 -1197275.3212267607 -4843018.6348107159 0 0 0 0 1223980.4982652664 819975.58382454515 0 819975.58382454515 -5765749.3382096291 0 0 0 0 -8927819.9622387886 4636148.5969795482 0 4636148.5969795482 10414363.749683687 0 0 0 0 5949301.703004837 7022719.4117887914 0 7022719.4117887914 139405.21264012158 0 0 0 0 6891442.5065040588 64355.889309406281 0 64355.889309406281 -8835441.7999035306 0 0 0 0 6458574.3711371422 3727766.494699127 0 3727766.494699127 -8903415.8916442394 0 0 0 0 -12320843.715074539 -4081637.2181215286 0 -4081637.2181215286 888024.570084095 0 0 0 0 1346013.6839223276 -1020642.6027741679 0 -1020642.6027741679 635423.43212163146 0 0 0 0 -12222215.354873657 -4558822.8755851984 0 -4558822.8755851984 612332.2501373291 0 0 0 0 2415173.8948259354 -2861241.4696579874 0 -2861241.4696579874 -4038612.8567077518 0 0 0 0 -12658698.211288452 -2578960.9893145561 0 -2578960.9893145561 -574316.6441411972 0 0 0 0 -12591271.564014435 -3209769.300861001 0 -3209769.300861001 1664340.1105618477 0 0 0 0 -12958247.550517082 -74173.958366632462 0 -74173.958366632462 2445542.2713713646 0 0 0 0 -13689434.544754028 950211.05838239193 0 950211.05838239193 1889432.8994121552 0 0 0 0 -7321077.5311955214 17821968.054016456 0 17821968.054016456 -18678544.619310498 0 0 0 0 1168227.5042081554 176875.60591162136 0 176875.60591162136 761166.97717662656 0 0 0 0 -13025869.09923172 -154524.76097679138 0 -154524.76097679138 2752058.9673830271 0 0 0 0 -13690963.598418936 825204.29553389177 0 825204.29553389177 3797986.1562757492 0 0 0 0 -12950534.434589386 -656837.66630029678 0 -656837.66630029678 -421525.23784404993 0 0 0 0 268071.21597473742 21300.932688150089 0 21300.932688150089 -92455.761861915176 0 0 0 0 4746023.3530502319 4761780.4559817314 0 4761780.4559817314 1690059.9210057259 0 0 0 0 -4162640.69830513 1166530.3052601218 0 1166530.3052601218 -8962854.3053927422 0 0 0 0 5047191.8156347275 2038065.4556988478 0 2038065.4556988478 -11251469.67552948 0 0 0 0 10405244.375278473 2492637.1089135408 0 2492637.1089135408 -11285325.801006883 0 0 0 0 7051048.5041599274 8675307.9546188712 0 8675307.9546188712 -21526574.336531401 0 0 0 0 12689888.874351501 1928321.2548058629 0 1928321.2548058629 -19495041.016917303 0 0 0 0 14114177.063222885 319326.96148818731 0 319326.96148818731 -21895011.707994342 0 0 0 0 15002583.240795135 4910827.6704342961 0 4910827.6704342961 -15955107.608645439 0 0 0 0 11839201.390605927 7120929.8602516651 0 7120929.8602516651 -13511742.58264792 0 0 0 0 4939620.5993709564 -1622435.4806404412 0 -1622435.4806404412 14098123.153242551 0 0 0 0 7577241.0817098618 1732354.8739961684 0 1732354.8739961684 -16372324.917374492 0 0 0 0 17458675.709414482 -11080470.979293346 0 -11080470.979293346 -26594758.918472946 0 0 0 0 10425603.961856365 14241598.215913996 0 14241598.215913996 -31242982.094138682 0 0 0 0 -12194848.27340126 7880108.0083658695 0 7880108.0083658695 -1591137.6839402914 0 0 0 0 -11777312.826562881 968052.44732475281 0 968052.44732475281 647110.74234449863 0 0 0 0 -7038939.1649150848 -200443.93311321735 0 -200443.93311321735 5070269.7256602049 0 0 0 0 -13817639.277081013 3871048.4160599709 0 3871048.4160599709 8287533.9787321091 0 0 0 0 -112657.89209079742 -2035720.076731205 0 -2035720.076731205 9144473.9546898603 0 0 0 0 -4995877.8081054688 3816480.4668496847 0 3816480.4668496847 12787122.157422304 0 0 0 0 -9295328.4588680267 -2669530.796756506 0 -2669530.796756506 5641094.2065351009 0 0 0 0 -12460472.646671295 -1348769.4480855465 0 -1348769.4480855465 8775989.9782412052 0 0 0 0 -11242407.650292397 3700956.7376300097 0 3700956.7376300097 5450243.9362764359 0 0 0 0 -13119426.739513397 185880.07862973213 0 185880.07862973213 5231709.877699554 0 0 0 0 -12779429.173357964 -3033956.4692633152 0 -3033956.4692633152 3260370.4899864197 0 0 0 0 -12664003.586885452 -3598193.8305346966 0 -3598193.8305346966 4851191.6191946268 0 0 0 0 -11173393.843255997 -1928768.0293507576 0 -1928768.0293507576 6116259.9995422363 0 0 0 0 -9317530.436958313 -7403744.5559011698 0 -7403744.5559011698 2931695.5771546364 0 0 0 0 -12533242.440405846 -5593304.6827265024 0 -5593304.6827265024 6886047.6671795845 0 0 0 0 -12819916.672344208 -5313830.4535315037 0 -5313830.4535315037 2817717.2656023502 0 0 0 0 -12289864.322980881 -4283207.4666302204 0 -4283207.4666302204 2279916.420814991 0 0 0 0 -12379182.331886292 -7381426.2559947968 0 -7381426.2559947968 2138199.193661198 0 0 0 0 -16332297.906377792 -15538586.90220499 0 -15538586.90220499 -2097461.3758871555 0 0 0 0 1208648.9254154176 -1080237.2837234959 0 -1080237.2837234959 628091.24971423508 0 0 0 0 -10453565.474819183 -11056598.484697104 0 -11056598.484697104 -6828122.6294708252 0 0 0 0 -11232653.083703995 -5328227.2800409794 0 -5328227.2800409794 -4014655.1283054352 0 0 0 0 -13232307.841178894 -10562934.558293819 0 -10562934.558293819 1247378.5157415271 0 0 0 0 -10295494.781482697 -7555001.1612644196 0 -7555001.1612644196 1104915.6894664764 0 0 0 0 -10937920.817465782 -5565317.8446961641 0 -5565317.8446961641 916510.97907972336 0 0 0 0 -7962738.4829216003 -10655763.109761238 0 -10655763.109761238 3540699.3503680229 0 0 0 0 -7446559.1740589142 -11507505.376565695 0 -11507505.376565695 -632122.71849739552 0 0 0 0 -7613009.7062416077 -10077333.879909754 0 -10077333.879909754 3424923.9207582474 0 0 0 0 -1975661.8205890656 -9570169.4339532852 0 -9570169.4339532852 4364103.8577001095 0 0 0 0 -4921559.5785903931 -7251133.2408416271 0 -7251133.2408416271 3063386.0472750962 0 0 0 0 -7550132.249420166 -7044006.4217259884 0 -7044006.4217259884 9949064.2169260979 0 0 0 0 -8283576.7824115753 -4871562.6328494549 0 -4871562.6328494549 4639585.9552212358 0 0 0 0 -9274284.0143135786 -1764712.5966056101 0 -1764712.5966056101 12995376.108499527 0 0 0 0 -1991474.5488452911 -4404221.4091330767 0 -4404221.4091330767 7619929.8489558697 0 0 0 0 5135250.889093399 -8586237.8894940615 0 -8586237.8894940615 9489432.5550119877 0 0 0 0 -2423025.1044330597 -4570380.342117548 0 -4570380.342117548 18373226.929642081 0 0 0 0 -558535.56021642685 -5431812.892444849 0 -5431812.892444849 8903333.055870533 0 0 0 0 3658949.1308822632 -14683342.174734831 0 -14683342.174734831 3105562.6959884167 0 0 0 0 13772825.860920668 -8697074.0185919404 0 -8697074.0185919404 21148198.29034853 0 0 0 0 16318082.598080635 -16777488.762699187 0 -16777488.762699187 5484104.4861499667 0 0 0 0 16524899.840044975 -9805621.9743757248 0 -9805621.9743757248 26096672.110938549 0 0 0 0 7907915.1327750683 -464443.14406296611 0 -464443.14406296611 16171978.574214697 0 0 0 0 23838083.228639603 12870262.156701565 0 12870262.156701565 24856370.538027048 0 0 0 0 6291761.2151699066 4822005.932494998 0 4822005.932494998 14274583.491165102 0 0 0 0 9280967.4083185196 677343.06386113167 0 677343.06386113167 17058234.825043201 0 0 0 0 9974039.4111733437 4593670.6118099391 0 4593670.6118099391 9609869.2339286804 0 0 0 0 9888535.3998479843 3786258.5848987103 0 3786258.5848987103 3683652.8346059322 0 0 0 0 26130737.166028976 12527664.995778561 0 12527664.995778561 12302214.671915352 0 0 0 0 29708982.301637411 5791513.6302207708 0 5791513.6302207708 5575888.8777298927 0 0 0 0 31365561.050815344 11141111.093496472 0 11141111.093496472 7066497.5864915848 0 0 0 0 -38512340.574926376 -33306355.459254757 0 -33306355.459254757 -51526294.983056568 0 0 0 0 -26158004.293883622 67919703.725475639 0 67919703.725475639 -19885514.405914091 0 0 0 0 -147294.43443731032 -570096.04819244391 0 -570096.04819244391 -88899.687162484857 0 0 0 0 11836713.246904373 -43297705.541675895 0 -43297705.541675895 -114500828.8957085 0 0 0 0 49448141.203087807 4234276.5217140317 0 4234276.5217140317 -169257604.68358469 0 0 0 0 29980691.095733643 8942268.3887521848 0 8942268.3887521848 -91736137.322387815 0 0 0 0 8983002.0247621536 6380518.4051288171 0 6380518.4051288171 -6310389.1767749852 0 0 0 0 32836520.58032608 -453535.63647834072 0 -453535.63647834072 -7909240.3278095583 0 0 0 0 7641772.0488405228 -1654981.7304026056 0 -1654981.7304026056 72945273.734075934 0 0 0 0 16689623.242829323 24942405.594074506 0 24942405.594074506 43185017.905345164 0 0 0 0 72039568.98350668 73293815.196750388 0 73293815.196750388 2452701.9085311927 0 0 0 0 35840915.853010178 17248671.765433088 0 17248671.765433088 5161190.3178463578 0 0 0 0 -13219882.556158543 21360455.395691413 0 21360455.395691413 5673796.3948897459 0 0 0 0 131154854.85459995 39276176.687278569 0 39276176.687278569 14791771.734176541 0 0 0 0 178318185.89039516 111806571.22388516 0 111806571.22388516 -1742988.5342726097 0 0 0 0 65086956.928995132 38755097.964331768 0 38755097.964331768 -13476221.995222539 0 0 0 0 102950677.4442997 84970560.374213994 0 84970560.374213994 1030537.7983446917 0 0 0 0 175441489.87182331 117904852.22251849 0 117904852.22251849 -12424229.164665315 0 0 0 0 278144442.36939335 124892277.22170065 0 124892277.22170065 -14460701.324060889 0 0 0 0 315183208.62572479 216934455.06755355 0 216934455.06755355 130392570.29609865 0 0 0 0 -79129530.290487289 60327474.080944061 0 60327474.080944061 84811852.174957752 0 0 0 0 175854579.4675684 185712777.75540182 0 185712777.75540182 41133970.286258206 0 0 0 0 -47251145.613765717 103785640.75399071 0 103785640.75399071 139720798.34783581 0 0 0 0 12487.479144051205 998.10021382541163 0 998.10021382541163 -33648.720946360787 0 0 0 0 77766798.512369156 54550231.875314459 0 54550231.875314459 -81655983.20815298 0 0 0 0 77140078.913245678 15131256.074687049 0 15131256.074687049 -34185568.128910325 0 0 0 0 89415828.031323433 97012700.443374097 0 97012700.443374097 -9136904.2697293088 0 0 0 0 7369464.7185020447 -24087415.287411809 0 -24087415.287411809 9049349.8171132803 0 0 0 0 -6887240.7393398285 -9952815.2967066169 0 -9952815.2967066169 24360549.410675418 0 0 0 0 13928789.610582829 -4248646.2629548609 0 -4248646.2629548609 -15327855.938364387 0 0 0 0 -219456.98531532288 -1293594.9602583051 0 -1293594.9602583051 -2956538.4751571119 0 0 0 0 131721.23443316697 36513.305015956983 0 36513.305015956983 151482.71064649016 0 0 0 0 428928272.09058952 73676580.678601146 0 73676580.678601146 31811006.751409937 0 0 0 0 314893627.16192865 -20540325.19236913 0 -20540325.19236913 -14853822.8374933 0 0 0 0 24890937.765072823 -19208704.005707353 0 -19208704.005707353 -28055467.529510498 0 0 0 0 5055306.6779727936 7566471.2828052044 0 7566471.2828052044 -27056163.022485264 0 0 0 0 -6281071.2272033691 10412118.102829874 0 10412118.102829874 -16809291.249677896 0 0 0 0 381110.93449653243 174551.12426317413 0 174551.12426317413 383798.8703905876 0 0 0 0 1519622.4829845428 3675046.6618326902 0 3675046.6618326902 -13266574.349450707 0 0 0 0 271825473.04148471 65262539.094126329 0 65262539.094126329 15938966.720666111 0 0 0 0 -21125.674782355316 83808.381335105048 0 83808.381335105048 718608.05014686834 0 0 0 0 -26280166.54893589 -32165063.44134286 0 -32165063.44134286 -24810081.822562486 0 0 0 0 1545440.5018929774 -316165.8696079998 0 -316165.8696079998 124660.66451506244 0 0 0 0 -22317935.727451324 -39002677.312225871 0 -39002677.312225871 -42950669.365747035 0 0 0 0 -7894797.5865020752 -32598987.218941569 0 -32598987.218941569 -54672435.401918411 0 0 0 0 -2978495.2261981964 -43355219.819479972 0 -43355219.819479972 -69809332.796329379 0 0 0 0 -9338009.5302314758 -51697149.025349498 0 -51697149.025349498 -71705582.312996328 0 0 0 0 1985210.9834632529 -344421.33697799977 0 -344421.33697799977 -74924.784140626827 0 0 0 0 2618269.3205720186 -12321677.334577393 0 -12321677.334577393 -6154466.1424725652 0 0 0 0 12394691.144558907 3749185.3807739019 0 3749185.3807739019 -3537660.7028067112 0 0 0 0 2411807.7337598298 -288819.64657819562 0 -288819.64657819562 -285209.38063814957 0 0 0 0 1323279.8830833435 -29582165.741530627 0 -29582165.741530627 -89813800.647580028 0 0 0 0 -5485266.0382647514 -4168516.1223836392 0 -4168516.1223836392 1539823.7198312581 0 0 0 0 7829725.1155813932 -17306997.183438241 0 -17306997.183438241 -52405340.239566684 0 0 0 0 4015055.7494239807 -43880826.214290559 0 -43880826.214290559 -44710050.291177332 0 0 0 0 -21742819.130970001 -43577899.459827915 0 -43577899.459827915 -56523276.257958174 0 0 0 0 24676804.922710419 -21970483.048188969 0 -21970483.048188969 -60965836.824260175 0 0 0 0 16668.058440468623 -4124.1189278294332 0 -4124.1189278294332 25017.351246481849 0 0 0 0 36771325.061282635 -14698565.778627165 0 -14698565.778627165 -54494123.488510698 0 0 0 0 19424979.829918861 -22347898.186989859 0 -22347898.186989859 -115713041.05230513 0 0 0 0 6992637.3399467468 -3421583.098685354 0 -3421583.098685354 -58403952.678221643 0 0 0 0 -466085.63803482056 -29066886.856626809 0 -29066886.856626809 -92206375.336964399 0 0 0 0 1681556.9274635315 -38173198.411543876 0 -38173198.411543876 -65726363.390870012 0 0 0 0 -640542.43476963043 -16440933.4599161 0 -16440933.4599161 -61146656.517964825 0 0 0 0 13607334.100905895 -10516264.728185244 0 -10516264.728185244 -99133305.912218392 0 0 0 0 8397642.8224067688 -8688055.093550317 0 -8688055.093550317 -17673944.2914166 0 0 0 0 52259986.187514782 22155221.797945984 0 22155221.797945984 -60380664.593060851 0 0 0 0 -1317594.7131741047 -2552552.3372040838 0 -2552552.3372040838 -21505980.234239995 0 0 0 0 13785895.86802578 -3511103.9565189928 0 -3511103.9565189928 -65466119.526938617 0 0 0 0 -6861647.1297931671 -15731207.602519453 0 -15731207.602519453 -67122613.402166992 0 0 0 0 27177484.346281052 -2773686.557255581 0 -2773686.557255581 -159235557.77065521 0 0 0 0 -5958889.9394855499 15684813.240028046 0 15684813.240028046 -109020769.02615426 0 0 0 0 -9969784.4561920166 -9341134.6686382368 0 -9341134.6686382368 -63601920.200543776 0 0 0 0 17958027.919360161 -25941557.858031824 0 -25941557.858031824 -130758897.43400808 0 0 0 0 27098127.827188492 -75885695.957015261 0 -75885695.957015261 26556644.142432909 0 0 0 0 28155774.865836143 -71883352.913131267 0 -71883352.913131267 23940319.069388874 0 0 0 0 13061781.170230865 -56260410.03182888 0 -56260410.03182888 60245276.338430226 0 0 0 0 1350603.9191947253 -481736.42591452086 0 -481736.42591452086 -104214.42884726851 0 0 0 0 26527860.607545853 -103365675.15214953 0 -103365675.15214953 -17941475.207732201 0 0 0 0 13615460.848303795 -4762852.9914438426 0 -4762852.9914438426 -32949862.964177966 0 0 0 0 -4023169.9176464081 -100656580.85632768 0 -100656580.85632768 69687575.252392977 0 0 0 0 6179614.9608364105 -79978782.263486505 0 -79978782.263486505 67666342.814408481 0 0 0 0 22867467.432844162 -85529900.301317304 0 -85529900.301317304 10074727.980675638 0 0 0 0 22493713.647270113 -75247340.850567922 0 -75247340.850567922 32259860.588273879 0 0 0 0 26214140.502612114 -61415126.432561129 0 -61415126.432561129 48803117.57685101 0 0 0 0 33019451.935014725 -63849555.79303807 0 -63849555.79303807 23274874.594423577 0 0 0 0 -23399029.064436913 -1326349.3585094542 0 -1326349.3585094542 -11476024.914572971 0 0 0 0 11638753.478366852 37574221.703594573 0 37574221.703594573 -103660363.48956126 0 0 0 0 24082785.807068825 -85168647.526503056 0 -85168647.526503056 -66915731.858987473 0 0 0 0 92820.971793442033 261614.33171943482 0 261614.33171943482 -262390.28222479555 0 0 0 0 2078749.1613777112 -828515.67156023206 0 -828515.67156023206 -201293.72146913054 0 0 0 0 58314545.909614563 -55397364.136524267 0 -55397364.136524267 -177175790.10376012 0 0 0 0 14253725.918729782 1464704.5422506332 0 1464704.5422506332 -5137904.629784666 0 0 0 0 -61943037.114746094 -73377638.159490615 0 -73377638.159490615 10479554.365658924 0 0 0 0 32402311.685692668 -7928644.96950687 0 -7928644.96950687 127770.17236264795 0 0 0 0 28729842.109882355 -80388442.086638257 0 -80388442.086638257 9225424.5121490061 0 0 0 0 52601765.134965897 -123298466.30491576 0 -123298466.30491576 63131522.668336391 0 0 0 0 -1929874.9786300659 -74028458.606979489 0 -74028458.606979489 116122076.37910864 0 0 0 0 122229686.48622513 -89827535.742050081 0 -89827535.742050081 66446083.332021117 0 0 0 0 57984836.202716827 7517731.6179023683 0 7517731.6179023683 111583833.21517935 0 0 0 0 60238754.664866447 -29634227.127609506 0 -29634227.127609506 -2526473.2517180964 0 0 0 0 23131503.460339546 17148733.396913305 0 17148733.396913305 78353063.606635422 0 0 0 0 43518825.684420705 -38873409.337281682 0 -38873409.337281682 98055763.556222886 0 0 0 0 42599563.509429276 -46724501.681594804 0 -46724501.681594804 236929251.63691926 0 0 0 0 132865077.42942619 -143243322.48947901 0 -143243322.48947901 124659351.12431329 0 0 0 0 178803941.69631195 -30145553.094499856 0 -30145553.094499856 111938869.92840078 0 0 0 0 71353871.4851017 -28004617.798997223 0 -28004617.798997223 159303871.86879623 0 0 0 0 134301470.04926968 -157085516.35991091 0 -157085516.35991091 317636091.25837278 0 0 0 0 67663796.579141706 -130429234.61857066 0 -130429234.61857066 158524857.63277882 0 0 0 0 -25721885.675209045 -18722008.409782887 0 -18722008.409782887 229297149.70091587 0 0 0 0 19848902.5305897 97535279.933909819 0 97535279.933909819 88191524.020888567 0 0 0 0 159380277.73338413 2602992.6789229661 0 2602992.6789229661 -41308035.820929274 0 0 0 0 134644.70633646054 -70539.8762752763 0 -70539.8762752763 57680.520144406968 0 0 0 0 34366142.174686432 -110048417.25943911 0 -110048417.25943911 356196547.71955049 0 0 0 0 24952.347377437225 -8362.7496357690543 0 -8362.7496357690543 78192.599568253907 0 0 0 0 200568.66542027425 -447016.43052893865 0 -447016.43052893865 363288.64194970322 0 0 0 0 244189.69122266769 -357616.13843147922 0 -357616.13843147922 -103600.63960450888 0 0 0 0 3258811.4465582371 -22477216.054473117 0 -22477216.054473117 38146903.710000038 0 0 0 0 412715.58074455429 -125033.25529628014 0 -125033.25529628014 180262.36103177071 0 0 0 0 78449936.450490952 -18474230.266668782 0 -18474230.266668782 -18127318.109104246 0 0 0 0 55563475.1079669 -49570661.425524473 0 -49570661.425524473 44564884.509175926 0 0 0 0 94660819.543359756 -74265768.69502148 0 -74265768.69502148 30662334.159075513 0 0 0 0 -5690319.1226768494 -49562202.430775702 0 -49562202.430775702 44661799.154062688 0 0 0 0 31744310.265329361 -16270072.543145716 0 -16270072.543145716 6566652.4920915365 0 0 0 0 -5504936.4568767548 -8440475.2920401096 0 -8440475.2920401096 15928229.485809565 0 0 0 0 16501660.216685772 -38578732.904277474 0 -38578732.904277474 50097784.622430086 0 0 0 0 -22872645.637241364 -18446485.298051357 0 -18446485.298051357 72654043.936921179 0 0 0 0 -1452337.1093082428 -25031556.99403441 0 -25031556.99403441 57876289.300577402 0 0 0 0 -906407.74928045273 -66332618.655798495 0 -66332618.655798495 103014825.17608321 0 0 0 0 -16282145.075973511 -831016.22257518768 0 -831016.22257518768 77019858.65773204 0 0 0 0 -16097460.685905457 -27027159.303174198 0 -27027159.303174198 82538797.766296864 0 0 0 0 23864511.914106369 -12259185.134536505 0 -12259185.134536505 34697781.814527571 0 0 0 0 772522.55196563853 -494571.41144448682 0 -494571.41144448682 200297.26663404418 0 0 0 0 301745.42084121704 -507518.65361654758 0 -507518.65361654758 -155314.58742433786 0 0 0 0 286640.56666183472 -177571.56467846036 0 -177571.56467846036 83183.821331083775 0 0 0 0 -14943562.564017236 14079459.333478466 0 14079459.333478466 11789535.978942633 0 0 0 0 6477015.1233005524 -14402580.998522758 0 -14402580.998522758 -10000289.90682447 0 0 0 0 -831330.87789726257 -14065025.878189206 0 -14065025.878189206 10414135.540968299 0 0 0 0 1974971.6586847305 6557949.0302318335 0 6557949.0302318335 -469898.64991378784 0 0 0 0 1637178.7577543259 -1785984.922216408 0 -1785984.922216408 1209697.6234740987 0 0 0 0 1171221.0840085875 -456828.64131663844 0 -456828.64131663844 -26064.721246560657 0 0 0 0 876153.05443383474 -203307.32723094313 0 -203307.32723094313 44731.086162742286 0 0 0 0 1649791.5644439459 -2629168.4809291083 0 -2629168.4809291083 1103816.4376469553 0 0 0 0 -756562.79898929596 1555545.5683218837 0 1555545.5683218837 -1810957.4283636296 0 0 0 0 2626486.5563637018 -310415.51241021603 0 -310415.51241021603 -1741871.9080018401 0 0 0 0 2881218.3151316643 -2120688.291139923 0 -2120688.291139923 -4317624.7221987844 0 0 0 0 26716045.631821632 -13705502.242797602 0 -13705502.242797602 35553238.414669752 0 0 0 0 67043396.107871056 -35446637.16854576 0 -35446637.16854576 12453771.99044298 0 0 0 0 -10478376.688585281 -6374925.138040036 0 -6374925.138040036 19056985.233714625 0 0 0 0 448494.88022327423 -242909.13103669882 0 -242909.13103669882 108026.59518429637 0 0 0 0 443163.38968753675 -52633.325183631387 0 -52633.325183631387 234959.76686199722 0 0 0 0 477214.62094671809 -110582.70559448632 0 -110582.70559448632 -366710.96028136835 0 0 0 0 1574464.3239293098 -61728.276364400983 0 -61728.276364400983 -2607725.892793715 0 0 0 0 4619740.8105096817 60104.902278952301 0 60104.902278952301 -1606284.618155472 0 0 0 0 38626189.217005253 -6479856.6432288885 0 -6479856.6432288885 780709.74668242037 0 0 0 0 634223.10793397622 181768.4586746617 0 181768.4586746617 130907.98795387679 0 0 0 0 95741386.619555473 -69123577.130298749 0 -69123577.130298749 40630102.430773884 0 0 0 0 34162500.647088051 -35882477.040071979 0 -35882477.040071979 43237716.262755498 0 0 0 0 139068709.47006321 -57256725.270559117 0 -57256725.270559117 33929576.000153363 0 0 0 0 110263793.21530986 -46820499.712565035 0 -46820499.712565035 33673307.208947465 0 0 0 0 154662964.58977938 -31979215.171876207 0 -31979215.171876207 24624878.161053389 0 0 0 0 71505646.638978958 -67653099.797946334 0 -67653099.797946334 48218579.210590877 0 0 0 0 68343856.710344315 -47043217.216587245 0 -47043217.216587245 54232879.497488752 0 0 0 0 48303826.670969009 -47433323.440523617 0 -47433323.440523617 73933437.25158456 0 0 0 0 106133860.79021025 -44421919.555414461 0 -44421919.555414461 54075921.827376023 0 0 0 0 50593670.74780941 -69174448.995038062 0 -69174448.995038062 124505716.45333904 0 0 0 0 164834683.40348053 -14836681.903673038 0 -14836681.903673038 37563721.815143667 0 0 0 0 99805839.912317276 -10149023.063495234 0 -10149023.063495234 38226617.737048581 0 0 0 0 103348607.43222713 -19191252.880786594 0 -19191252.880786594 61248357.117146745 0 0 0 0 44467890.757507324 -4478241.0772411525 0 -4478241.0772411525 57742059.878883049 0 0 0 0 95871360.501944065 11616927.031257773 0 11616927.031257773 45338657.03186474 0 0 0 0 25257768.765914917 -4342456.616569683 0 -4342456.616569683 69379112.368901491 0 0 0 0 24579980.863641739 -37296173.991534561 0 -37296173.991534561 111209089.89708844 0 0 0 0 46793544.446162343 -30476914.822718721 0 -30476914.822718721 95976787.637818843 0 0 0 0 314791973.3892746 73698370.832269564 0 73698370.832269564 -35117701.902630836 0 0 0 0 163930222.22757626 28800026.769811817 0 28800026.769811817 28985724.547411241 0 0 0 0 84155548.340356112 39191000.178389423 0 39191000.178389423 29038463.717929058 0 0 0 0 206943799.73463297 219546.56164830644 0 219546.56164830644 8250240.3374526259 0 0 0 0 228512666.11626673 48731453.428038254 0 48731453.428038254 -32074182.849188894 0 0 0 0 244157349.70772457 -21347971.58103203 0 -21347971.58103203 -252005.18101729872 0 0 0 0 314952194.48335963 -1026581.5002007129 0 -1026581.5002007129 -26950153.466350362 0 0 0 0 240262517.17875481 -17145480.749413464 0 -17145480.749413464 8121465.3151657339 0 0 0 0 164841116.7421999 -12097730.401579559 0 -12097730.401579559 10302653.277631132 0 0 0 0 162228087.38743305 -41893547.669334188 0 -41893547.669334188 27118600.976543002 0 0 0 0 230252626.15806675 -39608539.838292599 0 -39608539.838292599 20093205.419470746 0 0 0 0 315079827.4537015 -41591370.533884406 0 -41591370.533884406 4717205.4481719574 0 0 0 0 238114377.32400084 -62451626.680392198 0 -62451626.680392198 76377400.955289975 0 0 0 0 206302293.47345781 -118448827.97663689 0 -118448827.97663689 43610245.4912659 0 0 0 0 216524676.48795471 12809270.739339624 0 12809270.739339624 37021586.781748153 0 0 0 0 314253284.30967093 -137716508.83199194 0 -137716508.83199194 7751267.4612319469 0 0 0 0 736190.09582686424 17425956.27096412 0 17425956.27096412 63453075.446361214 0 0 0 0 216959.71579813166 82892.482809637208 0 82892.482809637208 76237.494667643739 0 0 0 0 139818484.75868845 -60847820.886971898 0 -60847820.886971898 34262071.748326302 0 0 0 0 73100064.398152351 -125951971.57256411 0 -125951971.57256411 107876682.42928916 0 0 0 0 159491.21275159018 -54755.696761078201 0 -54755.696761078201 -3109.7443850167037 0 0 0 0 15814529.134423256 13743441.619583251 0 13743441.619583251 38166487.58970625 0 0 0 0 -14112267.821779251 89292398.600474373 0 89292398.600474373 30249810.709758233 0 0 0 0 28024066.249163628 63148548.171790794 0 63148548.171790794 -35509920.262135163 0 0 0 0 30391964.762487888 41181917.195775345 0 41181917.195775345 -31089534.102868319 0 0 0 0 298224.2526667295 -68066.261265957262 0 -68066.261265957262 -78764.515647715394 0 0 0 0 366546.10997772217 8345895.0532316398 0 8345895.0532316398 -8843999.0365782119 0 0 0 0 63393804.444454193 47471509.062916338 0 47471509.062916338 -35702897.924485795 0 0 0 0 49423364.104997158 1238721.5619785115 0 1238721.5619785115 -87834287.181322917 0 0 0 0 455701.53486135276 -173924.95072711277 0 -173924.95072711277 1621.8057016228595 0 0 0 0 25485144.208481312 -65850767.617989033 0 -65850767.617989033 -103737631.27825285 0 0 0 0 -18978689.470039368 -4385417.9877060354 0 -4385417.9877060354 -55220881.299490757 0 0 0 0 -20938687.179443836 33464770.349571794 0 33464770.349571794 15301837.319880765 0 0 0 0 169198.51621768624 -82457.395027319493 0 -82457.395027319493 14829.19342151425 0 0 0 0 -14536842.951477051 -55694861.602100164 0 -55694861.602100164 28519026.628922507 0 0 0 0 -44940770.50626111 -31217713.841410469 0 -31217713.841410469 16958114.977379665 0 0 0 0 274327.05062091583 -110048.61839386984 0 -110048.61839386984 -14346.660770715602 0 0 0 0 144213870.00279522 99274239.888047606 0 99274239.888047606 -35495287.442895941 0 0 0 0 83698405.985274315 -158082452.19903558 0 -158082452.19903558 38127175.717175789 0 0 0 0 16962471.988422394 67595538.016590536 0 67595538.016590536 -46207299.444937892 0 0 0 0 -16669004.523735046 -60718074.791984998 0 -60718074.791984998 -15931430.904066563 0 0 0 0 29316288.228944778 -5166607.6551072523 0 -5166607.6551072523 -14384145.694728971 0 0 0 0 314544703.90455723 8871867.3830003943 0 8871867.3830003943 -88510115.206520319 0 0 0 0 133334893.99285412 -8138.6463865768164 0 -8138.6463865768164 -62969827.815361723 0 0 0 0 314607111.56849313 -95660387.535110876 0 -95660387.535110876 -20005757.672900818 0 0 0 0 106321433.80528033 -133913111.23227914 0 -133913111.23227914 158992493.95379752 0 0 0 0 21899561.552553177 -8804086.1895447057 0 -8804086.1895447057 33158425.179549277 0 0 0 0 14389754.977231026 -33769331.918365054 0 -33769331.918365054 47956222.537669666 0 0 0 0 126064492.07678598 -54938459.642339706 0 -54938459.642339706 -877106.86653504521 0 0 0 0 11588744.254339695 -54985179.020929225 0 -54985179.020929225 -4055240.3327534497 0 0 0 0 -17166315.394669533 -25596621.408684112 0 -25596621.408684112 22129753.421581749 0 0 0 0 13783763.503726959 -28466339.63423463 0 -28466339.63423463 13598874.874765523 0 0 0 0 -19256102.657583475 -51267033.247468688 0 -51267033.247468688 12356703.487687677 0 0 0 0 -18123353.010408401 -47678587.155029751 0 -47678587.155029751 9896217.817320127 0 0 0 0 1450553.3787717819 -47148149.855474167 0 -47148149.855474167 2784357.721812129 0 0 0 0 -20350071.495883644 -46850968.497252963 0 -46850968.497252963 9714180.8739898764 0 0 0 0 -1871092.4734396935 -36421645.99186746 0 -36421645.99186746 -19982065.579977833 0 0 0 0 -16222113.985359669 -68739262.766517401 0 -68739262.766517401 46255892.142755061 0 0 0 0 545110.55871002795 -293548.1151005103 0 -293548.1151005103 -49531.152248074359 0 0 0 0 13394213.462035179 -24420895.687404692 0 -24420895.687404692 -54076380.70443064 0 0 0 0 -7952904.3330087662 -12461496.260945961 0 -12461496.260945961 -12054870.366338208 0 0 0 0 13085274.250301361 -19255882.617587954 0 -19255882.617587954 20843104.678922445 0 0 0 0 667402.23527909443 -249248.9696308148 0 -249248.9696308148 -33266.213097497079 0 0 0 0 -8011098.4132242203 -15965706.632186353 0 -15965706.632186353 25371719.997864969 0 0 0 0 132720031.36298513 27445388.582773406 0 27445388.582773406 -107528563.2477964 0 0 0 0 -40598962.287481308 -78161353.290822923 0 -78161353.290822923 82383758.765240461 0 0 0 0 -38227524.530921936 -42848727.299540102 0 -42848727.299540102 88668636.076841712 0 0 0 0 2188181.3018398285 10063551.988501448 0 10063551.988501448 2920668.4777986193 0 0 0 0 82960.072639663704 -172059.98575665872 0 -172059.98575665872 198085.36966513726 0 0 0 0 55944223.916410081 -60604071.614715412 0 -60604071.614715412 51507873.398042709 0 0 0 0 55700741.319821358 -34111174.434881046 0 -34111174.434881046 -2131556.4217184596 0 0 0 0 90804767.366426468 -64259177.100694716 0 -64259177.100694716 43461921.764709577 0 0 0 0 58482209.366682053 -27641418.246691369 0 -27641418.246691369 28562471.669550996 0 0 0 0 140733289.81139135 -11441368.226526648 0 -11441368.226526648 -24959963.325308535 0 0 0 0 60186682.564154148 102604013.53056662 0 102604013.53056662 2433092.0172601063 0 0 0 0 341260.34334514383 -187967.37443077998 0 -187967.37443077998 14661.253624410976 0 0 0 0 314327301.75389767 12228581.307666115 0 12228581.307666115 -27332149.698678352 0 0 0 0 6391447.5414400101 -74220345.631346762 0 -74220345.631346762 50558802.124671496 0 0 0 0 15486216.29736948 19126310.923726492 0 19126310.923726492 24474032.353878468 0 0 0 0 15137871.23202467 13468689.901259392 0 13468689.901259392 1039820.0526200231 0 0 0 0 5259130.1829409599 27838878.775490046 0 27838878.775490046 14000938.452707171 0 0 0 0 10450639.711402416 23028591.799600005 0 23028591.799600005 1204383.6000419855 0 0 0 0 4507047.7032995224 19594598.011804521 0 19594598.011804521 -6540865.8638550043 0 0 0 0 6270818.3920788765 14908753.659427583 0 14908753.659427583 -12389560.572121382 0 0 0 0 28334080.422076225 12475804.29895255 0 12475804.29895255 -23052211.983508825 0 0 0 0 12121879.620268345 2096731.0074524581 0 2096731.0074524581 -14646707.306372523 0 0 0 0 70865160.236310005 12015086.476323128 0 12015086.476323128 -13075619.806463443 0 0 0 0 13913857.02167654 10406313.573258817 0 10406313.573258817 -28644981.691941082 0 0 0 0 18234479.668999672 -8262523.9873041511 0 -8262523.9873041511 -27266086.201114193 0 0 0 0 -8766918.2549276352 -56295705.206016898 0 -56295705.206016898 -37186036.34790121 0 0 0 0 23598810.259748459 -45540429.483177975 0 -45540429.483177975 49674635.862154208 0 0 0 0 -46333588.172162056 -17465335.858726695 0 -17465335.858726695 39404012.639167666 0 0 0 0 8368690.3030285835 -3385490.1643665582 0 -3385490.1643665582 61068622.664668389 0 0 0 0 24443433.482044697 -51349717.542698205 0 -51349717.542698205 36190551.754808277 0 0 0 0 200895.69374412997 -144881.8473495901 0 -144881.8473495901 -20785.567164871834 0 0 0 0 56896959.229118407 -88761917.863909796 0 -88761917.863909796 143086774.455883 0 0 0 0 31468763.9923172 39425302.837422289 0 39425302.837422289 -63746867.691671573 0 0 0 0 12272374.518853188 -43569758.182807602 0 -43569758.182807602 -28752113.561086059 0 0 0 0 31907058.034662247 -76514473.434351504 0 -76514473.434351504 23690165.181208611 0 0 0 0 43219430.65655899 -62776111.014120705 0 -62776111.014120705 -10673905.98401517 0 0 0 0 106026777.06189823 12061702.410064273 0 12061702.410064273 -72965700.600393534 0 0 0 0 73317680.410634995 -81721635.047444701 0 -81721635.047444701 -4220952.6254722774 0 0 0 0 78126687.594614983 -20812297.121636793 0 -20812297.121636793 21025108.877687514 0 0 0 0 84306788.872442245 21771630.6026159 0 21771630.6026159 -60024258.300125144 0 0 0 0 86034045.065859556 -1196782.5929309614 0 -1196782.5929309614 23907708.721274585 0 0 0 0 29103286.763704777 -29788943.61595301 0 -29788943.61595301 64277575.473660499 0 0 0 0 90844236.949808002 31173271.14965523 0 31173271.14965523 23051791.240808539 0 0 0 0 -8061010.6251511574 -21992160.956168108 0 -21992160.956168108 -5977147.4016792402 0 0 0 0 9799750.0008695126 5882870.3236425808 0 5882870.3236425808 29175792.113445852 0 0 0 0 2071299.7684960365 -34997744.871123776 0 -34997744.871123776 23664547.823616043 0 0 0 0 28902888.922187328 -11478799.68863227 0 -11478799.68863227 38113006.594333321 0 0 0 0 31879671.460122585 -18352416.458764225 0 -18352416.458764225 5590007.4346207976 0 0 0 0 26149066.213614941 -15545227.280991379 0 -15545227.280991379 -15315303.310253389 0 0 0 0 11346626.828488827 -32794599.754138768 0 -32794599.754138768 7948574.6664642459 0 0 0 0 7746859.6303341389 -23353736.098604161 0 -23353736.098604161 -13884461.641082488 0 0 0 0 102163025.40552521 -71500036.2698531 0 -71500036.2698531 58395983.135431647 0 0 0 0 131319.79029026814 -6621.934309858596 0 -6621.934309858596 -57551.838083307579 0 0 0 0 63773386.086841583 76446769.706493199 0 76446769.706493199 64574115.957451165 0 0 0 0 127154017.00446129 88488283.682795018 0 88488283.682795018 36113747.398639798 0 0 0 0 102107338.34273815 46484099.226284422 0 46484099.226284422 21371526.925830454 0 0 0 0 145778649.80988359 19498864.101702884 0 19498864.101702884 15531944.050503284 0 0 0 0 57253198.558848381 6866566.9748428464 0 6866566.9748428464 21237837.198978752 0 0 0 0 63928353.059249878 1961840.3996716514 0 1961840.3996716514 14557649.979595125 0 0 0 0 9529453.4887962341 -19520964.494718663 0 -19520964.494718663 13292540.557356481 0 0 0 0 -23114448.18606472 10805426.145979192 0 10805426.145979192 -736494.13256130682 0 0 0 0 45937733.256328583 13177758.649415866 0 13177758.649415866 22543075.30476575 0 0 0 0 52633661.755581379 21439414.009416871 0 21439414.009416871 -64032.97538138181 0 0 0 0 55900218.012085915 15319328.989287544 0 15319328.989287544 3298714.1626098007 0 0 0 0 42880140.560211182 52035313.632354461 0 52035313.632354461 64089350.355302349 0 0 0 0 52134668.95075798 37359412.24862083 0 37359412.24862083 -8124915.5011430979 0 0 0 0 20863157.69851017 -3399366.1640574783 0 -3399366.1640574783 -61227268.091154695 0 0 0 0 54004321.712777138 41048705.37649098 0 41048705.37649098 -52539368.262366652 0 0 0 0 143789.26228065841 -43436.903242638102 0 -43436.903242638102 -131132.01076931498 0 0 0 0 -13165756.910144761 -19628289.223464776 0 -19628289.223464776 -21392199.920239985 0 0 0 0 -8129923.9562134594 22061829.481081359 0 22061829.481081359 -28217212.058466095 0 0 0 0 3444527.0048246384 -594891.10292686522 0 -594891.10292686522 -2457900.595404081 0 0 0 0 2429278.4170069695 3889141.3855651915 0 3889141.3855651915 -13199552.489472419 0 0 0 0 9115873.0367496014 -16119533.860193873 0 -16119533.860193873 -14651270.355739504 0 0 0 0 19755778.120569706 -10714620.607879015 0 -10714620.607879015 -28865313.359637342 0 0 0 0 7387561.7846260071 -40820756.298212238 0 -40820756.298212238 -34403327.802161485 0 0 0 0 17991979.27775383 -1458767.7259801477 0 -1458767.7259801477 -66904019.222657725 0 0 0 0 2763073.0295021534 7673369.003390016 0 7673369.003390016 -23759930.988091439 0 0 0 0 -1334183.9699697495 3524483.0540315211 0 3524483.0540315211 -3084515.1561518461 0 0 0 0 4344303.7064790726 -1165989.1496473476 0 -1165989.1496473476 -9048825.3390486836 0 0 0 0 3998600.8143757582 -2170549.8257061187 0 -2170549.8257061187 -6739229.0342751443 0 0 0 0 2758798.6774730682 -6756850.0726876333 0 -6756850.0726876333 -12848186.761064686 0 0 0 0 -9654.5963313579559 -4345805.7895293422 0 -4345805.7895293422 -2477548.5767676532 0 0 0 0 115394.21086406708 -11584466.669632984 0 -11584466.669632984 -5761248.4611790776 0 0 0 0 1118644.3139820099 -11008705.227969475 0 -11008705.227969475 -11780321.552352315 0 0 0 0 7856794.3860599995 2137073.8009093404 0 2137073.8009093404 -263340.80950836837 0 0 0 0 -6200105.3453035355 -9411540.4626177698 0 -9411540.4626177698 -5941573.3689903319 0 0 0 0 515362.19964974665 -38636.348918659845 0 -38636.348918659845 20542.511564557361 0 0 0 0 2769729.3090772629 2622115.9317962788 0 2622115.9317962788 1036696.8937010095 0 0 0 0 1725668.6668317318 -1271118.8214460099 0 -1271118.8214460099 -294067.18892498314 0 0 0 0 2189637.1605858803 -553797.42231985554 0 -553797.42231985554 601983.36972695589 0 0 0 0 4325054.4425020218 -2845129.0689946339 0 -2845129.0689946339 1077898.6249354407 0 0 0 0 4053596.7942016125 -2623211.3731000391 0 -2623211.3731000391 1711381.0097675025 0 0 0 0 3727946.8468923569 593317.13529581577 0 593317.13529581577 1158420.8803662546 0 0 0 0 2653652.0414705276 -10139819.125761189 0 -10139819.125761189 25474120.285010986 0 0 0 0 220157.32930874312 117603.51871712133 0 117603.51871712133 -80088.547522834851 0 0 0 0 -29278.798625946045 -2717378.2839895487 0 -2717378.2839895487 12027112.507578745 0 0 0 0 -1156839.3030443192 759471.23233862221 0 759471.23233862221 6636916.1543489844 0 0 0 0 2705261.2503986359 780946.06820059568 0 780946.06820059568 -4672255.7657168834 0 0 0 0 3620377.056728363 -7781270.8113042414 0 -7781270.8113042414 4312467.6625724286 0 0 0 0 4828798.5769872665 -6493847.2539690472 0 -6493847.2539690472 2211666.8621271998 0 0 0 0 13029314.034981728 -14622223.942671098 0 -14622223.942671098 -4822676.9104364514 0 0 0 0 6007125.1907691956 -13048298.116851494 0 -13048298.116851494 14300428.584148848 0 0 0 0 3406243.3795146942 -953851.00064631924 0 -953851.00064631924 -1579668.7605794854 0 0 0 0 10358808.443399668 -4694394.0822602808 0 -4694394.0822602808 -6628118.5064008459 0 0 0 0 9595690.6008319855 -6389380.0426884554 0 -6389380.0426884554 558069.23725916073 0 0 0 0 8038931.8327441216 -4488879.8997963425 0 -4488879.8997963425 -1687026.5656549186 0 0 0 0 7073457.3155345917 -397954.43980950676 0 -397954.43980950676 755735.58606534079 0 0 0 0 6147278.5242652893 -544360.44859427027 0 -544360.44859427027 1068351.204620868 0 0 0 0 8461466.1544933319 -3345254.7942995746 0 -3345254.7942995746 962828.77431188151 0 0 0 0 10460627.944074154 -2178417.9390398394 0 -2178417.9390398394 139185.90312176012 0 0 0 0 13757256.73260498 605102.29788439069 0 605102.29788439069 -358306.25247242814 0 0 0 0 8009560.9864177704 -3997442.695489882 0 -3997442.695489882 -241326.04743136838 0 0 0 0 9408098.0102500916 -1116429.6656689178 0 -1116429.6656689178 -840461.72312065633 0 0 0 0 4848113.8886375427 -1629849.357281507 0 -1629849.357281507 778755.10085091367 0 0 0 0 8415059.9110884666 -5585868.8677681442 0 -5585868.8677681442 3445198.8193463665 0 0 0 0 8975611.5674991608 -1301498.4166986104 0 -1301498.4166986104 3529842.4166480391 0 0 0 0 59613.260409437236 4584.9380809722934 0 4584.9380809722934 23425.234206243495 0 0 0 0 30815113.761454105 -540944.14738018811 0 -540944.14738018811 -1430248.2821856616 0 0 0 0 14637428.8013587 334861.41156025743 0 334861.41156025743 1303506.0038479064 0 0 0 0 -20781005.268810272 -5434902.0016740188 0 -5434902.0016740188 -1565559.8196363461 0 0 0 0 -35635435.6083498 -6527829.9479367938 0 -6527829.9479367938 11501338.427796597 0 0 0 0 -10612521.892584801 -13845340.435298828 0 -13845340.435298828 7745866.5387846306 0 0 0 0 -18163121.828679085 -15399710.110785034 0 -15399710.110785034 18465422.424766816 0 0 0 0 -14744089.928923607 -11058580.583517838 0 -11058580.583517838 -4277411.4907693043 0 0 0 0 -3122980.0120325089 -24183422.533699229 0 -24183422.533699229 6079070.65633744 0 0 0 0 -23491527.786045194 -16884358.453356598 0 -16884358.453356598 533584.97190176696 0 0 0 0 222614.58842544421 -4090.9391776318662 0 -4090.9391776318662 42679.613960625647 0 0 0 0 10141190.498576641 -8127212.6618983746 0 -8127212.6618983746 -10580219.877963662 0 0 0 0 5376332.4782443047 -4527684.4381288588 0 -4527684.4381288588 -13164852.105433464 0 0 0 0 3969569.2526187897 -8417468.5942549706 0 -8417468.5942549706 -5325056.3754179589 0 0 0 0 8595711.7469615936 -7220811.1212085485 0 -7220811.1212085485 -5301951.1589308977 0 0 0 0 4323331.6715955734 -7666671.2377910018 0 -7666671.2377910018 -8322624.6063878536 0 0 0 0 -2104889.4078702927 -6580895.7261901498 0 -6580895.7261901498 -6497938.2119449377 0 0 0 0 1732968.7249336243 -8951071.8144961596 0 -8951071.8144961596 -7995012.839992702 0 0 0 0 -7716449.0277175903 -13456345.068063766 0 -13456345.068063766 -6430150.3959789276 0 0 0 0 1024360.1877392302 -1061953.1248137574 0 -1061953.1248137574 571535.44476548105 0 0 0 0 -10523763.561048031 -4565047.3061756566 0 -4565047.3061756566 -515357.85068602115 0 0 0 0 -2146155.1320772171 -12099170.256530881 0 -12099170.256530881 -4170470.82822299 0 0 0 0 -3512689.0793447495 -9273370.3628467321 0 -9273370.3628467321 -9651989.8977174759 0 0 0 0 376713.09988212585 -9429431.1796196699 0 -9429431.1796196699 -5287195.6813924313 0 0 0 0 25936825.463745117 -28915469.725825742 0 -28915469.725825742 24178057.786879569 0 0 0 0 -16592748.994968414 -7664627.5962609053 0 -7664627.5962609053 -1602155.3405052423 0 0 0 0 12049488.138825417 16885305.513002079 0 16885305.513002079 -26504141.561084449 0 0 0 0 22897456.084093094 -31843010.661811154 0 -31843010.661811154 20146635.083830833 0 0 0 0 72028749.243022919 -17168483.401826315 0 -17168483.401826315 -42498192.268771671 0 0 0 0 14214002.758987427 -8504387.7910088785 0 -8504387.7910088785 -2867993.2055910341 0 0 0 0 3365856.971704483 -1308173.2365686651 0 -1308173.2365686651 -2112804.0937962979 0 0 0 0 -11204209.8919487 6192893.6284691375 0 6192893.6284691375 -3289007.8098176122 0 0 0 0 -2617791.0311670303 -1920809.5676663336 0 -1920809.5676663336 2202290.6663081832 0 0 0 0 1231587.210848093 -2758211.8939571762 0 -2758211.8939571762 1649637.5796165448 0 0 0 0 1949598.7326669693 -4250156.3900068384 0 -4250156.3900068384 2807731.952560883 0 0 0 0 -2884606.017013073 -1898059.3442824353 0 -1898059.3442824353 2487914.3911331743 0 0 0 0 -339050.02604961395 -2758416.2719250461 0 -2758416.2719250461 4491373.1132403556 0 0 0 0 2329402.0495510101 -1121290.006777579 0 -1121290.006777579 2169267.6800488327 0 0 0 0 -1001153.7882180214 -849064.92633838183 0 -849064.92633838183 2172416.7952123508 0 0 0 0 -646076.30811304878 -674927.62279516819 0 -674927.62279516819 345410.49685721408 0 0 0 0 -2950927.7006855011 -738471.12326515652 0 -738471.12326515652 857677.49769092491 0 0 0 0 -2341532.7429859638 -2584914.6675903099 0 -2584914.6675903099 1225896.3172968416 0 0 0 0 -2005842.1176409721 -2616247.6934805242 0 -2616247.6934805242 -634280.54880000628 0 0 0 0 1058417.2787866592 155406.68234951794 0 155406.68234951794 -13216043.453199267 0 0 0 0 569936.97270393372 -2095649.6859371662 0 -2095649.6859371662 -7127461.9671703875 0 0 0 0 676983.61543106986 -978980.81022504414 0 -978980.81022504414 544621.90687180217 0 0 0 0 24845072.737518311 13470929.068452626 0 13470929.068452626 -7176796.9838774726 0 0 0 0 2897070.7826185226 -972399.72032302618 0 -972399.72032302618 6913910.7187355161 0 0 0 0 69851555.905654907 -1747144.2635331154 0 -1747144.2635331154 -4097405.0719358921 0 0 0 0 -33173.791764696594 3532.4122805462684 0 3532.4122805462684 26506.129402810126 0 0 0 0 -35291502.5520401 -9483941.6504483223 0 -9483941.6504483223 14249822.690467536 0 0 0 0 15307281.663721085 -7689854.4824256897 0 -7689854.4824256897 -17370304.717759162 0 0 0 0 42579511.493471146 8311189.5243405104 0 8311189.5243405104 -34327133.480696082 0 0 0 0 46697164.242609024 59947.636683642864 0 59947.636683642864 -21629446.475232005 0 0 0 0 29067894.33609581 -27735907.166476727 0 -27735907.166476727 5366708.6778030694 0 0 0 0 43326455.308336258 -1756553.1677189618 0 -1756553.1677189618 -20873507.798683047 0 0 0 0 219390.55766293872 -156995.01583357807 0 -156995.01583357807 156160.2129631266 0 0 0 0 36477371.720157623 -23346320.313319065 0 -23346320.313319065 -23211115.761774801 0 0 0 0 24973387.806630135 -6202479.1313236505 0 -6202479.1313236505 -37032945.395728707 0 0 0 0 -3445984.5213279724 -2839564.9823548794 0 -2839564.9823548794 21981881.020418465 0 0 0 0 7257166.0134558678 6488686.1922239289 0 6488686.1922239289 67308030.020596504 0 0 0 0 47198807.189159393 33693113.823740348 0 33693113.823740348 18203407.372443736 0 0 0 0 -11162704.703220367 19179302.212404892 0 19179302.212404892 18235154.145374656 0 0 0 0 8889588.1243910789 6373498.8887801394 0 6373498.8887801394 12291297.717427611 0 0 0 0 -2575465.2415447235 3113771.8487220407 0 3113771.8487220407 20716027.017517924 0 0 0 0 -8476890.9006175995 19592710.215310141 0 19592710.215310141 5902671.9830715656 0 0 0 0 -10229446.361413956 1859832.4493461847 0 1859832.4493461847 10518394.962104723 0 0 0 0 1055.684940520674 -138677.88303657668 0 -138677.88303657668 44577.849919007684 0 0 0 0 -5670674.8649482727 10186426.439592898 0 10186426.439592898 5299692.8966446221 0 0 0 0 -6226839.4860773087 7005312.7788937986 0 7005312.7788937986 -3602250.4022936225 0 0 0 0 -10697757.291294575 -720297.83638072014 0 -720297.83638072014 -173732.9412252903 0 0 0 0 -5737766.8921527863 -3597601.0051158071 0 -3597601.0051158071 -723145.47789406404 0 0 0 0 -7853775.958065033 -5531681.9428145885 0 -5531681.9428145885 -652891.98713970184 0 0 0 0 -3235317.9478076696 -5281436.988297902 0 -5281436.988297902 2600042.7835582495 0 0 0 0 -12077984.428600311 562953.99555490911 0 562953.99555490911 -992259.53195375204 0 0 0 0 -19306339.652420044 101835.56975205988 0 101835.56975205988 -1018137.6100495986 0 0 0 0 -14784388.761379242 -7811594.4697762858 0 -7811594.4697762858 -2758126.5680990145 0 0 0 0 -10615152.083691597 -7947557.2515013702 0 -7947557.2515013702 -2756337.6242053509 0 0 0 0 -6532164.8046970367 -8064212.7132904306 0 -8064212.7132904306 -5045858.1991001219 0 0 0 0 -7860782.2155685425 -8439009.2954128981 0 -8439009.2954128981 -5129806.5024693161 0 0 0 0 1449141.5127512477 -328027.57045669493 0 -328027.57045669493 -190773.91898363165 0 0 0 0 -6413282.3559656143 -7276132.578770034 0 -7276132.578770034 -4397594.9223329723 0 0 0 0 417786.55621486157 -522868.38244544808 0 -522868.38244544808 -188046.88453422874 0 0 0 0 -5521618.0027523041 -5869873.1254409552 0 -5869873.1254409552 -2372137.6274451017 0 0 0 0 -8008595.2405014038 -8505514.121771872 0 -8505514.121771872 -4325867.1321239471 0 0 0 0 7208040.4866046906 2164359.1307074726 0 2164359.1307074726 -1151768.2871247828 0 0 0 0 -4636403.3818678856 -10030871.606772393 0 -10030871.606772393 4741172.8195847273 0 0 0 0 -1496334.6233463287 4190071.3858855069 0 4190071.3858855069 -634181.70824137144 0 0 0 0 -353247.61555480957 -563259.92036891729 0 -563259.92036891729 -2354878.7818850949 0 0 0 0 -1038576.9959201813 -1205116.8061096054 0 -1205116.8061096054 4669032.2687081844 0 0 0 0 -776627.65425114473 -642161.74354001461 0 -642161.74354001461 301729.35227469221 0 0 0 0 1947999.3070702553 -3654528.0543002784 0 -3654528.0543002784 1497264.2580779791 0 0 0 0 1061030.7011296134 -787061.12157596415 0 -787061.12157596415 -301807.56765858718 0 0 0 0 617404.55571770668 -627791.12232785672 0 -627791.12232785672 -98863.418687999249 0 0 0 0 268215.26146376133 -335224.78256671876 0 -335224.78256671876 134084.38227900863 0 0 0 0 63412.360113620758 -876575.30189763755 0 -876575.30189763755 574002.84710043669 0 0 0 0 1093402.0592060089 -915962.0771073699 0 -915962.0771073699 374054.1805075109 0 0 0 0 426823.79790115356 -837842.32244092226 0 -837842.32244092226 421134.31724709272 0 0 0 0 786426.30446338654 -701587.03674685955 0 -701587.03674685955 -493460.59139348567 0 0 0 0 1679404.9686565399 -1195828.8690183163 0 -1195828.8690183163 -890522.28613442183 0 0 0 0 1313268.3122253418 -1239836.0926134288 0 -1239836.0926134288 25440.285767421126 0 0 0 0 1231701.0810866356 -1327379.9154892862 0 -1327379.9154892862 528157.81715756655 0 0 0 0 2508799.8579292297 -1921666.921847716 0 -1921666.921847716 -506480.2126827538 0 0 0 0 1675495.8017854691 -1155497.9719126299 0 -1155497.9719126299 -1024481.0506705269 0 0 0 0 4616710.2847290039 -2235418.2180858105 0 -2235418.2180858105 -1645693.4652510881 0 0 0 0 2432770.0714855194 -493655.68643702567 0 -493655.68643702567 -2749134.0315048471 0 0 0 0 2537334.571421802 -1599830.3075577784 0 -1599830.3075577784 231871.95859879255 0 0 0 0 3384002.883638382 8419.1015856266022 0 8419.1015856266022 -1412327.0062816739 0 0 0 0 4389405.7992668152 -2009082.9179280698 0 -2009082.9179280698 296616.29043078423 0 0 0 0 1095026.3012065887 -1228959.8478353918 0 -1228959.8478353918 172904.24442332983 0 0 0 0 2524865.5847301483 -401147.47112423182 0 -401147.47112423182 1617340.2581282258 0 0 0 0 2078115.1762924194 -1838245.6319112182 0 -1838245.6319112182 2044274.2229242921 0 0 0 0 950886.53747367859 -1130086.1513718367 0 -1130086.1513718367 920547.79764813185 0 0 0 0 2116639.8580551147 -1508210.1893163919 0 -1508210.1893163919 498144.39732533693 0 0 0 0 2282063.547416687 -1001686.2662369013 0 -1001686.2662369013 196771.38920122385 0 0 0 0 3973285.2514390945 -1687283.1313838959 0 -1687283.1313838959 2523876.7375383973 0 0 0 0 2733054.2030067444 4797078.6816458106 0 4797078.6816458106 1698436.85234043 0 0 0 0 8429206.0893478394 -4113556.6601001024 0 -4113556.6601001024 6237686.0800406933 0 0 0 0 -5332656.8070907593 3150869.1046122313 0 3150869.1046122313 14979710.073986053 0 0 0 0 21928854.739618301 -6367718.7126124203 0 -6367718.7126124203 2778126.3958876133 0 0 0 0 -6784598.1187067032 -6052423.8647691458 0 -6052423.8647691458 23215535.619951487 0 0 0 0 9707036.4590196609 -13946637.483903356 0 -13946637.483903356 15488433.300607681 0 0 0 0 13675027.066572189 -228222.90269732475 0 -228222.90269732475 1003590.2614181042 0 0 0 0 9133962.0056591034 -1534155.3574262857 0 -1534155.3574262857 1206941.1390637606 0 0 0 0 4711251.1400566101 -2962600.6212927103 0 -2962600.6212927103 2843847.4419053644 0 0 0 0 7482998.1677474976 -5341203.1216068268 0 -5341203.1216068268 8093124.9277107716 0 0 0 0 6329342.5490379333 -1014054.5317777991 0 -1014054.5317777991 1806383.3922548294 0 0 0 0 7156797.1133441925 -2257678.3687046766 0 -2257678.3687046766 -1070339.0589854717 0 0 0 0 8600393.2525253296 -587545.74382695556 0 -587545.74382695556 -469340.15932232141 0 0 0 0 4841797.07145226 274315.25800958462 0 274315.25800958462 -3733337.632286638 0 0 0 0 7207643.1805887222 166501.19283556938 0 166501.19283556938 -5671839.2487433255 0 0 0 0 13158612.479403496 1687036.0018160492 0 1687036.0018160492 -1131850.5091458559 0 0 0 0 6445684.2993439436 2461589.9658806007 0 2461589.9658806007 -780744.37927359343 0 0 0 0 1776160.3334989548 2238567.6798816621 0 2238567.6798816621 3432640.9006205201 0 0 0 0 6091925.9422140121 6800503.0989761055 0 6800503.0989761055 5206151.2013968825 0 0 0 0 3738498.6059889793 2327001.1037916578 0 2327001.1037916578 -2098318.3699169084 0 0 0 0 -14806067.671934605 -12250572.644831374 0 -12250572.644831374 6810001.8222246468 0 0 0 0 573599.19171476364 -3836345.3073512167 0 -3836345.3073512167 6497743.1928460002 0 0 0 0 978321.61341329943 -70606.865510512464 0 -70606.865510512464 -92018.765169737424 0 0 0 0 177545.84136462817 42084.240213557146 0 42084.240213557146 -38501.643394700644 0 0 0 0 17043808.417684555 7455416.3366689272 0 7455416.3366689272 2456280.0394048691 0 0 0 0 -12214896.635972977 -10942208.41850704 0 -10942208.41850704 -9407861.8384950608 0 0 0 0 -114516.05899168411 -97871.914525442437 0 -97871.914525442437 46795.607633957312 0 0 0 0 -14148065.91836834 3875991.6516688578 0 3875991.6516688578 870689.35836217552 0 0 0 0 -34174089.343425751 -10522571.982156977 0 -10522571.982156977 4979487.0651984811 0 0 0 0 -40156736.559216976 15408351.685128734 0 15408351.685128734 33634719.596040562 0 0 0 0 -35879396.191201448 2638364.5056165708 0 2638364.5056165708 24727047.68174218 0 0 0 0 -28126636.594790936 6898580.8466991801 0 6898580.8466991801 6654174.0828369856 0 0 0 0 -17002052.488057137 -2402648.3424821971 0 -2402648.3424821971 6248721.0796938483 0 0 0 0 2675027.4632759094 -5319385.9000294209 0 -5319385.9000294209 1329984.951969564 0 0 0 0 18443973.446546078 -11076696.431201296 0 -11076696.431201296 4750532.5404737107 0 0 0 0 3913852.5815763474 -7357624.7607957795 0 -7357624.7607957795 10413237.907185595 0 0 0 0 5290330.7271566391 424163.79088500887 0 424163.79088500887 2773995.4639092796 0 0 0 0 -2540493.2308301926 3579611.8953893334 0 3579611.8953893334 1340134.6564940028 0 0 0 0 3068893.4053971767 -4508335.3154368699 0 -4508335.3154368699 6296955.5924974866 0 0 0 0 7209340.0748138428 -904751.86483903602 0 -904751.86483903602 2118654.0427418314 0 0 0 0 -2918371.2096176147 -2127596.6981218122 0 -2127596.6981218122 3990298.3472833149 0 0 0 0 5423996.7143993378 -3840108.6034401581 0 -3840108.6034401581 -3060757.2073815539 0 0 0 0 1052814.0496606827 191742.88310733438 0 191742.88310733438 1039632.2862816155 0 0 0 0 -348112.66513035586 -367224.72226986825 0 -367224.72226986825 175174.74933155937 0 0 0 0 1139067.5620026886 1444579.2043528929 0 1444579.2043528929 -2221019.7677849531 0 0 0 0 1909228.8175907135 -1300817.3646538854 0 -1300817.3646538854 1304605.7169995308 0 0 0 0 2448956.719877243 -822134.55644410849 0 -822134.55644410849 -1186190.6311789751 0 0 0 0 -248123.84072303772 -1597063.2555037737 0 -1597063.2555037737 -936439.14440217614 0 0 0 0 816422.19471255597 -479234.44671634212 0 -479234.44671634212 -198274.44321574672 0 0 0 0 1616083.7719573975 -51995.232078760862 0 -51995.232078760862 -732849.26377147436 0 0 0 0 867419.57388544083 -911659.38173925877 0 -911659.38173925877 165668.17035451159 0 0 0 0 124650.81532150926 -48301.277901414782 0 -48301.277901414782 -43674.166738959 0 0 0 0 1133679.7754149437 -607925.45025843568 0 -607925.45025843568 -729294.29369360209 0 0 0 0 710690.38825893402 -665827.36017470062 0 -665827.36017470062 -94364.303159438074 0 0 0 0 1033407.8631771803 -962638.22975117899 0 -962638.22975117899 -763697.61637118459 0 0 0 0 550511.0452709198 -14163.167836740613 0 -14163.167836740613 -979717.90545285866 0 0 0 0 1636150.7160692215 851962.1915564537 0 851962.1915564537 -1726002.5164455175 0 0 0 0 3271092.0366754532 -2644975.8855267763 0 -2644975.8855267763 -653827.27903036773 0 0 0 0 686651.43938773358 -461125.10302352707 0 -461125.10302352707 -251526.89150410294 0 0 0 0 2697534.4897966385 -3121950.0162160397 0 -3121950.0162160397 740884.10763405263 0 0 0 0 820316.84167663241 -527946.27915821609 0 -527946.27915821609 -364576.41735361173 0 0 0 0 2815785.9487514496 -3872665.3907743692 0 -3872665.3907743692 1999020.202480197 0 0 0 0 -1983269.6683664322 3170975.6705949306 0 3170975.6705949306 -4555850.4256342649 0 0 0 0 89443.847886204254 157704.13212753506 0 157704.13212753506 -165652.14823755276 0 0 0 0 -8865628.4267261028 7458378.2025811821 0 7458378.2025811821 -2831281.809432447 0 0 0 0 -2967111.0812950134 -53978.426392316818 0 -53978.426392316818 284352.64812761545 0 0 0 0 -1823551.1122522354 310184.79152816534 0 310184.79152816534 87054.46782040596 0 0 0 0 -15678094.344207525 367207.44317439944 0 367207.44317439944 11199903.783386111 0 0 0 0 853214.46478229761 -2591305.3485948956 0 -2591305.3485948956 -4196899.3312867284 0 0 0 0 -12370422.61271286 -4568340.735509038 0 -4568340.735509038 -1280890.2607997954 0 0 0 0 -17899497.542562008 8478018.136914432 0 8478018.136914432 6291587.9519275725 0 0 0 0 -18070260.821810246 12310390.655209243 0 12310390.655209243 3875009.4350345135 0 0 0 0 -8139400.4046428502 3980063.7393103251 0 3980063.7393103251 -587262.14145839214 0 0 0 0 -7690373.6424701363 14464232.973443706 0 14464232.973443706 -8072139.2428721189 0 0 0 0 1122348.7316087559 -538567.70077401656 0 -538567.70077401656 -290366.29580621404 0 0 0 0 -2151508.6189904213 5959115.3019552529 0 5959115.3019552529 -8564315.5983542204 0 0 0 0 430748.01680278778 -282852.7100456357 0 -282852.7100456357 -320100.29961100593 0 0 0 0 547854.1472530365 -264706.45807495713 0 -264706.45807495713 -327012.83414062858 0 0 0 0 1006680.2571158409 -245787.7551174112 0 -245787.7551174112 -655670.55648165476 0 0 0 0 1032424.7565367222 -248886.66671935283 0 -248886.66671935283 -1120454.3318560123 0 0 0 0 899389.09697137354 -516470.61734971509 0 -516470.61734971509 -57915.134040046658 0 0 0 0 31040.695128500927 39589.871973112691 0 39589.871973112691 -72092.141250150788 0 0 0 0 -395882.82111120224 941582.32732670009 0 941582.32732670009 -480143.03607505932 0 0 0 0 390031.21162986755 -1318598.0515177846 0 -1318598.0515177846 2165172.37810646 0 0 0 0 1598690.0782966614 -4015714.5966397189 0 -4015714.5966397189 -2168547.9100329839 0 0 0 0 1522690.4348535538 -382172.57507114112 0 -382172.57507114112 -2089969.0177867413 0 0 0 0 1529900.975165149 -274728.67589318263 0 -274728.67589318263 -325848.51113777206 0 0 0 0 -390088.77945327759 951817.59964430332 0 951817.59964430332 329135.63959884644 0 0 0 0 -466495.3625497818 1434315.2694914192 0 1434315.2694914192 -1395031.8751425743 0 0 0 0 1525800.274104916 -215348.10767171497 0 -215348.10767171497 -329853.56779555348 0 0 0 0 -858018.0828166008 -36148.187839969993 0 -36148.187839969993 104909.57823777199 0 0 0 0 1010911.8633513777 -140638.24334056856 0 -140638.24334056856 -259385.01368175296 0 0 0 0 3869569.8577165604 -1413189.9332305342 0 -1413189.9332305342 -3175541.2190094888 0 0 0 0 1027690.7329492569 -820303.85442278907 0 -820303.85442278907 -1419099.1893537082 0 0 0 0 6684224.3759794235 -739370.69840431213 0 -739370.69840431213 -3060212.1474201791 0 0 0 0 693274.30557823181 -842956.02576683834 0 -842956.02576683834 -812418.14230990596 0 0 0 0 -1255293.2147703767 -2993675.3281444367 0 -2993675.3281444367 -403675.62280675769 0 0 0 0 987367.18135835114 -178343.55529234267 0 -178343.55529234267 -173832.04874772814 0 0 0 0 2417676.4689407349 1925435.314958334 0 1925435.314958334 -6074590.4076018333 0 0 0 0 8809886.9614400864 3040505.0245897733 0 3040505.0245897733 -3068536.8889973089 0 0 0 0 10420.197548749391 -14017.084110637807 0 -14017.084110637807 -23841.856568735373 0 0 0 0 -5041026.5033016205 1950831.1307295002 0 1950831.1307295002 4954758.5567690786 0 0 0 0 1904356.734559536 2014579.7394812778 0 2014579.7394812778 1375700.6918457747 0 0 0 0 -88642.181883335114 -739693.01942032576 0 -739693.01942032576 -2949814.432330966 0 0 0 0 1352121.8386831284 1059267.4553903341 0 1059267.4553903341 -1212004.4608579278 0 0 0 0 -938955.12758255005 1337022.3798920214 0 1337022.3798920214 -1109098.2833981514 0 0 0 0 -1290957.2480294704 -1081053.440916419 0 -1081053.440916419 -1200241.8866434097 0 0 0 0 1243219.5482397079 3098731.7096057534 0 3098731.7096057534 -2758394.4346143007 0 0 0 0 2207602.7119568586 742926.50707699358 0 742926.50707699358 144008.61917960644 0 0 0 0 1088201.0483803749 -555083.44296455383 0 -555083.44296455383 -1175040.3528890014 0 0 0 0 1955370.5041595101 138717.74475955963 0 138717.74475955963 3463546.9155954123 0 0 0 0 5553546.927157402 1866685.463891238 0 1866685.463891238 -823295.4504455328 0 0 0 0 4861268.2253177166 -2518326.5063437223 0 -2518326.5063437223 551619.59546151757 0 0 0 0 591889.25704098772 -156713.234383189 0 -156713.234383189 55881.475957413058 0 0 0 0 2450085.3349466324 -2076606.0991274714 0 -2076606.0991274714 2734040.9248315096 0 0 0 0 3090871.6132361889 -1756946.5046080947 0 -1756946.5046080947 513851.16029441357 0 0 0 0 1927654.1261358261 -916891.0559695363 0 -916891.0559695363 633907.16435614228 0 0 0 0 1457308.8967630863 18047.629218265414 0 18047.629218265414 273052.7741484046 0 0 0 0 476852.72417020798 -465934.66546705365 0 -465934.66546705365 62018.236577063799 0 0 0 0 1095610.5502789617 1085406.5371696427 0 1085406.5371696427 -1137977.0682764053 0 0 0 0 1826412.1818342209 511405.67697648704 0 511405.67697648704 -295097.83699469268 0 0 0 0 1181562.6527905464 626056.56575667858 0 626056.56575667858 -208287.29829080403 0 0 0 0 1574923.1724203825 596141.98565144837 0 596141.98565144837 -1967807.7784035206 0 0 0 0 1192787.7792110443 368537.99297598004 0 368537.99297598004 -154750.92251563072 0 0 0 0 1336154.4763213396 750071.88466250896 0 750071.88466250896 -837658.72498446703 0 0 0 0 1242790.3363175392 864640.44372403622 0 864640.44372403622 -871814.59950351715 0 0 0 0 860269.53946685791 -84338.559496879578 0 -84338.559496879578 -1580763.9981240928 0 0 0 0 142333.3688993454 169656.91564695537 0 169656.91564695537 -511973.59884572029 0 0 0 0 823149.71687603742 579598.31973975338 0 579598.31973975338 -476419.90381777287 0 0 0 0 530829.33479860332 -12069.959983077017 0 -12069.959983077017 -168687.3158281589 0 0 0 0 -782691.18635702133 -746596.36384847853 0 -746596.36384847853 80026.353663780261 0 0 0 0 53604.797051997157 -56143.677703960973 0 -56143.677703960973 -40667.361563959399 0 0 0 0 615529.86653327942 -431947.93761154264 0 -431947.93761154264 -1264464.1204741448 0 0 0 0 496623.00436635315 197405.51704245014 0 197405.51704245014 -347489.51296675694 0 0 0 0 654381.33893781318 -485409.12199896318 0 -485409.12199896318 -17502.081391629392 0 0 0 0 420298.54786872864 526687.03766494244 0 526687.03766494244 -766075.14470031857 0 0 0 0 920362.63651522971 -141514.33766044618 0 -141514.33766044618 -212663.99508016673 0 0 0 0 1495084.9545862675 -127454.44713279605 0 -127454.44713279605 -2486017.9373489618 0 0 0 0 994806.38328409195 2182047.0965727568 0 2182047.0965727568 -2821257.741037935 0 0 0 0 131049.84952916042 193677.00838513285 0 193677.00838513285 -162563.47615313204 0 0 0 0 2247074.7237081528 -196949.96459448338 0 -196949.96459448338 -3430154.4396836422 0 0 0 0 2761835.9674396515 -1070436.1457834244 0 -1070436.1457834244 2027.8587517738342 0 0 0 0 2582707.6001330614 -1166294.3632838428 0 -1166294.3632838428 57615.446611166 0 0 0 0 6112611.4871475697 -3171661.9790699501 0 -3171661.9790699501 -967059.72061133385 0 0 0 0 2591983.120701313 1611444.5081806518 0 1611444.5081806518 -1568749.4228046089 0 0 0 0 2666047.7139444351 -1007247.9798893332 0 -1007247.9798893332 193758.87485384941 0 0 0 0 2358650.8176300228 -448426.37377874512 0 -448426.37377874512 -401709.5575466142 0 0 0 0 1735134.7294979095 582649.50906984881 0 582649.50906984881 -2819219.2752491646 0 0 0 0 530443.87741404399 -137209.32800891227 0 -137209.32800891227 -123377.70912515609 0 0 0 0 2804579.1875524521 5378005.3930795155 0 5378005.3930795155 -6750276.0380786909 0 0 0 0 2943151.35871315 -480760.17227321491 0 -480760.17227321491 -3139365.0151657015 0 0 0 0 1792215.3124164341 136073.72987945005 0 136073.72987945005 -458712.57893578376 0 0 0 0 3032398.2218732834 -1236885.487854898 0 -1236885.487854898 116181.61020934582 0 0 0 0 2823772.2800638676 -952204.93381726742 0 -952204.93381726742 60949.951304554939 0 0 0 0 2879680.9584770203 -1760184.7566749454 0 -1760184.7566749454 -455028.87642490864 0 0 0 0 1468766.4492239226 -475881.15573965805 0 -475881.15573965805 -435740.30438704707 0 0 0 0 811272.22393274307 624442.88448101282 0 624442.88448101282 -1259353.7830488086 0 0 0 0 3955245.4808139801 -654789.61071252823 0 -654789.61071252823 533909.46955657005 0 0 0 0 102085.04626347614 166352.56224538753 0 166352.56224538753 -94226.6359301435 0 0 0 0 703339.9986577034 -4385593.2250416279 0 -4385593.2250416279 -1527721.6238904595 0 0 0 0 2285733.1964941025 308866.28692530096 0 308866.28692530096 -3746285.1055076681 0 0 0 0 2851082.4777727127 -1451598.9225897845 0 -1451598.9225897845 -2100731.0373762697 0 0 0 0 2007505.6706396341 -752865.33086645603 0 -752865.33086645603 -2446226.7710478306 0 0 0 0 2203401.9587802887 -876687.58282796293 0 -876687.58282796293 -2482194.7084291615 0 0 0 0 1126851.2990857521 82365.360513866413 0 82365.360513866413 -323796.83558070194 0 0 0 0 962207.92940783501 -245839.92748608999 0 -245839.92748608999 -1705648.2389305681 0 0 0 0 -1533122.4534596056 404767.22363042971 0 404767.22363042971 -1590578.9940529466 0 0 0 0 1114750.2281500609 -375137.9019285395 0 -375137.9019285395 -218577.87568106549 0 0 0 0 6665324.5371417999 1399693.7018518448 0 1399693.7018518448 -1876193.8222978115 0 0 0 0 2994657.0588479042 -5523677.8313782215 0 -5523677.8313782215 -3722502.0068868101 0 0 0 0 3092834.3796646595 -1711264.8768627793 0 -1711264.8768627793 856102.7686367929 0 0 0 0 2912777.0674934387 -1632258.2284439802 0 -1632258.2284439802 1054856.8942358494 0 0 0 0 6610317.007021904 -3869307.800047636 0 -3869307.800047636 -4042492.0426992178 0 0 0 0 192157.54296391527 -16177.012879762682 0 -16177.012879762682 -12696.944396744599 0 0 0 0 3777886.4348630905 -2129757.3140386492 0 -2129757.3140386492 1073905.0497525632 0 0 0 0 1117201.8431793542 -147228.29352165724 0 -147228.29352165724 -322291.0124282391 0 0 0 0 2647393.6651711464 -1213856.8464838862 0 -1213856.8464838862 360661.48674626648 0 0 0 0 3064133.7291665077 -1398865.2079162002 0 -1398865.2079162002 402686.91674700379 0 0 0 0 1093153.6173005933 -232383.23854017205 0 -232383.23854017205 -381164.05929931934 0 0 0 0 2957453.2810267508 -1063451.5209612697 0 -1063451.5209612697 72620.995147585869 0 0 0 0 2700124.4731445312 -1065901.2330299616 0 -1065901.2330299616 296341.14453518391 0 0 0 0 2675401.3995893602 -483734.43759758794 0 -483734.43759758794 -918916.34397938417 0 0 0 0 2692777.2282634601 -944300.3220363427 0 -944300.3220363427 -87495.260130405426 0 0 0 0 -1389279.7660491467 49272.985925912857 0 49272.985925912857 -861137.99165463448 0 0 0 0 16293719.791623116 7811967.8331904411 0 7811967.8331904411 6423971.3763654232 0 0 0 0 741113.55219388008 8830727.9586851597 0 8830727.9586851597 21833441.67634964 0 0 0 0 7506711.1838343143 8972673.9684281349 0 8972673.9684281349 -10048237.365766048 0 0 0 0 2881716.174041748 11542219.681875706 0 11542219.681875706 6630733.1643329263 0 0 0 0 8246677.1496591568 6901132.6695944071 0 6901132.6695944071 -25856270.391039371 0 0 0 0 -2476421.6340398788 12411953.968883514 0 12411953.968883514 -10728522.9618783 0 0 0 0 2479215.316001459 -316661.53275605134 0 -316661.53275605134 -1056131.141594517 0 0 0 0 2752642.6263825893 -1001239.3260119557 0 -1001239.3260119557 241845.80355226994 0 0 0 0 2524271.3189460039 17519566.70065403 0 17519566.70065403 -21397782.953716755 0 0 0 0 1764533.9374711514 7441875.6841593981 0 7441875.6841593981 -18543071.481650829 0 0 0 0 -130069.64675426483 6997743.3763902187 0 6997743.3763902187 3527107.6029753685 0 0 0 0 -270285.45039796829 2809052.50826931 0 2809052.50826931 2569758.3854819536 0 0 0 0 -3071300.1487464905 8648489.4300662279 0 8648489.4300662279 -8314266.9925718307 0 0 0 0 2737809.7183414102 -1098428.6976880804 0 -1098428.6976880804 496977.80321371555 0 0 0 0 2639098.9777232111 -1199112.5088210404 0 -1199112.5088210404 558795.06937599182 0 0 0 0 2542321.1272075176 -1175149.7951385677 0 -1175149.7951385677 563480.2423838377 0 0 0 0 2577612.113188386 -1136262.045165956 0 -1136262.045165956 539862.91724123061 0 0 0 0 2316888.7824018947 -214918.65541895124 0 -214918.65541895124 -1195379.6574586933 0 0 0 0 -2857009.0631817728 1368887.771793291 0 1368887.771793291 2528428.5420475006 0 0 0 0 -195369.19338154793 1236723.1090328693 0 1236723.1090328693 -608636.95395159721 0 0 0 0 1333238.4265666008 770110.56932783127 0 770110.56932783127 -3141741.3554167151 0 0 0 0 753442.96336835623 1055188.7022541165 0 1055188.7022541165 -1617563.312661171 0 0 0 0 -19199.489864642965 310421.61037428107 0 310421.61037428107 -261006.17823169247 0 0 0 0 -4644788.7327821255 711349.31518411636 0 711349.31518411636 11239120.388440132 0 0 0 0 -1475880.7473044395 -320306.96736383438 0 -320306.96736383438 8845578.8249576092 0 0 0 0 187989.1780890068 189819.76238557289 0 189819.76238557289 -131233.89730946941 0 0 0 0 76179.057717561722 -802882.15893912315 0 -802882.15893912315 -2140721.8526043892 0 0 0 0 1673413.0889048576 -1683812.3071947098 0 -1683812.3071947098 -1719586.1469902992 0 0 0 0 -826846.68718409538 -1736155.7346018553 0 -1736155.7346018553 -346760.51990509033 0 0 0 0 10571824.786929607 -5057090.1512435079 0 -5057090.1512435079 5528838.2704253197 0 0 0 0 -1362960.6591160297 -749555.60927760601 0 -749555.60927760601 -882609.74770402908 0 0 0 0 99914.850708941463 -78881.628700941626 0 -78881.628700941626 -518069.66978396615 0 0 0 0 12455791.926415205 -4122795.3317775726 0 -4122795.3317775726 3802287.9315271378 0 0 0 0 19671896.1708498 -7474528.9347715378 0 -7474528.9347715378 3372344.5331611633 0 0 0 0 10329629.139967918 -3010623.5929474831 0 -3010623.5929474831 -7307932.3162460327 0 0 0 0 11129630.394325376 -9452481.7204959989 0 -9452481.7204959989 5680411.968588829 0 0 0 0 19434621.492292881 -3205053.8865404129 0 -3205053.8865404129 -4860081.3604187965 0 0 0 0 250.32342305989005 -4323.7186324557988 0 -4323.7186324557988 -9999.2925800096709 0 0 0 0 3896848.3292021751 -8540930.9450235367 0 -8540930.9450235367 18210426.731538773 0 0 0 0 66581.451899818843 94865.117499816639 0 94865.117499816639 -61174.951929064933 0 0 0 0 11029175.531684399 -2180367.2051262856 0 -2180367.2051262856 -343685.00983333588 0 0 0 0 15697847.009483099 11136110.913849592 0 11136110.913849592 10868773.85984993 0 0 0 0 2024610.8358192444 905572.08933365345 0 905572.08933365345 -981492.0462719202 0 0 0 0 2987336.3155107498 -1428201.6386754289 0 -1428201.6386754289 1373238.6853380501 0 0 0 0 3276747.2082262039 -1687918.5380975753 0 -1687918.5380975753 -4234791.3905600309 0 0 0 0 10277304.681817055 5689705.1494941134 0 5689705.1494941134 -6003968.766594056 0 0 0 0 69316.569926849741 38041.378715429397 0 38041.378715429397 -1066.8527282044379 0 0 0 0 707300.18475627899 -3803596.8947784454 0 -3803596.8947784454 2051504.0350241065 0 0 0 0 2660020.7877144217 3546328.4113236964 0 3546328.4113236964 -897771.10952579975 0 0 0 0 1953441.163677454 910707.2603545934 0 910707.2603545934 241812.60521572828 0 0 0 0 1294230.1652901173 862471.60033211112 0 862471.60033211112 425622.39767092466 0 0 0 0 1522999.6481090188 132962.66265205666 0 132962.66265205666 421904.48335236311 0 0 0 0 2727217.6638550758 -56421.144387438893 0 -56421.144387438893 272965.02371352911 0 0 0 0 3230676.0389173031 -488668.37506312132 0 -488668.37506312132 491879.85945087671 0 0 0 0 3801887.7216694355 -1506289.1724474803 0 -1506289.1724474803 519518.87911326298 0 0 0 0 1333732.2160580906 -535356.42931303522 0 -535356.42931303522 279762.9680116924 0 0 0 0 880984.41533856723 116006.99870309531 0 116006.99870309531 -329059.39009925514 0 0 0 0 2057785.8338949005 -53682.135530061438 0 -53682.135530061438 -1339073.6737821614 0 0 0 0 1318757.7538430691 -354632.67028278112 0 -354632.67028278112 9917.0806655883789 0 0 0 0 2380242.9111334085 -1159191.5639888942 0 -1159191.5639888942 889748.7167173624 0 0 0 0 2377879.170379281 -1266488.774114877 0 -1266488.774114877 912781.86373462155 0 0 0 0 3138865.1700379848 113664.65793927014 0 113664.65793927014 -439084.95979104936 0 0 0 0 1446527.418253052 -620117.52595631848 0 -620117.52595631848 428790.94513796759 0 0 0 0 1049212.2702950239 -361147.71754479408 0 -361147.71754479408 90172.793590068817 0 0 0 0 286857.59275098197 499705.49636421108 0 499705.49636421108 -637096.44043760304 0 0 0 0 644671.18715824187 70685.53889927268 0 70685.53889927268 -47877.608428895473 0 0 0 0 582333.21372938156 251944.33267495036 0 251944.33267495036 -606642.14756774902 0 0 0 0 -3789922.0985474586 3307274.8565626144 0 3307274.8565626144 -5097459.8041238785 0 0 0 0 2761418.415767286 -546090.37962928973 0 -546090.37962928973 -646936.95414269483 0 0 0 0 -189043.18223083019 159074.28257242066 0 159074.28257242066 -121399.07859665947 0 0 0 0 -2226897.9170089662 6749200.8185824305 0 6749200.8185824305 -5116844.0411634445 0 0 0 0 -408655.01083755493 5417547.4845104218 0 5417547.4845104218 -8574690.7158527374 0 0 0 0 -2040361.2837190628 2619308.0722241402 0 2619308.0722241402 -1097465.3951678276 0 0 0 0 -323808.73978653713 799887.96505949355 0 799887.96505949355 -512934.67330966226 0 0 0 0 -1651265.0872879028 1511300.3343229294 0 1511300.3343229294 -1015420.8802118301 0 0 0 0 120781.57454586029 1167373.8277230263 0 1167373.8277230263 -1401428.0051618814 0 0 0 0 530350.20785903931 15681.242590785027 0 15681.242590785027 -395715.92310678959 0 0 0 0 756626.14985800558 181559.27661845455 0 181559.27661845455 -507965.97624898073 0 0 0 0 929468.72716736794 -32126.443941831589 0 -32126.443941831589 -678441.30782055855 0 0 0 0 54884.260782309109 535855.85087422829 0 535855.85087422829 -746866.91630620847 0 0 0 0 15848.80961894989 269409.69396209717 0 269409.69396209717 -339404.24763822556 0 0 0 0 526421.45242653007 -65879.726472740207 0 -65879.726472740207 -196394.49716702383 0 0 0 0 1838877.9641037281 -115221.54255366459 0 -115221.54255366459 -843018.84248547093 0 0 0 0 681698.12984442711 721300.14250487089 0 721300.14250487089 -1046691.658490181 0 0 0 0 -27553.538281038753 101518.08428705897 0 101518.08428705897 -75106.447086467553 0 0 0 0 -274430.20552778244 -193297.34654927254 0 -193297.34654927254 -410676.78525805473 0 0 0 0 1183484.3224189281 1125797.2573838234 0 1125797.2573838234 -1267709.0855451226 0 0 0 0 2628337.9119241238 -2949192.5544995666 0 -2949192.5544995666 492220.77067537606 0 0 0 0 2746801.8974481225 -1526002.5746977041 0 -1526002.5746977041 3343326.2540929019 0 0 0 0 1207100.6751997299 -41814.283579938347 0 -41814.283579938347 -246357.44335526467 0 0 0 0 1972320.0982885361 -4004656.5349044111 0 -4004656.5349044111 526927.37565851584 0 0 0 0 280549.39310479164 -1568383.5597403049 0 -1568383.5597403049 -1000302.2291772068 0 0 0 0 2617285.9534455538 -2487715.7340755556 0 -2487715.7340755556 -644635.24884415418 0 0 0 0 34848.165684285341 23780.170215675666 0 23780.170215675666 24110.719328548716 0 0 0 0 4287586.566672802 -195527.75805908442 0 -195527.75805908442 737612.94619881362 0 0 0 0 2003137.7925905334 -34666.370938388427 0 -34666.370938388427 -881802.10884411377 0 0 0 0 2931572.5303397179 992663.58408164978 0 992663.58408164978 -1019617.6107299328 0 0 0 0 1529426.1901174402 -437491.20585660625 0 -437491.20585660625 -221838.68579619724 0 0 0 0 -26072767.518593103 -15573989.044933459 0 -15573989.044933459 6706476.3634197041 0 0 0 0 59211105.738700807 3666747.3923666775 0 3666747.3923666775 -4526903.8309843689 0 0 0 0 -18105798.457900882 20705496.947364639 0 20705496.947364639 64188847.59665373 0 0 0 0 54861056.838412046 -20922591.671026263 0 -20922591.671026263 -36670517.719526663 0 0 0 0 889118.49606990814 1024706.1446754895 0 1024706.1446754895 -223477.37287761271 0 0 0 0 -1321106.0393395424 -4359955.6273619235 0 -4359955.6273619235 -79782.535476104356 0 0 0 0 -4957718.6354654431 -2829684.8401977606 0 -2829684.8401977606 1068437.624737978 0 0 0 0 55529.212553073696 20820.24403669266 0 20820.24403669266 -289.04598459627596 0 0 0 0 2403949.4987754822 1173778.2304874659 0 1173778.2304874659 -1136551.8960174322 0 0 0 0 427724.75277376175 -922508.52066987753 0 -922508.52066987753 -1347519.987336129 0 0 0 0 -1848290.3487210274 -542296.63140760362 0 -542296.63140760362 -917078.58076085895 0 0 0 0 2741545.2034845948 -2113608.4497628715 0 -2113608.4497628715 -1738125.0683223605 0 0 0 0 1187145.1681544522 -281149.28540919314 0 -281149.28540919314 -177352.89076594752 0 0 0 0 1545473.0284752846 -964381.2653811276 0 -964381.2653811276 315255.03491479158 0 0 0 0 2396595.6497176886 -248681.8082328327 0 -248681.8082328327 -1113157.6083009243 0 0 0 0 3161581.8449520469 -22487105.514476523 0 -22487105.514476523 -24034280.803383857 0 0 0 0 658551.43640470505 -287430.39157235622 0 -287430.39157235622 152544.01890063286 0 0 0 0 1444390.8530870676 -1512849.6967585981 0 -1512849.6967585981 -85481.918247282505 0 0 0 0 1094139.1647920609 -539409.80876871943 0 -539409.80876871943 -479494.48489248753 0 0 0 0 2223096.247887969 -298483.63506726176 0 -298483.63506726176 -632846.76548647881 0 0 0 0 700943.72162437439 -268548.88064551353 0 -268548.88064551353 -338122.82326281071 0 0 0 0 -42554.064236823004 -90955.144383313454 0 -90955.144383313454 3351.1584319304238 0 0 0 0 1313324.5728518963 -589861.96572390199 0 -589861.96572390199 200166.71799261868 0 0 0 0 190192.95855677885 12216.76560800767 0 12216.76560800767 -11577.623892166273 0 0 0 0 187019.30155460164 16751.05280533171 0 16751.05280533171 11026.523802880678 0 0 0 0 -927679.10356932878 -1281270.7539828122 0 -1281270.7539828122 50330.277442932129 0 0 0 0 -27226.448005199432 -757989.77236405015 0 -757989.77236405015 -223565.70713314414 0 0 0 0 423770.04451966286 -304170.03397721052 0 -304170.03397721052 -672056.73033306003 0 0 0 0 858557.84629758215 72710.085775146275 0 72710.085775146275 -148470.38907684066 0 0 0 0 4526166.8139938414 2643627.0770225078 0 2643627.0770225078 -636467.42521035671 0 0 0 0 590286.41149330139 -39681.087331309915 0 -39681.087331309915 -741032.90219239891 0 0 0 0 625135.90307831764 -93240.867991864681 0 -93240.867991864681 -792430.24030530453 0 0 0 0 493134.31536871195 -2025412.4640339762 0 -2025412.4640339762 -1405810.6886614282 0 0 0 0 843445.44034389744 -170780.69332731568 0 -170780.69332731568 -112015.60329650958 0 0 0 0 912955.92361709825 192197.733324303 0 192197.733324303 -149903.70744133234 0 0 0 0 572937.91752147675 -109592.51503425837 0 -109592.51503425837 -740590.27389276028 0 0 0 0 -3703389.7635345757 8705790.9616481066 0 8705790.9616481066 -5737231.5103732347 0 0 0 0 1112564.3435132967 -247601.86871487915 0 -247601.86871487915 -365929.50974080223 0 0 0 0 697412.4845819152 -90029.683494491663 0 -90029.683494491663 -197794.22584288052 0 0 0 0 -5274912.8380045667 5723124.6332159787 0 5723124.6332159787 -10788955.536180019 0 0 0 0 -4777697.1856477577 5373892.9921673425 0 5373892.9921673425 -11360520.91451925 0 0 0 0 -3623451.4700117484 7234271.9482608605 0 7234271.9482608605 -17868634.797656141 0 0 0 0 -3218605.7289448828 9440836.1130260229 0 9440836.1130260229 -9295554.5344270654 0 0 0 0 -125433.30816736817 -2107981.9984186701 0 -2107981.9984186701 2485915.4017321616 0 0 0 0 150895.98146584065 -27748.646670507529 0 -27748.646670507529 2778.7799421902746 0 0 0 0 11692865.665573061 1377461.3306928864 0 1377461.3306928864 474961.43036970124 0 0 0 0 9044346.5060991123 12690910.325855646 0 12690910.325855646 13786553.545317546 0 0 0 0 -21245986.613117024 23007028.597076491 0 23007028.597076491 13753724.328960136 0 0 0 0 8651527.2821717411 -6370085.170538146 0 -6370085.170538146 -11257539.885342158 0 0 0 0 -8770191.5498786345 10250149.008833304 0 10250149.008833304 11054170.759577334 0 0 0 0 -3905533.1492284164 34692437.108016796 0 34692437.108016796 -4264624.8639975488 0 0 0 0 34208104.309348397 25325393.539502241 0 25325393.539502241 -9217440.4431671947 0 0 0 0 29087444.740975901 -37722091.530371785 0 -37722091.530371785 23318863.610528402 0 0 0 0 158066.13476097526 59736.90066023729 0 59736.90066023729 12102.995340028676 0 0 0 0 6570255.934266448 -17743205.271561198 0 -17743205.271561198 10758145.977952229 0 0 0 0 435684.04389456706 125072.61454102842 0 125072.61454102842 221.93943792178834 0 0 0 0 20646684.122075915 -1893741.5937515786 0 -1893741.5937515786 -17604383.199590255 0 0 0 0 -3444513.9679183066 37198238.884756789 0 37198238.884756789 -52066949.928808764 0 0 0 0 -19894326.995993018 7713471.0177055486 0 7713471.0177055486 7335758.7977042086 0 0 0 0 34403930.273217916 15736916.146173794 0 15736916.146173794 -75921807.143162817 0 0 0 0 16066531.10549888 22621148.044623733 0 22621148.044623733 35522992.426409326 0 0 0 0 7708109.6681334823 5460617.5183493048 0 5460617.5183493048 3206091.0696838871 0 0 0 0 -12749838.318190575 5743487.0517590567 0 5743487.0517590567 27071268.271042623 0 0 0 0 -11252623.22985813 18262630.653623618 0 18262630.653623618 17591443.058300782 0 0 0 0 232679532.13162455 -22248569.759816952 0 -22248569.759816952 -47704740.442458868 0 0 0 0 73745360.952080399 -114580339.79989618 0 -114580339.79989618 31445074.423511684 0 0 0 0 21815414.446556985 26119925.850345138 0 26119925.850345138 -1257584.7024221271 0 0 0 0 63128736.16939342 -24696715.78478919 0 -24696715.78478919 -3982670.7752639279 0 0 0 0 160721410.18462753 49645322.614434615 0 49645322.614434615 15283763.849476166 0 0 0 0 255625605.7798171 -6320009.9875133261 0 -6320009.9875133261 -43859531.090748116 0 0 0 0 155789800.60888529 -36174864.658557273 0 -36174864.658557273 -46235091.272764124 0 0 0 0 314884078.12278253 46861783.820265487 0 46861783.820265487 -7618690.2390474193 0 0 0 0 215428446.70951235 70610468.527191982 0 70610468.527191982 -12308992.061205069 0 0 0 0 175410.62188545085 -1308.0539370257902 0 -1308.0539370257902 47588.3543064689 0 0 0 0 202909270.92433476 -1679753.6745609995 0 -1679753.6745609995 -1651694.6222521365 0 0 0 0 126160288.04192966 93181693.004698828 0 93181693.004698828 52386766.19769083 0 0 0 0 37308315.117437243 7933221.2438113503 0 7933221.2438113503 9594108.4012548383 0 0 0 0 -788070.80713269114 -25896125.92885799 0 -25896125.92885799 -1502396.3471610546 0 0 0 0 -4443831.2412728071 32656133.826651365 0 32656133.826651365 46817743.308838651 0 0 0 0 -1687082.9072275534 -20937293.729183868 0 -20937293.729183868 4811359.7989014983 0 0 0 0 -6398910.1815456897 22196434.978649683 0 22196434.978649683 18770486.833595954 0 0 0 0 -11128706.113676071 5274229.06407208 0 5274229.06407208 11940339.924862426 0 0 0 0 151063881.40154278 82340713.734038353 0 82340713.734038353 38421983.195637017 0 0 0 0 78802365.95925498 -9732913.4753701352 0 -9732913.4753701352 -4134530.2132260576 0 0 0 0 4073683.6469688416 13559285.653066471 0 13559285.653066471 34707783.956759125 0 0 0 0 314645013.31948906 129003920.73578234 0 129003920.73578234 -13532418.698436882 0 0 0 0 212030692.36499524 61292765.909371987 0 61292765.909371987 -17975370.807247549 0 0 0 0 -1106912.8701772392 3509055.3282718807 0 3509055.3282718807 8103076.6525706053 0 0 0 0 -1509028.9471274614 1717624.8685040325 0 1717624.8685040325 4901570.2398840636 0 0 0 0 20459.938759699464 -1403984.8333753124 0 -1403984.8333753124 18296243.780062214 0 0 0 0 1176357.0561103821 1391927.9385037683 0 1391927.9385037683 20150921.425228685 0 0 0 0 9522940.2452176809 -6346261.0452186093 0 -6346261.0452186093 24805400.526634444 0 0 0 0 29429172.422110587 16466970.823665164 0 16466970.823665164 35554221.830185831 0 0 0 0 518417.93350982666 -14295310.188299567 0 -14295310.188299567 27101817.595342979 0 0 0 0 11242868.019498825 -8723480.0664966106 0 -8723480.0664966106 -6309149.9797510207 0 0 0 0 9326430.5615948439 -8927864.5608379245 0 -8927864.5608379245 6881900.2334772348 0 0 0 0 2598188.9270780087 1738143.1611984558 0 1738143.1611984558 927394.90977841616 0 0 0 0 14032783.716987252 -2285267.7475198209 0 -2285267.7475198209 -7544955.1031024158 0 0 0 0 -7307553.6820290685 1882282.4654611647 0 1882282.4654611647 -3030947.8149940372 0 0 0 0 237724.31344275817 -245818.24466652013 0 -245818.24466652013 -140105.04408907652 0 0 0 0 7383529.5264914632 5008202.7214169204 0 5008202.7214169204 -8988538.4072482586 0 0 0 0 562698.65771283954 -77166.824985640182 0 -77166.824985640182 10568.730822877264 0 0 0 0 26325342.737325191 11457136.502593994 0 11457136.502593994 -18789384.035186768 0 0 0 0 16836212.190324664 -4509960.8586894274 0 -4509960.8586894274 -35957567.03300184 0 0 0 0 16808484.576547503 -5285561.0600727201 0 -5285561.0600727201 -4784677.4904997051 0 0 0 0 -20868143.954667807 -6148206.9562372118 0 -6148206.9562372118 -441605.43987181038 0 0 0 0 -14384153.408674002 8165082.7837236635 0 8165082.7837236635 -5470607.4009619132 0 0 0 0 51473.923165813379 -90202.592654950568 0 -90202.592654950568 -18461.650351200042 0 0 0 0 144372.87597849988 838.92121664149454 0 838.92121664149454 -87861.150817500253 0 0 0 0 -20851812.592907429 -5806473.1689575613 0 -5806473.1689575613 846979.67863948643 0 0 0 0 1599947.2790412903 -957174.61871397495 0 -957174.61871397495 901839.31616219878 0 0 0 0 3417548.7641201019 -495355.30964189768 0 -495355.30964189768 -757948.90348292142 0 0 0 0 -1921294.5052022934 -526393.9311414361 0 -526393.9311414361 878256.23940071464 0 0 0 0 460047.36275335029 -543445.04797665181 0 -543445.04797665181 -216104.78520657573 0 0 0 0 877448.01041155215 -22026.87872598751 0 -22026.87872598751 -168677.45169377924 0 0 0 0 213138.89473056793 193279.51674956083 0 193279.51674956083 -1074289.0277812481 0 0 0 0 877405.51687004336 245783.61602131254 0 245783.61602131254 130425.74185784267 0 0 0 0 1299770.2967771292 -3542783.1485395879 0 -3542783.1485395879 -5707328.7374711037 0 0 0 0 1539592.7773215771 442279.85975849628 0 442279.85975849628 -3258049.9703661799 0 0 0 0 997830.99660699558 581796.87797207991 0 581796.87797207991 -87646.730391594465 0 0 0 0 -2960081.4481389225 1725686.1765036732 0 1725686.1765036732 1537277.3443524539 0 0 0 0 4263939.0003369302 -2586488.6888964102 0 -2586488.6888964102 2883608.4582951963 0 0 0 0 878840.79179600137 -145087.15600793308 0 -145087.15600793308 -99493.904176768672 0 0 0 0 501108.57674884796 -1468730.5929429233 0 -1468730.5929429233 790432.09173485637 0 0 0 0 1160223.9656057358 2431979.1745587289 0 2431979.1745587289 -11194114.203992546 0 0 0 0 4243882.2987296581 333880.84686532617 0 333880.84686532617 -332459.59321421385 0 0 0 0 172974.67948269844 218391.14077419043 0 218391.14077419043 -1327129.6455381215 0 0 0 0 680659.39616127242 -295202.41525185143 0 -295202.41525185143 -128884.7818941006 0 0 0 0 1266278.6850885525 -218695.86133193265 0 -218695.86133193265 177622.26192499834 0 0 0 0 2177410.6886482239 -595685.34952658415 0 -595685.34952658415 -2182395.5833447576 0 0 0 0 12702865.058450222 8118831.719431594 0 8118831.719431594 -23484838.785916146 0 0 0 0 3971706.5682942271 -6522052.9118516147 0 -6522052.9118516147 -21543067.508280933 0 0 0 0 7119967.7542438507 15973553.337178081 0 15973553.337178081 4729774.1595306098 0 0 0 0 4372575.8844633102 1641324.5180263519 0 1641324.5180263519 -8269424.0553331971 0 0 0 0 7468279.4163627625 4223776.5132934153 0 4223776.5132934153 -10781908.00010556 0 0 0 0 3686733.9146203995 1311437.7313666344 0 1311437.7313666344 1494131.7323828936 0 0 0 0 -6716408.3564524651 7059603.692818284 0 7059603.692818284 1405431.7585224509 0 0 0 0 223610.25567967875 -21474.466251918755 0 -21474.466251918755 116055.08353386472 0 0 0 0 153322507.93958664 165671676.02619395 0 165671676.02619395 130486894.39491603 0 0 0 0 15998949.323234558 -41573057.024304159 0 -41573057.024304159 53791481.151380211 0 0 0 0 442108.54254668264 -249098.28925900278 0 -249098.28925900278 187897.02843654499 0 0 0 0 45530168.682971478 -15018228.832885787 0 -15018228.832885787 -14660499.734839089 0 0 0 0 -4375286.6761299372 -10026056.578867935 0 -10026056.578867935 -15363222.502192289 0 0 0 0 15998949.323225021 -182281.21856486425 0 -182281.21856486425 -114460.29056444764 0 0 0 0 629333.4671806281 -179773.2519683158 0 -179773.2519683158 224849.30159135029 0 0 0 0 314384334.48422885 20525721.051921181 0 20525721.051921181 -26869437.943389375 0 0 0 0 314630182.66743636 20335751.173609525 0 20335751.173609525 -26793000.279470373 0 0 0 0 297509.24172788742 -31924.508179303142 0 -31924.508179303142 201115.39430793806 0 0 0 0 -12245531.59543705 -58918327.176802203 0 -58918327.176802203 65924996.082332663 0 0 0 0 10805718.690811276 25364424.065597303 0 25364424.065597303 -1722280.7114060819 0 0 0 0 37995726.723669291 -27410837.777010843 0 -27410837.777010843 31493961.565441728 0 0 0 0 39355838.646388292 -22309185.091558583 0 -22309185.091558583 46146394.278280795 0 0 0 0 314551233.18247968 -81844066.330797091 0 -81844066.330797091 -19857623.205895297 0 0 0 0 118647200.89335585 -121694276.18831712 0 -121694276.18831712 78185485.318542078 0 0 0 0 -12603.080786846345 -33669.861702383969 0 -33669.861702383969 4623.0358990890554 0 0 0 0 10092955.658825874 5411178.5747344345 0 5411178.5747344345 -13829788.316796018 0 0 0 0 -2901294.2494823933 4918406.8935817108 0 4918406.8935817108 23864469.149086744 0 0 0 0 4969770.1432094574 9947379.779560132 0 9947379.779560132 15586865.371917501 0 0 0 0 43931989.789966583 -31379353.823186778 0 -31379353.823186778 32824641.108771197 0 0 0 0 -14869258.21178627 498926.65638130531 0 498926.65638130531 9142036.2182633579 0 0 0 0 -4120562.6585774422 8253296.5146396533 0 8253296.5146396533 6070970.9517030865 0 0 0 0 351633.21424954548 -374868.22181331017 0 -374868.22181331017 349023.5966459082 0 0 0 0 -9034586.5005130768 -5629164.8935605809 0 -5629164.8935605809 -2001594.412440896 0 0 0 0 -692729.77239513397 142913.5302747339 0 142913.5302747339 402297.31432028115 0 0 0 0 1589507.0234022141 2245241.544124037 0 2245241.544124037 1203414.6981904097 0 0 0 0 166560.52734339237 8918542.0152713656 0 8918542.0152713656 -4485585.169463098 0 0 0 0 -6494027.2442493439 4209692.5813634247 0 4209692.5813634247 -636693.76132401824 0 0 0 0 -39929.25873480388 -42048.802906474397 0 -42048.802906474397 18686.341292582536 0 0 0 0 -129226.95894813538 508632.83413016796 0 508632.83413016796 -2441827.8282277286 0 0 0 0 -781577.52839660645 29340.475621178746 0 29340.475621178746 496277.9786015451 0 0 0 0 51150.360125635285 -143315.69876149145 0 -143315.69876149145 75220.25853945491 0 0 0 0 773475.29074162664 -367182.27617069334 0 -367182.27617069334 171737.19307298039 0 0 0 0 608679.65107059479 -214002.46554878354 0 -214002.46554878354 -185117.80541089177 0 0 0 0 -146944.43550550938 -498654.09156906419 0 -498654.09156906419 -85607.170254722238 0 0 0 0 -8485.9159316162113 170482.91950494272 0 170482.91950494272 -85537.982961995294 0 0 0 0 -783823.11317044497 -731707.98870275868 0 -731707.98870275868 118516.59202004969 0 0 0 0 -540813.86620235443 476466.31724208593 0 476466.31724208593 1068506.3575766683 0 0 0 0 -2547.5075970301405 -5488.3717699213303 0 -5488.3717699213303 10281.997339877063 0 0 0 0 19053637.299511909 -882578.43723338842 0 -882578.43723338842 -45768037.260731578 0 0 0 0 3004939.5439844131 -16064004.789106965 0 -16064004.789106965 -43597751.716565803 0 0 0 0 6408246.1054821014 5779664.5338741541 0 5779664.5338741541 -22305427.449883789 0 0 0 0 13082028.460244179 8312212.4757342339 0 8312212.4757342339 -27484255.975163698 0 0 0 0 -1473409.6370601654 -305795.16456115246 0 -305795.16456115246 -26563063.788360178 0 0 0 0 7668596.8371496201 15315475.737468362 0 15315475.737468362 -12709811.157796741 0 0 0 0 6279190.4137916565 5871369.7361956835 0 5871369.7361956835 -14999646.031326532 0 0 0 0 6654724.4357831478 4775350.3933444917 0 4775350.3933444917 -26909722.066892147 0 0 0 0 4426815.0116491318 10023245.278626919 0 10023245.278626919 -19174853.992726564 0 0 0 0 4430874.7852602005 9777595.2286046743 0 9777595.2286046743 -6366452.1513577104 0 0 0 0 1706571.2543640137 1879229.7946749926 0 1879229.7946749926 -5869574.3903356791 0 0 0 0 4594445.6234388351 -760471.19777047634 0 -760471.19777047634 -18268181.542497635 0 0 0 0 1052206.7610327271 -154213.38742651799 0 -154213.38742651799 -314353.13886344444 0 0 0 0 3072766.3631467819 -1548190.1118611097 0 -1548190.1118611097 -7344918.4709396362 0 0 0 0 846710.76509091747 -136931.40583609813 0 -136931.40583609813 -133999.60462132446 0 0 0 0 382930.35730648041 -129650.64221423864 0 -129650.64221423864 -195218.15865284204 0 0 0 0 377702.2087123394 -142588.38741286099 0 -142588.38741286099 -213861.8213698864 0 0 0 0 675431.17626395356 27272.89164495829 0 27272.89164495829 -220378.2779697947 0 0 0 0 226767.69928741455 -248907.79960647225 0 -248907.79960647225 -226128.83101612329 0 0 0 0 -3029.3967933654785 -394949.75512576103 0 -394949.75512576103 -807206.24431623518 0 0 0 0 301388.60886955261 71953.156958222389 0 71953.156958222389 -865365.71410641074 0 0 0 0 -824565.63803005219 -657034.64610087872 0 -657034.64610087872 -26903881.279860973 0 0 0 0 -116745.30918693542 -9228967.4481651783 0 -9228967.4481651783 -24882122.744664282 0 0 0 0 -2430079.2737779617 4166451.774823308 0 4166451.774823308 -3751733.6792984009 0 0 0 0 222004.68198869657 -84220.343160232762 0 -84220.343160232762 -142376.94883270655 0 0 0 0 208551.22770166397 -1141729.5282360371 0 -1141729.5282360371 -2139477.6160347462 0 0 0 0 185230.45442152768 -289995.60680639837 0 -289995.60680639837 -780762.36170268059 0 0 0 0 332251.82574653625 -2318.7809760570526 0 -2318.7809760570526 -372920.14635213837 0 0 0 0 465756.55957584176 149011.15516492166 0 149011.15516492166 -242322.02459535172 0 0 0 0 911035.23157320078 -55673.700660702292 0 -55673.700660702292 -51771.379374626333 0 0 0 0 21388.108503230847 -5640.126145655755 0 -5640.126145655755 -10077.123591779848 0 0 0 0 -868965.21918010712 704233.71537205577 0 704233.71537205577 968014.35606640577 0 0 0 0 -664663.35147857666 529368.92311710119 0 529368.92311710119 -758803.20933485031 0 0 0 0 279644.68122768402 -228485.98210123181 0 -228485.98210123181 -318425.00898101926 0 0 0 0 436651.62983256299 211826.13957818388 0 211826.13957818388 -257859.83933619753 0 0 0 0 157965.48496180773 -163230.36500450727 0 -163230.36500450727 -151514.51427804795 0 0 0 0 195761.50933480263 -35998.816214427352 0 -35998.816214427352 -619920.53974430263 0 0 0 0 821946.25518532272 -43020.839648554334 0 -43020.839648554334 -165994.82784397464 0 0 0 0 627167.1904617215 -128055.19007507974 0 -128055.19007507974 -157726.42351777406 0 0 0 0 -106225.89485359192 1904658.9299758673 0 1904658.9299758673 -1669529.1121489704 0 0 0 0 -355823.25113248825 2118703.7863448262 0 2118703.7863448262 -85757.189384937286 0 0 0 0 366526.13402252598 -233842.09170423733 0 -233842.09170423733 -115936.28435365873 0 0 0 0 288737.90064716339 -149734.65874201059 0 -149734.65874201059 -199611.8729897365 0 0 0 0 202999.35345077515 24580.817445158958 0 24580.817445158958 -530495.63481640816 0 0 0 0 199792.6771148988 85137.931160422449 0 85137.931160422449 -267896.75781201647 0 0 0 0 344509.09706401825 -164329.33292630315 0 -164329.33292630315 -279953.46241635084 0 0 0 0 251217.51767018577 -79074.567275295209 0 -79074.567275295209 -251334.27534825625 0 0 0 0 347776.25864160061 -188065.75507445075 0 -188065.75507445075 -197212.73565798998 0 0 0 0 239033.07709138677 -192032.8721750266 0 -192032.8721750266 -43852.078789491687 0 0 0 0 187844.02619075775 -138761.49692681432 0 -138761.49692681432 -286585.83171062171 0 0 0 0 208771.64791297913 -255139.62962982059 0 -255139.62962982059 -255516.41779269278 0 0 0 0 118133.19645309448 -277157.64747095108 0 -277157.64747095108 -782309.59448868036 0 0 0 0 990569.43645186676 -154438.47296975215 0 -154438.47296975215 -204129.10256284371 0 0 0 0 851643.54032491392 -58120.645397380693 0 -58120.645397380693 -180436.22481763273 0 0 0 0 432468.43683290482 -226842.51313573867 0 -226842.51313573867 -190972.23528838158 0 0 0 0 296968.9024105072 -101525.7412494272 0 -101525.7412494272 -431903.74258707464 0 0 0 0 793727.84239927027 78692.938652210752 0 78692.938652210752 -286808.25153026887 0 0 0 0 433359.94601694401 31046.152648256102 0 31046.152648256102 -217540.01161406082 0 0 0 0 187852.86476177769 -57345.682983756356 0 -57345.682983756356 -143067.69365892943 0 0 0 0 336375.59771985677 -267811.39849211543 0 -267811.39849211543 -92381.336940762121 0 0 0 0 328721.32926464081 -274052.22726462781 0 -274052.22726462781 -153614.28753517568 0 0 0 0 316760.44401884079 -262164.79098380357 0 -262164.79098380357 -157067.69044950604 0 0 0 0 369243.05313301086 -171039.13756005466 0 -171039.13756005466 -176551.27679697797 0 0 0 0 298389.02663125144 -217313.77877344648 0 -217313.77877344648 -172422.79429740738 0 0 0 0 1030278.8110298822 -159417.91842870298 0 -159417.91842870298 -142999.14772407163 0 0 0 0 320873.31022548676 -137881.74129369855 0 -137881.74129369855 -258740.53481845558 0 0 0 0 388582.95394396782 -242022.69722883403 0 -242022.69722883403 -185712.78159618378 0 0 0 0 625971.03856154659 -56968.251155585167 0 -56968.251155585167 -116405.91990827172 0 0 0 0 741117.98864750238 -379767.05619545368 0 -379767.05619545368 -187928.99729602353 0 0 0 0 548807.36000718269 -372435.42323560792 0 -372435.42323560792 37029.616817035581 0 0 0 0 927620.46179413795 -735867.82102656364 0 -735867.82102656364 -259977.07531672716 0 0 0 0 357698.82509237528 -263370.00509792665 0 -263370.00509792665 22216.655905509127 0 0 0 0 423117.29072164139 -1620.8088965697098 0 -1620.8088965697098 -173831.66146819532 0 0 0 0 975287.51141738892 -329624.71512031555 0 -329624.71512031555 123244.18428993225 0 0 0 0 599484.62776863575 -54990.196229521185 0 -54990.196229521185 -59068.257763683796 0 0 0 0 437556.08705593069 112184.63844060712 0 112184.63844060712 -141264.78195962147 0 0 0 0 2446860.4003441334 -1350455.8071163893 0 -1350455.8071163893 -740473.03855933435 0 0 0 0 661289.91244098754 -301684.46715163544 0 -301684.46715163544 20094.498075933916 0 0 0 0 708775.06127128354 -119571.85916163272 0 -119571.85916163272 -115240.60590918367 0 0 0 0 723346.1038672924 -228913.19058244466 0 -228913.19058244466 -300425.84952998534 0 0 0 0 925407.38871557068 -388130.92344576656 0 -388130.92344576656 -254778.03628227138 0 0 0 0 764776.25715184212 -362001.31210508267 0 -362001.31210508267 -294491.05649118079 0 0 0 0 183878.8889465332 -14916.237145066261 0 -14916.237145066261 -591732.6292526722 0 0 0 0 484662.37134406739 -221821.25015575762 0 -221821.25015575762 -208328.42634388988 0 0 0 0 839615.28794252872 -37850.115823316853 0 -37850.115823316853 -425104.01404328644 0 0 0 0 907541.65740097547 -295151.57483891468 0 -295151.57483891468 -225700.76674188825 0 0 0 0 368037.51028437447 -156262.59743539899 0 -156262.59743539899 -189335.48758005802 0 0 0 0 170954.360465765 177066.03563015908 0 177066.03563015908 -1336115.8322662711 0 0 0 0 173451.5299987793 -3935076.1364079714 0 -3935076.1364079714 -6848789.8001701832 0 0 0 0 2832856.6704797745 1422530.7885475755 0 1422530.7885475755 -4569902.2989684343 0 0 0 0 585011.03759694099 -212574.98658567667 0 -212574.98658567667 -149537.93971657753 0 0 0 0 379314.30863599619 -316737.41425411211 0 -316737.41425411211 -34975.604416199763 0 0 0 0 1081866.8841857507 -188162.8307632372 0 -188162.8307632372 -37979.172643230486 0 0 0 0 -71598.988506317139 -1163854.0152416229 0 -1163854.0152416229 2315776.7034004331 0 0 0 0 -1140343.095946312 1177260.358484745 0 1177260.358484745 -518927.61339527369 0 0 0 0 211869.279050224 -13092.361656292691 0 -13092.361656292691 -136497.40620416275 0 0 0 0 7553970.5676546097 -31517.158826082945 0 -31517.158826082945 -5942449.7134400606 0 0 0 0 8945033.2205944061 -10533346.205068588 0 -10533346.205068588 213394.06049275398 0 0 0 0 -4661776.8271423578 13105475.84387967 0 13105475.84387967 -2964461.8479517102 0 0 0 0 197471.75631737383 -83536.543219142593 0 -83536.543219142593 -33317.093299747168 0 0 0 0 535644.94075775146 -9795538.1729997993 0 -9795538.1729997993 2118235.4988504965 0 0 0 0 -2011865.3892440796 -146331.05686372519 0 -146331.05686372519 6244657.850502193 0 0 0 0 14558647.041704655 964030.89805053174 0 964030.89805053174 -2672674.1575288773 0 0 0 0 6207367.6698465347 5452445.4534217119 0 5452445.4534217119 2313856.9225719273 0 0 0 0 282229.48963975906 1185706.3330156207 0 1185706.3330156207 -724821.16886115074 0 0 0 0 5484863.1121044159 2106279.0067005754 0 2106279.0067005754 -4800953.7611539662 0 0 0 0 3287770.4014053345 71800.013003945351 0 71800.013003945351 -2738702.4157912731 0 0 0 0 -1966271.247592926 3039312.0022258162 0 3039312.0022258162 16318747.263856232 0 0 0 0 -2256184.8486042023 1283790.8835500479 0 1283790.8835500479 17495379.166572005 0 0 0 0 -1396071.605640173 1397548.9001204669 0 1397548.9001204669 8410280.388423562 0 0 0 0 -908922.76754522324 4960471.244070828 0 4960471.244070828 12040161.007894874 0 0 0 0 -2315498.2612848282 932520.54543203115 0 932520.54543203115 9419500.2277895808 0 0 0 0 -7102.9178214073181 2035932.9507827163 0 2035932.9507827163 5055969.2905989885 0 0 0 0 -1521533.31775105 2883144.0297574699 0 2883144.0297574699 7976646.221821785 0 0 0 0 -999744.69928741455 6140870.5950396061 0 6140870.5950396061 11183464.102230549 0 0 0 0 -64609.951515197754 9642631.4411519766 0 9642631.4411519766 10294078.492690951 0 0 0 0 -19147.638708591461 6754751.2952714562 0 6754751.2952714562 11165376.734353781 0 0 0 0 -429400.39637899399 10573477.737390518 0 10573477.737390518 15242750.76525107 0 0 0 0 -3158028.588566184 7241605.9031057954 0 7241605.9031057954 20530556.38488555 0 0 0 0 -3080353.9169068336 6929764.6889030635 0 6929764.6889030635 14389904.379528403 0 0 0 0 -145273.47450113297 9252079.1178619266 0 9252079.1178619266 17611357.020541131 0 0 0 0 -935323.23276853561 7637617.5940334201 0 7637617.5940334201 22387109.003780127 0 0 0 0 9531917.3241786957 10892250.7025823 0 10892250.7025823 22676728.605030656 0 0 0 0 31372036.946456909 13706552.195362687 0 13706552.195362687 16205062.352596819 0 0 0 0 21186807.469450474 11773580.525010824 0 11773580.525010824 27867426.791286528 0 0 0 0 9268726.7176748514 9963016.7361756563 0 9963016.7361756563 28917450.801169038 0 0 0 0 5836225.0517482758 9312987.7899696231 0 9312987.7899696231 35789630.881013036 0 0 0 0 5435494.9149179459 -6697350.0395878553 0 -6697350.0395878553 27955023.66411829 0 0 0 0 13965346.562223911 1439022.1303598881 0 1439022.1303598881 22443989.886118293 0 0 0 0 -1272277.6633791924 -4033508.7342528105 0 -4033508.7342528105 20662225.311778314 0 0 0 0 -826064.72138595581 5243500.1647198498 0 5243500.1647198498 19321675.552795291 0 0 0 0 52285.072716712952 1962911.0829091668 0 1962911.0829091668 27515064.448890835 0 0 0 0 -637897.30886602402 -2699655.8613201678 0 -2699655.8613201678 8260633.7710248232 0 0 0 0 3029940.5506417751 483582.41039793193 0 483582.41039793193 17481356.065068781 0 0 0 0 5651667.3015575409 -11651853.912858278 0 -11651853.912858278 6948465.9452806264 0 0 0 0 4208197.950355351 -4291491.9482107796 0 -4291491.9482107796 23082464.829208851 0 0 0 0 4444122.1576933861 -7600757.1897466071 0 -7600757.1897466071 -9751203.237704888 0 0 0 0 4215701.7801532149 -5957140.7259548884 0 -5957140.7259548884 -6229390.6324320436 0 0 0 0 2516389.2366614342 -1550553.4002193213 0 -1550553.4002193213 -181438.85519727319 0 0 0 0 1226647.0369381905 -4041195.9592974782 0 -4041195.9592974782 -4013476.0049273372 0 0 0 0 -410345.93479967117 -3913046.3254968375 0 -3913046.3254968375 4360320.3067103028 0 0 0 0 420156.00651931763 -446820.81025660038 0 -446820.81025660038 5536255.0802825987 0 0 0 0 -1604840.3583076 -1731069.2728828788 0 -1731069.2728828788 7626465.0752134919 0 0 0 0 -1585251.0249056816 -763225.41809722781 0 -763225.41809722781 4541070.8151689172 0 0 0 0 -972893.59297466278 -1077441.565539211 0 -1077441.565539211 1696087.9983275682 0 0 0 0 -307504.03724908829 -804489.51746580005 0 -804489.51746580005 1604671.4129112959 0 0 0 0 1328.2313899993896 568048.3745752275 0 568048.3745752275 353564.02894604206 0 0 0 0 -752321.42046752572 -2874366.3660972584 0 -2874366.3660972584 -1665982.4516967535 0 0 0 0 -661238.1636838913 -1348170.4569378644 0 -1348170.4569378644 -5437755.9872819297 0 0 0 0 -707155.6465344429 -4691755.9205570742 0 -4691755.9205570742 -5833492.6069628336 0 0 0 0 1127444.1632227898 -3540796.9610912874 0 -3540796.9610912874 -10070031.203997329 0 0 0 0 180872795.7496419 -84374810.946726367 0 -84374810.946726367 47995202.832848072 0 0 0 0 -505799.23805904388 -2372253.6379867196 0 -2372253.6379867196 -3910196.161550045 0 0 0 0 150816.87916851044 -735795.60280865431 0 -735795.60280865431 -4545580.2970467657 0 0 0 0 -300316.54456615448 -455641.4440138936 0 -455641.4440138936 -7069474.0532661676 0 0 0 0 -1958061.7101345062 -620401.80485829711 0 -620401.80485829711 -6993668.7545191273 0 0 0 0 -155203892.78862047 100650054.56639941 0 100650054.56639941 78834928.135935172 0 0 0 0 3094700.501748085 -224336.3250490129 0 -224336.3250490129 -13054859.846131623 0 0 0 0 846869.91124494863 26424.375982686994 0 26424.375982686994 -120049.20392361257 0 0 0 0 1270100.5123221874 -4661623.9462010413 0 -4661623.9462010413 -12846553.993568122 0 0 0 0 237751.57500611385 148861.51468430107 0 148861.51468430107 -3123.2097230959444 0 0 0 0 -3855143.9890284538 -3087038.8316937536 0 -3087038.8316937536 -6318685.4048385024 0 0 0 0 -1369801.5112719536 -3217035.6021581814 0 -3217035.6021581814 -6437304.9577445388 0 0 0 0 -102244.06023788452 -393050.17304885387 0 -393050.17304885387 -4661071.4316643476 0 0 0 0 -814909.23518610001 -1835987.5370041132 0 -1835987.5370041132 -2758918.6617221236 0 0 0 0 -196669.36436271667 2232248.9471446872 0 2232248.9471446872 -2574947.5626875758 0 0 0 0 -113980.94630770013 -3011165.9667792711 0 -3011165.9667792711 -7952133.6799019575 0 0 0 0 553497.99873161316 199595.52853518724 0 199595.52853518724 1195913.78416574 0 0 0 0 -560788.57283258438 -1440869.4575803801 0 -1440869.4575803801 71533.25100260973 0 0 0 0 -957669.70445251465 1285256.1832741797 0 1285256.1832741797 461794.32646989822 0 0 0 0 662780.08427190781 -431189.5807505846 0 -431189.5807505846 1347857.8106344342 0 0 0 0 -1287459.4189214706 -1037103.8729822934 0 -1037103.8729822934 1038592.4204300046 0 0 0 0 94105.893043518066 1299867.5655843019 0 1299867.5655843019 2140747.568566978 0 0 0 0 -425656.67367470264 678869.00477422401 0 678869.00477422401 -2186576.9394038916 0 0 0 0 16429289.243578434 61012044.961589411 0 61012044.961589411 44875309.213594005 0 0 0 0 676271.19967792556 181941.88521697567 0 181941.88521697567 -28265.518712586501 0 0 0 0 31393677.226181507 3784958.8699804842 0 3784958.8699804842 -24009494.005086362 0 0 0 0 17798448.610453606 24154661.800702006 0 24154661.800702006 45727748.008595705 0 0 0 0 1265002.8669881821 3062727.2792954445 0 3062727.2792954445 -10632753.395017803 0 0 0 0 -1664400.2410693169 -2102212.9213129878 0 -2102212.9213129878 6007446.4339431524 0 0 0 0 4569334.7321367264 -6513705.1744253039 0 -6513705.1744253039 4951689.5993973091 0 0 0 0 4755106.6135230064 -5936664.6123815775 0 -5936664.6123815775 6245672.5242666006 0 0 0 0 -6993635.6566298008 2346046.5501000881 0 2346046.5501000881 3517175.9814719558 0 0 0 0 28301156.448475599 -18737086.146498546 0 -18737086.146498546 3648159.869240135 0 0 0 0 7416800.8731609583 -14663876.108182698 0 -14663876.108182698 6221472.3915210962 0 0 0 0 56099441.821160078 -9605563.9892728329 0 -9605563.9892728329 -5086855.0848444104 0 0 0 0 318483.0414389486 61399.348914916132 0 61399.348914916132 -73744.548797050855 0 0 0 0 20267947.672985673 -2258666.924661763 0 -2258666.924661763 -2177033.1941908598 0 0 0 0 16253670.576215744 -10408486.457112074 0 -10408486.457112074 4970156.291332975 0 0 0 0 7155493.6723600626 -4158847.4576245472 0 -4158847.4576245472 4023821.8456001282 0 0 0 0 7170609.1748313904 -4050581.5736663416 0 -4050581.5736663416 4780060.2967661619 0 0 0 0 1129057.4927954674 -4939487.0513027906 0 -4939487.0513027906 6660715.2718135864 0 0 0 0 11682014.996729374 -4230389.4600639343 0 -4230389.4600639343 3498435.0200381875 0 0 0 0 8191284.9226894379 -1934901.2634964585 0 -1934901.2634964585 3337154.5730574131 0 0 0 0 20631785.365149736 -1000711.5812014043 0 -1000711.5812014043 -905659.96283429861 0 0 0 0 13221042.496175587 1278650.7102567554 0 1278650.7102567554 818083.9220392704 0 0 0 0 2653396.1593828201 2408223.4336788654 0 2408223.4336788654 6617481.8832714558 0 0 0 0 -266754.66006779671 370103.78539135307 0 370103.78539135307 5274162.4339894056 0 0 0 0 731776.17743396759 2696934.4106833339 0 2696934.4106833339 6343740.7266269922 0 0 0 0 -1407820.9339637756 460584.46139648557 0 460584.46139648557 5410677.1307344437 0 0 0 0 -1146000.5918819904 1053074.2312000394 0 1053074.2312000394 4962073.454148531 0 0 0 0 -832119.79365205765 -1429059.5147147477 0 -1429059.5147147477 4685114.5824154615 0 0 0 0 2664409.3705253601 -446736.11310046911 0 -446736.11310046911 4874320.1066247225 0 0 0 0 734758.46626424789 -1017772.9436215758 0 -1017772.9436215758 5978230.1119455099 0 0 0 0 4602653.3659219742 -234862.88966423273 0 -234862.88966423273 5650012.6611419916 0 0 0 0 3611010.5611376762 -2681243.1500319242 0 -2681243.1500319242 5244840.3928104639 0 0 0 0 7547858.8747158051 -2365053.832003057 0 -2365053.832003057 5149610.527510345 0 0 0 0 5976175.3018474579 -775583.16163378954 0 -775583.16163378954 4273628.3464300632 0 0 0 0 6366645.1761908531 -113776.35940814018 0 -113776.35940814018 5332508.7029237747 0 0 0 0 4161767.9426913261 3535024.6281832457 0 3535024.6281832457 6630612.6452926993 0 0 0 0 1447094.2285432816 2619222.3773776293 0 2619222.3773776293 6700268.899076581 0 0 0 0 2497170.836619854 5717842.2693439126 0 5717842.2693439126 9406612.7694039941 0 0 0 0 4480338.5131688118 7847963.5011115074 0 7847963.5011115074 7270116.5236153603 0 0 0 0 9325064.1785757542 4485312.1847149432 0 4485312.1847149432 5867258.0722303391 0 0 0 0 7636948.9328966141 9512279.758877039 0 9512279.758877039 6088352.1302788258 0 0 0 0 10093358.265753746 404711.31647226214 0 404711.31647226214 4034785.8118063211 0 0 0 0 8116116.3339416981 3170423.3613256216 0 3170423.3613256216 4501161.727408886 0 0 0 0 11839222.146204948 5332536.3492797613 0 5332536.3492797613 7083675.2545570135 0 0 0 0 20655619.468406439 5790197.0288014263 0 5790197.0288014263 4049025.117428422 0 0 0 0 13199744.973647118 2902090.7438980937 0 2902090.7438980937 -99158.267794638872 0 0 0 0 17208716.048961163 14091753.399116397 0 14091753.399116397 18570686.661732435 0 0 0 0 16905592.214924097 8822786.7250714302 0 8822786.7250714302 6032801.9101662636 0 0 0 0 14720807.564316809 10427290.940264143 0 10427290.940264143 5046106.288885951 0 0 0 0 13776442.97615099 3495653.3533645272 0 3495653.3533645272 3815514.6573185325 0 0 0 0 8780633.6707027555 1748648.2373171449 0 1748648.2373171449 1958869.1203864813 0 0 0 0 9179710.0699338913 1765494.6849349141 0 1765494.6849349141 1490021.7515389323 0 0 0 0 8313368.900087595 -1614651.9246173501 0 -1614651.9246173501 1962398.9447056055 0 0 0 0 7024130.1679878235 -1102336.3346870542 0 -1102336.3346870542 3334056.9638886629 0 0 0 0 9083630.4957108498 -2979954.120916754 0 -2979954.120916754 -7298100.92903018 0 0 0 0 381640.39812088013 -16701.628937184811 0 -16701.628937184811 1830833.220138222 0 0 0 0 3451130.5543031693 -3311176.8563516736 0 -3311176.8563516736 -7781231.913842082 0 0 0 0 1653351.9821037054 -653320.84824952483 0 -653320.84824952483 -1322797.9252932072 0 0 0 0 -8258284.1307936907 -9366358.6265975535 0 -9366358.6265975535 -5369158.013002634 0 0 0 0 84956.272858682205 -7181.7565510025015 0 -7181.7565510025015 -61849.976491847076 0 0 0 0 26017035.652176142 12315175.433624327 0 12315175.433624327 7050649.7799546719 0 0 0 0 29766380.920003891 16335143.213614464 0 16335143.213614464 8737420.8252546489 0 0 0 0 -1798805.4607234001 -7741188.0832775831 0 -7741188.0832775831 -6291084.6503727436 0 0 0 0 184386.50488462835 -3569.8569778128294 0 -3569.8569778128294 -121002.67568930209 0 0 0 0 27619827.012189865 14059217.353352487 0 14059217.353352487 3125396.1362986565 0 0 0 0 5606.7162411530007 -7754.9634236323182 0 -7754.9634236323182 20802.673467639601 0 0 0 0 32451853.792877674 18934467.002182305 0 18934467.002182305 7955897.8441995382 0 0 0 0 29139973.506171227 11505360.476223826 0 11505360.476223826 7415483.0039483905 0 0 0 0 36452574.07961297 25081121.921133757 0 25081121.921133757 10016804.45808959 0 0 0 0 15869188.421188474 5678430.5982057378 0 5678430.5982057378 4211388.8434524536 0 0 0 0 9163899.8537964821 7091822.6275000572 0 7091822.6275000572 7640510.7699913979 0 0 0 0 19272.86451301018 34763.903249172261 0 34763.903249172261 49293.871705303667 0 0 0 0 -399657.03260362148 6940023.423255004 0 6940023.423255004 3977553.4661744833 0 0 0 0 -97034.926146107027 307079.40060294734 0 307079.40060294734 -137324.67085128764 0 0 0 0 -28411.458113193512 864537.57211959362 0 864537.57211959362 -2296317.2490622401 0 0 0 0 -57385.230667591095 4934640.0274720788 0 4934640.0274720788 9315361.4288855791 0 0 0 0 1689342.7888952494 3308531.867857784 0 3308531.867857784 -25681211.562310934 0 0 0 0 -301582.23347246647 2554986.924018234 0 2554986.924018234 -842985.94097495079 0 0 0 0 1116995.6885519028 3582414.4131761193 0 3582414.4131761193 -1487901.7421354651 0 0 0 0 -4991097.0273818523 1107051.8243940771 0 1107051.8243940771 5623915.7782651186 0 0 0 0 412987.21340894699 14909554.297423542 0 14909554.297423542 12930085.218251318 0 0 0 0 12111235.568131447 16246873.364356861 0 16246873.364356861 7150391.1473069191 0 0 0 0 2290066.5675296783 12272841.343779802 0 12272841.343779802 -7066619.0537699759 0 0 0 0 -6628191.0029923916 16962880.988460153 0 16962880.988460153 9687881.1744557619 0 0 0 0 -1724489.4644715786 13335805.175738096 0 13335805.175738096 13018150.150080562 0 0 0 0 -1288266.5057651997 13467521.044958323 0 13467521.044958323 11382118.046448231 0 0 0 0 -2894104.3665028363 10454846.14624702 0 10454846.14624702 19057229.58347261 0 0 0 0 -2810286.7475346327 13020136.727443671 0 13020136.727443671 12926377.451721907 0 0 0 0 995148.68866348267 17004189.215303302 0 17004189.215303302 8311892.0588750541 0 0 0 0 5599460.1698646545 10244176.930654645 0 10244176.930654645 8739720.8736878633 0 0 0 0 8298419.1866631508 11970472.858872473 0 11970472.858872473 7787469.1297619343 0 0 0 0 15888234.87382102 10886609.566548668 0 10886609.566548668 15907659.735296369 0 0 0 0 15091468.967550278 7037954.824136056 0 7037954.824136056 13606615.673005223 0 0 0 0 2500057.7271714211 4412512.1356554031 0 4412512.1356554031 14321432.22940433 0 0 0 0 -7117096.0811624527 15725729.202179909 0 15725729.202179909 15809105.859350145 0 0 0 0 -16636059.641518354 11660493.583136201 0 11660493.583136201 13746198.172386441 0 0 0 0 -6343602.5295519829 20729033.244082421 0 20729033.244082421 -8841307.5901280642 0 0 0 0 11893190.062500358 -20165866.223883659 0 -20165866.223883659 -8302103.1680762768 0 0 0 0 60293620.21651268 2855553.8533503413 0 2855553.8533503413 -23757448.648456275 0 0 0 0 -53712.45252783061 88963.229249733093 0 88963.229249733093 -36317.161580376531 0 0 0 0 -24704395.606597424 1900869.2022969723 0 1900869.2022969723 28528384.197940111 0 0 0 0 -17526145.904176712 -4863780.3054916859 0 -4863780.3054916859 6171550.3705505133 0 0 0 0 -1780944.0234613419 26026985.431495786 0 26026985.431495786 14320801.054834187 0 0 0 0 140774477.28981304 31566683.950201273 0 31566683.950201273 4121211.2386037968 0 0 0 0 71362577.452687979 -27424309.871147245 0 -27424309.871147245 33032099.244979501 0 0 0 0 56966211.037480354 6134202.2892767936 0 6134202.2892767936 6369610.3186990023 0 0 0 0 40935.183222477674 -188694.8153229258 0 -188694.8153229258 1153437.194234991 0 0 0 0 91982242.223790169 18346024.500720054 0 18346024.500720054 -7638987.3048033714 0 0 0 0 -20208.739132201881 -2859.3811316824285 0 -2859.3811316824285 406376.23080233159 0 0 0 0 41075718.016757965 35708719.593198299 0 35708719.593198299 3800227.3819564581 0 0 0 0 -18716456.231069088 -42546122.759135365 0 -42546122.759135365 -38407625.151014447 0 0 0 0 -43782852.864845276 -1927602.2158048153 0 -1927602.2158048153 -255184.95510447025 0 0 0 0 288940.58634138433 -677379.41793468245 0 -677379.41793468245 987710.29457871534 0 0 0 0 -40780543.111420177 -47249295.19109197 0 -47249295.19109197 -33306184.895243645 0 0 0 0 10945111.817231655 -6229066.2681205273 0 -6229066.2681205273 -12626552.492157221 0 0 0 0 229342.40607698506 -566490.52851094329 0 -566490.52851094329 1859016.4872657657 0 0 0 0 4047600.3459908962 12844082.57831502 0 12844082.57831502 -2061483.8130407333 0 0 0 0 -11853267.607861698 -13608956.643758297 0 -13608956.643758297 -14966345.247637272 0 0 0 0 -18159214.836848259 -11384311.021833658 0 -11384311.021833658 6144.1668963432312 0 0 0 0 -775895.56684589386 2621460.3507757187 0 2621460.3507757187 8589575.9696874619 0 0 0 0 58443090.893952131 -206609.64161217213 0 -206609.64161217213 -10289302.55197525 0 0 0 0 61448762.329671144 5182817.5606422126 0 5182817.5606422126 -3324349.3340162039 0 0 0 0 46451442.769426823 2310750.7601689696 0 2310750.7601689696 -2774337.0475883037 0 0 0 0 53510085.975402832 9872704.4835874736 0 9872704.4835874736 -2438241.8347303867 0 0 0 0 53328235.005392551 6283549.4575016499 0 6283549.4575016499 -2291967.5998877287 0 0 0 0 53376271.454330921 5884677.6741481423 0 5884677.6741481423 149350.75579303503 0 0 0 0 10917182.703607559 3230003.1700401306 0 3230003.1700401306 30489208.857468605 0 0 0 0 12005047.68806982 -161971.56180620193 0 -161971.56180620193 15567929.194095373 0 0 0 0 28859526.0689888 -8314106.6701154709 0 -8314106.6701154709 13137194.945542336 0 0 0 0 15231329.870129108 -7735281.257068634 0 -7735281.257068634 23429066.17288208 0 0 0 0 24383781.188911557 -8235903.5336767435 0 -8235903.5336767435 13761497.018443108 0 0 0 0 23774259.274736047 -5935557.5761758089 0 -5935557.5761758089 5362888.5864572525 0 0 0 0 19292252.216999054 -2310111.4438619614 0 -2310111.4438619614 16174464.519991875 0 0 0 0 19682700.339823723 -9274209.0456357002 0 -9274209.0456357002 7648520.5795462132 0 0 0 0 23339306.045590401 -9634494.8946778774 0 -9634494.8946778774 2181563.2563693821 0 0 0 0 30778484.729618311 -13233687.194682121 0 -13233687.194682121 7393297.1385965347 0 0 0 0 26920301.393847466 -7749620.4199337959 0 -7749620.4199337959 2312397.3326721191 0 0 0 0 29286592.680891991 -4078100.586373806 0 -4078100.586373806 238322.95314016938 0 0 0 0 39120976.849581242 -3812008.36348176 0 -3812008.36348176 181343.35419169068 0 0 0 0 46466457.224804401 -10436560.815037489 0 -10436560.815037489 6082236.1099953651 0 0 0 0 35277414.445252657 -17805291.183247209 0 -17805291.183247209 21850472.556018829 0 0 0 0 53412406.509912491 -2249432.2890000343 0 -2249432.2890000343 10596761.555674076 0 0 0 0 46865670.481998056 21428873.654194124 0 21428873.654194124 11099180.973496437 0 0 0 0 85103950.517205477 22393886.792633533 0 22393886.792633533 10017834.316786885 0 0 0 0 19762494.211231351 8405551.4103085995 0 8405551.4103085995 5874554.5237627029 0 0 0 0 19758014.436936378 8337749.9894208908 0 8337749.9894208908 4863385.7053968906 0 0 0 0 -30526361.936200321 -16845246.323722363 0 -16845246.323722363 -10466705.259643078 0 0 0 0 -42218897.863963157 -27578060.793045521 0 -27578060.793045521 -7471202.439011097 0 0 0 0 -21056722.909670547 -29669199.898906231 0 -29669199.898906231 -15655990.440516949 0 0 0 0 -13577930.7043221 -14497545.757580042 0 -14497545.757580042 -1450565.0768880844 0 0 0 0 2291872.2691339254 -15511027.97142005 0 -15511027.97142005 -7711848.2479183674 0 0 0 0 25227414.362715125 238500.0557513237 0 238500.0557513237 -12805106.884238243 0 0 0 0 1205843.9657798707 -39314603.337893359 0 -39314603.337893359 -63431249.502018929 0 0 0 0 688796.03349333629 -477747.36464831419 0 -477747.36464831419 -374869.27560772514 0 0 0 0 -69137497.199980617 -106664455.82378674 0 -106664455.82378674 -81824756.600070238 0 0 0 0 -21324.928011073847 -238139.03974663489 0 -238139.03974663489 467910.86101324391 0 0 0 0 -41843476.747687131 -31402572.75118655 0 -31402572.75118655 22668601.776699066 0 0 0 0 -101416566.94171095 -103972283.78865767 0 -103972283.78865767 22457299.197255135 0 0 0 0 190494546.94564033 -39607752.461260319 0 -39607752.461260319 -140054269.459939 0 0 0 0 85817966.844844341 -20961495.421244383 0 -20961495.421244383 16962553.820003033 0 0 0 0 46960362.800745964 -25297528.444103718 0 -25297528.444103718 78701095.115119934 0 0 0 0 47019293.084218197 -12731536.588974074 0 -12731536.588974074 17146789.843835831 0 0 0 0 22023511.306709766 -9391526.2466983795 0 -9391526.2466983795 26629433.851682901 0 0 0 0 32949525.828034043 27519089.611919522 0 27519089.611919522 51209782.975652695 0 0 0 0 94395787.495137691 87578210.180772781 0 87578210.180772781 105337203.88041079 0 0 0 0 57808651.854307652 7325710.9428806305 0 7325710.9428806305 -62693538.72744751 0 0 0 0 643450.10455009667 -1068310.9753596531 0 -1068310.9753596531 -21996.391542208847 0 0 0 0 -167488.68185687065 -77785.227119445801 0 -77785.227119445801 -55778529.532297373 0 0 0 0 35487895.624307156 11611764.53016758 0 11611764.53016758 -67699597.342858076 0 0 0 0 7650343.6655974388 -18994705.298199177 0 -18994705.298199177 -44334238.654419661 0 0 0 0 681252.00302505493 13984667.549884319 0 13984667.549884319 -5707643.6160449982 0 0 0 0 11946662.302635193 3876297.0045745373 0 3876297.0045745373 -3639539.8456354141 0 0 0 0 31032672.196115971 13666483.317967415 0 13666483.317967415 -15838847.822698116 0 0 0 0 22692021.683228612 -7779045.881744802 0 -7779045.881744802 22063971.387918472 0 0 0 0 2214545.3720760345 -2163064.475455761 0 -2163064.475455761 32290358.579441547 0 0 0 0 8895614.9498900175 -3374395.6138300896 0 -3374395.6138300896 26654976.452264786 0 0 0 0 5634183.8526730537 9501088.4979496002 0 9501088.4979496002 9104303.1408319473 0 0 0 0 2402101.3218724728 -913007.7234287858 0 -913007.7234287858 -245635.98908996582 0 0 0 0 2414802.1947219372 -1032100.0908426046 0 -1032100.0908426046 116198.56632244587 0 0 0 0 9926403.8515865803 -352110.39895391464 0 -352110.39895391464 -21246410.112408519 0 0 0 0 7477555.046425581 -10111741.407241285 0 -10111741.407241285 -309880.62045049667 0 0 0 0 3319001.6845375299 -8186207.1446778774 0 -8186207.1446778774 9440472.7778730392 0 0 0 0 3029064.6611478329 -4002883.1327021122 0 -4002883.1327021122 1800627.6152238846 0 0 0 0 5641215.8446750641 -2409966.7970843315 0 -2409966.7970843315 -377755.31717456132 0 0 0 0 3202390.5200266438 -929414.19170398545 0 -929414.19170398545 -902944.9249161937 0 0 0 0 2224337.1035528183 -1132550.547436595 0 -1132550.547436595 -468017.89928412437 0 0 0 0 -1034031.008099556 -13630114.29257381 0 -13630114.29257381 9050876.0155508071 0 0 0 0 -23984687.143678665 5095032.451341629 0 5095032.451341629 6086819.6515032053 0 0 0 0 300406.28171696886 -235969.03664037236 0 -235969.03664037236 -112365.98150795218 0 0 0 0 1644804.1972433671 -2626029.2924168333 0 -2626029.2924168333 1798166.6531864211 0 0 0 0 -4515562.826688692 -12848011.595708847 0 -12848011.595708847 9011934.6173567772 0 0 0 0 4079481.1131449044 -1173967.0779847547 0 -1173967.0779847547 -547396.62203835032 0 0 0 0 14521121.072785854 -264517.5153875947 0 -264517.5153875947 -8857851.1762467623 0 0 0 0 7154040.4865725636 -663251.17161405087 0 -663251.17161405087 4432501.0891013145 0 0 0 0 715950.78196287155 3998949.32902354 0 3998949.32902354 4446814.9106508493 0 0 0 0 9747983.7622766495 -5118446.5056396127 0 -5118446.5056396127 3701193.5343511179 0 0 0 0 -204277.3627448082 4317844.723199293 0 4317844.723199293 -3080330.984229207 0 0 0 0 22122893.148892403 -4316674.3669693768 0 -4316674.3669693768 -8932388.9034675956 0 0 0 0 12334306.218193293 3595754.4615016133 0 3595754.4615016133 -13250450.556861281 0 0 0 0 12165580.384291589 4547272.4304128028 0 4547272.4304128028 -5010837.1489805579 0 0 0 0 404524.3357908316 -193324.30638229707 0 -193324.30638229707 -150373.63261253512 0 0 0 0 4145934.0726566315 -14716648.232225984 0 -14716648.232225984 31356135.948843002 0 0 0 0 8097759.9808092117 -10287954.420957685 0 -10287954.420957685 7696370.3593564928 0 0 0 0 -11219918.921735764 -3560277.3687784374 0 -3560277.3687784374 24190695.438143384 0 0 0 0 -11152043.330761909 -19936512.788747936 0 -19936512.788747936 51307212.531563163 0 0 0 0 -44314.548354121158 34361.115328212269 0 34361.115328212269 296242.93806417263 0 0 0 0 51865680.708321333 -16930427.875134304 0 -16930427.875134304 -79661762.497688055 0 0 0 0 -18310415.57702446 4818705.6241310686 0 4818705.6241310686 78714743.176234841 0 0 0 0 55939853.976392746 127859958.26027295 0 127859958.26027295 39672594.399759144 0 0 0 0 34926816.263380051 30940803.396716952 0 30940803.396716952 -64528775.477997601 0 0 0 0 17087839.936264038 27368838.827534676 0 27368838.827534676 24478654.52361076 0 0 0 0 -8668056.8028259277 6043156.1105982065 0 6043156.1105982065 2435090.2700484395 0 0 0 0 3623145.2000579834 -3910190.1024042666 0 -3910190.1024042666 -296732.16749680042 0 0 0 0 -664408.82933945907 -150238.60902131326 0 -150238.60902131326 459290.43892273249 0 0 0 0 22367698.852596313 -17998067.360710852 0 -17998067.360710852 -55644554.99235791 0 0 0 0 1873668.8292450905 -1156738.7818033695 0 -1156738.7818033695 137649.73122739792 0 0 0 0 3603733.8376910668 -2021878.9069878496 0 -2021878.9069878496 236577.37903802935 0 0 0 0 1552475.6772933006 -1416842.3783982992 0 -1416842.3783982992 -72182.739635705948 0 0 0 0 1865705.7148116659 -1118783.8228842735 0 -1118783.8228842735 477013.78418545239 0 0 0 0 7853191.319306612 -3056890.9738653898 0 -3056890.9738653898 -17184742.609365761 0 0 0 0 262610.48332595825 -3092642.2021768987 0 -3092642.2021768987 -892230.80760985613 0 0 0 0 578279.51702640264 -316355.18208698649 0 -316355.18208698649 -174187.65758773885 0 0 0 0 -25541109.271522522 20004894.217471428 0 20004894.217471428 199683112.1709061 0 0 0 0 2215810.8405191898 -1130901.2744585276 0 -1130901.2744585276 522337.44042998552 0 0 0 0 2257225.2473304314 -522291.7934742209 0 -522291.7934742209 -263640.30621156743 0 0 0 0 99763.721727031283 -174583.80101199297 0 -174583.80101199297 -42329.416266270156 0 0 0 0 2199681.5969002247 -1221722.2014965415 0 -1221722.2014965415 117170.38487255573 0 0 0 0 101965304.39175129 80042558.617399275 0 80042558.617399275 91035096.322962791 0 0 0 0 120188405.66383755 26218729.294795379 0 26218729.294795379 10751000.300978661 0 0 0 0 60989624.745173454 132945143.7945779 0 132945143.7945779 13805718.883470476 0 0 0 0 25781334.856030464 -21992961.007005095 0 -21992961.007005095 150636374.22048536 0 0 0 0 29754995.861724377 -1202509.4468853474 0 -1202509.4468853474 27719760.244669318 0 0 0 0 12611681.661342621 -8219676.1602525711 0 -8219676.1602525711 60245415.568057045 0 0 0 0 45120553.387223244 32181176.374557197 0 32181176.374557197 43818630.765217751 0 0 0 0 45257351.399277501 21081319.353872303 0 21081319.353872303 31350108.532441616 0 0 0 0 61603785.995659351 14212538.672093451 0 14212538.672093451 -2516540.087932745 0 0 0 0 22217270.054237366 15686144.978782475 0 15686144.978782475 31938848.516132116 0 0 0 0 42212079.210679054 27857929.587107927 0 27857929.587107927 27285466.425187707 0 0 0 0 82390170.763070107 34289780.160538793 0 34289780.160538793 15854794.519775152 0 0 0 0 54270112.361021042 11214868.54863286 0 11214868.54863286 -6428212.5862623751 0 0 0 0 76013999.163022161 -4289431.0123707056 0 -4289431.0123707056 -7267223.2578690052 0 0 0 0 722207.93309137458 -1279129.1152316933 0 -1279129.1152316933 2274707.5043690186 0 0 0 0 5361296.3846833706 -21759800.659676254 0 -21759800.659676254 18869899.696631908 0 0 0 0 2744507.4063197179 -1254969.8212166594 0 -1254969.8212166594 12290.680629540409 0 0 0 0 5945958.920650959 3593370.2498707771 0 3593370.2498707771 6815496.9827973843 0 0 0 0 -1218577.9267203808 -3520417.5550522804 0 -3520417.5550522804 11713259.308214664 0 0 0 0 1634517.9472637177 3802309.1894405186 0 3802309.1894405186 -4686411.0985518694 0 0 0 0 1361551.7322085623 -563607.77251948253 0 -563607.77251948253 -608013.04804835073 0 0 0 0 -3862749.9978075027 723783.59011502564 0 723783.59011502564 443904.57973530889 0 0 0 0 489099.34350740537 -116895.62776607601 0 -116895.62776607601 266429.60128718358 0 0 0 0 30545065.519814491 37433277.521769255 0 37433277.521769255 32912989.139118731 0 0 0 0 37217148.926967621 64352836.100081205 0 64352836.100081205 78150130.172866642 0 0 0 0 70310610.23279047 -21151880.727392375 0 -21151880.727392375 8673207.4984415174 0 0 0 0 112476239.98066235 54728408.454758227 0 54728408.454758227 -17159868.910103321 0 0 0 0 97405937.437345028 -15068231.581249326 0 -15068231.581249326 -3485910.05579184 0 0 0 0 140076002.29221821 42262106.257802933 0 42262106.257802933 -38687305.080862746 0 0 0 0 -13908826.022288084 -25235957.480740681 0 -25235957.480740681 18724190.033765078 0 0 0 0 27721253.421176434 50704290.874476604 0 50704290.874476604 58011408.715134792 0 0 0 0 -9729788.2079000473 11006881.33715187 0 11006881.33715187 46568298.432219386 0 0 0 0 98212641.455196857 85133751.725860581 0 85133751.725860581 68083105.203614771 0 0 0 0 128857753.40949917 65852890.088249415 0 65852890.088249415 17964643.060452282 0 0 0 0 131239839.88636971 -32393357.153571695 0 -32393357.153571695 -13801.685451358557 0 0 0 0 128084.70916742273 52265.807940197119 0 52265.807940197119 20002.728479619778 0 0 0 0 67519236.170811176 38743167.516406864 0 38743167.516406864 -1959284.2182740569 0 0 0 0 106549.19620985036 -129007.73153074156 0 -129007.73153074156 -158638.55967497439 0 0 0 0 -56228406.308021441 33799285.622973599 0 33799285.622973599 -12731186.159608781 0 0 0 0 125277218.3248167 -52254368.205348402 0 -52254368.205348402 943320.94973397255 0 0 0 0 47673713.620099068 41659973.929515004 0 41659973.929515004 -62921113.938857108 0 0 0 0 115595182.71561247 91412047.280131668 0 91412047.280131668 -47226242.598514915 0 0 0 0 28140675.595805645 -9551671.5250286758 0 -9551671.5250286758 -15361582.643911064 0 0 0 0 23214553.161385536 -19128852.979941875 0 -19128852.979941875 25111170.454669919 0 0 0 0 -260136.82127141953 11351894.427200422 0 11351894.427200422 -12871239.165137094 0 0 0 0 7495972.1903676987 11362104.082467083 0 11362104.082467083 -23394580.750209261 0 0 0 0 380615.94790197304 126175.29417373624 0 126175.29417373624 -38294.963073088511 0 0 0 0 299668.61516094208 1903.0140725672245 0 1903.0140725672245 -172051.91504505277 0 0 0 0 388427.36352109909 28160.434164837003 0 28160.434164837003 -262948.42075508833 0 0 0 0 596253.2421222399 -14860.213666902273 0 -14860.213666902273 -200150.8086972101 0 0 0 0 475220.48775100708 -35832.36609312892 0 -35832.36609312892 -316431.87369227409 0 0 0 0 15188694.350424767 17575218.465197265 0 17575218.465197265 12911075.675767899 0 0 0 0 611630.75173282623 -177502.03290680051 0 -177502.03290680051 -193275.84711769223 0 0 0 0 451272.15933842387 -221933.38463536836 0 -221933.38463536836 -276490.71482389508 0 0 0 0 366115.75916793948 -267399.61880994542 0 -267399.61880994542 -59345.032966207305 0 0 0 0 35757922.699721709 -2681286.6148299631 0 -2681286.6148299631 2716752.961576283 0 0 0 0 378614.1585817337 51423.148793190718 0 51423.148793190718 -176572.38532662392 0 0 0 0 54067210.818004608 27026979.24657613 0 27026979.24657613 -2088917.6178564429 0 0 0 0 81712104.906636238 26630534.152708173 0 26630534.152708173 -7060835.7001805902 0 0 0 0 81071944.766092539 20942786.367743656 0 20942786.367743656 -15999489.093378782 0 0 0 0 84632537.721198082 6607812.8438923359 0 6607812.8438923359 -13524039.219639778 0 0 0 0 53560631.196852088 18690055.992659796 0 18690055.992659796 17965609.123150468 0 0 0 0 47992328.21216774 1806102.6345400512 0 1806102.6345400512 11374024.348241448 0 0 0 0 75578040.954216003 4054463.9793027043 0 4054463.9793027043 -20195254.031376243 0 0 0 0 61654874.630272865 -24679231.831935585 0 -24679231.831935585 -23288320.838280439 0 0 0 0 83939748.547878265 3820617.042996645 0 3820617.042996645 -22542994.134438992 0 0 0 0 129756287.68792534 6832401.2595367432 0 6832401.2595367432 -32465264.044279575 0 0 0 0 101214810.8552289 -11926984.659294307 0 -11926984.659294307 -11815173.663450241 0 0 0 0 111808684.17371559 47119294.034358621 0 47119294.034358621 -8326539.5082743168 0 0 0 0 100757978.55593824 -8727487.0436286032 0 -8727487.0436286032 -32596934.991600275 0 0 0 0 38276861.502329826 -15006175.916689157 0 -15006175.916689157 26419425.069098234 0 0 0 0 39101006.063391685 1926192.2305655479 0 1926192.2305655479 -7558455.5972300768 0 0 0 0 83453618.125495911 23670732.034859419 0 23670732.034859419 -18871667.411689997 0 0 0 0 40975374.301340103 20666643.708917975 0 20666643.708917975 7191281.1587855369 0 0 0 0 71642185.502245426 36209254.47128132 0 36209254.47128132 7267255.5170035362 0 0 0 0 -14143173.604759216 27668547.676588058 0 27668547.676588058 43906092.741733551 0 0 0 0 438622.40803943481 182359.30365115521 0 182359.30365115521 -308819.55157241679 0 0 0 0 34984185.676318169 13014814.835051775 0 13014814.835051775 4374418.3861932755 0 0 0 0 167871166.85985374 133608576.62925982 0 133608576.62925982 79640122.074828744 0 0 0 0 56111667.671035767 88577555.154857039 0 88577555.154857039 61534651.59971714 0 0 0 0 54610409.487744331 94378820.933104277 0 94378820.933104277 162680872.03252077 0 0 0 0 130322783.82685947 40247156.080579162 0 40247156.080579162 -6284064.3520021439 0 0 0 0 15372.162423325237 14482.265611718642 0 14482.265611718642 -16603.583637253847 0 0 0 0 132544597.92701626 -97779832.568736434 0 -97779832.568736434 22018777.697473466 0 0 0 0 211694.00524896337 -22192.809792136191 0 -22192.809792136191 -62975.500523829367 0 0 0 0 145496261.9401989 -66595328.92263186 0 -66595328.92263186 35879656.287108302 0 0 0 0 244343756.02797031 7151226.7889965773 0 7151226.7889965773 -9333249.9412786663 0 0 0 0 236752957.3398962 95068758.251991868 0 95068758.251991868 20299226.285929203 0 0 0 0 -30797511.644030571 -26116148.148000836 0 -26116148.148000836 127479139.06213856 0 0 0 0 -2269.4996610158123 66260.755139234941 0 66260.755139234941 276250.17437878117 0 0 0 0 123616091.74704647 22805219.270280957 0 22805219.270280957 -46453773.594866425 0 0 0 0 196705079.36799526 23251598.090244919 0 23251598.090244919 -48874637.831631899 0 0 0 0 246262.44962806813 37424.15872745798 0 37424.15872745798 -154901.33256982733 0 0 0 0 444316.6877784729 -1362.7516229152679 0 -1362.7516229152679 -93083.678510189056 0 0 0 0 45622523.45948863 550794.33855512738 0 550794.33855512738 268818.8230060339 0 0 0 0 2275223.7633633614 1751101.2337932885 0 1751101.2337932885 2999847.9000230432 0 0 0 0 2571776.3278055191 342632.8786842823 0 342632.8786842823 -78454.873149439692 0 0 0 0 3039949.3854594231 2002865.7081655562 0 2002865.7081655562 1459015.3254003525 0 0 0 0 273557.56650488137 -165085.75978043815 0 -165085.75978043815 -152225.75418366212 0 0 0 0 415695.88058233261 -18564.041073352098 0 -18564.041073352098 -91512.241925358772 0 0 0 0 8622691.7546615601 -6541659.278867878 0 -6541659.278867878 -13868704.173088729 0 0 0 0 2153613.1677064896 2353917.6035335436 0 2353917.6035335436 20964042.815976828 0 0 0 0 -5405660.6406850815 -22989768.559353158 0 -22989768.559353158 -7519583.3919583857 0 0 0 0 911638.89389778441 159095.45494396822 0 159095.45494396822 -467611.69591315032 0 0 0 0 -3154522.7629666328 -9636035.8919154331 0 -9636035.8919154331 -9038884.279807508 0 0 0 0 -1857772.8689107895 -7112868.5706556737 0 -7112868.5706556737 -34711137.294536293 0 0 0 0 15156846.364776611 -16097536.228437275 0 -16097536.228437275 -6758827.9841130078 0 0 0 0 11269249.199077606 -3332518.6341047883 0 -3332518.6341047883 -17199134.99088195 0 0 0 0 12509284.34069252 -5344627.2893477976 0 -5344627.2893477976 -14015591.543103307 0 0 0 0 14692940.007164657 -3876942.4652130879 0 -3876942.4652130879 -13304237.588198096 0 0 0 0 32041987.462197304 -33091066.592844769 0 -33091066.592844769 16748885.332240731 0 0 0 0 355725.28313277801 28620.30746124548 0 28620.30746124548 -27917.796771274527 0 0 0 0 19893480.753034592 48906045.449709833 0 48906045.449709833 23500802.319988105 0 0 0 0 -1262795.8769578934 -12463971.411316931 0 -12463971.411316931 49593062.254007205 0 0 0 0 -23796570.108809471 102753613.46591738 0 102753613.46591738 77987009.980730474 0 0 0 0 -66627.173156682868 135963.15052011819 0 135963.15052011819 690072.68727640505 0 0 0 0 55620489.044398308 -15526842.760941379 0 -15526842.760941379 -31306797.062308908 0 0 0 0 32352224.70935297 13887487.934696831 0 13887487.934696831 -40721115.640994877 0 0 0 0 -7911663.3600077629 -24415150.543592371 0 -24415150.543592371 23566774.881992757 0 0 0 0 13988613.754489899 20171868.952270925 0 20171868.952270925 -2311907.2737765908 0 0 0 0 26152411.058710098 -19745422.499578655 0 -19745422.499578655 -6953020.1415917873 0 0 0 0 -46764795.710917473 15630774.25418371 0 15630774.25418371 11007372.472743034 0 0 0 0 -8332413.7489871979 -40566350.809900105 0 -40566350.809900105 -13525525.810302496 0 0 0 0 41869508.196937561 -2856875.6487680674 0 -2856875.6487680674 -8867730.2385807484 0 0 0 0 39534654.493575096 1356638.682590127 0 1356638.682590127 -51787481.968192935 0 0 0 0 -44058140.031748772 62169981.456736445 0 62169981.456736445 50740762.241359472 0 0 0 0 -45468743.903848171 -13031875.044973508 0 -13031875.044973508 13812432.021769673 0 0 0 0 -45129.646472834051 151737.36866134591 0 151737.36866134591 689874.36786893359 0 0 0 0 -14810355.292934418 -9618143.1176390946 0 -9618143.1176390946 12395970.048899278 0 0 0 0 977247.75553512573 -3938790.1114963293 0 -3938790.1114963293 2451560.670009017 0 0 0 0 -1532370.083837986 670266.34440517426 0 670266.34440517426 -12887027.38499701 0 0 0 0 25911811.599836349 -50854225.171397328 0 -50854225.171397328 -19029083.100835517 0 0 0 0 66448966.424624681 29891460.193012357 0 29891460.193012357 -255185.33014455438 0 0 0 0 -7921571.4137496948 950902.682538867 0 950902.682538867 -5722919.2088776603 0 0 0 0 791593.22448253632 42070223.984602168 0 42070223.984602168 24448010.883164883 0 0 0 0 64897341.967312813 -23273256.942560285 0 -23273256.942560285 -23661032.001567304 0 0 0 0 17517.20144665055 144311.83318361593 0 144311.83318361593 140071.93650221825 0 0 0 0 23518563.56237793 46033925.470748648 0 46033925.470748648 16116068.725022256 0 0 0 0 39016886.014500618 -35853185.695477247 0 -35853185.695477247 6830612.9982240796 0 0 0 0 38183401.249875546 -1647761.0137673914 0 -1647761.0137673914 -5317425.7351990342 0 0 0 0 74705952.658172607 8879259.4170543253 0 8879259.4170543253 -24452874.026859403 0 0 0 0 18926961.316779613 -12446205.902645737 0 -12446205.902645737 -10456616.180232704 0 0 0 0 -12707606.680965424 14997247.073196292 0 14997247.073196292 -14311924.184726 0 0 0 0 124173.17628672998 322829.50558304694 0 322829.50558304694 269996.52443641156 0 0 0 0 -27655663.04323101 28043899.894727945 0 28043899.894727945 -20768313.481041372 0 0 0 0 24596376.703251302 15380503.409989268 0 15380503.409989268 -49117273.482510924 0 0 0 0 -10556760.594993114 54000279.946413755 0 54000279.946413755 -58947674.305375695 0 0 0 0 -19960779.771540284 -3085714.2878764868 0 -3085714.2878764868 13340022.363883853 0 0 0 0 -13851568.366189003 4829521.8419360518 0 4829521.8419360518 -26111583.048895895 0 0 0 0 1548805.6334853172 45231479.133437052 0 45231479.133437052 -54985869.147111416 0 0 0 0 209726.76182499574 358203.87636400334 0 358203.87636400334 270777.29138840293 0 0 0 0 5582980.1628155708 34941995.295132473 0 34941995.295132473 8661706.0619889498 0 0 0 0 23985847.829115391 41556061.067136526 0 41556061.067136526 19823026.259600163 0 0 0 0 34436408.872517586 36067436.273642182 0 36067436.273642182 10877702.261548519 0 0 0 0 24660310.364237785 31509433.035124719 0 31509433.035124719 9278591.6829843521 0 0 0 0 76514244.53988266 4133853.8100876808 0 4133853.8100876808 -6165769.3970403969 0 0 0 0 31047795.312679768 26349862.15220505 0 26349862.15220505 12889583.237225056 0 0 0 0 16770894.666632652 -7693895.6606788039 0 -7693895.6606788039 -15343632.684830416 0 0 0 0 35312070.550197601 6256000.5082983971 0 6256000.5082983971 -5953482.4782316685 0 0 0 0 45834543.355725288 -6714324.3297716379 0 -6714324.3297716379 -19676616.358091235 0 0 0 0 6894372.345659554 20435821.961324539 0 20435821.961324539 -32680019.028443575 0 0 0 0 75880978.997587204 -47777417.24889183 0 -47777417.24889183 5255265.6449526399 0 0 0 0 -1943.7519179396331 -42137.167172572808 0 -42137.167172572808 103928.33252361591 0 0 0 0 13127878.42009449 53363257.956885755 0 53363257.956885755 21573766.617601156 0 0 0 0 51941063.4245224 72490765.061634839 0 72490765.061634839 10884933.190974832 0 0 0 0 -94250896.799095154 -19943730.943087339 0 -19943730.943087339 -26041591.288166523 0 0 0 0 22156.758191807312 1410.9243973968551 0 1410.9243973968551 -22361.664540016442 0 0 0 0 12982931.113616228 6668305.7071162704 0 6668305.7071162704 -16886763.982340574 0 0 0 0 13132272.053833485 -297026.33215349913 0 -297026.33215349913 6467912.9350918531 0 0 0 0 3825834.1060214043 3020640.2003926337 0 3020640.2003926337 2756689.0867708325 0 0 0 0 148310.00942306616 115892.66529730964 0 115892.66529730964 -38100.305453526904 0 0 0 0 565058.00687852502 -213656.66854900867 0 -213656.66854900867 41821.485623121262 0 0 0 0 146773.4562691875 -178865.49098430504 0 -178865.49098430504 7074.4453791457927 0 0 0 0 15210316.817997381 5098683.8847863842 0 5098683.8847863842 -5038446.0687464476 0 0 0 0 125415159.29398251 15224372.740843952 0 15224372.740843952 -15492627.794110894 0 0 0 0 61334971.114468575 -51590892.687417865 0 -51590892.687417865 37495462.908354521 0 0 0 0 13204597.237925529 -3204764.3423578143 0 -3204764.3423578143 -4838832.5502369404 0 0 0 0 -32975715.487416267 55604192.273409724 0 55604192.273409724 101439094.54833788 0 0 0 0 13516783.132835388 -31441305.458780229 0 -31441305.458780229 2438636.5274908543 0 0 0 0 118865.20346162654 170045.16704619781 0 170045.16704619781 126546.84410285976 0 0 0 0 134274692.45022774 -33811569.342580318 0 -33811569.342580318 -75284378.508920699 0 0 0 0 125649291.79822826 -76953822.252225637 0 -76953822.252225637 -53005166.34618485 0 0 0 0 153406387.90698338 9258446.7363049388 0 9258446.7363049388 -18397550.584483385 0 0 0 0 101378077.92575526 -11891844.133408278 0 -11891844.133408278 -12198969.865290642 0 0 0 0 77612242.036963463 62663808.300445676 0 62663808.300445676 2128284.6001202464 0 0 0 0 -1868911.414765358 66430292.388779819 0 66430292.388779819 15214539.680257022 0 0 0 0 15762325.48139286 41864110.412772775 0 41864110.412772775 2082042.4954656363 0 0 0 0 13205254.408679485 36930575.095016778 0 36930575.095016778 18181712.133354664 0 0 0 0 30259506.476772308 30587575.396149755 0 30587575.396149755 10720130.927573204 0 0 0 0 29915391.236608505 8479788.8514895439 0 8479788.8514895439 -4957213.518499136 0 0 0 0 14788343.160822868 2631848.85552001 0 2631848.85552001 -5670612.8874617815 0 0 0 0 4712774.067492485 4390560.8294448853 0 4390560.8294448853 5788623.4222534895 0 0 0 0 15804173.772829652 -3692880.2146156058 0 -3692880.2146156058 10665768.637111664 0 0 0 0 -34202942.948580593 15564524.806594457 0 15564524.806594457 -6882835.2534899712 0 0 0 0 15943883.772051334 -53478928.700059652 0 -53478928.700059652 25958823.919927478 0 0 0 0 37487.458245423622 -42060.072669960558 0 -42060.072669960558 98501.67791119928 0 0 0 0 -50472725.34401226 5081875.2290269136 0 5081875.2290269136 27299427.646363378 0 0 0 0 40323106.36636734 -6224805.7298122644 0 -6224805.7298122644 -10658601.418941736 0 0 0 0 22695110.693349123 18057024.512335539 0 18057024.512335539 1426691.6009669304 0 0 0 0 -5521549.9702568054 -16045778.918243766 0 -16045778.918243766 18763404.819952726 0 0 0 0 -1594083.3651661873 1316162.7912311554 0 1316162.7912311554 -1756221.4894937277 0 0 0 0 440371.41016469558 -150607.79571923334 0 -150607.79571923334 -163852.08051844034 0 0 0 0 -11196379.021243542 -7511027.2636266463 0 -7511027.2636266463 5932433.7788801193 0 0 0 0 4455813.1739778519 3533950.1789342165 0 3533950.1789342165 -3979931.1186490059 0 0 0 0 5707915.0563182831 3653431.6801047325 0 3653431.6801047325 -5003609.8010396957 0 0 0 0 6171632.3810958862 944224.5200407505 0 944224.5200407505 -4450025.5402485132 0 0 0 0 4671432.8637866974 2365507.1554558277 0 2365507.1554558277 -5695897.3629500866 0 0 0 0 21055475.551237583 3759884.6274194717 0 3759884.6274194717 -10374995.868814051 0 0 0 0 8201737.2166180611 4649114.9995430708 0 4649114.9995430708 -9618824.3829667568 0 0 0 0 -10856598.583558083 4555769.6369981766 0 4555769.6369981766 7609834.289069891 0 0 0 0 125372.86038450935 -73442.028007212095 0 -73442.028007212095 -42589.63297923666 0 0 0 0 5266588.5856466293 4649697.8286325932 0 4649697.8286325932 -3822896.7293947637 0 0 0 0 -12645540.657987595 7437481.4764215946 0 7437481.4764215946 2022135.6571363211 0 0 0 0 3572281.357475996 5037658.7713644207 0 5037658.7713644207 -9041571.6036832333 0 0 0 0 6901603.9940509796 1017694.4932316542 0 1017694.4932316542 -4665163.5507714748 0 0 0 0 1012633.8387346268 -2687853.1690003872 0 -2687853.1690003872 -6996796.7994627953 0 0 0 0 6171512.4261474609 886521.39181232452 0 886521.39181232452 -3529129.5374827385 0 0 0 0 7349077.5916042328 -1188070.3886059523 0 -1188070.3886059523 -7727594.9146769941 0 0 0 0 11444820.105826378 1546503.3434298038 0 1546503.3434298038 -8783043.9717194736 0 0 0 0 8429584.3108849525 2180182.155816853 0 2180182.155816853 -10937699.843984723 0 0 0 0 9179125.6442055702 -1597742.3753582239 0 -1597742.3753582239 -12708260.913671255 0 0 0 0 15224574.079227448 -4945365.797979176 0 -4945365.797979176 -3465802.6283984184 0 0 0 0 -668199.37030667067 315133.53310166672 0 315133.53310166672 -61711.823468565941 0 0 0 0 -774955.26215696335 1079261.0178138018 0 1079261.0178138018 -381824.75442624092 0 0 0 0 1845901.6986017227 2907482.5376268625 0 2907482.5376268625 -11243409.325655177 0 0 0 0 -1618670.2617731094 -2242213.1060301661 0 -2242213.1060301661 1330818.3701754808 0 0 0 0 6816954.3782491684 6864385.0404837132 0 6864385.0404837132 5843366.224324584 0 0 0 0 14412.439628037624 60721.068571285054 0 60721.068571285054 15603.399087806727 0 0 0 0 6079285.5364608765 -4829085.9853909016 0 -4829085.9853909016 4388761.3035176992 0 0 0 0 13032150.192764759 9422451.9063369036 0 9422451.9063369036 2810029.5387470722 0 0 0 0 16025875.476311207 7690331.6134788394 0 7690331.6134788394 1324120.4228001237 0 0 0 0 10118765.152231216 3168072.4739613533 0 3168072.4739613533 2145753.3902921677 0 0 0 0 -46116.605639590416 9613.440110324882 0 9613.440110324882 54503.734448437521 0 0 0 0 -2427231.8617515564 10062814.98623848 0 10062814.98623848 386303.81249523163 0 0 0 0 5065677.9107584953 4385218.2436676621 0 4385218.2436676621 -13002194.030308664 0 0 0 0 -13386590.607626915 7741575.4799780846 0 7741575.4799780846 5045055.6934403181 0 0 0 0 5202169.403236866 6974046.0954485536 0 6974046.0954485536 13994226.848647237 0 0 0 0 11581190.435311794 -3259968.3722044826 0 -3259968.3722044826 -1824136.7307254672 0 0 0 0 2524574.2176208496 3320168.5028534532 0 3320168.5028534532 5888853.5071492493 0 0 0 0 2177610.4484624863 2224072.5604208708 0 2224072.5604208708 3830563.0222572684 0 0 0 0 3213139.1029176712 2691574.2669116408 0 2691574.2669116408 2425874.5290766954 0 0 0 0 3417062.8032534122 2080450.2990717888 0 2080450.2990717888 3826425.4350807667 0 0 0 0 1105026.2355275154 1377197.7359140515 0 1377197.7359140515 2391072.2290406274 0 0 0 0 2979396.2261304855 3201131.4644297957 0 3201131.4644297957 2076171.1699900851 0 0 0 0 5526722.1404676437 3102859.144528687 0 3102859.144528687 2075814.5252737701 0 0 0 0 4639560.0989654064 5119333.3483677357 0 5119333.3483677357 2010339.0792746544 0 0 0 0 8553497.3156194687 5179424.9397446513 0 5179424.9397446513 564367.55977803469 0 0 0 0 7283588.4199981689 10020582.012545072 0 10020582.012545072 17274.359546065331 0 0 0 0 3356523.7834405899 10091964.199133933 0 10091964.199133933 2318738.5089151561 0 0 0 0 4168353.8351566792 9596125.3962540925 0 9596125.3962540925 2475454.1254467964 0 0 0 0 4090629.1093020439 8603986.4248505533 0 8603986.4248505533 5904418.3903059363 0 0 0 0 2165244.1778326035 5346133.2301238179 0 5346133.2301238179 2578199.8644203842 0 0 0 0 3308711.9565010071 4200067.656447351 0 4200067.656447351 3726576.205994606 0 0 0 0 1101331.3266553879 2030698.16609025 0 2030698.16609025 6102864.677161485 0 0 0 0 2665770.1584205627 3334489.9355767816 0 3334489.9355767816 3387765.0718120337 0 0 0 0 1501083.0101890564 3622461.7246399224 0 3622461.7246399224 6485791.545856148 0 0 0 0 -6662595.8045158386 6996833.9338423014 0 6996833.9338423014 5738334.9733123668 0 0 0 0 2987480.1088776588 16338604.432305619 0 16338604.432305619 9923232.7661454678 0 0 0 0 -24397364.185688257 15212093.139652185 0 15212093.139652185 12335519.859336734 0 0 0 0 1168001.0835821801 -128063.00212743186 0 -128063.00212743186 -126317.34721485119 0 0 0 0 1600701.3202819824 232880.18023526669 0 232880.18023526669 403130.60899317265 0 0 0 0 1802188.3307466507 -3821267.1822775472 0 -3821267.1822775472 -9402913.487876866 0 0 0 0 -11199109.141849995 -1626545.0819740146 0 -1626545.0819740146 5019737.6321831346 0 0 0 0 45698.423008120619 -53190.735495507543 0 -53190.735495507543 -30960.854479304908 0 0 0 0 5346693.2648363113 969667.56396657974 0 969667.56396657974 -18511621.500413567 0 0 0 0 632087.78196213813 -42009.718009773933 0 -42009.718009773933 -49270.363037615796 0 0 0 0 -815813.70111036301 -905723.85235497542 0 -905723.85235497542 -6234670.2127481541 0 0 0 0 309370.55088281631 194200.50805729628 0 194200.50805729628 -552063.72421708703 0 0 0 0 2882762.2005445957 3034904.2869032323 0 3034904.2869032323 2562557.9474219084 0 0 0 0 2388046.474360466 2256479.149119854 0 2256479.149119854 2295439.9322199821 0 0 0 0 643993.83773423918 190081.53230162943 0 190081.53230162943 -233541.61889711051 0 0 0 0 4951405.1101846695 -8505434.1486663222 0 -8505434.1486663222 22192492.68960771 0 0 0 0 -2267.8660884215496 49967.333999495619 0 49967.333999495619 23590.36325386323 0 0 0 0 10405545.334643245 -11728827.794579394 0 -11728827.794579394 12466566.7410326 0 0 0 0 -1296221.1385407448 604621.3239274323 0 604621.3239274323 6306510.0760213733 0 0 0 0 2764474.8923339844 3915881.9640708864 0 3915881.9640708864 715218.81233261526 0 0 0 0 261390.00171279907 1718562.6402433813 0 1718562.6402433813 -2158385.5382696427 0 0 0 0 1673596.4194278717 5017304.3724956512 0 5017304.3724956512 8748623.5357977152 0 0 0 0 154136.45962084993 69000.09116308752 0 69000.09116308752 -107875.10877429743 0 0 0 0 -2237443.3231964111 5171460.0778157711 0 5171460.0778157711 5258646.7305757403 0 0 0 0 7310078.6725654602 -1777680.3971455991 0 -1777680.3971455991 7753665.0364692807 0 0 0 0 -721084.53101426363 -5076727.7232787833 0 -5076727.7232787833 11259792.785936832 0 0 0 0 24510755.539182663 -17013137.77014184 0 -17013137.77014184 15417817.226400215 0 0 0 0 15616315.88163662 -16364002.856242418 0 -16364002.856242418 16367353.763965189 0 0 0 0 52586555.93053627 -16362958.162143469 0 -16362958.162143469 5750382.8839424551 0 0 0 0 29466104.0221138 -6024231.5290578604 0 -6024231.5290578604 1834975.2612628937 0 0 0 0 33035189.141562462 -7227088.8969037831 0 -7227088.8969037831 1520924.9249878898 0 0 0 0 19348549.402817726 33523906.921229511 0 33523906.921229511 4242753.0073052049 0 0 0 0 1109398.0987079621 -98398.786281584704 0 -98398.786281584704 -93770.475549811948 0 0 0 0 57809358.416813016 9829384.5139672495 0 9829384.5139672495 -3477424.7856387496 0 0 0 0 7169830.3017897606 13676319.201266587 0 13676319.201266587 2854405.2246941924 0 0 0 0 27836115.374060631 16848127.227114558 0 16848127.227114558 -4999088.198671937 0 0 0 0 12112394.236538887 2927946.7386564016 0 2927946.7386564016 5491890.618338652 0 0 0 0 23824153.363837242 -5263868.1095682085 0 -5263868.1095682085 4229242.7275696397 0 0 0 0 15560845.585072517 3203947.8948326707 0 3203947.8948326707 1672330.5963370204 0 0 0 0 6743437.2314682007 6365381.8651890755 0 6365381.8651890755 721051.15923419595 0 0 0 0 10008391.181031704 12752964.279168576 0 12752964.279168576 3120023.4545980692 0 0 0 0 7005551.8614385128 4825727.4160925746 0 4825727.4160925746 -2122776.5318928957 0 0 0 0 4033982.0252432823 4944859.7433547974 0 4944859.7433547974 -1930676.7560242116 0 0 0 0 12518972.05139184 -199933.92020004988 0 -199933.92020004988 -3344935.2110800743 0 0 0 0 3574614.8576889038 508683.71568894386 0 508683.71568894386 -3221044.8889841437 0 0 0 0 7466850.9679660797 -2026395.3961954713 0 -2026395.3961954713 -7339686.1403154135 0 0 0 0 20156329.780505657 -4068841.6864850521 0 -4068841.6864850521 3954475.0412328243 0 0 0 0 7056408.6267199516 1441023.7436798215 0 1441023.7436798215 2862731.3121445179 0 0 0 0 10339042.709529757 -7394983.0776110664 0 -7394983.0776110664 -520158.62283790112 0 0 0 0 5855896.1215083599 -3358164.1392374709 0 -3358164.1392374709 -5229601.5500333309 0 0 0 0 2663902.0662755966 2635150.9615119696 0 2635150.9615119696 10753607.996362388 0 0 0 0 -358023.96013563871 -15004874.823985711 0 -15004874.823985711 -7860813.2930201292 0 0 0 0 1643458.669508934 -2563102.7547009587 0 -2563102.7547009587 -3205046.7799251676 0 0 0 0 1291370.6539993286 -8021222.8800680637 0 -8021222.8800680637 -5945383.5918716788 0 0 0 0 -5586016.1167097092 -3569252.2890786827 0 -3569252.2890786827 -7012920.3398711681 0 0 0 0 165663.14897966385 -13270.973235249519 0 -13270.973235249519 -103311.86652156711 0 0 0 0 -99207.477571249008 -6278789.9124367833 0 -6278789.9124367833 -9250664.4712115526 0 0 0 0 182924.41423781775 27117.579302110826 0 27117.579302110826 -112088.24662070884 0 0 0 0 76229.938506457838 -33065.449353382923 0 -33065.449353382923 -119142.66732465994 0 0 0 0 -1635334.7591667175 -5101501.0393827558 0 -5101501.0393827558 -7057176.7148126364 0 0 0 0 92557.302516460419 25691.052531838417 0 25691.052531838417 -102333.67484986782 0 0 0 0 3168458.3395822048 -421468.63333417475 0 -421468.63333417475 -391583.09711813927 0 0 0 0 72580.686239242554 33825.310489356518 0 33825.310489356518 -92632.980493664742 0 0 0 0 78344.951111793518 22939.106886148453 0 22939.106886148453 -82456.68774330616 0 0 0 0 84669.040743550519 -56189.854712335626 0 -56189.854712335626 -95902.566873192787 0 0 0 0 370458.14593279362 1289771.9511196762 0 1289771.9511196762 -5223530.8878991604 0 0 0 0 5633079.7844338417 -911782.37906229496 0 -911782.37906229496 -6520924.4107741714 0 0 0 0 2036987.0764579773 77216.608213678002 0 77216.608213678002 -6622371.9591917992 0 0 0 0 153791.00863751303 97082.341219048249 0 97082.341219048249 -136678.99788123416 0 0 0 0 46527.28279876709 122396.17117977142 0 122396.17117977142 -130427.91923809052 0 0 0 0 1566288.2154479027 -1144052.4423904419 0 -1144052.4423904419 -7632184.5516460538 0 0 0 0 48067.612246513367 135362.01898866892 0 135362.01898866892 -146399.28480744362 0 0 0 0 58781.562161101028 126858.80877833944 0 126858.80877833944 16452.118834742229 0 0 0 0 -1488388.9210336208 -1393419.2392086089 0 -1393419.2392086089 -1361087.2156425714 0 0 0 0 247285.29280948639 2899778.8126947284 0 2899778.8126947284 -6421118.3714911342 0 0 0 0 -49200.889874584042 6946.2943386180559 0 6946.2943386180559 61963.597873468418 0 0 0 0 1149270.4934501648 -283811.33800792694 0 -283811.33800792694 -11016104.298056364 0 0 0 0 58448.11686421046 62165.274233353906 0 62165.274233353906 -69550.661284086527 0 0 0 0 -1306446.5557327271 -1007412.1510517597 0 -1007412.1510517597 -5244396.0231995583 0 0 0 0 82216.414245605469 2837208.8044009209 0 2837208.8044009209 -7920779.3130021095 0 0 0 0 449707.37641906738 1049177.2521128654 0 1049177.2521128654 -8463065.2627928257 0 0 0 0 263520.5161819458 -96032.458260178566 0 -96032.458260178566 -223053.01411128044 0 0 0 0 43491.270735798404 89197.535427014576 0 89197.535427014576 -10977.602270892268 0 0 0 0 21520.572821140289 1200646.9776218534 0 1200646.9776218534 -6371863.9390954971 0 0 0 0 -763578.94579219818 1609592.0609241724 0 1609592.0609241724 -2159555.9465886354 0 0 0 0 -122015.71336054802 -165156.40534853935 0 -165156.40534853935 -3731623.2867962122 0 0 0 0 -1101429.7368693352 660341.42505156994 0 660341.42505156994 4280239.8545846939 0 0 0 0 73299.975603475235 103414.2282951026 0 103414.2282951026 34247.621635840245 0 0 0 0 -29239.010171891423 412.56812311836984 0 412.56812311836984 64268.723621659097 0 0 0 0 -1288604.5346231461 3477349.0816785097 0 3477349.0816785097 -3977803.7627346516 0 0 0 0 -1095199.7793421745 4425920.9002801776 0 4425920.9002801776 -2963788.9626176357 0 0 0 0 -386326.41691207886 4743866.889603138 0 4743866.889603138 -5522246.6790174246 0 0 0 0 -76923.850249290466 4846208.0598635674 0 4846208.0598635674 -5499606.4241350889 0 0 0 0 -137455.8789434433 4478568.8199624419 0 4478568.8199624419 -5820107.0449995995 0 0 0 0 534912.4838218689 4710167.9349182248 0 4710167.9349182248 -7035911.8098784685 0 0 0 0 -75214.482664108276 3187356.9262473583 0 3187356.9262473583 -4855395.6475260258 0 0 0 0 301953.65129375458 4530499.3104871511 0 4530499.3104871511 -7089283.076950103 0 0 0 0 295794.41750526428 4690635.9447468519 0 4690635.9447468519 -5740140.0842863321 0 0 0 0 919229.4179983139 3764871.5042669773 0 3764871.5042669773 -6908902.2725872993 0 0 0 0 86761.913987636566 36590.861017644405 0 36590.861017644405 -113003.40221142769 0 0 0 0 240812.80356407166 245421.16287314892 0 245421.16287314892 -559676.24688708782 0 0 0 0 8215.3729523774236 89846.982635129127 0 89846.982635129127 -8706.4668110067578 0 0 0 0 -232173.02283573151 6707.3129823207855 0 6707.3129823207855 412674.57149147987 0 0 0 0 429698.35458278656 -148924.51373672485 0 -148924.51373672485 -287110.26090312004 0 0 0 0 -1972265.8824255466 1993685.8325868547 0 1993685.8325868547 -1114720.2168438435 0 0 0 0 194376.22321033478 -481216.82048165798 0 -481216.82048165798 247485.35586351156 0 0 0 0 -26331.748982205521 2213.5034747885074 0 2213.5034747885074 36736.509694356413 0 0 0 0 -3186993.3750891685 6492474.2248281837 0 6492474.2248281837 -4963416.6945528984 0 0 0 0 -6058196.2401599884 4312821.542781949 0 4312821.542781949 -779817.71514250338 0 0 0 0 -1616742.8842110634 -487202.83521091938 0 -487202.83521091938 -520044.29937815666 0 0 0 0 4137993.3652597666 3478595.4173383266 0 3478595.4173383266 1741632.0571880341 0 0 0 0 -951865.73862361908 440339.41834080219 0 440339.41834080219 661697.97662782669 0 0 0 0 61387.328494837508 -62176.041663575685 0 -62176.041663575685 -118303.66822374403 0 0 0 0 5814514.1595873833 2757433.9022263885 0 2757433.9022263885 1907003.9360209703 0 0 0 0 8130221.9971160889 548692.18613159657 0 548692.18613159657 -7503331.6966180801 0 0 0 0 29464.248007196817 -39575.577418103348 0 -39575.577418103348 -51683.015615571407 0 0 0 0 -7703498.3936393261 10513930.034247339 0 10513930.034247339 -8237907.6993246078 0 0 0 0 -13767928.450023174 3993670.6793982983 0 3993670.6793982983 -1999186.1788983941 0 0 0 0 2572254.7845950127 -316415.55647909641 0 -316415.55647909641 -9227443.5481696129 0 0 0 0 8157399.9283237457 5028433.2438261509 0 5028433.2438261509 -13472947.071145177 0 0 0 0 1581925.8915700912 9142483.2533574104 0 9142483.2533574104 -10831173.807474315 0 0 0 0 140439.10219526291 2822000.6473578215 0 2822000.6473578215 1380039.5159611702 0 0 0 0 1819402.7206296921 5222163.7628113627 0 5222163.7628113627 -4436250.0296719074 0 0 0 0 4596236.9141280651 4647526.0855292678 0 4647526.0855292678 -4659564.8634662628 0 0 0 0 -4563663.3227300644 7358435.1954573989 0 7358435.1954573989 -2740858.7498903275 0 0 0 0 -3049832.7107819915 -328524.73936539888 0 -328524.73936539888 -494039.58850979805 0 0 0 0 7473898.0133304596 2867530.8575683832 0 2867530.8575683832 -52862.730867922306 0 0 0 0 1954624.2832078934 3637281.8916270137 0 3637281.8916270137 6086569.7254605293 0 0 0 0 1992499.7984776497 2936161.4265437126 0 2936161.4265437126 1252931.1963554621 0 0 0 0 7472033.9030315876 17043385.372719079 0 17043385.372719079 -5709736.586946249 0 0 0 0 319004.55162525177 -8236534.7685676813 0 -8236534.7685676813 7068472.8214924335 0 0 0 0 27367002.520730495 -39998135.913744807 0 -39998135.913744807 44309500.220638275 0 0 0 0 321811.96045628353 134949.65005639195 0 134949.65005639195 35836.232856919407 0 0 0 0 6172778.8186349869 2564208.5120234489 0 2564208.5120234489 725700.01753377914 0 0 0 0 8198947.5933923721 -224635.98391532898 0 -224635.98391532898 2761725.4022116661 0 0 0 0 -40444.834254284622 -35041.460540190572 0 -35041.460540190572 62077.949853940052 0 0 0 0 -1838268.6970601082 26168.119627714157 0 26168.119627714157 6663693.917257309 0 0 0 0 9518672.7260990143 -4549119.923642695 0 -4549119.923642695 2092258.5798920989 0 0 0 0 2582714.4024448395 994522.34480440617 0 994522.34480440617 -543353.64994323254 0 0 0 0 -57659.485292114783 -51094.188710642513 0 -51094.188710642513 86135.525550294551 0 0 0 0 5222667.9187788963 5240806.8053303957 0 5240806.8053303957 -4366476.0041819811 0 0 0 0 11845741.778589725 -9570632.8097172379 0 -9570632.8097172379 5523945.1577849388 0 0 0 0 30102309.419425964 1572969.1385778189 0 1572969.1385778189 -15148047.090482712 0 0 0 0 7217415.3835837841 -2269763.4424380064 0 -2269763.4424380064 -4285557.2626674175 0 0 0 0 1162530.7997407913 6680038.4757294655 0 6680038.4757294655 -12967753.745991349 0 0 0 0 1672054.7623300552 1264665.7518383265 0 1264665.7518383265 -2168544.2591449618 0 0 0 0 -104016.77699959278 5371441.5749087334 0 5371441.5749087334 -5802300.8240907192 0 0 0 0 -387427.7116060257 6347678.1154077053 0 6347678.1154077053 -5865660.3504431248 0 0 0 0 147169.14514446259 5664989.8174270391 0 5664989.8174270391 -5515168.1617161632 0 0 0 0 465758.57132530212 5524779.1537986398 0 5524779.1537986398 -6514375.2019169331 0 0 0 0 13928579.668961048 -4587527.9130295515 0 -4587527.9130295515 -2608694.5409219265 0 0 0 0 -33016.282134292414 -31213.951157342875 0 -31213.951157342875 40459.792407021625 0 0 0 0 11364586.483130693 -42385.481433749199 0 -42385.481433749199 -4444659.4204518795 0 0 0 0 6039614.1177615523 -410983.21254267544 0 -410983.21254267544 -2271691.7364985943 0 0 0 0 3748200.5985422134 182896.7093360424 0 182896.7093360424 -499492.86843800545 0 0 0 0 6135689.6401576996 -1122795.1758295298 0 -1122795.1758295298 -932682.40544652939 0 0 0 0 5242290.9036561251 -1590908.6932261139 0 -1590908.6932261139 -220412.08071827888 0 0 0 0 4821232.1252775192 -166552.88040059805 0 -166552.88040059805 -406143.61497163773 0 0 0 0 2578149.8326454163 -828437.95609426498 0 -828437.95609426498 -44493.351362228394 0 0 0 0 6215345.2729587555 -942803.95653784275 0 -942803.95653784275 -469074.10948568583 0 0 0 0 7738986.3482553959 -1919563.3574530482 0 -1919563.3574530482 -301303.64856553078 0 0 0 0 8202924.3598232269 -3741191.8904005289 0 -3741191.8904005289 661977.83559370041 0 0 0 0 8302157.1514024734 -798787.30530047417 0 -798787.30530047417 -1352944.2812111378 0 0 0 0 5303869.3722314835 -1452849.2041045427 0 -1452849.2041045427 -1986313.1586760283 0 0 0 0 5801208.5321031213 2833758.1581391543 0 2833758.1581391543 -2129252.3748035431 0 0 0 0 3904782.1734781265 1559905.4937125444 0 1559905.4937125444 625530.7715344429 0 0 0 0 8622602.4245619774 -2902981.9619061947 0 -2902981.9619061947 -1245631.0117545128 0 0 0 0 1024225.9280576706 1048195.1436933279 0 1048195.1436933279 604582.29808169603 0 0 0 0 200711.42251968174 -45752.204529622337 0 -45752.204529622337 11245.123989666579 0 0 0 0 3874004.307937324 -725207.10137046501 0 -725207.10137046501 -6172292.4847435951 0 0 0 0 -604156.53368425369 -39860.290566205978 0 -39860.290566205978 1896043.4860236645 0 0 0 0 969942.43381001742 -185380.55576809263 0 -185380.55576809263 -329606.66267702705 0 0 0 0 3994790.5646533966 4006583.0984719992 0 4006583.0984719992 2293620.8422856331 0 0 0 0 1257277.6061672284 240254.96926718391 0 240254.96926718391 -524485.6003155692 0 0 0 0 1739029.1197357178 215769.21736645699 0 215769.21736645699 -538288.52441501617 0 0 0 0 3747656.6999750137 2078341.5608514547 0 2078341.5608514547 -3086798.2671396732 0 0 0 0 1022790.5482851393 502270.44140776282 0 502270.44140776282 -246376.62494326255 0 0 0 0 4140016.3472838402 -1065468.3950378299 0 -1065468.3950378299 -1737294.5698535442 0 0 0 0 742421.2233437465 -71391.868723748019 0 -71391.868723748019 -48205.438773178845 0 0 0 0 1634017.2999329567 -872372.97041583061 0 -872372.97041583061 2368974.4680318832 0 0 0 0 1212828.3762740446 365771.29477264371 0 365771.29477264371 -319734.63134642091 0 0 0 0 666404.37712574005 486504.30997443199 0 486504.30997443199 -455530.21238017082 0 0 0 0 992083.71448564529 558220.46837171912 0 558220.46837171912 -690065.78024077415 0 0 0 0 3283684.6253127456 -446429.18947562575 0 -446429.18947562575 -402085.07549285889 0 0 0 0 973822.31652164459 527346.70450271666 0 527346.70450271666 -240681.07326030731 0 0 0 0 4897656.3855056763 -3623770.6445828676 0 -3623770.6445828676 3186612.3497796059 0 0 0 0 6786887.2425222397 -3761987.0241171122 0 -3761987.0241171122 -1136963.9225072861 0 0 0 0 6976915.2396411896 -2700294.5521012545 0 -2700294.5521012545 -1097226.9743115902 0 0 0 0 3963394.1576356888 -1758832.3947613239 0 -1758832.3947613239 224863.45690441132 0 0 0 0 1011051.2717123032 681860.55947852135 0 681860.55947852135 205810.64257705212 0 0 0 0 3453105.3553180695 -101979.31303477287 0 -101979.31303477287 -819216.8816318512 0 0 0 0 2188862.3209486008 -975304.29842042923 0 -975304.29842042923 925909.92740464211 0 0 0 0 3019087.774679184 -870835.51262283325 0 -870835.51262283325 136220.90912920237 0 0 0 0 2525903.8455429077 1541872.6170428991 0 1541872.6170428991 -662251.53908514977 0 0 0 0 1156320.6154939719 411567.18179249327 0 411567.18179249327 -312258.87029803864 0 0 0 0 630345.79748535156 360466.82776999474 0 360466.82776999474 -683257.42482244968 0 0 0 0 1502640.9901897707 -93579.201835934771 0 -93579.201835934771 -405524.33238362242 0 0 0 0 1023449.723128546 712082.7728497209 0 712082.7728497209 -350841.52413913363 0 0 0 0 3420196.7743167877 2438532.1115393639 0 2438532.1115393639 4469472.1393823624 0 0 0 0 3322019.6900882721 -2821738.3949337006 0 -2821738.3949337006 8712930.8435154557 0 0 0 0 1658838.8194116182 206887.29780792526 0 206887.29780792526 -486137.19921267341 0 0 0 0 510224.97856002953 369176.21979716117 0 369176.21979716117 -191189.68306410691 0 0 0 0 1276179.826048851 750129.42043328285 0 750129.42043328285 3435336.9702664316 0 0 0 0 2888137.2738189697 -519542.74032878876 0 -519542.74032878876 2608558.7574930191 0 0 0 0 77198.561241815798 67233.933604205726 0 67233.933604205726 -32439.617918712553 0 0 0 0 992801.96768194064 606995.85619559314 0 606995.85619559314 -104169.72634401103 0 0 0 0 1127476.1325569153 287537.48470020294 0 287537.48470020294 -251540.79680013657 0 0 0 0 3772987.0415096283 1242178.0254666805 0 1242178.0254666805 559060.49503159523 0 0 0 0 987576.12783241272 409435.08903539181 0 409435.08903539181 -997819.59887039661 0 0 0 0 1483975.1479877997 787564.33031382097 0 787564.33031382097 -174899.59619704582 0 0 0 0 1263949.1707344055 427874.19082164764 0 427874.19082164764 -385329.38066720963 0 0 0 0 1790952.7780068647 472739.57538818172 0 472739.57538818172 -806225.24563513743 0 0 0 0 988691.71423912048 420390.20203828812 0 420390.20203828812 -1035506.3011989594 0 0 0 0 878468.13622665405 342302.30568048358 0 342302.30568048358 -732991.84083664417 0 0 0 0 2039059.1098571855 139344.94009739184 0 139344.94009739184 -555480.90307119372 0 0 0 0 3900341.1602172852 1199785.6131366501 0 1199785.6131366501 -4123077.1003168449 0 0 0 0 1433580.2234158516 2583144.0157782938 0 2583144.0157782938 2379237.2977619171 0 0 0 0 1203767.0939283371 526437.5950281024 0 526437.5950281024 -193955.08161056042 0 0 0 0 1367416.644654274 324304.14728724957 0 324304.14728724957 -110428.21173518896 0 0 0 0 944180.4501921935 1101975.8574714039 0 1101975.8574714039 667876.47146114917 0 0 0 0 1330960.1379729356 849842.40006138757 0 849842.40006138757 337397.63818878774 0 0 0 0 2064972.506072998 311457.70407807827 0 311457.70407807827 -577661.37424278259 0 0 0 0 1038211.9463518882 443566.37301175343 0 443566.37301175343 -592439.70067628683 0 0 0 0 3402306.0815086365 1966311.1298002005 0 1966311.1298002005 -3300027.329410553 0 0 0 0 1039506.6368427277 92372.434700727463 0 92372.434700727463 -180407.72488245368 0 0 0 0 1101271.8496169085 269956.20710778725 0 269956.20710778725 -573322.69665365247 0 0 0 0 4303.262222820651 180985.88842695346 0 180985.88842695346 -2452.2444929541089 0 0 0 0 1061308.3990564346 331900.52979254723 0 331900.52979254723 -636171.51374411583 0 0 0 0 855978.26654434204 478400.23193407059 0 478400.23193407059 -762341.6866184473 0 0 0 0 700423.78860975709 343076.15030440525 0 343076.15030440525 -531539.05021114019 0 0 0 0 723081.45780014992 164399.6527441144 0 164399.6527441144 -370411.76789927483 0 0 0 0 6076903.0719528198 6000672.4927273132 0 6000672.4927273132 24286.218345440924 0 0 0 0 5878338.6553039551 -4681894.9226102736 0 -4681894.9226102736 -1242105.6014128625 0 0 0 0 1099210.3398808725 287448.4802607114 0 287448.4802607114 -948209.2307591266 0 0 0 0 610316.1737651825 451519.61384725571 0 451519.61384725571 -415428.24637031555 0 0 0 0 3877639.5350284576 -1870508.1241428591 0 -1870508.1241428591 -5076967.252597671 0 0 0 0 1031993.0992908478 674535.95869803429 0 674535.95869803429 -166424.07319140434 0 0 0 0 1004528.7867560068 610590.89312867168 0 610590.89312867168 -79029.705740832025 0 0 0 0 812594.73479447223 547170.74509330932 0 547170.74509330932 -603224.69995357213 0 0 0 0 1360297.7828146024 534111.36461352115 0 534111.36461352115 -1673904.5073690601 0 0 0 0 1650334.3814201457 -208253.0723529018 0 -208253.0723529018 1391230.4248313904 0 0 0 0 1039930.0190544128 685078.88735699654 0 685078.88735699654 -153879.72065925598 0 0 0 0 745288.54199580383 723545.13086467865 0 723545.13086467865 -920253.30758273567 0 0 0 0 7052652.7269687653 745154.38618768379 0 745154.38618768379 -6645363.7956183776 0 0 0 0 885099.25802578731 446956.67335095489 0 446956.67335095489 -1988176.2961581545 0 0 0 0 202090.70208975388 466813.4907555785 0 466813.4907555785 4710.8154041181042 0 0 0 0 -4931645.4194636643 -1036960.6534014819 0 -1036960.6534014819 1225716.758450225 0 0 0 0 5859033.4321269989 174718.13984812051 0 174718.13984812051 2762258.129393708 0 0 0 0 4257706.4976272583 2580525.8620727696 0 2580525.8620727696 -8570997.5372158214 0 0 0 0 4015796.5338840485 7124622.3144018836 0 7124622.3144018836 4900727.7562931012 0 0 0 0 8279842.5666217804 5603544.2327732686 0 5603544.2327732686 -6803168.2882331405 0 0 0 0 8319997.4008427858 3484060.7077618833 0 3484060.7077618833 -3386610.1086703576 0 0 0 0 8851116.8113517761 7946606.7658065874 0 7946606.7658065874 -2893568.422597602 0 0 0 0 8337250.0870723724 2520076.8594009522 0 2520076.8594009522 1729246.8432108872 0 0 0 0 3982797.3197975159 6510110.7373195626 0 6510110.7373195626 -1283293.0323914662 0 0 0 0 1900748.5867900848 1438059.8349912595 0 1438059.8349912595 221074.9252269119 0 0 0 0 -1557963.201417923 -2527509.1968737245 0 -2527509.1968737245 -3174830.028613925 0 0 0 0 749518.52594096353 291762.70232031075 0 291762.70232031075 10396.730626905926 0 0 0 0 949963.56384091731 195205.42841978371 0 195205.42841978371 -544107.10524911224 0 0 0 0 781178.87669944763 648285.83230380714 0 648285.83230380714 -165947.66128587723 0 0 0 0 2116626.426818979 497984.7730895055 0 497984.7730895055 -487938.49597385107 0 0 0 0 437872.85178947449 710976.36143803596 0 710976.36143803596 -84400.634890556335 0 0 0 0 758907.799880323 1024383.1585261277 0 1024383.1585261277 137865.15828311667 0 0 0 0 1441321.1929292679 1097653.3548642788 0 1097653.3548642788 752254.53885898739 0 0 0 0 795084.41799190827 1091216.44359317 0 1091216.44359317 708194.70401379024 0 0 0 0 2448739.4573898315 1127329.1355592515 0 1127329.1355592515 -21632.12388310302 0 0 0 0 2062139.6782550812 1067691.9867219441 0 1067691.9867219441 -22489.365187538788 0 0 0 0 1795710.542181015 5901793.9444706682 0 5901793.9444706682 5487345.8573129289 0 0 0 0 224725.21821672656 583458.25299828837 0 583458.25299828837 77619.783721065876 0 0 0 0 -5458190.2818899155 4056306.3577762172 0 4056306.3577762172 274295.10833217797 0 0 0 0 2057196.4315280914 1495344.7499977816 0 1495344.7499977816 -156798.70594522357 0 0 0 0 4016777.6060185432 1718789.8942811377 0 1718789.8942811377 1333467.7407184392 0 0 0 0 325406.9436416626 -89422.179571513087 0 -89422.179571513087 2149755.631587958 0 0 0 0 -24322775.926837921 -5619891.3077169061 0 -5619891.3077169061 676685.49326822907 0 0 0 0 241629.58859470906 12491.383391816169 0 12491.383391816169 -124797.18305667094 0 0 0 0 -7295318.0200376511 -5714024.046186775 0 -5714024.046186775 118662.25793850422 0 0 0 0 -1694214.7456054688 -2002532.3993005753 0 -2002532.3993005753 -912191.50729376078 0 0 0 0 -4216949.8998985291 -2451312.7415518761 0 -2451312.7415518761 217618.74321782589 0 0 0 0 -3087885.8166427612 -3744151.5032876134 0 -3744151.5032876134 -2962915.8406684399 0 0 0 0 918849.91315746307 -4839498.7253243029 0 -4839498.7253243029 -7636908.0833640099 0 0 0 0 -2529006.1683287621 -5661790.7595502138 0 -5661790.7595502138 70971.374338686466 0 0 0 0 -671526.1111869812 -1846252.8391060531 0 -1846252.8391060531 -4399792.2511070967 0 0 0 0 6191306.3753509521 -3395713.7045484483 0 -3395713.7045484483 -3227057.5356847304 0 0 0 0 -3772940.5387420654 -4701983.5333958268 0 -4701983.5333958268 -3248491.0705504501 0 0 0 0 8887115.6235980988 5210692.9053602815 0 5210692.9053602815 -9590764.4381844401 0 0 0 0 6690107.1392345428 -3908050.907314688 0 -3908050.907314688 -2872126.9325817823 0 0 0 0 22135482.534517288 -1190349.6372371912 0 -1190349.6372371912 -4353928.9357964396 0 0 0 0 11263551.577001572 -9097519.849506855 0 -9097519.849506855 -6642999.5164575577 0 0 0 0 14360250.849029541 -883521.41619192809 0 -883521.41619192809 -958005.38707387447 0 0 0 0 29163041.02557373 -2116809.712793678 0 -2116809.712793678 -3233185.3647973537 0 0 0 0 31534159.476451874 7720663.1473570019 0 7720663.1473570019 1135737.6770687997 0 0 0 0 33733889.887634277 4191738.568027854 0 4191738.568027854 -3966490.6950148344 0 0 0 0 33173381.075675964 6076552.2035281658 0 6076552.2035281658 -6535440.6988163218 0 0 0 0 38611651.666391373 9344596.3566422164 0 9344596.3566422164 -8247558.5942259431 0 0 0 0 26775988.16711998 14297104.6685251 0 14297104.6685251 -871806.24071192741 0 0 0 0 26629664.287935257 5648742.0661218762 0 5648742.0661218762 -5787461.1576638222 0 0 0 0 21643915.744926453 5894097.9702051878 0 5894097.9702051878 -2845983.3116478324 0 0 0 0 39401514.858837783 21894864.545447182 0 21894864.545447182 -3822192.7486402988 0 0 0 0 -16802470.021196365 460980.27124544978 0 460980.27124544978 4150571.7182136774 0 0 0 0 58087.59718346945 -84886.788002546411 0 -84886.788002546411 -41152.083761112182 0 0 0 0 -5932157.8124160767 1919264.1007216871 0 1919264.1007216871 -667416.51129555702 0 0 0 0 -4065946.7353858948 1800427.9479001053 0 1800427.9479001053 -1115647.8632531315 0 0 0 0 -7040336.2290916443 1905273.6903569102 0 1905273.6903569102 -476928.45894029737 0 0 0 0 -10341550.964859009 -2213800.4390531182 0 -2213800.4390531182 -496214.13133496046 0 0 0 0 -6120535.2976379395 -1975460.0914257467 0 -1975460.0914257467 -2334694.1360755097 0 0 0 0 -11525129.695334435 2491872.0284727216 0 2491872.0284727216 1031529.3563812971 0 0 0 0 -7254843.7815380096 5004939.0882691443 0 5004939.0882691443 1183945.7242747545 0 0 0 0 -14077801.462067604 8208247.0981181562 0 8208247.0981181562 7667014.693475008 0 0 0 0 -7861510.9020652771 4743791.2917803526 0 4743791.2917803526 1240664.6112419367 0 0 0 0 -13579995.833194733 6452131.2459633946 0 6452131.2459633946 2557811.150067687 0 0 0 0 23568952.321811676 25384207.888370693 0 25384207.888370693 9977064.3529815674 0 0 0 0 7658858.8383407593 17517513.501463354 0 17517513.501463354 18668363.075632036 0 0 0 0 17399555.803352356 6597401.2077451348 0 6597401.2077451348 -3043986.4736893177 0 0 0 0 16148690.966760635 754895.84931749105 0 754895.84931749105 -7027944.3692677617 0 0 0 0 15511703.573144913 10168501.844766855 0 10168501.844766855 4663400.8154621124 0 0 0 0 26168231.596466064 11771333.383417368 0 11771333.383417368 -3651906.7808413506 0 0 0 0 15973330.728277206 7397848.0197744071 0 7397848.0197744071 -818650.62230229378 0 0 0 0 7066294.7429265976 -2603785.8075211048 0 -2603785.8075211048 -156819.06214702129 0 0 0 0 3309682.8107741177 748063.83585437667 0 748063.83585437667 -294170.74898719782 0 0 0 0 13741819.801207542 -5308577.2618528903 0 -5308577.2618528903 -17718594.305480123 0 0 0 0 1530397.1800727844 -4811469.4402512908 0 -4811469.4402512908 1187263.6855844855 0 0 0 0 2048326.9451842308 558833.55930805206 0 558833.55930805206 2634853.197394371 0 0 0 0 3342422.6031577587 7842264.6185913235 0 7842264.6185913235 -3495807.5169932246 0 0 0 0 -1155457.3019199371 5649196.9435668588 0 5649196.9435668588 11444422.535130382 0 0 0 0 946652.96871519089 1698724.1672375202 0 1698724.1672375202 4568354.1908054352 0 0 0 0 1466967.7112765908 563827.12440574169 0 563827.12440574169 3529234.8196587563 0 0 0 0 1350915.8622916341 84368.900935262442 0 84368.900935262442 6899884.3406877518 0 0 0 0 5235426.4829311371 4642394.1363217831 0 4642394.1363217831 2197065.2260875702 0 0 0 0 3718616.1858768463 2049148.2060947418 0 2049148.2060947418 7349177.2623593807 0 0 0 0 3591693.4490642548 2811568.5724956989 0 2811568.5724956989 1406768.994862318 0 0 0 0 619884.32592294225 912630.96157373418 0 912630.96157373418 373387.09871783177 0 0 0 0 3996844.3762187958 3397049.1814565659 0 3397049.1814565659 2489912.3586523533 0 0 0 0 3793757.6084251404 2407773.5755496025 0 2407773.5755496025 1958399.9955482483 0 0 0 0 3585658.2972564697 2297910.2221616507 0 2297910.2221616507 110606.67621231079 0 0 0 0 5302923.5423002243 2715935.030821085 0 2715935.030821085 -1800724.249683857 0 0 0 0 5510548.873966217 3735688.8120107651 0 3735688.8120107651 -960191.13196825981 0 0 0 0 3409733.9487332543 949116.9454688367 0 949116.9454688367 -342366.62916619371 0 0 0 0 44636474.828579903 21107115.970368385 0 21107115.970368385 18049843.859981298 0 0 0 0 56257562.036702156 10250545.080474615 0 10250545.080474615 -1380568.7484733313 0 0 0 0 87194222.386572838 10331651.453456342 0 10331651.453456342 -12760646.95102644 0 0 0 0 64754401.200176239 21429837.173417866 0 21429837.173417866 10672582.512727261 0 0 0 0 64572786.492822647 18692760.889199376 0 18692760.889199376 10557164.282028317 0 0 0 0 102323631.71362305 57172962.081935763 0 57172962.081935763 47608969.199169636 0 0 0 0 31728924.662071228 7758879.3142997026 0 7758879.3142997026 16380275.303200111 0 0 0 0 47942617.858351707 30216444.53879869 0 30216444.53879869 46719513.169962645 0 0 0 0 39141735.433128357 -14016533.499009728 0 -14016533.499009728 42482872.220046043 0 0 0 0 31445948.358784199 605733.58523923159 0 605733.58523923159 15076264.204636335 0 0 0 0 62520253.164361954 8075227.6481721401 0 8075227.6481721401 14298187.217703342 0 0 0 0 46087914.192808628 -16222469.555458963 0 -16222469.555458963 22471393.015547276 0 0 0 0 88015020.447509766 -35412114.975392699 0 -35412114.975392699 88476086.155068159 0 0 0 0 21014121.979647636 50465551.546473026 0 50465551.546473026 86778237.950567484 0 0 0 0 208323.14133166242 103581.24212765845 0 103581.24212765845 47240.987665783556 0 0 0 0 120550745.63847387 36992294.539271683 0 36992294.539271683 12582341.071041584 0 0 0 0 7164035.4260680676 11983387.477166981 0 11983387.477166981 15660917.681613922 0 0 0 0 2315159.1470041275 3986610.3275414109 0 3986610.3275414109 11972309.474595308 0 0 0 0 53594775.50844574 -44142617.394327641 0 -44142617.394327641 22705076.564023376 0 0 0 0 132639820.33751869 -1107555.4581488967 0 -1107555.4581488967 -7511697.131601572 0 0 0 0 62320044.276974678 -12956447.658916712 0 -12956447.658916712 -8491038.7673507929 0 0 0 0 19803720.865782738 -13985509.469262004 0 -13985509.469262004 11617547.978408575 0 0 0 0 52339737.295536041 -1708241.064520359 0 -1708241.064520359 -4818869.870162487 0 0 0 0 3333820.4229946136 -1942835.4799492359 0 -1942835.4799492359 2732499.3336796761 0 0 0 0 5983127.0789699554 1035020.4837443829 0 1035020.4837443829 3394364.7151092887 0 0 0 0 9139540.4921836853 -7154247.1573066711 0 -7154247.1573066711 5490247.3044352531 0 0 0 0 -5961877.3767967224 1476301.4431449175 0 1476301.4431449175 2862559.3641214371 0 0 0 0 5442509.1636714935 -738688.11539959908 0 -738688.11539959908 -4140571.9380583763 0 0 0 0 892046.52996253967 -1308177.6866667271 0 -1308177.6866667271 -1297969.7599139214 0 0 0 0 262605.73424214358 -284137.52780343988 0 -284137.52780343988 272823.7094003571 0 0 0 0 -5602457.6975054741 -2600117.0696844086 0 -2600117.0696844086 1051235.3267934322 0 0 0 0 991576.78611402214 -128880.44148341985 0 -128880.44148341985 7913.522252637631 0 0 0 0 -3022606.0793828964 1090619.3107664585 0 1090619.3107664585 139656.35301828384 0 0 0 0 -711513.65592002869 745131.44542551041 0 745131.44542551041 -1387836.2207805514 0 0 0 0 7970647.045759201 2733688.2913976908 0 2733688.2913976908 -6574908.1920443773 0 0 0 0 -2898141.7937786579 1869622.6343307793 0 1869622.6343307793 4215426.958701849 0 0 0 0 593822.10039701872 160245.69740538459 0 160245.69740538459 77764.579279837373 0 0 0 0 10425508.510573387 13515123.11332798 0 13515123.11332798 10863875.648989141 0 0 0 0 13305244.170192242 17956281.769547105 0 17956281.769547105 1529737.9957678318 0 0 0 0 10596231.876271248 26495165.296062112 0 26495165.296062112 29611207.920334458 0 0 0 0 14222964.267871857 13764789.58871305 0 13764789.58871305 6474408.3006389141 0 0 0 0 12601618.424636841 11934208.822630644 0 11934208.822630644 1463582.8329746723 0 0 0 0 8016050.936706543 1996952.6696178913 0 1996952.6696178913 -5125355.3757280111 0 0 0 0 2070580.7034521103 -1186573.0355875492 0 -1186573.0355875492 -4511239.9692723751 0 0 0 0 -219425.59392309189 1562552.7800630331 0 1562552.7800630331 2641442.6741132736 0 0 0 0 9491145.0498771667 2561152.0435978174 0 2561152.0435978174 -9564165.7024621964 0 0 0 0 8132049.4490060806 -1785016.1479495764 0 -1785016.1479495764 -4742738.7226171494 0 0 0 0 1101210.8818159103 -1506980.0557556152 0 -1506980.0557556152 -1294379.0256845951 0 0 0 0 1708543.4527189732 -2146334.1018921733 0 -2146334.1018921733 851891.41790485382 0 0 0 0 1282956.370016668 -884973.97669225559 0 -884973.97669225559 171527.72036413429 0 0 0 0 -4136007.4853839874 -9658791.8393117189 0 -9658791.8393117189 -13017265.657093883 0 0 0 0 213174.76879495755 -168106.54173756088 0 -168106.54173756088 -131849.20391208061 0 0 0 0 -2507934.3116359711 -3261840.0203866959 0 -3261840.0203866959 1336699.4702603817 0 0 0 0 -398217.20570373535 -5909885.0982308388 0 -5909885.0982308388 -6379388.1111600399 0 0 0 0 7350103.8140497208 7638409.6154004335 0 7638409.6154004335 -8181093.1376361847 0 0 0 0 1486160.717414856 1165022.0660994053 0 1165022.0660994053 -4413465.7282950878 0 0 0 0 351063.07113580685 -101602.30615270184 0 -101602.30615270184 -145764.39193352277 0 0 0 0 6117074.6847012043 -9480974.1672749519 0 -9480974.1672749519 -18423495.45524025 0 0 0 0 15044945.977398396 2777025.3793646693 0 2777025.3793646693 -11328135.331440449 0 0 0 0 4898799.8354434967 -3139063.1014285088 0 -3139063.1014285088 -3371762.3375210762 0 0 0 0 4963640.1614866257 -2935189.6266847849 0 -2935189.6266847849 -18965028.101912022 0 0 0 0 11272555.138576031 -15172461.893070817 0 -15172461.893070817 -2874700.2239031792 0 0 0 0 1595346.7651643753 -805968.68001651764 0 -805968.68001651764 106783.85092139244 0 0 0 0 3084653.2011737823 635439.96994256973 0 635439.96994256973 -462127.69493675232 0 0 0 0 1635958.0181149421 693248.24802971724 0 693248.24802971724 -398735.8642809469 0 0 0 0 2220164.3155508041 4287748.8994479775 0 4287748.8994479775 -3193954.1918830872 0 0 0 0 2189273.1180305481 362504.65508317947 0 362504.65508317947 827338.9766368866 0 0 0 0 3365038.7910518646 -562373.86613821983 0 -562373.86613821983 -214951.95334291458 0 0 0 0 3452933.9951057434 -708766.36414337158 0 -708766.36414337158 -36228.087741851807 0 0 0 0 3361201.4084300995 -901429.59813928604 0 -901429.59813928604 858133.7561044693 0 0 0 0 4472036.1210250854 -1238783.4049983025 0 -1238783.4049983025 -443771.37497997284 0 0 0 0 4108513.6599082947 -1669727.5215411186 0 -1669727.5215411186 1547310.869389534 0 0 0 0 72087.998695524409 -217269.76432816067 0 -217269.76432816067 -17599.708628380322 0 0 0 0 3288253.2184066772 1303826.3051176071 0 1303826.3051176071 739708.2673459053 0 0 0 0 1624968.5006065369 465345.35892379284 0 465345.35892379284 1647072.4207191467 0 0 0 0 2492069.7071418762 -2413234.4034879208 0 -2413234.4034879208 542528.53639984131 0 0 0 0 1366785.5356198568 -675005.45184556581 0 -675005.45184556581 67698.933370124083 0 0 0 0 6835055.1876945496 1016632.3028240204 0 1016632.3028240204 -282137.26562404633 0 0 0 0 -100819.87831593957 -9515.0316869420931 0 -9515.0316869420931 70434.970051012468 0 0 0 0 5834609.9477005005 -923844.7820892334 0 -923844.7820892334 38721.853435516357 0 0 0 0 4996262.5045623779 894951.79599571228 0 894951.79599571228 510189.99674987793 0 0 0 0 3288374.8006591797 -21253.916907787323 0 -21253.916907787323 1405313.0291023254 0 0 0 0 3882839.4020118713 -565827.0574388504 0 -565827.0574388504 154582.22309494019 0 0 0 0 4223895.3471813202 -1318303.8235337734 0 -1318303.8235337734 1038186.6148900986 0 0 0 0 4239644.0522975922 -692192.43843138218 0 -692192.43843138218 104610.04410934448 0 0 0 0 4083155.6890907288 -1094179.9278964996 0 -1094179.9278964996 -524034.8988275528 0 0 0 0 4116368.8651838303 -1131864.9100745916 0 -1131864.9100745916 -2097401.1326379776 0 0 0 0 1502176.749515295 -2736955.0465013832 0 -2736955.0465013832 -1144725.2289772034 0 0 0 0 840210.44795989152 -360077.10003564088 0 -360077.10003564088 -100141.85985559388 0 0 0 0 4102870.7019786835 -593968.55133199692 0 -593968.55133199692 -1165887.3508749008 0 0 0 0 3915441.3443260193 -1167369.7943601608 0 -1167369.7943601608 -1112685.0293865204 0 0 0 0 3651567.3527183533 -639377.47777938843 0 -639377.47777938843 -1333765.954584837 0 0 0 0 1356258.916261673 -680317.8317527771 0 -680317.8317527771 -382900.2161283493 0 0 0 0 2948252.3599891663 702733.40999031067 0 702733.40999031067 -158679.47124004364 0 0 0 0 3083511.4185886383 -1442803.223859787 0 -1442803.223859787 -2004218.3346242905 0 0 0 0 3648478.5194511414 -3796572.3247225285 0 -3796572.3247225285 -1848543.6624507904 0 0 0 0 3675896.7659168243 -1348368.1165297031 0 -1348368.1165297031 -2032693.3072719574 0 0 0 0 3099570.3797569275 -2115488.4936366081 0 -2115488.4936366081 -2969851.2585601807 0 0 0 0 4796959.310092926 -662850.91147613525 0 -662850.91147613525 -3510828.0384433772 0 0 0 0 4232403.7586278915 -809536.30383205414 0 -809536.30383205414 -2178004.390162468 0 0 0 0 4042145.9515457153 -1282763.7726707458 0 -1282763.7726707458 -3135444.5382461548 0 0 0 0 3850681.0409240723 2915.9342379570007 0 2915.9342379570007 -1554999.0426416397 0 0 0 0 4820012.7474172115 -94914.607008509338 0 -94914.607008509338 -3101581.8124923706 0 0 0 0 3812332.2009735107 -71062.913106441498 0 -71062.913106441498 -139504.77365589142 0 0 0 0 3977543.0324134827 -993936.0770111084 0 -993936.0770111084 -546414.64494156837 0 0 0 0 3920773.3020401001 -824061.53150558472 0 -824061.53150558472 -1020493.6339454651 0 0 0 0 6221417.8386039734 616200.87485361099 0 616200.87485361099 -4132980.6141748428 0 0 0 0 7987048.0493431091 737570.50923585892 0 737570.50923585892 -4440880.5331811905 0 0 0 0 6635254.9886417389 2031137.4744486809 0 2031137.4744486809 -1973860.0828762054 0 0 0 0 3859795.3170902915 1553439.5876177375 0 1553439.5876177375 -558632.17046737671 0 0 0 0 6072107.8593292236 850651.73669147491 0 850651.73669147491 -4105343.0745995045 0 0 0 0 5591439.1887550354 1927492.0521588326 0 1927492.0521588326 -4690598.7095057964 0 0 0 0 3199548.0791082382 2016043.3131189346 0 2016043.3131189346 -1829519.2726736069 0 0 0 0 6108817.4012269974 657631.82713413239 0 657631.82713413239 -4002798.2917308807 0 0 0 0 5345564.0083580017 332309.83473587036 0 332309.83473587036 -3060937.3654952645 0 0 0 0 5462805.5531082153 -221525.08759737015 0 -221525.08759737015 -3511008.5856122528 0 0 0 0 5531577.8298301697 -502146.44604253769 0 -502146.44604253769 -4197563.2301893234 0 0 0 0 5533244.547044754 -607740.12681913376 0 -607740.12681913376 -6403478.1880750656 0 0 0 0 4580668.4760789871 -4607554.3924396038 0 -4607554.3924396038 -1286318.7294359207 0 0 0 0 4802245.6924133301 -2333287.2974224091 0 -2333287.2974224091 -3923932.2982501984 0 0 0 0 5332653.8578529358 -3373271.185131073 0 -3373271.185131073 -2332573.9254841805 0 0 0 0 4716797.0891284943 229587.83016467094 0 229587.83016467094 -3480100.8537349701 0 0 0 0 4406859.8652439117 952727.32976603508 0 952727.32976603508 -4551541.7108056545 0 0 0 0 6412007.7732162476 221712.90196371078 0 221712.90196371078 -4968237.7066783905 0 0 0 0 6578284.5990047455 -1554940.2327036858 0 -1554940.2327036858 -4483219.68151474 0 0 0 0 6000618.2150306702 -342360.14373207092 0 -342360.14373207092 -3361073.448433876 0 0 0 0 2612936.2454490662 -1013336.3386093378 0 -1013336.3386093378 -2242362.5263953209 0 0 0 0 10875412.277662277 1969991.4947452545 0 1969991.4947452545 -3326085.5672087669 0 0 0 0 27441132.254207611 21289524.384197474 0 21289524.384197474 4999542.287117362 0 0 0 0 9084220.9619979858 5370618.0859060287 0 5370618.0859060287 755267.06872081757 0 0 0 0 7161102.7582950592 2606329.8359012604 0 2606329.8359012604 -2426115.5675640106 0 0 0 0 4883704.6441669464 3453819.2924509048 0 3453819.2924509048 2638479.0873594284 0 0 0 0 221006.40264177043 15268.566046122927 0 15268.566046122927 -429097.79664132372 0 0 0 0 762555.2573515079 -791426.72525036288 0 -791426.72525036288 -2104528.2566790581 0 0 0 0 6650226.4441604614 5915487.8889560699 0 5915487.8889560699 3048720.4804430008 0 0 0 0 990544.3901659539 -283879.94598290208 0 -283879.94598290208 -561812.52628968842 0 0 0 0 4011371.6876544952 -317887.66612839699 0 -317887.66612839699 -6339638.229095459 0 0 0 0 -989227.92872619629 642065.02512860298 0 642065.02512860298 -1955234.9630671144 0 0 0 0 3319203.262588881 -239601.01627047907 0 -239601.01627047907 -4741602.9316644669 0 0 0 0 3490741.4782886505 1620678.809071064 0 1620678.809071064 -5819711.7965636253 0 0 0 0 2930832.4425821304 216000.75931286812 0 216000.75931286812 -2297525.3692002296 0 0 0 0 5361842.5246543884 -2811357.8874363899 0 -2811357.8874363899 -3935645.4287108183 0 0 0 0 14920065.371217728 -20867863.058813334 0 -20867863.058813334 -20497482.566309929 0 0 0 0 15103308.452726364 -14007686.869936943 0 -14007686.869936943 5898200.0527744293 0 0 0 0 -2334743.6208515167 -2121630.3214213848 0 -2121630.3214213848 1040736.3618391752 0 0 0 0 27256125.823020935 13929638.551591396 0 13929638.551591396 22510061.892068863 0 0 0 0 69419.718706999905 3911.862037593266 0 3911.862037593266 -131346.00085204805 0 0 0 0 10169318.878036499 -8898361.8135077953 0 -8898361.8135077953 40503.66879940033 0 0 0 0 16222648.402239799 -12927485.202179551 0 -12927485.202179551 -3307958.284529686 0 0 0 0 -46795211.396999359 -39827400.33826828 0 -39827400.33826828 -295307.45344734192 0 0 0 0 21213072.044685364 19173080.736326694 0 19173080.736326694 18286210.755419016 0 0 0 0 31709889.696012497 50753307.863320112 0 50753307.863320112 20893148.727063745 0 0 0 0 141196.91277327086 -14938.460365225095 0 -14938.460365225095 -271955.4967292014 0 0 0 0 5456254.9367191792 -40070434.309829295 0 -40070434.309829295 -42206721.764116764 0 0 0 0 122818372.94404125 16461824.903096199 0 16461824.903096199 -77467618.226071835 0 0 0 0 208820.2799827503 -175177.94357768027 0 -175177.94357768027 -35392.860829049256 0 0 0 0 3110909.5871419907 -13328207.069797873 0 -13328207.069797873 24089868.806662083 0 0 0 0 17894394.77542305 -36903120.620660782 0 -36903120.620660782 16266616.772097945 0 0 0 0 -29156185.502255797 -17360461.793064937 0 -17360461.793064937 6474101.7350363731 0 0 0 0 6169164.8651008606 46718131.425929666 0 46718131.425929666 33126388.912602663 0 0 0 0 -33923583.994472027 -44360457.235942304 0 -44360457.235942304 -38436980.551005363 0 0 0 0 -76234302.250131607 -29113620.497746468 0 -29113620.497746468 105082253.97824979 0 0 0 0 202102.54462519148 -419148.13481181953 0 -419148.13481181953 570436.74839955196 0 0 0 0 4899029.0518894196 -3391922.1661299467 0 -3391922.1661299467 -3503810.0647056103 0 0 0 0 63643.865320265293 797960.6180062443 0 797960.6180062443 727299.13876247406 0 0 0 0 7245974.622759819 -12604007.728525162 0 -12604007.728525162 -20464581.681074142 0 0 0 0 -12091101.845158577 6197771.8702104092 0 6197771.8702104092 -8432207.9825053215 0 0 0 0 -125072.5769849089 -27371.463779359125 0 -27371.463779359125 45123.039762334432 0 0 0 0 -2916488.1969909668 -182108.81937980652 0 -182108.81937980652 2078791.6574068069 0 0 0 0 566279.70207810402 848251.3428350836 0 848251.3428350836 132194.63200378418 0 0 0 0 654091.41576986434 -373177.51312688738 0 -373177.51312688738 87771.958748630248 0 0 0 0 2717318.4795732498 -10335540.623581409 0 -10335540.623581409 -584085.64840936661 0 0 0 0 256027.22643437469 -228030.16828394774 0 -228030.16828394774 184674.61611414829 0 0 0 0 303272.31073951721 -1742680.3657820225 0 -1742680.3657820225 -942571.70522785187 0 0 0 0 1059901.8306244612 29210.7312091887 0 29210.7312091887 3687902.6745705605 0 0 0 0 26485603.548009887 -418199.18356339261 0 -418199.18356339261 -3291222.9575266838 0 0 0 0 15258276.211308479 5870141.6276347637 0 5870141.6276347637 -2623721.3881590366 0 0 0 0 49915024.881174088 366279.04286122322 0 366279.04286122322 -5960967.5853235722 0 0 0 0 26599953.06936264 -3187241.9729001522 0 -3187241.9729001522 -1203670.6689887047 0 0 0 0 61552097.791875839 8564422.0624514818 0 8564422.0624514818 -8449117.9848127365 0 0 0 0 65143300.526194572 19208755.854041576 0 19208755.854041576 2748532.5644540787 0 0 0 0 41047267.531856537 6061997.7764906883 0 6061997.7764906883 -2840307.1196131706 0 0 0 0 -200959.89068895578 -1235915.2880547494 0 -1235915.2880547494 -1689797.1976397038 0 0 0 0 40545001.27288723 4048836.4954166412 0 4048836.4954166412 -4390742.4058423638 0 0 0 0 201701.77882172354 -149208.98509004712 0 -149208.98509004712 103520.20779032342 0 0 0 0 -280745.55260467529 2114185.7841258049 0 2114185.7841258049 970448.84034216404 0 0 0 0 58232.125175694004 -246354.78407877497 0 -246354.78407877497 438032.43089441 0 0 0 0 2302606.4257736206 -1640952.5064170361 0 -1640952.5064170361 3158609.4925237894 0 0 0 0 103804864.77288055 299765.14351558685 0 299765.14351558685 -6751802.3612356186 0 0 0 0 1421964.2146663666 -6315111.9166952223 0 -6315111.9166952223 9066297.5689032078 0 0 0 0 122430006.88531971 29880819.46064198 0 29880819.46064198 211167.35410118103 0 0 0 0 84608.82487849053 -50448.857267444488 0 -50448.857267444488 30446.899553883122 0 0 0 0 -1036177.8775137663 -2666163.6582261324 0 -2666163.6582261324 7202798.3205857277 0 0 0 0 57518384.914665699 8007445.2054384351 0 8007445.2054384351 -459926.02865290642 0 0 0 0 83926679.718889236 21365315.127831459 0 21365315.127831459 7911636.2073284388 0 0 0 0 71706425.561778069 -12601762.785049617 0 -12601762.785049617 23490558.142735243 0 0 0 0 42909328.991579056 -175673.58615660667 0 -175673.58615660667 1991531.6190154552 0 0 0 0 56254926.776387215 -6662292.889482379 0 -6662292.889482379 5438300.8462703228 0 0 0 0 51165750.944419861 -1928841.4066030979 0 -1928841.4066030979 -4170405.7882167995 0 0 0 0 46548520.572291374 5544670.5775241256 0 5544670.5775241256 -4635236.5774288177 0 0 0 0 65867126.26266861 2176432.1305444241 0 2176432.1305444241 -12985508.316896796 0 0 0 0 80252100.798799992 -1037067.4933068752 0 -1037067.4933068752 -12271688.808977604 0 0 0 0 67752883.293714523 3847094.1703395844 0 3847094.1703395844 -14737709.311433792 0 0 0 0 66787863.42569685 2556947.8292602301 0 2556947.8292602301 -13109677.816587448 0 0 0 0 51902203.552124977 12331435.280559301 0 12331435.280559301 -1199647.5777964294 0 0 0 0 68901989.44344449 7667661.6603774726 0 7667661.6603774726 -10540021.702000856 0 0 0 0 50703225.49082756 6534714.2011750937 0 6534714.2011750937 -2542636.404945612 0 0 0 0 61982203.814579487 5182215.9920402765 0 5182215.9920402765 -10557607.778670788 0 0 0 0 111684767.39600754 -44789797.761903286 0 -44789797.761903286 -3452655.2197954655 0 0 0 0 75576784.9263134 -41620473.634982407 0 -41620473.634982407 12956558.561042786 0 0 0 0 25665204.798351288 -12151180.067741394 0 -12151180.067741394 -4949753.1122976542 0 0 0 0 83946336.977600098 -4806072.6008712649 0 -4806072.6008712649 -12988023.786477506 0 0 0 0 37867642.066667557 7614145.1986240298 0 7614145.1986240298 2589652.4507284164 0 0 0 0 1035900.546907316 26376.296269025654 0 26376.296269025654 -292723.98255953786 0 0 0 0 33586178.355528355 11366151.101091783 0 11366151.101091783 -26225594.896584988 0 0 0 0 127365106.02673531 -91648179.319981933 0 -91648179.319981933 39307944.40925169 0 0 0 0 27739314.98114109 -40850455.834219456 0 -40850455.834219456 15439279.456385612 0 0 0 0 19419870.875635147 90958848.687776685 0 90958848.687776685 -31016655.90162468 0 0 0 0 442548.3332627276 -14270.776114564389 0 -14270.776114564389 -119831.66529979138 0 0 0 0 41309084.020044327 34179176.96005404 0 34179176.96005404 -23015863.173845172 0 0 0 0 96099150.507127821 55060811.196689464 0 55060811.196689464 -18142263.267072678 0 0 0 0 49225139.009182692 7934132.3362992406 0 7934132.3362992406 12315051.479790688 0 0 0 0 81662342.612471581 -1173666.498521328 0 -1173666.498521328 11470539.424612045 0 0 0 0 -24997122.036149263 9743382.0659655929 0 9743382.0659655929 20691069.603507996 0 0 0 0 25234361.079663277 -47059520.50158608 0 -47059520.50158608 -24643309.168767333 0 0 0 0 66020026.325756073 43138765.940731525 0 43138765.940731525 -106139176.73242044 0 0 0 0 -1884.2572371428832 -81528.48528436292 0 -81528.48528436292 184727.92832615715 0 0 0 0 86085445.822565079 -2593835.6483609676 0 -2593835.6483609676 -4543595.7581219673 0 0 0 0 -17520139.630256653 -1619546.3608784676 0 -1619546.3608784676 2261630.2766236663 0 0 0 0 -8141463.6075735092 4075004.6160421371 0 4075004.6160421371 -3927778.9091923237 0 0 0 0 -22024603.322144985 -20742157.685002267 0 -20742157.685002267 -18999561.929353714 0 0 0 0 -13906840.506398201 -36364146.237758517 0 -36364146.237758517 8488821.4133706093 0 0 0 0 1248275.271531404 105439.42033978621 0 105439.42033978621 -422424.2503285617 0 0 0 0 1176093.851360321 -17654850.265151501 0 -17654850.265151501 -56070976.758282661 0 0 0 0 -9755291.0903358459 15005711.636394978 0 15005711.636394978 5467592.8939182758 0 0 0 0 37274469.995069504 5588597.9957700968 0 5588597.9957700968 949313.99921879172 0 0 0 0 196203.64459542464 480888.98808537982 0 480888.98808537982 -215964.89860688671 0 0 0 0 -8747995.8748459816 16208936.381971657 0 16208936.381971657 -10634138.297602654 0 0 0 0 -28898020.103252411 6452884.593085289 0 6452884.593085289 4206835.0434960127 0 0 0 0 5872929.8411712646 11390487.902918555 0 11390487.902918555 3742742.8051896691 0 0 0 0 757604.84359781444 96733.9884063059 0 96733.9884063059 -291607.02281555289 0 0 0 0 199868.44894218445 2391794.855617255 0 2391794.855617255 13031033.18727082 0 0 0 0 13818230.857162476 30939874.490144104 0 30939874.490144104 75235473.096019179 0 0 0 0 291381.58784501627 -1904.8823074840475 0 -1904.8823074840475 -110743.45017554899 0 0 0 0 20080556.79888916 -13516067.73052232 0 -13516067.73052232 4260354.4847216606 0 0 0 0 17586782.147649765 -5156166.5897190571 0 -5156166.5897190571 1319053.2571914792 0 0 0 0 -11135946.013979435 -21790518.619855523 0 -21790518.619855523 -18957936.231515884 0 0 0 0 161429.19980153558 380088.65294166701 0 380088.65294166701 -82875.273089971393 0 0 0 0 13904566.471126556 -3638634.331278801 0 -3638634.331278801 698743.44574284554 0 0 0 0 -48211983.532645226 -46624352.31390357 0 -46624352.31390357 -33886812.158602238 0 0 0 0 -9334.5107967164367 173819.84076098725 0 173819.84076098725 19412.154342251131 0 0 0 0 -11633956.393938065 4812436.5490298867 0 4812436.5490298867 -52863485.013806343 0 0 0 0 30725640.526866913 -42439884.473624319 0 -42439884.473624319 -21996845.593643665 0 0 0 0 37575491.334041595 -12670220.075217128 0 -12670220.075217128 -64743932.515290022 0 0 0 0 36239152.662007809 17990658.599025548 0 17990658.599025548 -27878025.146917343 0 0 0 0 29104871.779031277 5883432.7930567265 0 5883432.7930567265 -21917629.492254019 0 0 0 0 32962546.370078087 -2425476.6807787418 0 -2425476.6807787418 -5945679.5988289118 0 0 0 0 30894373.366950989 6518186.783176899 0 6518186.783176899 -22463665.13056428 0 0 0 0 22651433.501890182 -1054824.5523438454 0 -1054824.5523438454 -21863644.960213482 0 0 0 0 36318946.879221916 -12555571.667870998 0 -12555571.667870998 -19483094.727129459 0 0 0 0 16777012.111520767 -1579453.9479628801 0 -1579453.9479628801 -6353443.9791884422 0 0 0 0 1852333.0344610214 9474201.1675114632 0 9474201.1675114632 -7867496.4343001842 0 0 0 0 26337791.347988605 12789605.348619163 0 12789605.348619163 -7588068.1669845581 0 0 0 0 -30502911.338412285 24446002.230537355 0 24446002.230537355 -3739587.0846386552 0 0 0 0 30381227.913347721 40377455.365973666 0 40377455.365973666 -15567782.758773208 0 0 0 0 70441403.391609192 -14682417.37115407 0 -14682417.37115407 -13023859.088967443 0 0 0 0 96724447.363058925 32588512.692404862 0 32588512.692404862 -15943839.745028019 0 0 0 0 79749807.583730698 -48550886.930990577 0 -48550886.930990577 23835614.294501245 0 0 0 0 -85051850.823685646 10424273.915677458 0 10424273.915677458 74331518.040327996 0 0 0 0 62784244.036429167 -37458012.386139192 0 -37458012.386139192 -10678448.738727808 0 0 0 0 102291985.13809395 49906954.058887735 0 49906954.058887735 -3491072.3429587483 0 0 0 0 43029536.772920609 14562381.816441149 0 14562381.816441149 -24133758.359828159 0 0 0 0 23583659.790715218 11568232.172718033 0 11568232.172718033 -18471488.855021507 0 0 0 0 -66754104.513074875 -23127498.26121299 0 -23127498.26121299 1334414.7571712062 0 0 0 0 -36663693.502292633 -6560614.1806960851 0 -6560614.1806960851 -11350154.594428845 0 0 0 0 25140064.650597334 7007937.4644874614 0 7007937.4644874614 -21372739.699197069 0 0 0 0 -34154624.688749313 31152160.92327527 0 31152160.92327527 -42309.285549760287 0 0 0 0 -75089493.811758041 12564491.557473145 0 12564491.557473145 10472018.039398674 0 0 0 0 26435656.573976278 39844150.197143868 0 39844150.197143868 80205.201171622291 0 0 0 0 10990553.127333641 4373604.8850245699 0 4373604.8850245699 -19547462.333508477 0 0 0 0 37292024.97754097 18443937.051046029 0 18443937.051046029 -23243828.131949447 0 0 0 0 54747181.823456287 -31348485.242976882 0 -31348485.242976882 12007057.242733501 0 0 0 0 131341.26266629901 657.35660745529458 0 657.35660745529458 -69806.268394123181 0 0 0 0 80692318.494524956 6556742.8638468916 0 6556742.8638468916 -25897924.822569422 0 0 0 0 109411.50690841675 53673.254832715495 0 53673.254832715495 -199.29477359892979 0 0 0 0 129991.43708896637 44801.814636485826 0 44801.814636485826 -47287.991006804528 0 0 0 0 11271469.882304192 -1896192.4022654444 0 -1896192.4022654444 -5668908.4061897695 0 0 0 0 25753531.796344757 377196.39446488023 0 377196.39446488023 -5461069.3208911121 0 0 0 0 10664739.487471581 10687321.610264644 0 10687321.610264644 1532184.4850568771 0 0 0 0 39133176.72426033 15758299.120266542 0 15758299.120266542 -19904156.824100792 0 0 0 0 46156712.363773346 27119490.10733059 0 27119490.10733059 -13829375.764547318 0 0 0 0 4794968.8240418434 4749118.8947547376 0 4749118.8947547376 4836346.6781575084 0 0 0 0 6720217.4664096832 31237111.454317614 0 31237111.454317614 18978455.345793247 0 0 0 0 -12854908.077926636 1653993.0395207033 0 1653993.0395207033 2101516.4514493346 0 0 0 0 -6623.2064425558783 49756.584613118786 0 49756.584613118786 18934.726296866458 0 0 0 0 32064118.471492767 16858253.158263087 0 16858253.158263087 -462579.37166658044 0 0 0 0 -8104571.1442298889 15614231.933236957 0 15614231.933236957 -8530681.9931781292 0 0 0 0 -7933155.8107600212 13576422.595132411 0 13576422.595132411 14333801.629686117 0 0 0 0 23248969.782213211 2348651.8271150589 0 2348651.8271150589 -326713.37772667408 0 0 0 0 44213729.330196381 -3234210.8497840166 0 -3234210.8497840166 20223426.414232254 0 0 0 0 36627938.016554832 27792151.908015341 0 27792151.908015341 24300392.843151093 0 0 0 0 -21883473.677560806 -20945160.418306649 0 -20945160.418306649 -17481080.400770664 0 0 0 0 -17982138.911174774 7875574.0988181233 0 7875574.0988181233 29714713.888674974 0 0 0 0 -69060699.492803574 13328785.676356524 0 13328785.676356524 42532254.901399374 0 0 0 0 -13603281.651439667 -10838667.992163002 0 -10838667.992163002 11562225.411199391 0 0 0 0 3634391.5286798477 23834336.25761804 0 23834336.25761804 33561949.762737274 0 0 0 0 14966502.932012558 -9537937.4026376009 0 -9537937.4026376009 16394943.24025023 0 0 0 0 -16279818.812766075 37015600.63595967 0 37015600.63595967 -5215605.2614967227 0 0 0 0 22546219.51377964 7158749.0582013875 0 7158749.0582013875 12510463.943727195 0 0 0 0 -77837286.510967255 -30349799.430857539 0 -30349799.430857539 28962260.514129192 0 0 0 0 18345.384301924147 123394.75381165557 0 123394.75381165557 32015.680861069792 0 0 0 0 10465.644214459229 179494.94097254518 0 179494.94097254518 -23923.625782351359 0 0 0 0 42030900.052549362 22067836.394453615 0 22067836.394453615 -11770288.61651051 0 0 0 0 -209012.40037918091 -1654187.644675903 0 -1654187.644675903 1062601.5501341522 0 0 0 0 11616585.987300873 -509410.98616024479 0 -509410.98616024479 -96987.117833942175 0 0 0 0 209313.60473532509 79766.275562715251 0 79766.275562715251 -36241.5918088002 0 0 0 0 190012.69083499908 100633.4484165131 0 100633.4484165131 -32816.107777638746 0 0 0 0 178439.15969657898 82411.874881785989 0 82411.874881785989 -54271.139940621375 0 0 0 0 160410.64210224152 82894.922419568597 0 82894.922419568597 82.739384201793683 0 0 0 0 22746668.929555655 -52676533.050834179 0 -52676533.050834179 49143981.242632821 0 0 0 0 140466.5861645597 112196.86901685223 0 112196.86901685223 53904.400211828397 0 0 0 0 26280189.456157684 -28904402.070421934 0 -28904402.070421934 15934644.412490502 0 0 0 0 691878.74586105347 38638098.180632293 0 38638098.180632293 -25489439.619647026 0 0 0 0 284201.60395513289 36693.369859469822 0 36693.369859469822 -77501.341177107912 0 0 0 0 -45007860.563692093 -45515371.742105186 0 -45515371.742105186 -6615428.5448376713 0 0 0 0 -9576920.224527359 13853017.397774903 0 13853017.397774903 86497009.616154462 0 0 0 0 323706466.02854919 -58777783.952632815 0 -58777783.952632815 -52637648.790372461 0 0 0 0 -28100686.504333496 37667848.865690634 0 37667848.865690634 -1553413.0090510976 0 0 0 0 138084696.29270554 17175222.386987753 0 17175222.386987753 -11226181.935457233 0 0 0 0 59531314.13312149 6288107.2467706753 0 6288107.2467706753 -80666.443048093352 0 0 0 0 51915625.62452507 28597397.014981285 0 28597397.014981285 8060961.3127281591 0 0 0 0 493312.19965744019 11869647.660286002 0 11869647.660286002 -5874277.9938384565 0 0 0 0 8968336.0858478546 5568908.5110110762 0 5568908.5110110762 -1573177.8308971608 0 0 0 0 25368518.459403992 45968665.407452546 0 45968665.407452546 -1880397.332092599 0 0 0 0 -9670380.2592039108 3121203.5381595492 0 3121203.5381595492 -11684423.178888518 0 0 0 0 -573601.83193969727 9010384.3947294652 0 9010384.3947294652 -19787169.153268404 0 0 0 0 320942883.23299789 -96796155.694705307 0 -96796155.694705307 -6675686.9435440302 0 0 0 0 247149.08505725954 190535.70103848167 0 190535.70103848167 63708.01603136932 0 0 0 0 176873.18233673088 6606.1394152792636 0 6606.1394152792636 -58677.586334375432 0 0 0 0 35046508.486579895 21211226.290333793 0 21211226.290333793 33388176.478912592 0 0 0 0 300686968.20381927 -34173257.652243435 0 -34173257.652243435 -44120718.309125096 0 0 0 0 113960112.61938095 53207516.036143064 0 53207516.036143064 23760026.881180912 0 0 0 0 228189354.53888321 -78435356.694508672 0 -78435356.694508672 91970583.647099733 0 0 0 0 166085294.6048336 -106014623.92461288 0 -106014623.92461288 82657923.928151131 0 0 0 0 232372066.55600262 -26117874.045192689 0 -26117874.045192689 -6914442.8946125507 0 0 0 0 94050735.898469925 -7143799.2541810274 0 -7143799.2541810274 -242116.32715192437 0 0 0 0 94371901.758060455 -6389007.6842113137 0 -6389007.6842113137 1426280.6457858086 0 0 0 0 146067584.01643181 -62282996.308187485 0 -62282996.308187485 4052237.7632620335 0 0 0 0 -6792070.6590232849 13621717.322552048 0 13621717.322552048 -13689484.512113195 0 0 0 0 142359669.9684124 -60741416.529798269 0 -60741416.529798269 9160350.1704962254 0 0 0 0 579449.67179404292 504800.63850265089 0 504800.63850265089 277043.18318510579 0 0 0 0 -16952139.593950748 -9685625.7239728719 0 -9685625.7239728719 -2742158.8657777309 0 0 0 0 -15752606.136405945 -8362603.9933374822 0 -8362603.9933374822 -4080185.0048333406 0 0 0 0 104550.2154666204 -103924.23482489213 0 -103924.23482489213 119635.18731274801 0 0 0 0 45090150.627766326 29660157.261271913 0 29660157.261271913 9851486.0071388558 0 0 0 0 44960665.76830101 16416659.653850019 0 16416659.653850019 6760316.9455264062 0 0 0 0 -16321188.41916275 -7275050.6755950451 0 -7275050.6755950451 -5973054.9910235405 0 0 0 0 34075879.470438004 25668909.406497836 0 25668909.406497836 10380104.899007104 0 0 0 0 31560817.317310333 23493125.989458948 0 23493125.989458948 11108081.556020349 0 0 0 0 23900216.019889832 19905453.803154763 0 19905453.803154763 11903301.070353501 0 0 0 0 24432605.804033279 19301123.511557028 0 19301123.511557028 10059596.833665222 0 0 0 0 15310935.721401215 17852156.016115598 0 17852156.016115598 14003003.456408992 0 0 0 0 14040145.969369888 8123775.0638826601 0 8123775.0638826601 6710952.7740434632 0 0 0 0 9226633.4049568176 12879699.8705565 0 12879699.8705565 13938644.280272555 0 0 0 0 26204209.096874237 12793147.616366429 0 12793147.616366429 10936474.731293604 0 0 0 0 28101141.260513306 17874856.620295599 0 17874856.620295599 9851466.1922385618 0 0 0 0 25008475.84658432 14579867.677070782 0 14579867.677070782 15019116.931333914 0 0 0 0 21351666.765855789 18159462.69311031 0 18159462.69311031 14919603.658517957 0 0 0 0 29095745.3788414 18536123.466830473 0 18536123.466830473 9029398.8245000765 0 0 0 0 20362762.336387277 12392351.694883991 0 12392351.694883991 9230818.2448402196 0 0 0 0 16756621.099206924 14438140.151403166 0 14438140.151403166 10736818.489341084 0 0 0 0 -6562536.7605805397 -2184880.1637962759 0 -2184880.1637962759 3896240.1825066805 0 0 0 0 -7706563.7117815018 -1293154.4296036661 0 -1293154.4296036661 3683014.8852603436 0 0 0 0 99529.107981278095 -142504.579044946 0 -142504.579044946 337803.89693644707 0 0 0 0 32697727.921717644 11505104.482343022 0 11505104.482343022 13570068.199786052 0 0 0 0 -17371008.113477707 -5979304.0333824158 0 -5979304.0333824158 -5182325.1703414917 0 0 0 0 -12007563.224349976 -7779538.3861148357 0 -7779538.3861148357 -5922380.1687099338 0 0 0 0 13225.467898770235 15736.989877003012 0 15736.989877003012 -16444.346995787695 0 0 0 0 -13717051.590934753 -4558175.8871231079 0 -4558175.8871231079 -5623116.6861076355 0 0 0 0 5329845.8795547485 6086394.1323609352 0 6086394.1323609352 8080096.5713742971 0 0 0 0 -2791227.4666061401 3560106.6638631821 0 3560106.6638631821 7296147.3919359446 0 0 0 0 -10237.273365020752 387937.65428936481 0 387937.65428936481 4952065.9993619919 0 0 0 0 32004.883718490601 3017845.3365834355 0 3017845.3365834355 8064083.6165342778 0 0 0 0 114649.05857255496 136159.47141441796 0 136159.47141441796 -50902.068623580839 0 0 0 0 771283.59343719482 1533672.5303006172 0 1533672.5303006172 3425229.5556294918 0 0 0 0 -275467.93423461914 1634848.6381155252 0 1634848.6381155252 6957609.6888401508 0 0 0 0 468301.30640125275 1620226.1693071127 0 1620226.1693071127 5292139.9304585457 0 0 0 0 585610.9281463623 1855126.7445628643 0 1855126.7445628643 5387823.2305406928 0 0 0 0 385195.12682342529 1753513.5296320915 0 1753513.5296320915 5431030.5174306631 0 0 0 0 1566784.079410553 2181073.2734267712 0 2181073.2734267712 4615662.4347126484 0 0 0 0 1597743.3866271973 2140168.9697322845 0 2140168.9697322845 3625014.11587286 0 0 0 0 588930.48756408691 1711109.3434064388 0 1711109.3434064388 5256415.0550003648 0 0 0 0 1316156.9046077728 3477367.5021415353 0 3477367.5021415353 6688023.1784902811 0 0 0 0 -175759.32769012451 809008.11675870419 0 809008.11675870419 7266866.3534822464 0 0 0 0 1256022.9537649155 2276157.7760450542 0 2276157.7760450542 5182203.4547240734 0 0 0 0 1468825.3495063782 2808253.3348927498 0 2808253.3348927498 5336584.2773236036 0 0 0 0 1970012.6232795715 2168015.3918623924 0 2168015.3918623924 3683126.8449772596 0 0 0 0 1902142.6926612854 2935884.6312868595 0 2935884.6312868595 4173112.4612257481 0 0 0 0 2392592.4124698639 3157138.9274801612 0 3157138.9274801612 5129036.4978348017 0 0 0 0 2332787.115285635 1959723.787058508 0 1959723.787058508 5275185.9666631222 0 0 0 0 -333405.2088432312 -410808.67322310805 0 -410808.67322310805 491776.95026570559 0 0 0 0 133494.29978179932 971203.77298845351 0 971203.77298845351 -3564.2439620494843 0 0 0 0 -379541.1321144104 -215832.34674960375 0 -215832.34674960375 889061.0583512187 0 0 0 0 -167287.07716369629 -174773.8011623919 0 -174773.8011623919 549266.08108896017 0 0 0 0 24114.339430935215 -125781.15246205358 0 -125781.15246205358 -51491.811350884207 0 0 0 0 -13100128.608665466 -14252012.424949467 0 -14252012.424949467 1454979.0892192125 0 0 0 0 -13090248.472488403 -471406.03249683231 0 -471406.03249683231 -7646120.999018088 0 0 0 0 61533.37436978519 -48455.920279622078 0 -48455.920279622078 1957.5223454549086 0 0 0 0 -176148.57368946075 -394638.81968639791 0 -394638.81968639791 -88174.103440523148 0 0 0 0 -1638970.8557853699 -325570.09113885462 0 -325570.09113885462 -91417.001051820815 0 0 0 0 -1056947.267906189 630910.72589361668 0 630910.72589361668 -99932.981877431273 0 0 0 0 -1940209.0188980103 1201462.3374128044 0 1201462.3374128044 -453660.31989917159 0 0 0 0 -1461268.4076461792 802191.09847265482 0 802191.09847265482 -677325.20953255892 0 0 0 0 -1919694.5962984562 1097764.9768439103 0 1097764.9768439103 -588496.70042830706 0 0 0 0 -2377460.792804718 1391377.2077915668 0 1391377.2077915668 -746692.64897679538 0 0 0 0 -2841050.2883605957 662959.71002118406 0 662959.71002118406 -874748.66857723007 0 0 0 0 -2603357.9035201073 485698.09234238416 0 485698.09234238416 -743704.09085392952 0 0 0 0 -3080463.8089523315 -755274.54655801272 0 -755274.54655801272 -2336260.3850774043 0 0 0 0 -2015341.0607566833 -95980.597942418535 0 -95980.597942418535 -1972208.3307231786 0 0 0 0 -5337669.6584396362 79282.390443317592 0 79282.390443317592 -1113624.8911311254 0 0 0 0 -2800435.3401355743 677193.6616711542 0 677193.6616711542 -1020155.9525588825 0 0 0 0 -3741729.4025382996 1251133.7298009731 0 1251133.7298009731 -755926.81988825835 0 0 0 0 -4478252.8364963531 1900043.5049990444 0 1900043.5049990444 -919432.68572038412 0 0 0 0 -2755014.7595386505 1822825.8197610509 0 1822825.8197610509 -1091401.2760955095 0 0 0 0 -1957882.5134057999 178336.78212293237 0 178336.78212293237 -846769.8462998271 0 0 0 0 59771934.30663538 37243710.036350578 0 37243710.036350578 7982009.4373697937 0 0 0 0 -19608561.351482391 7420502.9465818107 0 7420502.9465818107 27432040.720488429 0 0 0 0 83881.231310747564 -153506.61019386584 0 -153506.61019386584 -66204.185707801458 0 0 0 0 24431210.430736542 -14526560.053189337 0 -14526560.053189337 -10190775.431893874 0 0 0 0 25311361.489078522 -3604826.4736217558 0 -3604826.4736217558 25703290.054312527 0 0 0 0 33765929.646923065 29725562.549722344 0 29725562.549722344 36511773.249134183 0 0 0 0 26889397.904987335 10459762.367088363 0 10459762.367088363 8124860.3892360032 0 0 0 0 21793688.449449539 -2548030.5326419026 0 -2548030.5326419026 -13637556.929706603 0 0 0 0 7152653.4188575745 -3047422.692802459 0 -3047422.692802459 -2536558.2085460499 0 0 0 0 16089227.002319455 11854550.055372657 0 11854550.055372657 392937.47447773814 0 0 0 0 35353909.76354599 11180794.812471822 0 11180794.812471822 -5072030.266265735 0 0 0 0 41465495.698043823 27590763.092313081 0 27590763.092313081 11069578.723484397 0 0 0 0 37125190.842932224 14555225.025185443 0 14555225.025185443 -2782507.9626632333 0 0 0 0 61648937.178847313 18190301.612391893 0 18190301.612391893 -1037947.2955341861 0 0 0 0 45546431.188964844 15008804.654988423 0 15008804.654988423 7955747.9683576934 0 0 0 0 24809697.347465515 21305164.453979217 0 21305164.453979217 6499961.3766388837 0 0 0 0 20769787.838434219 17440810.332835026 0 17440810.332835026 16153225.261949517 0 0 0 0 29243767.618663788 24158344.293929353 0 24158344.293929353 14362617.733892504 0 0 0 0 48919488.571426392 7809637.3998659868 0 7809637.3998659868 15757022.349545509 0 0 0 0 32545816.387069702 27005123.094637804 0 27005123.094637804 22977422.829083495 0 0 0 0 39941864.28036499 13203921.684191287 0 13203921.684191287 25203216.920814283 0 0 0 0 1752258.5611305237 9809517.186066296 0 9809517.186066296 10934693.296951573 0 0 0 0 7230406.5948805809 7071213.295602642 0 7071213.295602642 -1970477.7735533696 0 0 0 0 5157438.5318908691 12814583.564470557 0 12814583.564470557 11779368.38947575 0 0 0 0 18755453.180583 21577625.15855857 0 21577625.15855857 7658161.3184648529 0 0 0 0 15891757.472464561 7596463.9169640951 0 7596463.9169640951 -105174.13279357553 0 0 0 0 -17085760.323234558 -3018432.9908819697 0 -3018432.9908819697 -347607.96340455487 0 0 0 0 2038868.3538694382 1970997.9635384735 0 1970997.9635384735 -22695507.404839531 0 0 0 0 -5297364.68009758 19429521.619650878 0 19429521.619650878 -6201780.8955097049 0 0 0 0 15858027.204073399 5278029.6051925784 0 5278029.6051925784 -32107572.701748148 0 0 0 0 -5258220.2840890884 -19358725.056874543 0 -19358725.056874543 -20549781.054690972 0 0 0 0 2877966.4877176285 -5902288.9356761239 0 -5902288.9356761239 -21307641.550542079 0 0 0 0 4297636.4624443054 -5288543.1991395541 0 -5288543.1991395541 -22417948.301573616 0 0 0 0 2496349.2864685059 -9763628.4066388085 0 -9763628.4066388085 -27509052.461827256 0 0 0 0 -928775.79067611694 8849558.3926422503 0 8849558.3926422503 -6465461.1415139772 0 0 0 0 229111.98752955557 84493.791346379556 0 84493.791346379556 -6618.4223459985114 0 0 0 0 4238845.5898017883 -5591573.77550619 0 -5591573.77550619 -6372127.478907343 0 0 0 0 -7519845.8194246292 -3908284.9582373034 0 -3908284.9582373034 -1312279.7146870531 0 0 0 0 -1183921.5018815994 -9239158.3345548362 0 -9239158.3345548362 -8416689.9150189124 0 0 0 0 -775188.44975090027 5901140.9974325448 0 5901140.9974325448 -9762579.9381169379 0 0 0 0 1257877.0401180387 -369001.1811627053 0 -369001.1811627053 2483643.6158294231 0 0 0 0 14448745.951986313 896770.43876819778 0 896770.43876819778 -5031599.6443351144 0 0 0 0 406581.32601094147 425490.98112014169 0 425490.98112014169 -1436847.1794762393 0 0 0 0 10583406.496929169 3018738.0252435245 0 3018738.0252435245 -3892506.8762650322 0 0 0 0 7653247.1486206055 2508134.5733315381 0 2508134.5733315381 -18909733.603213716 0 0 0 0 7681360.1582164764 1405866.5470480639 0 1405866.5470480639 -3177615.3031837 0 0 0 0 8284534.4275588989 -4765988.2220938699 0 -4765988.2220938699 -3542215.2477026479 0 0 0 0 7409532.4405851364 -2354063.1791354045 0 -2354063.1791354045 -353816.72836811841 0 0 0 0 168547.70557978618 378652.8038021205 0 378652.8038021205 -871522.44629578188 0 0 0 0 11213419.418312866 -2406876.9785369332 0 -2406876.9785369332 -1809508.4765325785 0 0 0 0 5299223.9851145744 -2842818.9905468347 0 -2842818.9905468347 318285.32412452251 0 0 0 0 7531976.3860433102 -1965289.650622637 0 -1965289.650622637 486560.26366363838 0 0 0 0 5035217.1135854721 -406516.08157457225 0 -406516.08157457225 2642202.6573762912 0 0 0 0 46836.339460132032 279989.93506869115 0 279989.93506869115 -399788.39405353728 0 0 0 0 11599392.157083511 6400398.1004906707 0 6400398.1004906707 7558387.6883535311 0 0 0 0 1581753.1197109222 7368295.6843117969 0 7368295.6843117969 9943308.1973158531 0 0 0 0 4089418.6241459846 -762138.34585731104 0 -762138.34585731104 2995363.0316035599 0 0 0 0 -592483.99499130249 1116163.7930383943 0 1116163.7930383943 2250871.9493781887 0 0 0 0 8167911.875629425 3787251.9172650501 0 3787251.9172650501 6327815.4421876855 0 0 0 0 4260859.9230890274 -1271783.4970319774 0 -1271783.4970319774 4693010.7832718641 0 0 0 0 11169790.057014465 3374898.469200097 0 3374898.469200097 3642461.8197394288 0 0 0 0 14240580.52856636 8577221.5331416726 0 8577221.5331416726 7609194.3272035401 0 0 0 0 4847539.4789266586 5033796.0966956988 0 5033796.0966956988 9126192.2660003081 0 0 0 0 14150813.63417244 8350792.4005796835 0 8350792.4005796835 8376968.6057027727 0 0 0 0 18028512.839651108 11939315.484321084 0 11939315.484321084 8451822.6613966227 0 0 0 0 8542873.3261203766 6075532.2912102472 0 6075532.2912102472 8521883.0136995874 0 0 0 0 15072216.490086079 6496152.6325490298 0 6496152.6325490298 5569819.594951801 0 0 0 0 17505783.517528534 9358325.7306634821 0 9358325.7306634821 6170510.1471071383 0 0 0 0 13448489.298804283 6777829.978853506 0 6777829.978853506 8055616.9175604433 0 0 0 0 26878804.653953552 9131085.3298050836 0 9131085.3298050836 6394224.6389914732 0 0 0 0 21335349.796783686 12825646.515278591 0 12825646.515278591 7134676.3798615411 0 0 0 0 26475847.318629444 17620134.304480765 0 17620134.304480765 11958471.974616781 0 0 0 0 18987416.16350174 7823404.4976867549 0 7823404.4976867549 7158559.3971127719 0 0 0 0 9373303.8089790344 695992.74114685878 0 695992.74114685878 -1414863.6540476214 0 0 0 0 8571510.0494346619 3209366.1478335392 0 3209366.1478335392 6455834.6201206781 0 0 0 0 14219069.850974083 5759508.8391284645 0 5759508.8391284645 904198.93030781485 0 0 0 0 -6186.8860321532411 170163.95414552931 0 170163.95414552931 -136068.07744475585 0 0 0 0 6853235.8929281235 2951756.8368924847 0 2951756.8368924847 3615344.5786586422 0 0 0 0 13363848.2549963 2883833.2156260107 0 2883833.2156260107 -783788.67921630479 0 0 0 0 13170481.512528121 7177898.5703920517 0 7177898.5703920517 5148807.2809120789 0 0 0 0 15649419.197832108 8296483.9911455195 0 8296483.9911455195 2055619.5728606898 0 0 0 0 17681019.028038025 9376810.6336103268 0 9376810.6336103268 2488596.4118071198 0 0 0 0 19476310.382324219 6372509.9339610841 0 6372509.9339610841 1184664.1094609962 0 0 0 0 17101905.702242374 8170593.7458677506 0 8170593.7458677506 649.05967087686986 0 0 0 0 -25079.604892678908 101448.13267283188 0 101448.13267283188 -29519.727121041924 0 0 0 0 21346094.723394394 12525458.513306981 0 12525458.513306981 4523514.1439691484 0 0 0 0 19467352.937747002 10594812.587668978 0 10594812.587668978 3275577.632036902 0 0 0 0 88601.255224874243 199042.41941113491 0 199042.41941113491 151529.85500868064 0 0 0 0 755152.94525527954 785123.47813077411 0 785123.47813077411 298694.43391149573 0 0 0 0 20199753.561737299 -657155.84492680826 0 -657155.84492680826 603687.13434584439 0 0 0 0 4231.7190960124135 2615.1667490198743 0 2615.1667490198743 34733.54308982275 0 0 0 0 18254170.685829163 8293535.1127502229 0 8293535.1127502229 9612621.8499007262 0 0 0 0 18101022.839654922 9257411.6700467095 0 9257411.6700467095 3610895.9516185261 0 0 0 0 16525066.769130707 10270867.307908094 0 10270867.307908094 4652020.6553012123 0 0 0 0 18448303.362865448 9743328.729374418 0 9743328.729374418 8881.2627159272779 0 0 0 0 19768931.41891098 11413733.461204264 0 11413733.461204264 1744482.8232549073 0 0 0 0 19459704.129423141 10378242.716235857 0 10378242.716235857 1785896.4067604989 0 0 0 0 114198.35487369448 128172.89700108254 0 128172.89700108254 90216.216343259177 0 0 0 0 1163612.1689038277 855298.60499413265 0 855298.60499413265 229.91058868663521 0 0 0 0 19750735.861707687 11534605.429908305 0 11534605.429908305 2651411.6580449641 0 0 0 0 640296.95199012756 712767.87435733771 0 712767.87435733771 331264.57239681017 0 0 0 0 623477.15495681763 642578.74188134097 0 642578.74188134097 273242.76801292039 0 0 0 0 217313.51299190521 1076101.6964384343 0 1076101.6964384343 591.68219911618075 0 0 0 0 -501892.07673358917 582602.4275494148 0 582602.4275494148 478126.68409720296 0 0 0 0 368289.12049436569 687956.30236869701 0 687956.30236869701 476865.25429347809 0 0 0 0 282582.85104465485 785918.82234805834 0 785918.82234805834 583589.34975223383 0 0 0 0 716012.95952987671 721257.48094371962 0 721257.48094371962 263877.68662794045 0 0 0 0 -1771920.5718460083 1153561.1174454093 0 1153561.1174454093 2198283.6409559846 0 0 0 0 76921.464723739773 373633.13729310851 0 373633.13729310851 -185165.1803652618 0 0 0 0 20673117.506479263 12724222.76422124 0 12724222.76422124 7831198.77083873 0 0 0 0 21851.846327836625 -123577.81215940602 0 -123577.81215940602 642197.77102649142 0 0 0 0 -1778024.7461822033 -1351842.8204017133 0 -1351842.8204017133 714068.68762218952 0 0 0 0 931155.04359412193 441226.95337690413 0 441226.95337690413 -95370.489154458046 0 0 0 0 496181.819917202 2489539.6839567572 0 2489539.6839567572 2069416.4436967373 0 0 0 0 -1084099.2858085632 1587726.6874595881 0 1587726.6874595881 3452418.8499026 0 0 0 0 19406388.638731003 11241245.399971161 0 11241245.399971161 7794820.2863061875 0 0 0 0 28108929.387763977 12988471.018324751 0 12988471.018324751 6788237.6135411263 0 0 0 0 523698.67052078247 663956.28810810298 0 663956.28810810298 2427513.3941184282 0 0 0 0 2372645.4945497513 2894741.2241471261 0 2894741.2241471261 3124052.3887982368 0 0 0 0 24765.68914890429 84609.803422820289 0 84609.803422820289 30025.859825619846 0 0 0 0 1021040.4361915588 1593977.3800113201 0 1593977.3800113201 3394810.3803775311 0 0 0 0 1325598.8618927002 1947327.4639588594 0 1947327.4639588594 2039473.441439271 0 0 0 0 376128.02571361978 324607.17081372882 0 324607.17081372882 -286713.55352151376 0 0 0 0 2409983.0309429169 2383075.5950456858 0 2383075.5950456858 2173698.3961491585 0 0 0 0 1056586.6451339722 1476671.7872484922 0 1476671.7872484922 2159172.3353564739 0 0 0 0 350747.72939872742 545223.17068092525 0 545223.17068092525 639585.02408006974 0 0 0 0 114414.66071863496 276956.43259247346 0 276956.43259247346 262560.31053066498 0 0 0 0 313367.82884740829 433357.4403081201 0 433357.4403081201 196303.70234155655 0 0 0 0 453879.57856464386 341991.00956836343 0 341991.00956836343 255099.01509678364 0 0 0 0 526539.54052448273 435060.81314875185 0 435060.81314875185 338857.59823387861 0 0 0 0 144631.10467168875 234555.86084771156 0 234555.86084771156 300129.43644097971 0 0 0 0 70552.045943260193 313736.27677351522 0 313736.27677351522 398851.13062734238 0 0 0 0 165488.26307010651 290426.52111169673 0 290426.52111169673 388021.19827925577 0 0 0 0 -227488.00137376785 40670.054702279405 0 40670.054702279405 230679.93921366823 0 0 0 0 466384.01733414643 327493.21425941726 0 327493.21425941726 103047.41557184154 0 0 0 0 21948.351251482964 65330.707269451232 0 65330.707269451232 124622.49794592365 0 0 0 0 107852.89557647705 84967.050772763338 0 84967.050772763338 168.65254377893314 0 0 0 0 439386.97826099396 399871.44494381547 0 399871.44494381547 506054.78883391619 0 0 0 0 360299.5202593375 234579.34161099873 0 234579.34161099873 54887.334422966283 0 0 0 0 150568.36068248749 109194.05453959174 0 109194.05453959174 -99840.426538201951 0 0 0 0 149801.13241767883 -33071.975088275634 0 -33071.975088275634 1317.4252563436471 0 0 0 0 381084.36870489549 170116.35949005361 0 170116.35949005361 26051.101060754547 0 0 0 0 869751.40575408936 587539.23627613368 0 587539.23627613368 166810.45179495879 0 0 0 0 -61489.151374816895 -40370.48226118899 0 -40370.48226118899 228.45060471197618 0 0 0 0 885.68029820453376 298.48120276234113 0 298.48120276234113 -17.482521578489894 0 0 0 0 863867.18531417847 544738.79079561762 0 544738.79079561762 235329.01573060593 0 0 0 0 484656.95814323425 583489.1140563488 0 583489.1140563488 286792.37592995167 0 0 0 0 421401.7956905365 493244.89167928696 0 493244.89167928696 162875.9555349797 0 0 0 0 483868.14618825912 401271.75503066182 0 401271.75503066182 298293.39953660965 0 0 0 0 365587.76628494263 471335.92393541336 0 471335.92393541336 268535.88692995906 0 0 0 0 844975.00705909729 220497.29169035694 0 220497.29169035694 168.01965257123777 0 0 0 0 1049286.2812452316 296301.62361446809 0 296301.62361446809 28038.515600326617 0 0 0 0 338125.38056945801 48123.923217579839 0 48123.923217579839 -199428.78495641495 0 0 0 0 -442521.09577941895 -200841.54588818355 0 -200841.54588818355 314864.5559187039 0 0 0 0 639.27407561615109 -13.820049382513389 0 -13.820049382513389 71.696727034468964 0 0 0 0 658208.23026657104 397871.98615960713 0 397871.98615960713 297833.42763049941 0 0 0 0 218967.94805145264 285733.15665697143 0 285733.15665697143 283199.24024053034 0 0 0 0 450011.17907810211 476888.88430216908 0 476888.88430216908 285187.01551002264 0 0 0 0 433204.26570191048 179142.44268546533 0 179142.44268546533 20421.342633365115 0 0 0 0 742122.30568027496 128733.32811197639 0 128733.32811197639 -362325.48082464933 0 0 0 0 108642.91066002846 250837.39969383925 0 250837.39969383925 -284534.22232371569 0 0 0 0 1340590.3113002777 400519.16518973402 0 400519.16518973402 -136867.81761343533 0 0 0 0 538977.58288502879 310465.67165781464 0 310465.67165781464 16082.29162954604 0 0 0 0 156012.99336338043 86003.885044366121 0 86003.885044366121 257618.19898045063 0 0 0 0 863597.56460952759 243172.78848654032 0 243172.78848654032 -137165.83997952938 0 0 0 0 1483232.4227352142 698533.76698800921 0 698533.76698800921 2459.6213019490242 0 0 0 0 53537.595263334457 12609.365198352374 0 12609.365198352374 3568.8680048688839 0 0 0 0 451853.79999923706 551805.08787572384 0 551805.08787572384 737.44099017977715 0 0 0 0 158882.88895113347 65732.986068063881 0 65732.986068063881 23714.90701467442 0 0 0 0 235868.36337757111 330091.234714441 0 330091.234714441 193238.20183062553 0 0 0 0 -523003.93410396576 315959.03071695566 0 315959.03071695566 243082.9994251132 0 0 0 0 332219.77533063153 303490.68527875072 0 303490.68527875072 317088.17766119546 0 0 0 0 -500246.8791339919 1665666.7619143077 0 1665666.7619143077 -864062.91955900192 0 0 0 0 343651.07077503204 416645.45335777104 0 416645.45335777104 172111.0940580368 0 0 0 0 283827.22526168823 506744.71281528473 0 506744.71281528473 371279.72689761221 0 0 0 0 52694.348467350006 306876.26738496125 0 306876.26738496125 214150.49643141031 0 0 0 0 330694.21177721024 381954.94850246608 0 381954.94850246608 168842.24621516466 0 0 0 0 330436.50059700012 381794.56848487258 0 381794.56848487258 170540.07454752922 0 0 0 0 375403.04717445374 420772.80308380723 0 420772.80308380723 167412.37143120915 0 0 0 0 392366.34381484985 400980.68753618002 0 400980.68753618002 52366.844300240278 0 0 0 0 383401.98252612632 358550.62416175706 0 358550.62416175706 -114049.50704171415 0 0 0 0 2179769.321516037 2754209.311581552 0 2754209.311581552 2760165.2795428932 0 0 0 0 420427.12023210526 2806835.3207256198 0 2806835.3207256198 5454059.0281882286 0 0 0 0 130581.18509137165 162491.98205783963 0 162491.98205783963 -106863.68828957531 0 0 0 0 -804758.826130867 1382704.4475120008 0 1382704.4475120008 788317.04233306646 0 0 0 0 2839827.9948654175 3889633.2984687388 0 3889633.2984687388 4849051.333269909 0 0 0 0 993899.62586116791 3818118.8466938138 0 3818118.8466938138 8483392.6693833172 0 0 0 0 430023.75226020813 5876202.1918078959 0 5876202.1918078959 12131918.886148229 0 0 0 0 3481506.8605480194 6535601.101752162 0 6535601.101752162 6849814.6050185412 0 0 0 0 2292522.8326835632 3904561.4061801434 0 3904561.4061801434 3386795.5802195072 0 0 0 0 2591612.7272156477 1695588.2094948366 0 1695588.2094948366 6803475.4255132675 0 0 0 0 537063.99500274658 3409811.6513174176 0 3409811.6513174176 7209949.5901632309 0 0 0 0 667632.74573135376 1904273.4375274181 0 1904273.4375274181 5096136.9812825918 0 0 0 0 1787237.8098831177 1204488.6532950401 0 1204488.6532950401 1396625.8171768188 0 0 0 0 -334461.57660675049 2074414.0655739307 0 2074414.0655739307 1082663.6023595333 0 0 0 0 370812.1899394989 378412.71830040216 0 378412.71830040216 162251.78288128972 0 0 0 0 1585402.6501493454 716905.65395310521 0 716905.65395310521 2419985.9108270407 0 0 0 0 473688.31422385201 242233.69069026876 0 242233.69069026876 -115181.41157435691 0 0 0 0 1646466.7991027832 1442612.5950453281 0 1442612.5950453281 1306618.3766665459 0 0 0 0 42885.287048072089 1354.4628736490849 0 1354.4628736490849 -38266.666559709818 0 0 0 0 414963.3315486908 265302.00789949298 0 265302.00789949298 215082.29202926159 0 0 0 0 145237.44504928589 36793.932586163282 0 36793.932586163282 -66749.708742260933 0 0 0 0 128726.10391545296 688737.47181266546 0 688737.47181266546 -94565.737300872803 0 0 0 0 110001.87099113921 144968.95824646065 0 144968.95824646065 141422.84608060797 0 0 0 0 240423.35423811642 85168.061210479122 0 85168.061210479122 56126.034308911068 0 0 0 0 1923906.5973510742 -384953.17292869091 0 -384953.17292869091 -271982.97032988071 0 0 0 0 364710.31864304934 186646.3817317877 0 186646.3817317877 -135645.45220546745 0 0 0 0 -2930084.0311546326 559055.31855934858 0 559055.31855934858 874143.27685546875 0 0 0 0 -2576333.8293017149 3079189.8228319474 0 3079189.8228319474 -616255.64533162117 0 0 0 0 -2648416.9199934006 1990348.4674857706 0 1990348.4674857706 -909129.70051799715 0 0 0 0 -3521195.7714605331 1967704.2404302508 0 1967704.2404302508 -576472.87666881084 0 0 0 0 89861.050506790169 94055.344819874968 0 94055.344819874968 -45201.006783733028 0 0 0 0 -3362938.2281556129 1596750.4095327854 0 1596750.4095327854 44604.468332529068 0 0 0 0 221751.03185043437 -45994.392416230869 0 -45994.392416230869 -71138.872325589415 0 0 0 0 4507995.7082123756 3983473.5295302346 0 3983473.5295302346 3239098.2767190933 0 0 0 0 3089130.4357795715 1545079.2716873884 0 1545079.2716873884 505233.51601243019 0 0 0 0 4429668.8529548645 3791438.1270241141 0 3791438.1270241141 3875849.9352623224 0 0 0 0 2644969.5144348145 3682715.3607480526 0 3682715.3607480526 4415564.7508006096 0 0 0 0 4509634.8193893433 4312228.6168363094 0 4312228.6168363094 3100593.9086521864 0 0 0 0 12421959.062345505 5621911.7301347256 0 5621911.7301347256 -4305383.4294545949 0 0 0 0 4635082.1249141693 4379518.2706466764 0 4379518.2706466764 2228068.3071146011 0 0 0 0 6818501.8317985535 21306.825604349375 0 21306.825604349375 -135873.25979869068 0 0 0 0 4248699.2466211319 5074305.7996311933 0 5074305.7996311933 -2960559.5431995094 0 0 0 0 83909.980448812945 -51203.624592229258 0 -51203.624592229258 -42426.380333828405 0 0 0 0 -14595915.427778244 1101366.3227614705 0 1101366.3227614705 1951870.354771845 0 0 0 0 -5458489.6807715371 3686251.8414288755 0 3686251.8414288755 145029.45643901825 0 0 0 0 -5441311.0706043243 775578.39359101653 0 775578.39359101653 -277431.5637460351 0 0 0 0 3308863.1055393219 2503000.2899838984 0 2503000.2899838984 -7396845.6661124974 0 0 0 0 -8710644.5769090652 7374531.6704927273 0 7374531.6704927273 -771243.08584362268 0 0 0 0 2775550.3286170959 3251349.3287514597 0 3251349.3287514597 -2297914.23388955 0 0 0 0 3058639.2763004303 7482176.1398417428 0 7482176.1398417428 -3800918.5620093644 0 0 0 0 4470542.4576063156 4081535.4573906735 0 4081535.4573906735 -2303915.5319707692 0 0 0 0 1214731.016462326 3411919.0009989887 0 3411919.0009989887 -1654795.5586678237 0 0 0 0 2717681.2850470543 3765905.3384335404 0 3765905.3384335404 -2462158.0471533388 0 0 0 0 1084413.8584346771 2933019.7377673984 0 2933019.7377673984 -2843439.711070329 0 0 0 0 898050.32936096191 3652240.9535990953 0 3652240.9535990953 -2245114.6123577207 0 0 0 0 -47396.649791717529 3370428.9045751393 0 3370428.9045751393 -1985326.6309530586 0 0 0 0 1249788.5122375488 3839617.4829274863 0 3839617.4829274863 -2010180.3527996093 0 0 0 0 -106327.8480796814 3640685.7406443208 0 3640685.7406443208 -1739911.569743067 0 0 0 0 -1856119.4461860657 3763345.9157188237 0 3763345.9157188237 -1534819.7448319718 0 0 0 0 -1661150.719203949 3035624.7047053576 0 3035624.7047053576 -1230819.8787400275 0 0 0 0 -3133593.2091412544 2766917.1239233436 0 2766917.1239233436 -1067480.1945847869 0 0 0 0 -1258467.7189369202 2480110.1005373597 0 2480110.1005373597 -1118111.6837803721 0 0 0 0 -1719358.3255853653 2354612.5423398465 0 2354612.5423398465 -1140966.2022678852 0 0 0 0 -14876.76487159729 2922716.3494941592 0 2922716.3494941592 -1732829.4002671689 0 0 0 0 -1234506.5088503957 3235871.1314549088 0 3235871.1314549088 -1811757.9684552848 0 0 0 0 266510.98602104187 2973723.17384772 0 2973723.17384772 -2972891.7455909848 0 0 0 0 -835845.90801239014 2003197.635204643 0 2003197.635204643 -1095458.3004636168 0 0 0 0 -818718.5460460186 1771118.3964536823 0 1771118.3964536823 -1190284.1829224825 0 0 0 0 -184786.65823554993 657751.64252030849 0 657751.64252030849 100511.42387753725 0 0 0 0 417013.18666553497 1254764.7446328923 0 1254764.7446328923 -2525436.941192627 0 0 0 0 2148866.8790855408 1131694.5053942204 0 1131694.5053942204 -6784846.9864658117 0 0 0 0 71673.33420471102 89355.913163244026 0 89355.913163244026 -66420.591835122861 0 0 0 0 3594644.4568758011 3948528.4899771214 0 3948528.4899771214 -4860812.9418043494 0 0 0 0 6058064.8270587921 413003.41401638091 0 413003.41401638091 -482277.22780734301 0 0 0 0 8690433.0910081863 -382264.66612224281 0 -382264.66612224281 -900796.11149910092 0 0 0 0 7161875.2055120468 1542604.0597612262 0 1542604.0597612262 -595006.47042118106 0 0 0 0 9892784.2752227783 3008852.5745233968 0 3008852.5745233968 -510465.94289749535 0 0 0 0 4933472.0291125774 2588888.5110402461 0 2588888.5110402461 5620055.5463310778 0 0 0 0 -49615.594886598177 -153817.10111371567 0 -153817.10111371567 48194.498551900615 0 0 0 0 1366520.1406421661 1525287.5195838958 0 1525287.5195838958 595577.12909567356 0 0 0 0 4600456.9725313187 843496.9145725742 0 843496.9145725742 -230972.92935244739 0 0 0 0 1070720.7339439392 -66224.67015260458 0 -66224.67015260458 2506585.8590936363 0 0 0 0 8396335.9075870514 1328159.658591643 0 1328159.658591643 -3929447.3658646941 0 0 0 0 111113.47940891981 549905.45652999543 0 549905.45652999543 548595.64684915543 0 0 0 0 333662.47038078308 3440932.1101853251 0 3440932.1101853251 -2222531.1427872777 0 0 0 0 -48845.022147920448 -149667.1534580728 0 -149667.1534580728 48406.94638125581 0 0 0 0 5466481.1508024931 1202465.5149986334 0 1202465.5149986334 -72092.334452360868 0 0 0 0 -1597348.5093803406 3038745.5095842779 0 3038745.5095842779 398104.52487182245 0 0 0 0 744804.02531719208 2359903.1517709792 0 2359903.1517709792 -1009216.7594020963 0 0 0 0 -1598357.7005844116 3002144.0048597753 0 3002144.0048597753 -482346.33788305521 0 0 0 0 -2104083.2391490936 1973617.2374096513 0 1973617.2374096513 -919067.54370075464 0 0 0 0 -1900531.5760641098 2471414.1664295197 0 2471414.1664295197 -144743.99110162258 0 0 0 0 -26494.779468951048 -79812.722353953868 0 -79812.722353953868 27020.490838988801 0 0 0 0 -5463291.7424001694 3324457.8219048083 0 3324457.8219048083 1058.6687771677971 0 0 0 0 9024342.6001214981 738652.55218070745 0 738652.55218070745 -349830.52230045199 0 0 0 0 8913274.295548439 497529.25306724012 0 497529.25306724012 -464511.90741060674 0 0 0 0 81631.774254570249 -12472.317071721656 0 -12472.317071721656 -9479.2621852258453 0 0 0 0 9210213.1020328999 -91439.902238123119 0 -91439.902238123119 -165444.70763510466 0 0 0 0 7809728.3788688183 -165101.37146998942 0 -165101.37146998942 -147534.69659930468 0 0 0 0 -426053.07024765015 -963792.00761190057 0 -963792.00761190057 2049645.6747458279 0 0 0 0 -19423.504329429939 -51462.978729202645 0 -51462.978729202645 -58885.241129100614 0 0 0 0 8406408.7388026714 877058.04695163667 0 877058.04695163667 48242.824960112572 0 0 0 0 1421337.5556602478 1869967.9283226132 0 1869967.9283226132 376675.00308388472 0 0 0 0 1475943.2067867555 251037.13331922132 0 251037.13331922132 -207053.84477873449 0 0 0 0 6488613.3980994225 322340.52024421096 0 322340.52024421096 -6644031.7880804539 0 0 0 0 740443.06926250458 -3563900.1867153645 0 -3563900.1867153645 369433.54030936956 0 0 0 0 -1183148.5285434723 1699641.6111913323 0 1699641.6111913323 967.10439121723175 0 0 0 0 -915016.33728313446 3602164.7033933401 0 3602164.7033933401 -959550.77881091833 0 0 0 0 2117924.6266269684 2798099.0270864964 0 2798099.0270864964 -1072529.5759938955 0 0 0 0 895170.76582615077 1862827.4808414802 0 1862827.4808414802 -1780766.8576458693 0 0 0 0 708287.82651816448 394226.73639195622 0 394226.73639195622 127473.79055978946 0 0 0 0 924308.04696464539 1130394.036873281 0 1130394.036873281 88474.899499893188 0 0 0 0 874732.58234786987 242739.5485438506 0 242739.5485438506 40613.438838931674 0 0 0 0 2040402.7264175415 -1155725.8152207443 0 -1155725.8152207443 -1123733.5538180065 0 0 0 0 1328516.3642113889 376115.15155344643 0 376115.15155344643 -112282.3576337125 0 0 0 0 354173.77717252728 -19517.755854534451 0 -19517.755854534451 -247433.11438311785 0 0 0 0 2557839.2839069366 522367.19347889157 0 522367.19347889157 -214489.49603075386 0 0 0 0 2775113.9967422485 -988980.7728322288 0 -988980.7728322288 -1095616.1351347119 0 0 0 0 907844.53829956055 457507.9132743582 0 457507.9132743582 -80541.80287631473 0 0 0 0 932083.00518798828 266367.51331242628 0 266367.51331242628 -220.44084757280461 0 0 0 0 981885.28904914856 234790.04665261583 0 234790.04665261583 18989.405952499481 0 0 0 0 1297201.5816249847 234936.48041252524 0 234936.48041252524 -374044.19854225218 0 0 0 0 1629651.5832386017 436968.40989853442 0 436968.40989853442 -1623908.2027494898 0 0 0 0 885518.94321250916 150240.25085318729 0 150240.25085318729 -571556.66073653684 0 0 0 0 3213307.8813652992 -7987.22847808406 0 -7987.22847808406 425.339437906672 0 0 0 0 1399240.905547142 671466.53665510856 0 671466.53665510856 180312.93375743512 0 0 0 0 2791989.8827876672 545027.73781141208 0 545027.73781141208 -493546.6062060555 0 0 0 0 1471614.0114440918 477094.80513090547 0 477094.80513090547 -422400.4076282006 0 0 0 0 1419786.9952096939 447444.54933074355 0 447444.54933074355 158.21155720276533 0 0 0 0 1660449.9231595993 365213.06290777406 0 365213.06290777406 -266776.04149476503 0 0 0 0 1365375.9522435665 428283.69927836885 0 428283.69927836885 -279227.01885199337 0 0 0 0 1525999.0498275757 301021.81316590909 0 301021.81316590909 -581583.32636125328 0 0 0 0 2975378.9697566032 -587031.8206956638 0 -587031.8206956638 -537396.96538375015 0 0 0 0 439906.03704944625 20562.796807596926 0 20562.796807596926 -191341.18323063434 0 0 0 0 1389046.6106424332 513300.50908743107 0 513300.50908743107 -202865.92102351694 0 0 0 0 1891898.6188006401 806371.08241099096 0 806371.08241099096 -102081.93913137703 0 0 0 0 2136640.7130069733 -188849.55374245724 0 -188849.55374245724 13288.442598718393 0 0 0 0 2851209.8279285431 247849.77312676766 0 247849.77312676766 -763.26253836719195 0 0 0 0 1686179.7029533386 204550.68787949218 0 204550.68787949218 232898.57302618917 0 0 0 0 1354665.2824754715 257905.86864864864 0 257905.86864864864 228.45421078895708 0 0 0 0 1686291.5898278542 231047.73543638623 0 231047.73543638623 -217152.89004025643 0 0 0 0 36944.152666314505 42604.666949749691 0 42604.666949749691 -29176.541473279482 0 0 0 0 640683.27864074707 888291.27828521258 0 888291.27828521258 388020.77454763604 0 0 0 0 1631077.5714664459 36703.851597469882 0 36703.851597469882 -153023.94940032903 0 0 0 0 1854098.2891044617 223473.96815266029 0 223473.96815266029 -443977.47244818276 0 0 0 0 1805319.4703083038 403612.10227386211 0 403612.10227386211 -852041.52023318829 0 0 0 0 1601343.2197818756 270932.77830798971 0 270932.77830798971 202312.03046808811 0 0 0 0 1132943.4212937746 -148927.3983559421 0 -148927.3983559421 -65492.866491409251 0 0 0 0 1088553.1444330215 -687543.19999495591 0 -687543.19999495591 -347454.21690716501 0 0 0 0 1478863.3954315186 -318275.47363171354 0 -318275.47363171354 -1099758.7798260204 0 0 0 0 1369232.464805603 277688.23971483624 0 277688.23971483624 -189779.14897659456 0 0 0 0 2250730.2749958038 421.17905819951557 0 421.17905819951557 -968173.1391498181 0 0 0 0 1248090.4740219116 768456.37839247659 0 768456.37839247659 -694969.27409248741 0 0 0 0 -5146.3420376032591 46916.553624534921 0 46916.553624534921 2784.8998239427001 0 0 0 0 1624886.1325035095 485630.67415699782 0 485630.67415699782 -672671.18371501938 0 0 0 0 978064.02722358704 563581.7171008545 0 563581.7171008545 -575283.0091181614 0 0 0 0 915691.06028671656 -211891.53573063551 0 -211891.53573063551 -256484.08449356124 0 0 0 0 2701483.9433302879 -189070.50958865881 0 -189070.50958865881 -2787600.5894645602 0 0 0 0 388189.72367048264 1214165.3026883975 0 1214165.3026883975 -1448156.79193528 0 0 0 0 1585323.6266496181 491876.9734888114 0 491876.9734888114 -635392.08318352699 0 0 0 0 2350684.7666664124 -1621906.49621889 0 -1621906.49621889 -646184.60257354379 0 0 0 0 313645.07325895177 -84192.075833578827 0 -84192.075833578827 -173716.21068404481 0 0 0 0 1455437.5482540131 27843.14648117125 0 27843.14648117125 -283303.38732031733 0 0 0 0 1141420.0819978714 387205.58420842886 0 387205.58420842886 -551939.83224672079 0 0 0 0 1017586.9224681854 166779.85265152156 0 166779.85265152156 -501355.75099948049 0 0 0 0 518595.29389381409 3167.1436214148998 0 3167.1436214148998 -486856.94191575237 0 0 0 0 -411748.77284431458 -970990.21528714895 0 -970990.21528714895 -486873.67560952902 0 0 0 0 575548.18644142151 -7275.7143244892359 0 -7275.7143244892359 -543686.5793313086 0 0 0 0 429178.51295517199 -512685.01240665885 0 -512685.01240665885 -377374.98495924682 0 0 0 0 405046.11751079559 -695536.41694200039 0 -695536.41694200039 -1108127.6648863554 0 0 0 0 1601929.2334940275 105974.24343082926 0 105974.24343082926 -300913.45714384282 0 0 0 0 1002752.7336602211 -3321098.1996810585 0 -3321098.1996810585 -3439796.0452233553 0 0 0 0 752134.19143762253 -489208.46340844431 0 -489208.46340844431 -626551.17171135871 0 0 0 0 1068595.7201887965 -180608.64949169115 0 -180608.64949169115 -79142.375778084126 0 0 0 0 1148555.1293907166 108539.60163325071 0 108539.60163325071 -927709.58277019858 0 0 0 0 1344.9302803417668 -8434.1114401469822 0 -8434.1114401469822 2627.223735463047 0 0 0 0 1612031.8831720352 868832.41384198912 0 868832.41384198912 155419.45631283592 0 0 0 0 -293693.35655784607 -207461.20536991511 0 -207461.20536991511 395226.06514769961 0 0 0 0 1432943.7879550159 301990.86930259352 0 301990.86930259352 267669.66063630767 0 0 0 0 31478.481253935024 -25697.98659498035 0 -25697.98659498035 16673.513249052339 0 0 0 0 537431.72050857544 -573199.15120983124 0 -573199.15120983124 47029.905395568814 0 0 0 0 84444.937730789185 404215.89042642154 0 404215.89042642154 538.71237943139215 0 0 0 0 -10779.057411193848 -329357.67925348692 0 -329357.67925348692 -147361.95931074093 0 0 0 0 -8874.7774429321289 -322473.98401736305 0 -322473.98401736305 -102608.83197346982 0 0 0 0 -13239.844018936157 -338192.00674595451 0 -338192.00674595451 -143468.34156865301 0 0 0 0 73291.031262425706 -44102.210442055948 0 -44102.210442055948 -722.48180024568353 0 0 0 0 238056.45639801025 -214875.36244678078 0 -214875.36244678078 15401.194499755744 0 0 0 0 260852.00144100189 41928.478828985011 0 41928.478828985011 -125162.13727689191 0 0 0 0 -71883.724776268005 169865.82550892001 0 169865.82550892001 -115.24193425466427 0 0 0 0 67064.687356403098 -46430.173354166094 0 -46430.173354166094 24138.396168256029 0 0 0 0 400873.26407432556 -12570.020023683726 0 -12570.020023683726 -173180.56010727788 0 0 0 0 390323.78419303894 12884.340234658855 0 12884.340234658855 32608.765761933406 0 0 0 0 163033.84371757507 305442.87861822173 0 305442.87861822173 -162289.04965128965 0 0 0 0 436551.73223304749 -250361.1893673283 0 -250361.1893673283 -348687.42992771161 0 0 0 0 118623.74689591676 -63188.071051796898 0 -63188.071051796898 3818.1760072460384 0 0 0 0 72789.031811692752 -72948.765733328648 0 -72948.765733328648 20962.411057803976 0 0 0 0 406573.48472088948 -127880.65654113772 0 -127880.65654113772 -46030.788773513683 0 0 0 0 115172.75321960449 -453966.79445315897 0 -453966.79445315897 -268425.64890679717 0 0 0 0 568043.68171024323 -641287.78443778027 0 -641287.78443778027 -1333606.4023477398 0 0 0 0 125418.46816825867 -876457.84752625413 0 -876457.84752625413 83651.430244995281 0 0 0 0 66992.259691238403 -113069.90680576861 0 -113069.90680576861 -132987.09352113307 0 0 0 0 100356.47827133443 -165023.25086180517 0 -165023.25086180517 -13107.958313911597 0 0 0 0 1058499.0671314253 82898.180187926395 0 82898.180187926395 -102008.75642206692 0 0 0 0 1487333.8317642212 -2274706.3090421306 0 -2274706.3090421306 -4691870.5834330134 0 0 0 0 1169377.0960449101 -57855.30793382274 0 -57855.30793382274 -44504.879230436287 0 0 0 0 1190416.2562494278 -768727.11703113839 0 -768727.11703113839 -1840781.1821703594 0 0 0 0 -101455.78189849854 420047.45139800012 0 420047.45139800012 682105.54191578925 0 0 0 0 28957.012561798096 -486924.51306375116 0 -486924.51306375116 -766060.06527032703 0 0 0 0 1062247.6210746765 -1149765.1463498324 0 -1149765.1463498324 19432.935113355517 0 0 0 0 137179.16754368693 553454.77937563707 0 553454.77937563707 -1471733.0808524638 0 0 0 0 1343063.8901901245 -769695.6801045537 0 -769695.6801045537 138983.04860122502 0 0 0 0 25842.589160894044 -12282.358355046017 0 -12282.358355046017 -4634.6079784426765 0 0 0 0 1902263.6820030212 -1834936.5148228109 0 -1834936.5148228109 1163449.3417153358 0 0 0 0 174545.42823780887 -132873.35715833923 0 -132873.35715833923 -16500.281575828871 0 0 0 0 135602.54431152344 133739.28132226318 0 133739.28132226318 230305.42378909886 0 0 0 0 1867651.7570495605 383747.11438518763 0 383747.11438518763 456067.24466525018 0 0 0 0 90839.766574651003 -69294.178236854961 0 -69294.178236854961 18218.002028953757 0 0 0 0 -87999.302499771118 -542817.35542136617 0 -542817.35542136617 -45393.297692182707 0 0 0 0 -1233406.6144962311 502732.87668754533 0 502732.87668754533 3105506.8447148502 0 0 0 0 -2159451.4445552826 -1390788.3088716343 0 -1390788.3088716343 3466344.7951638848 0 0 0 0 6782.5517301885411 -57025.394254955405 0 -57025.394254955405 6143.9353688338651 0 0 0 0 -1356985.1118030548 -3635304.5647001872 0 -3635304.5647001872 -383593.89672584122 0 0 0 0 -1968624.0400948524 -2929796.3532818984 0 -2929796.3532818984 2642702.3911148608 0 0 0 0 1312167.5358992266 -98972.252939757309 0 -98972.252939757309 -35993.583810854005 0 0 0 0 3784269.1334147453 -2455643.61927409 0 -2455643.61927409 -7857312.8180002645 0 0 0 0 -248082.45606613159 44292.064857090576 0 44292.064857090576 913806.1599866678 0 0 0 0 819365.26003837585 -85413.200964797288 0 -85413.200964797288 -505713.61812243983 0 0 0 0 785537.62434005737 -49734.364420998842 0 -49734.364420998842 -253590.85869811289 0 0 0 0 978126.03609466553 -138155.0454481449 0 -138155.0454481449 -489732.88786954992 0 0 0 0 960144.6454706192 -422264.76218070462 0 -422264.76218070462 -1115374.5755657405 0 0 0 0 886024.92777395248 -570447.28386679664 0 -570447.28386679664 -130046.27596585453 0 0 0 0 753848.34317970276 -91103.519250933081 0 -91103.519250933081 -307333.66750333458 0 0 0 0 550813.33413314819 -18777.817387337098 0 -18777.817387337098 -152693.69776702067 0 0 0 0 509575.73636245728 -28672.391162504442 0 -28672.391162504442 724175.94529869454 0 0 0 0 1414706.6673750877 -1631718.7990520131 0 -1631718.7990520131 359572.30905965716 0 0 0 0 3244717.2365083694 926733.46838761494 0 926733.46838761494 -1905472.0825169943 0 0 0 0 100776.21789614763 44039.243038682034 0 44039.243038682034 -35132.741059014159 0 0 0 0 4430058.3123421669 519186.46405167226 0 519186.46405167226 -128990.03105119616 0 0 0 0 3068921.3996591568 2732596.9471474597 0 2732596.9471474597 1912941.6634437107 0 0 0 0 1261627.5492715836 -141474.527635362 0 -141474.527635362 -41371.378494672477 0 0 0 0 2676540.8170995712 907717.94185219333 0 907717.94185219333 -1087609.992404297 0 0 0 0 553042.06236953847 104403.46502645389 0 104403.46502645389 -41023.2526906516 0 0 0 0 383131.65067100525 232234.39175781608 0 232234.39175781608 -339455.05741378665 0 0 0 0 311563.54263973236 109242.68930849433 0 109242.68930849433 -96243.907523810863 0 0 0 0 1764249.8815431595 116911.04779102653 0 116911.04779102653 -2493864.029895559 0 0 0 0 -76816.632367134094 343296.99132741243 0 343296.99132741243 -1149271.4727195799 0 0 0 0 513857.15955839586 261825.00248206581 0 261825.00248206581 8104.3105720306048 0 0 0 0 538309.0230255127 120486.32894637808 0 120486.32894637808 -169078.52626216412 0 0 0 0 1641207.8031988144 1510930.9106422104 0 1510930.9106422104 -2143667.8402144462 0 0 0 0 492166.23856925964 58452.898097857833 0 58452.898097857833 -252316.07281766832 0 0 0 0 -303481.03567504883 1141165.8409473896 0 1141165.8409473896 -1311341.0209658593 0 0 0 0 1646522.045255661 747979.58022791892 0 747979.58022791892 -1232140.1138358675 0 0 0 0 812953.46613121033 535061.32286167797 0 535061.32286167797 1116064.6678501964 0 0 0 0 881040.78851890564 1384.0039276040625 0 1384.0039276040625 -295712.43486586772 0 0 0 0 618379.84700107574 1615459.5943843313 0 1615459.5943843313 -13902.333167716861 0 0 0 0 802521.53055763245 125254.78424435109 0 125254.78424435109 -112718.35658979602 0 0 0 0 393739.3458523415 168575.05845426978 0 168575.05845426978 -164835.05096335014 0 0 0 0 776921.25153787667 -44544.356422480603 0 -44544.356422480603 -6886.303093665716 0 0 0 0 496877.33141065919 1186.8735450073145 0 1186.8735450073145 -93808.288997284035 0 0 0 0 992898.66959035397 19860.980636113323 0 19860.980636113323 291194.21620851755 0 0 0 0 12235.330102920532 -1089555.5084403008 0 -1089555.5084403008 5392977.913092494 0 0 0 0 3860565.0942568779 -884630.25640823692 0 -884630.25640823692 -5155707.8953564167 0 0 0 0 37288.115051955217 -3848.0606874679215 0 -3848.0606874679215 -1765.1036243576818 0 0 0 0 3953.2075722292066 -25232.974117490317 0 -25232.974117490317 -4581.6913942390674 0 0 0 0 450852.15554237366 498018.34178766608 0 498018.34178766608 -394803.00002044067 0 0 0 0 -213292.86675405502 -1205792.0025574788 0 -1205792.0025574788 474587.65925371647 0 0 0 0 513961.08061625157 147080.29722714191 0 147080.29722714191 -144709.62706532516 0 0 0 0 706036.05278205872 71033.866958525032 0 71033.866958525032 -279952.68745431677 0 0 0 0 623033.96111648297 37538.165755960683 0 37538.165755960683 12878.761729254305 0 0 0 0 750128.47911405563 -46407.663960212842 0 -46407.663960212842 -118795.49149218202 0 0 0 0 656574.21583747864 1547186.1694655269 0 1547186.1694655269 -1920040.4746998902 0 0 0 0 2349889.7144565582 -981.71864482760429 0 -981.71864482760429 -990555.65181952715 0 0 0 0 3304108.347858429 -42391.31669344008 0 -42391.31669344008 -2114541.3529814463 0 0 0 0 507822.84164237976 362938.46533226967 0 362938.46533226967 -750456.74540092051 0 0 0 0 -1022999.0924949646 -127249.11827389151 0 -127249.11827389151 -441179.01708489656 0 0 0 0 533051.60139846802 -140738.70961774886 0 -140738.70961774886 -609261.78843290359 0 0 0 0 537427.55158670899 -158856.31149733393 0 -158856.31149733393 -402238.17575414845 0 0 0 0 1901444.389881134 319068.75494974107 0 319068.75494974107 -1170993.9523522332 0 0 0 0 129817.96766090393 462154.40349800885 0 462154.40349800885 -482774.0567458868 0 0 0 0 1894076.2396373749 -62818.037083648145 0 -62818.037083648145 -242230.5316465199 0 0 0 0 2086419.519654274 697657.74931452423 0 697657.74931452423 -454068.14676371217 0 0 0 0 1918131.4447157979 70599.494481711648 0 70599.494481711648 -566672.89811086655 0 0 0 0 2388943.7779998779 1088655.2483729273 0 1088655.2483729273 -1440310.2400091272 0 0 0 0 2002854.2753915787 1699088.5904046595 0 1699088.5904046595 866316.73974084854 0 0 0 0 1227897.1382322311 -119821.3923990503 0 -119821.3923990503 2931221.7958812835 0 0 0 0 2619285.3458633423 -1524954.5776923411 0 -1524954.5776923411 1167798.3044897169 0 0 0 0 1233268.7174539566 -177915.50883223326 0 -177915.50883223326 120363.72003895044 0 0 0 0 2098231.629781723 -346741.0405406449 0 -346741.0405406449 -1462718.4653726928 0 0 0 0 2083164.4661579132 -607945.43808272108 0 -607945.43808272108 -622526.22709513828 0 0 0 0 1656326.169090271 -803396.58979314193 0 -803396.58979314193 967252.69253700599 0 0 0 0 599853.45302581787 -1563935.7071863152 0 -1563935.7071863152 1051745.3588002697 0 0 0 0 1903682.238820076 -2636101.5106451306 0 -2636101.5106451306 801742.07266125455 0 0 0 0 4168349.6616325378 -1936169.7427230645 0 -1936169.7427230645 -787537.71624686942 0 0 0 0 123387.08487684466 42044.61161379749 0 42044.61161379749 -42152.80265448404 0 0 0 0 -568498.52877783775 -412329.08247161005 0 -412329.08247161005 93401.5103867203 0 0 0 0 -176170.64246535301 -2221676.3986548167 0 -2221676.3986548167 804074.17583727837 0 0 0 0 -618472.29858398438 8953849.6154936627 0 8953849.6154936627 -4335446.3264450431 0 0 0 0 964587.43886566162 -958587.50853072107 0 -958587.50853072107 -39132.343311861157 0 0 0 0 995986.49213790894 -278787.52413951606 0 -278787.52413951606 278690.88001012057 0 0 0 0 1052912.3771419525 -1476255.9814658798 0 -1476255.9814658798 739441.68538103253 0 0 0 0 855296.09818077087 -308561.78454644233 0 -308561.78454644233 -1878627.8975065202 0 0 0 0 1976988.9552536011 -187643.23132626712 0 -187643.23132626712 -1406896.4426589608 0 0 0 0 427852.66361999512 -287278.12932316959 0 -287278.12932316959 -1404086.1209916086 0 0 0 0 411550.07300798967 139045.23095811624 0 139045.23095811624 -148819.75678567868 0 0 0 0 773300.02544593811 -1252160.6064611822 0 -1252160.6064611822 -1936097.7124027554 0 0 0 0 1178559.2789573669 1366823.6037280262 0 1366823.6037280262 -17905.084401905537 0 0 0 0 599344.12426792085 -138656.15913893061 0 -138656.15913893061 -111335.23717329103 0 0 0 0 175453.19495201111 -246243.84668141603 0 -246243.84668141603 -362263.88586302847 0 0 0 0 358623.96289066505 -23671.923396617291 0 -23671.923396617291 -163294.36701831454 0 0 0 0 96730.446853637695 -238377.65007656813 0 -238377.65007656813 -560963.0795177035 0 0 0 0 511825.85494581237 97965.157821539789 0 97965.157821539789 -210555.13890983068 0 0 0 0 -636678.19257354736 -1201782.6914142035 0 -1201782.6914142035 -523374.43688493222 0 0 0 0 -207353.02665805817 -341969.00025368482 0 -341969.00025368482 881257.00752450526 0 0 0 0 742646.61154013127 -197528.63533915859 0 -197528.63533915859 -251875.82034263777 0 0 0 0 2191615.8874835968 -634182.6978533715 0 -634182.6978533715 2402503.3358066082 0 0 0 0 -1159647.7383999825 -589993.90702652372 0 -589993.90702652372 539827.97959575057 0 0 0 0 -378899.2756729126 -390495.67044269294 0 -390495.67044269294 -941487.56168392301 0 0 0 0 -23033.846965491772 -18239.224263210315 0 -18239.224263210315 10576.161831004096 0 0 0 0 -87101.17029723525 -373202.0228049109 0 -373202.0228049109 89533.205114621553 0 0 0 0 1127079.7773485184 4508.2910325601697 0 4508.2910325601697 -101836.36551520973 0 0 0 0 276662.35872077942 -710338.98843092471 0 -710338.98843092471 476391.4152491726 0 0 0 0 40415.534521317109 46590.356062122795 0 46590.356062122795 26259.474422417912 0 0 0 0 182731.9838180542 156905.44674284011 0 156905.44674284011 60197.455707192421 0 0 0 0 432182.8937048912 -2018063.7905163765 0 -2018063.7905163765 -562370.19029352069 0 0 0 0 4970656.041305542 -5501112.968050912 0 -5501112.968050912 4892829.4049244672 0 0 0 0 619335.93735387363 -183807.91434835875 0 -183807.91434835875 -304139.33069790254 0 0 0 0 2065200.552977562 1164336.3073700368 0 1164336.3073700368 -490541.90537221357 0 0 0 0 9205645.517911911 -2709016.7320805266 0 -2709016.7320805266 991677.30446671695 0 0 0 0 1031558.7466688156 34176.247277736664 0 34176.247277736664 492773.11871464923 0 0 0 0 1978636.4137468338 3610506.9954991676 0 3610506.9954991676 6153132.1259218603 0 0 0 0 -8098.3168216673657 78412.892453331908 0 78412.892453331908 32484.702986870394 0 0 0 0 3494362.7982153893 2605883.7487257048 0 2605883.7487257048 1935759.9165969491 0 0 0 0 3567389.2616887093 2782800.5001653656 0 2782800.5001653656 1842987.4023406506 0 0 0 0 1160123.5263557434 2318620.4088394642 0 2318620.4088394642 3473728.7308315039 0 0 0 0 2243268.54646492 1924226.7632415295 0 1924226.7632415295 1656707.4453861415 0 0 0 0 577882.72787857056 642508.02397774905 0 642508.02397774905 1367111.2907478809 0 0 0 0 -697433.45000743866 17296.360398069024 0 17296.360398069024 2599733.5992097463 0 0 0 0 1061815.2621030807 106423.96668215096 0 106423.96668215096 -371089.32787445188 0 0 0 0 341688.34424591064 311114.65905329585 0 311114.65905329585 822552.3102697134 0 0 0 0 181094.96637201309 -399608.10724362731 0 -399608.10724362731 -49123.303360819817 0 0 0 0 980148.82362747192 748270.17015606165 0 748270.17015606165 881856.11564408243 0 0 0 0 354851.0628528595 -61495.833516124636 0 -61495.833516124636 -500458.34657341242 0 0 0 0 507932.81502279453 64596.546316373395 0 64596.546316373395 -197866.4844324968 0 0 0 0 138191.35695724934 14855.088902383577 0 14855.088902383577 -82184.077897426949 0 0 0 0 425576.18451786041 -434983.03299021721 0 -434983.03299021721 -736747.05997917056 0 0 0 0 379113.96217727661 69415.681289553642 0 69415.681289553642 -111838.58774080873 0 0 0 0 41587.825736999512 -136177.50655040145 0 -136177.50655040145 625503.49700134993 0 0 0 0 709269.77173042297 263128.93256115913 0 263128.93256115913 701864.29326473922 0 0 0 0 508952.52711677551 -214780.96658545732 0 -214780.96658545732 561082.08365237713 0 0 0 0 1250205.2965202332 -516529.92337924242 0 -516529.92337924242 119563.80388975143 0 0 0 0 407818.56910803914 -599103.7749266997 0 -599103.7749266997 169727.12175327539 0 0 0 0 1303153.3188858032 104292.29176348448 0 104292.29176348448 677770.65648320317 0 0 0 0 1267677.9722776413 256068.01258471608 0 256068.01258471608 30513.52562892437 0 0 0 0 1169653.1119222641 528434.79146780074 0 528434.79146780074 924763.8147431612 0 0 0 0 936643.45664787292 198821.71089929342 0 198821.71089929342 712554.02108681202 0 0 0 0 1050174.8776016235 472970.80679249763 0 472970.80679249763 934386.28603708744 0 0 0 0 1204088.5505847931 589358.28475153446 0 589358.28475153446 871015.63397791982 0 0 0 0 1065740.6814956665 653587.5465233326 0 653587.5465233326 1118213.5824860334 0 0 0 0 678667.67608261108 185613.99301874638 0 185613.99301874638 811958.8451693058 0 0 0 0 538263.9407119751 635012.34942376614 0 635012.34942376614 1134021.8127434254 0 0 0 0 1374216.3365459442 1043991.3303673863 0 1043991.3303673863 1364288.0280513689 0 0 0 0 749303.29412555695 565537.69582843781 0 565537.69582843781 1299031.4044797421 0 0 0 0 862780.33230400085 1123739.2881652713 0 1123739.2881652713 1896013.2159172297 0 0 0 0 1721760.9176244736 978415.99863862991 0 978415.99863862991 1176385.9862861633 0 0 0 0 1774853.209348619 1563882.3065701388 0 1563882.3065701388 1379587.0387961864 0 0 0 0 1538669.8802185059 1076110.7147310972 0 1076110.7147310972 1393834.6855690479 0 0 0 0 1307344.2216291428 608130.33324223757 0 608130.33324223757 851296.75701475143 0 0 0 0 1107112.1837854385 539215.37974619865 0 539215.37974619865 1028643.2141058445 0 0 0 0 1216589.9335899353 802368.85768061876 0 802368.85768061876 1237455.5764995813 0 0 0 0 1571702.1477050781 784819.24262911081 0 784819.24262911081 1158293.5315781832 0 0 0 0 1700707.5106840134 866806.93729418516 0 866806.93729418516 1230558.3792252541 0 0 0 0 1358662.5607681274 923623.40042680502 0 923623.40042680502 1336464.2475268245 0 0 0 0 2289026.6693880558 1148410.1338258982 0 1148410.1338258982 1060528.4785821438 0 0 0 0 2271018.0689592361 1183980.4307924509 0 1183980.4307924509 1196162.5610874891 0 0 0 0 2969745.3512701988 1077472.7743253782 0 1077472.7743253782 -255943.87280297279 0 0 0 0 3410340.3124904633 1308226.8257365227 0 1308226.8257365227 904714.30078488588 0 0 0 0 276077.63000478782 154969.24881853745 0 154969.24881853745 54878.210693790694 0 0 0 0 2508147.7452716827 1664236.46600613 0 1664236.46600613 556497.42759972811 0 0 0 0 3290318.316110611 2309593.518543005 0 2309593.518543005 534555.69933962822 0 0 0 0 3848706.3537404537 1952524.7007619515 0 1952524.7007619515 406362.92821490765 0 0 0 0 3713454.8880542517 2796529.0832598396 0 2796529.0832598396 1039802.2356370687 0 0 0 0 3322295.8400192261 2260353.4008913636 0 2260353.4008913636 581407.15722954273 0 0 0 0 3403314.9082450867 1619527.9212036133 0 1619527.9212036133 1033563.7045220733 0 0 0 0 2447866.7341041565 2474369.9847692847 0 2474369.9847692847 1759284.3025110364 0 0 0 0 849677.4391336441 202084.52092498541 0 202084.52092498541 73653.227788820863 0 0 0 0 887471.88378930092 129008.5213707462 0 129008.5213707462 -122126.08853977919 0 0 0 0 675963.12006855011 1342753.246234864 0 1342753.246234864 942520.79066407681 0 0 0 0 401342.36744880676 324813.50176230073 0 324813.50176230073 357279.82991042733 0 0 0 0 999503.37062644958 321455.65680242702 0 321455.65680242702 -110712.41809296608 0 0 0 0 1011035.6568918228 281144.2217229791 0 281144.2217229791 -722321.36700212955 0 0 0 0 1471910.3751168251 256708.63289503753 0 256708.63289503753 -2152304.2522578239 0 0 0 0 1215501.6407718658 547180.18426200747 0 547180.18426200747 -377069.274063766 0 0 0 0 1376412.7919559479 1958587.4007818103 0 1958587.4007818103 -258394.08062070608 0 0 0 0 1789845.620716095 1736594.8562319428 0 1736594.8562319428 -1427340.7329950333 0 0 0 0 738855.35087871552 53159.053382463753 0 53159.053382463753 -153699.64889037609 0 0 0 0 528441.69517421722 -345556.41335767508 0 -345556.41335767508 -790117.38987123966 0 0 0 0 480326.22435876133 -14514.322766221361 0 -14514.322766221361 -53905.987513302418 0 0 0 0 709901.14968109131 23136.67488232255 0 23136.67488232255 -42189.663507789373 0 0 0 0 2938149.4385204315 952284.95725232363 0 952284.95725232363 -369835.47750289738 0 0 0 0 1902507.3275222778 -403347.98888814449 0 -403347.98888814449 314021.62111282349 0 0 0 0 418401.41091346741 -503349.17473292351 0 -503349.17473292351 334431.91949521005 0 0 0 0 3079080.319196701 -266015.09185826778 0 -266015.09185826778 -603618.04139535129 0 0 0 0 931218.69636154175 250247.10940821469 0 250247.10940821469 -169113.99658334255 0 0 0 0 124695.36875323858 32793.096528581344 0 32793.096528581344 -82022.233229498815 0 0 0 0 647289.31128804199 19929.065786681487 0 19929.065786681487 -123403.63538352604 0 0 0 0 540993.29093074799 -27055.061694525182 0 -27055.061694525182 -32514.508914083242 0 0 0 0 510071.18068623543 106842.59011895768 0 106842.59011895768 -141027.72817412019 0 0 0 0 421896.03733580979 -5989.6778105348349 0 -5989.6778105348349 -143778.68182797515 0 0 0 0 451068.347644608 110393.91814332758 0 110393.91814332758 -149075.96583415562 0 0 0 0 2043505.7131843567 46707.485093832016 0 46707.485093832016 -380055.78726166487 0 0 0 0 144529.08514785767 -245248.84384578466 0 -245248.84384578466 -386122.66838866472 0 0 0 0 362960.81763076782 -27372.31402105093 0 -27372.31402105093 -588077.62998819351 0 0 0 0 420135.42617128231 157688.7494906371 0 157688.7494906371 -183972.96095126797 0 0 0 0 865042.52104949951 1149338.203258276 0 1149338.203258276 97894.263268828392 0 0 0 0 2261440.7508888245 29448.669027119875 0 29448.669027119875 80720.918222367764 0 0 0 0 921538.98404026031 348221.72305175662 0 348221.72305175662 509303.57945173979 0 0 0 0 647010.75668144226 -387908.39116811752 0 -387908.39116811752 -318061.19811189175 0 0 0 0 1046298.1774482727 346663.33064907789 0 346663.33064907789 158341.84789693356 0 0 0 0 -99152.571060180664 82972.039996489882 0 82972.039996489882 408590.13461053371 0 0 0 0 620188.59150123596 117823.46949821711 0 117823.46949821711 453126.78492116928 0 0 0 0 1098491.294210434 193714.61517608166 0 193714.61517608166 405936.80156055093 0 0 0 0 1166955.5478401184 441389.31607067585 0 441389.31607067585 452215.90827023983 0 0 0 0 1298496.0854167938 578830.12719666958 0 578830.12719666958 780297.31002777815 0 0 0 0 920376.61483192444 429676.87195312977 0 429676.87195312977 801432.84568309784 0 0 0 0 1115978.6228318214 344746.36869108677 0 344746.36869108677 749568.06198573112 0 0 0 0 1104418.2539615631 626085.97044450045 0 626085.97044450045 1135843.3739898205 0 0 0 0 1230423.0826206207 664890.87531790137 0 664890.87531790137 1317993.1093206406 0 0 0 0 1429808.7391850948 727534.36749173701 0 727534.36749173701 1115710.764385581 0 0 0 0 2791236.7572898865 677225.92927390337 0 677225.92927390337 569966.34952455759 0 0 0 0 1696692.5240268707 169780.92585298419 0 169780.92585298419 386201.81672286987 0 0 0 0 1748981.437048912 230576.39845556021 0 230576.39845556021 449273.06921696663 0 0 0 0 1604027.0961866379 170757.81211620569 0 170757.81211620569 594634.89843398333 0 0 0 0 1634711.4052686691 748408.31006002426 0 748408.31006002426 943972.41370904446 0 0 0 0 1189062.1578674316 398781.76879769564 0 398781.76879769564 656461.08027517796 0 0 0 0 1140210.894757092 -155064.16792632267 0 -155064.16792632267 366839.60248684883 0 0 0 0 1372603.6152820587 303666.66762405634 0 303666.66762405634 336816.65939974785 0 0 0 0 284477.50815114699 -177240.07843539515 0 -177240.07843539515 -10971.98724939872 0 0 0 0 626855.29805648327 218885.79150914028 0 218885.79150914028 -28269.599653840065 0 0 0 0 658665.55305988714 123002.38724418986 0 123002.38724418986 -32941.614961721265 0 0 0 0 1587792.4923295975 96928.28917311132 0 96928.28917311132 467095.72035312653 0 0 0 0 93090.014426985697 -97955.396281305933 0 -97955.396281305933 -12634.849852484884 0 0 0 0 746928.12948513031 8824.1076062917709 0 8824.1076062917709 -91334.609095170163 0 0 0 0 697008.14877319336 95256.127210617065 0 95256.127210617065 481625.58349680901 0 0 0 0 710078.44870090485 220734.6469874382 0 220734.6469874382 -92210.677684703609 0 0 0 0 737665.57348406315 88054.746614705771 0 88054.746614705771 -16365.546157240868 0 0 0 0 225767.53089213371 232954.89238920808 0 232954.89238920808 -1543902.7171899378 0 0 0 0 3346571.1046276093 -4460492.179554604 0 -4460492.179554604 2917943.6394149661 0 0 0 0 1195526.5720945459 371339.0757937142 0 371339.0757937142 -21304.497694979138 0 0 0 0 2509142.663579464 -2378465.3627850264 0 -2378465.3627850264 -2192860.3159650564 0 0 0 0 726438.94800950354 -315555.11587523535 0 -315555.11587523535 -257778.63387681934 0 0 0 0 1848110.4599135234 -134618.92211449612 0 -134618.92211449612 -823974.42010688689 0 0 0 0 -26722.313844740391 706719.76806049608 0 706719.76806049608 3671486.3209190369 0 0 0 0 -28894.374255180359 972749.4911441803 0 972749.4911441803 535046.99993801117 0 0 0 0 1140200.054136751 252781.58411072101 0 252781.58411072101 94839.604844974412 0 0 0 0 826561.51794981956 182238.37744828314 0 182238.37744828314 -525611.70198386908 0 0 0 0 3707130.6908364296 1837965.7134870291 0 1837965.7134870291 1107060.0328991413 0 0 0 0 589268.77617931366 -72971.029596626759 0 -72971.029596626759 372837.21661174297 0 0 0 0 939355.91777229309 -897149.11084055901 0 -897149.11084055901 6201686.3779075146 0 0 0 0 145691.52559661865 483532.54978832603 0 483532.54978832603 -686047.43099180982 0 0 0 0 155035.42794418335 579496.52869744599 0 579496.52869744599 -68074.513679042459 0 0 0 0 21624.653549165931 -108251.04419588207 0 -108251.04419588207 -122440.01714284113 0 0 0 0 1405059.1420235187 348059.0079354092 0 348059.0079354092 -352062.02343651408 0 0 0 0 4423968.3292980194 5173349.5900557041 0 5173349.5900557041 -6091394.6841776371 0 0 0 0 154373.33855247498 286123.63656171411 0 286123.63656171411 -1137760.2127073705 0 0 0 0 932457.64995846478 530356.04187996301 0 530356.04187996301 -156264.4417846399 0 0 0 0 160147.08782084519 556048.50440844276 0 556048.50440844276 110773.93390135748 0 0 0 0 -4931884.3376150131 -1598888.2937301248 0 -1598888.2937301248 -1244096.7974658459 0 0 0 0 1444424.5618591309 -285271.2733104229 0 -285271.2733104229 -4144049.8267607568 0 0 0 0 1183506.4560409365 648077.12161270145 0 648077.12161270145 -33448.732831600457 0 0 0 0 6848.1322873416357 -31513.464728910636 0 -31513.464728910636 -38044.594420040652 0 0 0 0 1165527.8564243317 1504655.0673473477 0 1504655.0673473477 1437474.0116967261 0 0 0 0 267802.58177471161 282854.14958592504 0 282854.14958592504 -615472.00285677612 0 0 0 0 108402.95843601227 433342.61960889399 0 433342.61960889399 387844.09787455946 0 0 0 0 1463986.724044323 1090057.762133956 0 1090057.762133956 1720753.6136167049 0 0 0 0 2184234.6877822876 67365.709546416998 0 67365.709546416998 402167.03322219849 0 0 0 0 6024180.7252607346 981638.56344312429 0 981638.56344312429 -3404879.0179268196 0 0 0 0 1387422.4493932724 676246.54646629095 0 676246.54646629095 1500171.2432863712 0 0 0 0 1307118.68242836 786778.51393437386 0 786778.51393437386 1357222.7120022774 0 0 0 0 1348201.6801804677 341792.82259919215 0 341792.82259919215 -146096.3977203285 0 0 0 0 3357142.8109874725 1236242.1853320599 0 1236242.1853320599 -184169.55550789833 0 0 0 0 2738515.9007046223 -464034.80217529833 0 -464034.80217529833 -387378.5172175467 0 0 0 0 1551789.6616638899 -40175.992184669711 0 -40175.992184669711 -236295.00763326883 0 0 0 0 1525430.8599720001 587646.71841321886 0 587646.71841321886 -413690.51342725009 0 0 0 0 1664533.3085195422 671475.62536587846 0 671475.62536587846 -547668.61965298653 0 0 0 0 635472.19072063686 317540.26799436595 0 317540.26799436595 -204478.54077229876 0 0 0 0 1206620.9816484451 590533.92277945578 0 590533.92277945578 -682792.80202242732 0 0 0 0 997481.35055971146 519436.80851288885 0 519436.80851288885 -488633.48823204637 0 0 0 0 1123529.4475604712 430081.096505753 0 430081.096505753 -212876.26915106832 0 0 0 0 -10761777.255867958 5958603.713858977 0 5958603.713858977 801013.94881917536 0 0 0 0 -1674989.2057361603 271940.56167280674 0 271940.56167280674 -9531866.1896250397 0 0 0 0 -155469.30277824402 1275347.7696702294 0 1275347.7696702294 1787913.1384658255 0 0 0 0 -64071.111907834653 144134.68048193678 0 144134.68048193678 24626.35939177846 0 0 0 0 838031.66271734238 997173.05582891218 0 997173.05582891218 -479338.86730030179 0 0 0 0 479849.79311227798 522554.34881686419 0 522554.34881686419 -443495.04847288132 0 0 0 0 1306744.7496557236 1250411.2435696125 0 1250411.2435696125 152016.57529558614 0 0 0 0 16863804.303138256 11510779.361888096 0 11510779.361888096 -12170094.397898495 0 0 0 0 20056920.684844017 7307911.0890647545 0 7307911.0890647545 -433589.84787261486 0 0 0 0 23563662.986497879 -9629808.0883592516 0 -9629808.0883592516 -188512.29634803534 0 0 0 0 -15057069.102109432 -8975931.6208618283 0 -8975931.6208618283 17169338.235298932 0 0 0 0 -15094347.61304903 498882.827859357 0 498882.827859357 11021476.370653689 0 0 0 0 -2483225.0258350372 -25768336.410301402 0 -25768336.410301402 24252627.181359679 0 0 0 0 5575828.7121686935 -5190993.3761687726 0 -5190993.3761687726 1302871.6209598482 0 0 0 0 3969326.7588267326 589189.4108556062 0 589189.4108556062 -2077794.5821497738 0 0 0 0 -294177.46075248718 -1392457.2045084685 0 -1392457.2045084685 380973.12870922685 0 0 0 0 -162024.11643791199 332113.86139518023 0 332113.86139518023 -1787501.9421091378 0 0 0 0 -3866126.8559532166 1432788.8582312018 0 1432788.8582312018 -1394921.4602808058 0 0 0 0 990125.34277582169 681046.70365782827 0 681046.70365782827 -1620408.2266938239 0 0 0 0 504297.91706752777 -280780.29762191325 0 -280780.29762191325 -2105192.3200296313 0 0 0 0 4868488.0257892609 2272037.0297280699 0 2272037.0297280699 -2096046.656931296 0 0 0 0 3135129.5390224457 -636039.51594140381 0 -636039.51594140381 -2286242.7056837622 0 0 0 0 7606507.1992285252 3730729.1335976142 0 3730729.1335976142 -937643.01644611359 0 0 0 0 8644531.9816274643 -1087798.3075240999 0 -1087798.3075240999 -2274625.1556753218 0 0 0 0 5776460.1471586823 -2274508.4673753325 0 -2274508.4673753325 -1568026.6286926866 0 0 0 0 7166837.7217473984 3280645.7419064343 0 3280645.7419064343 -442438.90897768736 0 0 0 0 7662406.4138793945 5753552.0693562925 0 5753552.0693562925 1290987.2920415103 0 0 0 0 7667952.7510900497 3370091.6794998422 0 3370091.6794998422 -1687466.1355375797 0 0 0 0 4527479.1281380653 4071976.0880131796 0 4071976.0880131796 394402.99200206995 0 0 0 0 5243030.3531694412 2890394.0393066965 0 2890394.0393066965 -1846970.2379268259 0 0 0 0 4360437.0245490074 2433794.6064356789 0 2433794.6064356789 -1597712.7402154803 0 0 0 0 5172785.2467951775 2767854.3691894859 0 2767854.3691894859 -366749.53334146499 0 0 0 0 3735355.4059567451 2976684.472010456 0 2976684.472010456 -368450.05264483392 0 0 0 0 3181476.196023941 2317823.3322514072 0 2317823.3322514072 1345601.1351351663 0 0 0 0 544977.70675653219 -110975.78950667568 0 -110975.78950667568 -739076.21795666218 0 0 0 0 1994047.80981493 1115058.9959458485 0 1115058.9959458485 -3568038.2682003081 0 0 0 0 27196.496296882629 3081039.7736949623 0 3081039.7736949623 3208355.5873757526 0 0 0 0 4577046.9088191986 7185347.8844631612 0 7185347.8844631612 2921051.3216856271 0 0 0 0 212243.62997595733 -89798.339502381103 0 -89798.339502381103 -62604.86669966083 0 0 0 0 5380442.8842244148 1206863.902851522 0 1206863.902851522 -1423910.5832674503 0 0 0 0 1441333.3722257614 -117065.21591478586 0 -117065.21591478586 -177576.04170238972 0 0 0 0 2547423.9972550115 541853.86495529336 0 541853.86495529336 -457998.78496984165 0 0 0 0 4706425.5062232018 -61608.384473800659 0 -61608.384473800659 -2414165.3987883329 0 0 0 0 1207686.4834296359 147881.70289762528 0 147881.70289762528 -513965.30656387872 0 0 0 0 1509036.9121461287 52460.842203093489 0 52460.842203093489 -258694.02406260269 0 0 0 0 2313622.4668579102 783104.50775820017 0 783104.50775820017 765087.90065431595 0 0 0 0 1454679.6194353104 507120.79772431403 0 507120.79772431403 -734073.00422946736 0 0 0 0 1719436.5936765671 847966.01022934914 0 847966.01022934914 1231310.8698686175 0 0 0 0 210177.85238528252 -38167.252702564001 0 -38167.252702564001 171312.65823577344 0 0 0 0 900350.7129945755 -840912.34440386295 0 -840912.34440386295 -308910.90920689702 0 0 0 0 1179381.273604393 35774.080544248223 0 35774.080544248223 126474.23668832332 0 0 0 0 639153.53325176239 589714.36716802418 0 589714.36716802418 -87429.033357337117 0 0 0 0 1783545.8419337273 606785.53660991788 0 606785.53660991788 -131377.82067015395 0 0 0 0 1264810.5112714767 130422.38874573261 0 130422.38874573261 -176222.91609542072 0 0 0 0 888854.06144544471 -93388.035157850827 0 -93388.035157850827 -548758.76783479471 0 0 0 0 1244346.612010479 64632.830231210217 0 64632.830231210217 -237803.86881902814 0 0 0 0 1304832.9162678719 180409.15526022017 0 180409.15526022017 -422761.37245605886 0 0 0 0 1119869.0510883331 -112915.32881543785 0 -112915.32881543785 -216284.12081500888 0 0 0 0 955211.49682426453 215720.45496574044 0 215720.45496574044 -365306.49982117116 0 0 0 0 1348183.2139282227 146220.81254268438 0 146220.81254268438 -624035.37889777124 0 0 0 0 810547.66380958294 -158209.29023600603 0 -158209.29023600603 -522845.82568533218 0 0 0 0 1540273.6736900806 -324118.95423638821 0 -324118.95423638821 -1187909.8114049435 0 0 0 0 1459860.1163291931 302704.35946623981 0 302704.35946623981 -405816.44147114456 0 0 0 0 5269841.4624731541 1701457.3369858265 0 1701457.3369858265 -1034471.1732960939 0 0 0 0 7212246.823877573 -771176.56806960702 0 -771176.56806960702 -3695627.8402414322 0 0 0 0 1367284.8028645515 -408481.56953321397 0 -408481.56953321397 965610.34231328964 0 0 0 0 4130521.7297782898 1742677.8465368748 0 1742677.8465368748 2850254.7260650396 0 0 0 0 12591965.947011828 6846837.5490345061 0 6846837.5490345061 506979.32192933559 0 0 0 0 161560.00250525214 76151.844730200362 0 76151.844730200362 9314.6027065918315 0 0 0 0 -4015787.386900425 -14950694.113721788 0 -14950694.113721788 -10233807.482715011 0 0 0 0 -1077425.7023317814 -867333.51570099592 0 -867333.51570099592 -2471306.1018595695 0 0 0 0 12613174.686861992 4959074.4160317183 0 4959074.4160317183 -3781154.43160671 0 0 0 0 9869958.4744443893 4814591.7184089422 0 4814591.7184089422 -3770045.6507387161 0 0 0 0 5595918.3094508648 4132068.7545823306 0 4132068.7545823306 -732701.1190571785 0 0 0 0 7546199.7126927376 2914197.9903666973 0 2914197.9903666973 -4021533.5346788168 0 0 0 0 1860322.3510303497 -2314418.1260150671 0 -2314418.1260150671 -2619762.7353451252 0 0 0 0 4776478.8038601875 -542966.09576038271 0 -542966.09576038271 -7381582.0618709326 0 0 0 0 544336.92733437894 282089.4790347293 0 282089.4790347293 63195.272475079168 0 0 0 0 7508366.1874608994 3800501.3934057951 0 3800501.3934057951 785973.18179059029 0 0 0 0 -4105713.7560973167 -8218597.1268435121 0 -8218597.1268435121 -6623988.475702174 0 0 0 0 -1138755.0967311859 -548762.94222044945 0 -548762.94222044945 -2234684.7130489349 0 0 0 0 2889167.489356041 -1479179.7252782583 0 -1479179.7252782583 -5046737.8524794579 0 0 0 0 -503822.92610502243 -4296567.2405492067 0 -4296567.2405492067 -4158917.1516711712 0 0 0 0 1250462.6515725348 625576.98964578845 0 625576.98964578845 140918.09153194475 0 0 0 0 4767481.5864896774 2093451.9977598786 0 2093451.9977598786 -617629.70472204685 0 0 0 0 1781013.8903832436 1279267.9232859612 0 1279267.9232859612 1441734.1176226884 0 0 0 0 466410.85082101822 -1222120.5088313818 0 -1222120.5088313818 -1621387.6284925938 0 0 0 0 7224496.0479290485 3720273.8071452677 0 3720273.8071452677 502988.49443745613 0 0 0 0 3436986.5254106522 -1872344.8949882984 0 -1872344.8949882984 -2650254.6252388954 0 0 0 0 2102331.0803952217 -390974.38473570347 0 -390974.38473570347 -3925170.3816058636 0 0 0 0 6386035.0398454666 2261239.3262791038 0 2261239.3262791038 -31863.501436710358 0 0 0 0 2429336.8864593506 -2082171.0202515721 0 -2082171.0202515721 -1840201.3701906204 0 0 0 0 6315443.9536628723 2131878.6166111231 0 2131878.6166111231 -629202.62182199955 0 0 0 0 9371684.2442703247 1889267.2464740276 0 1889267.2464740276 -726097.15369462967 0 0 0 0 8599631.4626541138 2809375.1376316547 0 2809375.1376316547 1084813.6974528432 0 0 0 0 9907700.8303537369 5913660.2253706455 0 5913660.2253706455 2120064.897241652 0 0 0 0 8507799.5012688637 5747848.4159491062 0 5747848.4159491062 3828900.0043110847 0 0 0 0 12867278.688120842 6450470.0530786514 0 6450470.0530786514 5315934.7440071106 0 0 0 0 -233441.52348470688 -56237.323778867722 0 -56237.323778867722 1486987.9892500639 0 0 0 0 13349886.901010513 7258084.3806099892 0 7258084.3806099892 2949066.6258535385 0 0 0 0 11195227.654756546 6710182.6222815514 0 6710182.6222815514 9831319.5138931274 0 0 0 0 11222363.712547302 8197857.5031938553 0 8197857.5031938553 6589313.3348534107 0 0 0 0 11568840.527048588 4595837.9673902616 0 4595837.9673902616 2377278.5867004395 0 0 0 0 14240106.841967583 14714107.1773417 0 14714107.1773417 9860138.512506444 0 0 0 0 8360624.4997348785 1528396.3891884089 0 1528396.3891884089 -1299523.2799553871 0 0 0 0 9215332.0894069672 5355714.3915352821 0 5355714.3915352821 2972570.7689576149 0 0 0 0 16649634.351003647 12320471.222657442 0 12320471.222657442 4399271.8297106326 0 0 0 0 7391513.3018107414 5828290.8430634737 0 5828290.8430634737 3570399.067820549 0 0 0 0 10310550.111868858 6338029.55841434 0 6338029.55841434 833861.34714198112 0 0 0 0 14600017.090497017 5721927.9916665554 0 5721927.9916665554 -1324564.8268767595 0 0 0 0 18721087.174050331 6111312.5698487759 0 6111312.5698487759 -22657149.928364754 0 0 0 0 14394409.118919373 11343316.354328156 0 11343316.354328156 -2809724.5233346224 0 0 0 0 699890.77804851532 3121820.6899812222 0 3121820.6899812222 -3483211.890267849 0 0 0 0 -13013247.61514616 -13739669.973504186 0 -13739669.973504186 -10104167.599578619 0 0 0 0 60885.599771764362 17137.782633951632 0 17137.782633951632 -50694.008196469629 0 0 0 0 74762.138581227977 7199.243120027706 0 7199.243120027706 -13997.788186781458 0 0 0 0 1440088.3437452316 -5800801.2247190475 0 -5800801.2247190475 -21263067.156785965 0 0 0 0 5386642.6585199237 796111.50628501549 0 796111.50628501549 3014510.3491411209 0 0 0 0 5713689.4343996048 -1986355.3007665873 0 -1986355.3007665873 -10490216.572820902 0 0 0 0 -3095292.9054994583 -2741086.3086240292 0 -2741086.3086240292 -7714777.3593747616 0 0 0 0 -10372450.489239573 -2315730.3020472527 0 -2315730.3020472527 -1610271.8248040676 0 0 0 0 13760857.213973045 5879148.9653834105 0 5879148.9653834105 -5706558.2819741964 0 0 0 0 9799446.402888298 -10502861.519116044 0 -10502861.519116044 1944355.4157206714 0 0 0 0 -16554.115445525036 -58943.59240625496 0 -58943.59240625496 16461.785849033738 0 0 0 0 -6282975.9284341335 8951203.9635775089 0 8951203.9635775089 -5786383.9475018978 0 0 0 0 25892052.068744659 -8401217.9334965348 0 -8401217.9334965348 -6735237.7287144661 0 0 0 0 2488648.8283929825 710925.71495103836 0 710925.71495103836 -645069.02095067501 0 0 0 0 156628.40179115813 88799.887813559268 0 88799.887813559268 -112963.27621251275 0 0 0 0 1739426.2465929985 -9280650.7403758764 0 -9280650.7403758764 -1225330.3004201055 0 0 0 0 219416.21118683624 24960.099178543547 0 24960.099178543547 -24894.082533279201 0 0 0 0 11634946.104092121 9595513.6353453398 0 9595513.6353453398 5731831.4385838509 0 0 0 0 4546921.2956132889 -1683996.3002710342 0 -1683996.3002710342 -6691648.4264529943 0 0 0 0 5386643.3025202751 -999690.20590358973 0 -999690.20590358973 -3644647.3692207336 0 0 0 0 8443143.4819974899 2474316.4469716549 0 2474316.4469716549 -6156528.9062375128 0 0 0 0 6446943.4048342705 1742502.2068066001 0 1742502.2068066001 -6310261.625014782 0 0 0 0 3713578.1270971298 146664.06962513924 0 146664.06962513924 -3933649.9835469555 0 0 0 0 2086715.8381261826 938778.41520774364 0 938778.41520774364 -3947032.8268555887 0 0 0 0 -3411565.9563984871 3882907.3199775219 0 3882907.3199775219 -5110960.1496777534 0 0 0 0 5489110.536511898 3182280.8581780791 0 3182280.8581780791 -8377647.1213188171 0 0 0 0 4874488.9833049774 3828579.8722344637 0 3828579.8722344637 -8188259.2141191363 0 0 0 0 3762487.3242874146 3558623.0421533585 0 3558623.0421533585 -4948687.9829553962 0 0 0 0 4352547.9134867191 2801192.5304948092 0 2801192.5304948092 -7569909.8172998428 0 0 0 0 4210893.5002617836 2954686.35288167 0 2954686.35288167 -5208445.5288715363 0 0 0 0 1871474.2744803429 2447361.2885285616 0 2447361.2885285616 -3982080.6536538601 0 0 0 0 3770071.357691288 3072921.5260295495 0 3072921.5260295495 -3775970.3290688992 0 0 0 0 5957194.4434070587 -1044063.625210762 0 -1044063.625210762 1297385.081597805 0 0 0 0 3956268.4753289223 1021595.1864849627 0 1021595.1864849627 -956982.36431789398 0 0 0 0 1116591.0202583671 2736565.6513588876 0 2736565.6513588876 1877641.6989049911 0 0 0 0 2332416.3769035339 2893239.5686602592 0 2893239.5686602592 1900694.6957108974 0 0 0 0 2686379.500875473 2200519.1136910915 0 2200519.1136910915 252836.72928589582 0 0 0 0 2788790.0019044876 2947767.0676685572 0 2947767.0676685572 -32330.035045623779 0 0 0 0 3832.4898853534833 -103607.59858822217 0 -103607.59858822217 -49053.754632525844 0 0 0 0 7682668.7644910812 4847806.6727823019 0 4847806.6727823019 4527772.3178716898 0 0 0 0 8907307.8323135376 7964171.8317391276 0 7964171.8317391276 7237355.3676996231 0 0 0 0 9025859.4145777225 3519473.3633894324 0 3519473.3633894324 -1576819.890294075 0 0 0 0 5098951.6000127792 5235203.3702616692 0 5235203.3702616692 -3511410.1387771368 0 0 0 0 2188585.1664772034 3963889.8810222149 0 3963889.8810222149 -1605616.7480361164 0 0 0 0 4918017.4396362305 5726714.5570390224 0 5726714.5570390224 -11017274.448425651 0 0 0 0 635864.18487219745 416440.22438728227 0 416440.22438728227 -26974.769517702982 0 0 0 0 -918416.45153045654 33571.936110854149 0 33571.936110854149 -748937.36620998383 0 0 0 0 -1175651.156121254 -1862483.9927814007 0 -1862483.9927814007 1087155.223572731 0 0 0 0 14603572.689656258 3829176.6255805492 0 3829176.6255805492 -1229199.5326547623 0 0 0 0 10751722.255490065 7938289.8431687951 0 7938289.8431687951 3419556.5885672569 0 0 0 0 6142352.7410180569 5120253.9322120547 0 5120253.9322120547 -3353084.606682539 0 0 0 0 6751137.3499965668 1503997.8506897688 0 1503997.8506897688 5091583.363825947 0 0 0 0 8463421.7946796417 -2016396.0587290525 0 -2016396.0587290525 -10122219.480609179 0 0 0 0 3010325.0374883944 620565.21859690687 0 620565.21859690687 -366870.81069286191 0 0 0 0 -374487.57032966614 -1230926.6694273949 0 -1230926.6694273949 1375476.9297152758 0 0 0 0 13389080.561302006 14177364.613354996 0 14177364.613354996 2011598.819583416 0 0 0 0 25123.814840677893 -44087.605300004594 0 -44087.605300004594 -38413.934226796613 0 0 0 0 -4370664.773358345 12892951.865525007 0 12892951.865525007 11404911.091614723 0 0 0 0 2120670.3941569328 1050380.5057391077 0 1050380.5057391077 2805555.3034718037 0 0 0 0 3975841.5380973816 -1488306.6360152364 0 -1488306.6360152364 393384.83079278469 0 0 0 0 1863929.0278272629 441850.78146904707 0 441850.78146904707 3709779.3626298308 0 0 0 0 3346998.534318924 1185069.7264584303 0 1185069.7264584303 2894492.6203364134 0 0 0 0 4352167.8035383224 2950902.9141967297 0 2950902.9141967297 1453775.1591111422 0 0 0 0 1384392.6899555146 784362.45191858243 0 784362.45191858243 55445.477285270928 0 0 0 0 3315603.7564749718 4394907.1711163521 0 4394907.1711163521 3805615.9425038397 0 0 0 0 9193898.4562654495 3589729.4232342243 0 3589729.4232342243 -4111728.5751518011 0 0 0 0 -1225947.0509059876 1590238.0162080536 0 1590238.0162080536 59205.231399297714 0 0 0 0 3085184.8241421347 553336.0884480906 0 553336.0884480906 -432609.22781383101 0 0 0 0 3870692.6860275269 359213.13703206182 0 359213.13703206182 2745365.6469948292 0 0 0 0 2210756.9825658798 594660.86783847213 0 594660.86783847213 4102768.2171230465 0 0 0 0 3241035.4256364424 801338.34227665118 0 801338.34227665118 -284778.5434332944 0 0 0 0 877332.29895318486 380026.59994032723 0 380026.59994032723 -15478.81077495747 0 0 0 0 -8137062.3601088524 9366102.7689869255 0 9366102.7689869255 1564585.7615615129 0 0 0 0 2487767.9233818054 7517195.3981944323 0 7517195.3981944323 1293383.5722357035 0 0 0 0 5372037.4392232895 4037514.2968574017 0 4037514.2968574017 -327491.53733325005 0 0 0 0 560190.82063102722 4521980.8724399805 0 4521980.8724399805 -865498.91240155697 0 0 0 0 -3285622.9168539047 7993838.7500034571 0 7993838.7500034571 -157450.87963032722 0 0 0 0 -6258194.4722385406 8009109.17058599 0 8009109.17058599 1545886.8193991184 0 0 0 0 -69600.198554992676 3595016.7861408144 0 3595016.7861408144 139040.33074629307 0 0 0 0 1659525.7947769165 3083054.3793687373 0 3083054.3793687373 -179671.11122956872 0 0 0 0 2469994.3666572571 3367158.9971102364 0 3367158.9971102364 -2037018.5963052809 0 0 0 0 1323434.4584684372 4076469.435744524 0 4076469.435744524 -1383064.3806293011 0 0 0 0 169306.98881721497 3421802.6754000485 0 3421802.6754000485 -1513047.5911040157 0 0 0 0 1740353.0849514008 2773482.1259047836 0 2773482.1259047836 -1035212.6424089074 0 0 0 0 -229002.487449646 3487728.417003721 0 3487728.417003721 -1566982.5114834309 0 0 0 0 871319.43806838989 4535466.7683175504 0 4535466.7683175504 -1067445.3443627357 0 0 0 0 -2105786.5143737793 4423567.7850624621 0 4423567.7850624621 -1300320.8821178973 0 0 0 0 140763.69135165215 3773506.878043199 0 3773506.878043199 -1837111.6079230607 0 0 0 0 -4263139.8471996784 3250735.791168334 0 3250735.791168334 -1001943.3418638408 0 0 0 0 -2524677.6450653076 3255134.4498715699 0 3255134.4498715699 -1350452.1584277749 0 0 0 0 -5616734.0357751846 4152419.9862096142 0 4152419.9862096142 -529032.6817085743 0 0 0 0 -5006941.6889190674 3524691.4686510861 0 3524691.4686510861 -759052.02560836077 0 0 0 0 -3049629.062046051 5694841.7708866894 0 5694841.7708866894 -1040780.2648691088 0 0 0 0 2191400.1020240784 3141260.5901223719 0 3141260.5901223719 4869205.204333961 0 0 0 0 3129513.5435962677 -455996.38312825561 0 -455996.38312825561 4285529.5052286983 0 0 0 0 2038751.3920197487 1404060.9908419438 0 1404060.9908419438 3191667.1345360279 0 0 0 0 992361.44050979614 4084411.5411777496 0 4084411.5411777496 -335392.47521670908 0 0 0 0 2537092.5348339081 3618997.8399740309 0 3618997.8399740309 -1134154.8401375562 0 0 0 0 1601040.1085314751 1807993.1208002791 0 1807993.1208002791 2461173.316616714 0 0 0 0 -4400363.642832756 5140981.5939332694 0 5140981.5939332694 1291591.9261208773 0 0 0 0 -27634.144193721819 -85397.545578709338 0 -85397.545578709338 27299.724541135452 0 0 0 0 11697049.364444733 142350.91722086072 0 142350.91722086072 -972910.17567899823 0 0 0 0 3086185.218521595 771139.18132643402 0 771139.18132643402 4435150.2194565535 0 0 0 0 9266030.6527767181 4216695.4640287161 0 4216695.4640287161 6129425.0249503255 0 0 0 0 10441646.731916189 -3940007.2882893682 0 -3940007.2882893682 2753665.4714305997 0 0 0 0 3040818.3445854187 -263903.79984407127 0 -263903.79984407127 9856182.9025486708 0 0 0 0 1703812.3768882751 -984858.21420839429 0 -984858.21420839429 6712978.3478160501 0 0 0 0 2164496.6261711121 -6541.9591878354549 0 -6541.9591878354549 1278104.0620664358 0 0 0 0 2205390.2161417454 -2217086.541038218 0 -2217086.541038218 4154527.0256252289 0 0 0 0 -1895046.9221687317 256897.48823737353 0 256897.48823737353 3213357.2264905572 0 0 0 0 640545.77930927277 -1922714.7689504512 0 -1922714.7689504512 2632901.208452329 0 0 0 0 3931929.1676626205 -1611144.7188381255 0 -1611144.7188381255 6440113.4936902747 0 0 0 0 3929180.4685554504 -1404582.5210291743 0 -1404582.5210291743 2302990.0877322853 0 0 0 0 9850776.1652555466 4375498.9619330466 0 4375498.9619330466 2389929.4503202736 0 0 0 0 9309738.0716523528 -2255142.336895518 0 -2255142.336895518 2986962.228533864 0 0 0 0 3322284.0162439346 127783.71140038967 0 127783.71140038967 2211916.6551627517 0 0 0 0 3499286.5162467957 -1602343.2615193725 0 -1602343.2615193725 4310079.1412772387 0 0 0 0 3170864.081029892 733556.81710261106 0 733556.81710261106 -161626.28755274415 0 0 0 0 5638209.460105896 3090677.545766741 0 3090677.545766741 1097492.2470145524 0 0 0 0 5686705.0019493103 -522750.36850109696 0 -522750.36850109696 461565.58033049107 0 0 0 0 2731294.2713576052 504667.0948272277 0 504667.0948272277 -423969.68578761071 0 0 0 0 3977639.0429837704 -105522.40699787438 0 -105522.40699787438 -1834743.9753880501 0 0 0 0 4128670.2606573105 -2740297.9131168127 0 -2740297.9131168127 -7226689.8695571423 0 0 0 0 4355337.8678131104 2142620.1243242025 0 2142620.1243242025 -636693.63770222664 0 0 0 0 2879231.2908713832 659177.07029768778 0 659177.07029768778 -332277.08659665525 0 0 0 0 1208970.9357649148 454011.87464395608 0 454011.87464395608 123787.47865780676 0 0 0 0 2477224.2155742645 -753040.34120938182 0 -753040.34120938182 3649636.01666224 0 0 0 0 5140983.233795166 4187179.1024921536 0 4187179.1024921536 1841601.8079491854 0 0 0 0 10554593.738196373 3393224.2078823224 0 3393224.2078823224 1930998.8473929167 0 0 0 0 9054638.8511104584 -1752080.049552083 0 -1752080.049552083 3778862.8024275303 0 0 0 0 1782737.2003278732 578033.80427697301 0 578033.80427697301 1679277.2941617966 0 0 0 0 388311.01141308388 126748.56438158359 0 126748.56438158359 16155.722119160637 0 0 0 0 2648653.1007153988 -1204859.0467910469 0 -1204859.0467910469 -459973.07152962685 0 0 0 0 190017646.49290657 50374054.327059053 0 50374054.327059053 75576148.853761792 0 0 0 0 570830938.84057426 28056868.564699501 0 28056868.564699501 141199261.92841873 0 0 0 0 216999.39058865467 -37266.73571295524 0 -37266.73571295524 37701.163247386954 0 0 0 0 523958461.36936855 137688276.85642967 0 137688276.85642967 -41823376.365015924 0 0 0 0 228549077.38290787 106567540.97038648 0 106567540.97038648 21555632.386125833 0 0 0 0 314922814.16377544 86630061.846799433 0 86630061.846799433 3250597.3238768773 0 0 0 0 264312463.03140926 68965055.201158807 0 68965055.201158807 26984678.305741064 0 0 0 0 284311621.31977654 92763927.435774997 0 92763927.435774997 16416834.009371832 0 0 0 0 422280.7226211892 -33468.997567046434 0 -33468.997567046434 27033.865385605564 0 0 0 0 287075133.0557915 109218626.08716722 0 109218626.08716722 25356394.625737593 0 0 0 0 265713950.96577454 92443103.489101842 0 92443103.489101842 29892869.594577938 0 0 0 0 266691523.27795601 108606513.53165257 0 108606513.53165257 37998833.683464319 0 0 0 0 192822027.7816534 69506478.171094775 0 69506478.171094775 -29362417.758404717 0 0 0 0 195342327.24003589 90898520.669494092 0 90898520.669494092 -1423770.0139011592 0 0 0 0 184430408.06817818 55814119.823484316 0 55814119.823484316 -23175420.327719457 0 0 0 0 197246260.63631725 67947869.240324691 0 67947869.240324691 -48547274.307673484 0 0 0 0 182252651.72518826 64734948.947949789 0 64734948.947949789 3791364.6388386376 0 0 0 0 102226680.08365917 9772256.7325393204 0 9772256.7325393204 3637060.7318594418 0 0 0 0 200721047.78066826 -26768187.938685473 0 -26768187.938685473 -5057178.0371797606 0 0 0 0 29314908.915104866 7466784.0152866822 0 7466784.0152866822 14305608.904408572 0 0 0 0 75448165.635871887 -22453219.539072234 0 -22453219.539072234 18370080.206660606 0 0 0 0 36828610.756790161 3517582.4179985374 0 3517582.4179985374 26816467.726440001 0 0 0 0 -8557076.3288383484 16441438.278316781 0 16441438.278316781 19458186.774632394 0 0 0 0 27663790.016958237 -5880890.1591225564 0 -5880890.1591225564 19811639.693587795 0 0 0 0 -18084345.059914589 -21218247.871653914 0 -21218247.871653914 25379243.951386284 0 0 0 0 56860151.234965324 -112414421.92634556 0 -112414421.92634556 -4423859.3495945036 0 0 0 0 122388888.46315956 -13168935.371559426 0 -13168935.371559426 6297894.5253187642 0 0 0 0 275828788.40367985 -121079267.87177841 0 -121079267.87177841 -20322994.358941019 0 0 0 0 88751720.696559906 -54926966.518820539 0 -54926966.518820539 25549906.748707473 0 0 0 0 487045325.16691589 209281156.06268877 0 209281156.06268877 140493914.66018838 0 0 0 0 398928.86037304532 -128373.08765791426 0 -128373.08765791426 40308.767873106583 0 0 0 0 207811880.24236393 183272816.61825126 0 183272816.61825126 149023165.53306201 0 0 0 0 -376461.53836345673 -13209941.243707106 0 -13209941.243707106 -42992296.127897322 0 0 0 0 -6008113.7319960594 26732429.67863002 0 26732429.67863002 -9174439.0390326381 0 0 0 0 5522754.9605493546 9216891.833267048 0 9216891.833267048 -10097474.286894083 0 0 0 0 8431369.1891326904 21401421.994668856 0 21401421.994668856 -35262883.429724753 0 0 0 0 102818899.99116111 79996256.691505939 0 79996256.691505939 77837384.147025019 0 0 0 0 958336.39855223149 -341586.53322829166 0 -341586.53322829166 74974.559953705786 0 0 0 0 95262943.638291359 89671261.796819568 0 89671261.796819568 77155561.268836856 0 0 0 0 190209365.86539268 122437703.02968799 0 122437703.02968799 60111236.173854351 0 0 0 0 207140304.29545975 49543517.305832796 0 49543517.305832796 25570351.38353686 0 0 0 0 94988727.375638962 100334151.14633422 0 100334151.14633422 104119207.94346096 0 0 0 0 373479142.46226311 74348720.810794428 0 74348720.810794428 28729936.109427787 0 0 0 0 260837496.82591915 5025428.7429404659 0 5025428.7429404659 101749069.66237444 0 0 0 0 315092500.68638134 51958997.953828081 0 51958997.953828081 32319968.641991757 0 0 0 0 262352672.93081331 11486344.155734014 0 11486344.155734014 31120488.80098553 0 0 0 0 217737925.68834782 -22632805.217274964 0 -22632805.217274964 23924092.597812932 0 0 0 0 314244957.053792 -33110814.30386709 0 -33110814.30386709 -32379848.261650119 0 0 0 0 227541074.61575586 49737973.745862745 0 49737973.745862745 14760173.41213135 0 0 0 0 38893153.879066944 58502472.403455794 0 58502472.403455794 23018412.615340076 0 0 0 0 336026.14452970494 46198.183653057087 0 46198.183653057087 -89439.221042152174 0 0 0 0 133169415.2578764 -102598055.09953685 0 -102598055.09953685 -56195386.666933447 0 0 0 0 93237805.755000114 13045322.62840382 0 13045322.62840382 28442.359546819585 0 0 0 0 314293233.70245636 113828323.78611128 0 113828323.78611128 -27281356.182378247 0 0 0 0 255480685.43692362 33668760.112451792 0 33668760.112451792 5477779.6998644173 0 0 0 0 182997.4533665604 70125.997240632307 0 70125.997240632307 -10229.811392333508 0 0 0 0 263580201.60656738 -3669701.1514887041 0 -3669701.1514887041 -132012080.2845678 0 0 0 0 271099.02910249308 -3356.9959701951593 0 -3356.9959701951593 -36903.650095197183 0 0 0 0 238235608.83045959 159958779.89762238 0 159958779.89762238 5285708.0071557239 0 0 0 0 32930154.401403427 -2093428.8942083716 0 -2093428.8942083716 -17356354.904019818 0 0 0 0 288167946.08101511 -29414932.294266425 0 -29414932.294266425 -69699560.349935725 0 0 0 0 157722637.51892138 30397123.566763408 0 30397123.566763408 -13322297.284247324 0 0 0 0 195212466.83420849 84675664.179399803 0 84675664.179399803 -17990853.107492276 0 0 0 0 51854717.285364151 44587676.726416409 0 44587676.726416409 11344239.318622515 0 0 0 0 126221154.17432022 108143041.27538106 0 108143041.27538106 -8394568.153671734 0 0 0 0 158205090.19770241 92296107.728368059 0 92296107.728368059 -16191411.406630475 0 0 0 0 146436172.67814636 37735185.059946693 0 37735185.059946693 17557654.582741607 0 0 0 0 137606209.05953217 79987923.300020367 0 79987923.300020367 28690918.116614085 0 0 0 0 125696682.89163208 80897430.794450328 0 80897430.794450328 28669800.418917947 0 0 0 0 55143534.104024887 54323651.099949494 0 54323651.099949494 49553072.743137814 0 0 0 0 121779297.83349299 63759733.21816171 0 63759733.21816171 12799309.553338222 0 0 0 0 1289221.8777958299 -473293.2764325256 0 -473293.2764325256 85400.632342220022 0 0 0 0 57856523.176132202 50186545.912569657 0 50186545.912569657 17093913.811831385 0 0 0 0 53379291.782741547 65396909.236424766 0 65396909.236424766 18650596.627052136 0 0 0 0 -258512.74688506126 -5863493.7237835228 0 -5863493.7237835228 -6501902.4055756629 0 0 0 0 5790590.019443512 1462999.1231173575 0 1462999.1231173575 -3585585.2671881579 0 0 0 0 40086260.437734127 -11233556.025171733 0 -11233556.025171733 15228340.08409521 0 0 0 0 1669272.7993056383 -522507.85544039262 0 -522507.85544039262 -33353.842038849718 0 0 0 0 4433278.7702283859 -1505591.4223462641 0 -1505591.4223462641 -3503307.4095373014 0 0 0 0 15031269.857652664 30671988.015575051 0 30671988.015575051 100627974.0941546 0 0 0 0 130856436.8292141 40800329.721294999 0 40800329.721294999 6309639.6404398903 0 0 0 0 62087335.383565068 34298344.881129257 0 34298344.881129257 3152883.5171577781 0 0 0 0 132172253.52561951 -4333481.908626277 0 -4333481.908626277 -13573982.808511347 0 0 0 0 10324702.082090378 75248929.46416904 0 75248929.46416904 15500494.708456837 0 0 0 0 80640.48892989615 52069.921540805139 0 52069.921540805139 51534.369942213809 0 0 0 0 64860824.678501129 71296478.125533953 0 71296478.125533953 6612460.6286307946 0 0 0 0 49132629.228076935 -2714330.9969740044 0 -2714330.9969740044 -4009800.5841792137 0 0 0 0 108928395.48168945 -7894305.084667623 0 -7894305.084667623 -6157976.9705230668 0 0 0 0 64106511.985425949 10024015.521685746 0 10024015.521685746 5550917.7675257027 0 0 0 0 64460566.496079445 20641472.812371928 0 20641472.812371928 -2016051.5053447634 0 0 0 0 71143353.251111507 7176553.7117835507 0 7176553.7117835507 -7196393.053720966 0 0 0 0 56624811.636427879 13303127.027743096 0 13303127.027743096 -4731.9270165881881 0 0 0 0 40652321.834648132 2770862.1412078813 0 2770862.1412078813 -5371527.5173136964 0 0 0 0 14078872.548512459 7061737.0253837928 0 7061737.0253837928 4065631.830801338 0 0 0 0 38108855.427415848 10072763.102498822 0 10072763.102498822 -12312.176403338945 0 0 0 0 8044220.3279428482 -1010138.0743998287 0 -1010138.0743998287 -15350.906220887664 0 0 0 0 3292489.811457634 -3623288.2695309422 0 -3623288.2695309422 5172445.3298447682 0 0 0 0 720052.3021707267 58279.978131212294 0 58279.978131212294 13341.881689518963 0 0 0 0 53197303.779161453 16664006.639179615 0 16664006.639179615 -3172043.161597617 0 0 0 0 1972832.6822338104 -1192949.8743109182 0 -1192949.8743109182 2490913.8229510672 0 0 0 0 893080.02361698449 56917.348012084607 0 56917.348012084607 24116.349125853187 0 0 0 0 17849932.931274414 19387075.948105462 0 19387075.948105462 6013487.8713907935 0 0 0 0 1822388.7487621307 382051.45980944764 0 382051.45980944764 -451027.48308673408 0 0 0 0 505606.37650537863 158696.64535210468 0 158696.64535210468 -141663.85688308813 0 0 0 0 1016821.7791633606 1079614.9043171024 0 1079614.9043171024 540451.10166422883 0 0 0 0 14101025.457008362 12854567.491839183 0 12854567.491839183 5639773.4253607914 0 0 0 0 141764.61004155781 45897.861920623342 0 45897.861920623342 -26504.092658239206 0 0 0 0 9841072.3575592041 2083656.0385800675 0 2083656.0385800675 -1057758.8093817309 0 0 0 0 6851970.4420089722 2848085.6439577602 0 2848085.6439577602 1832013.3622974753 0 0 0 0 8026016.2643356323 710320.38097061217 0 710320.38097061217 -2096872.8092436641 0 0 0 0 5696109.4689216614 1731206.5808300674 0 1731206.5808300674 804470.09034121037 0 0 0 0 5923001.1689515114 2741094.3233180717 0 2741094.3233180717 771268.05403922498 0 0 0 0 5308142.689491272 1274477.7936457098 0 1274477.7936457098 -746917.06903755665 0 0 0 0 5408807.9834288955 -156180.96883488214 0 -156180.96883488214 -1434708.0123046935 0 0 0 0 5183403.2161483765 -334634.26508259773 0 -334634.26508259773 -1520586.3876439631 0 0 0 0 3372088.5156097412 -830368.95127496123 0 -830368.95127496123 -2166627.7643671036 0 0 0 0 3632861.2473869324 1191628.7082137764 0 1191628.7082137764 -301642.02948749065 0 0 0 0 662535.34609741974 640336.75758007169 0 640336.75758007169 -226868.79353742997 0 0 0 0 3803766.9813785553 1507699.0831805915 0 1507699.0831805915 262914.17473617941 0 0 0 0 3635133.9641551971 1300668.9343750179 0 1300668.9343750179 -500359.0068039 0 0 0 0 3341394.8613891602 -74535.21425563097 0 -74535.21425563097 -785173.54203507304 0 0 0 0 4801584.32604599 2116227.7569307685 0 2116227.7569307685 1690.500693410635 0 0 0 0 5254012.001742363 712745.505687356 0 712745.505687356 -928960.93438479304 0 0 0 0 2998069.0097923279 80415.575629800558 0 80415.575629800558 -1342078.6046805084 0 0 0 0 4992803.692029953 -230254.87147760391 0 -230254.87147760391 -4204162.4009814262 0 0 0 0 1866039.0185070038 1970953.6987472475 0 1970953.6987472475 4431734.3153551817 0 0 0 0 259443.21632840554 10946.154821390752 0 10946.154821390752 -11732.751806685381 0 0 0 0 6267962.8641529083 3351754.8054143041 0 3351754.8054143041 -3796020.9408990741 0 0 0 0 3842519.0630626678 1414476.4883621335 0 1414476.4883621335 -1264481.9123383462 0 0 0 0 4894460.7136325836 3220511.2772490531 0 3220511.2772490531 1642510.0635597706 0 0 0 0 262095.63071279135 -70738.986742563546 0 -70738.986742563546 -159886.45477287244 0 0 0 0 3572915.9138965607 -2281576.7127696276 0 -2281576.7127696276 -1433830.3536622524 0 0 0 0 2445558.2691116333 1642110.6272999644 0 1642110.6272999644 1741951.5005175211 0 0 0 0 1763251.7724409103 -990257.9799162969 0 -990257.9799162969 -333877.53796815872 0 0 0 0 1138612.0456249202 332474.05995677249 0 332474.05995677249 -207896.49469468067 0 0 0 0 3205754.1080617905 -113159.20972488075 0 -113159.20972488075 -373499.16231417656 0 0 0 0 2177657.8461408615 867758.90963834524 0 867758.90963834524 -1806297.456525445 0 0 0 0 731168.04942104802 384200.20766481198 0 384200.20766481198 -54931.853752308496 0 0 0 0 770519.56907463074 134139.9723444283 0 134139.9723444283 -207441.67614451051 0 0 0 0 712521.85309028625 114855.30002328753 0 114855.30002328753 -181752.39656747878 0 0 0 0 569380.01333904266 291675.67456205189 0 291675.67456205189 -230214.62839943171 0 0 0 0 585310.70449046046 143355.53457479645 0 143355.53457479645 -82201.030723558084 0 0 0 0 757535.22415065765 153930.5686739888 0 153930.5686739888 -150274.2341029644 0 0 0 0 747084.89425563812 87028.420293480158 0 87028.420293480158 69056.076311469078 0 0 0 0 1604382.1082324982 1653409.4191421568 0 1653409.4191421568 -164507.47790035605 0 0 0 0 1101725.0303421021 31055.151951536536 0 31055.151951536536 35137.968266010284 0 0 0 0 -479410.97040939331 1965521.1100828797 0 1965521.1100828797 589970.22257199883 0 0 0 0 520597.43035564746 378708.30572137004 0 378708.30572137004 -8193.0643068635836 0 0 0 0 901204.65169620514 130245.76888217032 0 130245.76888217032 16839.104137420654 0 0 0 0 -2484.7698024958372 -5569.9684674105374 0 -5569.9684674105374 1885.9920591743175 0 0 0 0 1392272.8544692993 295285.10518035293 0 295285.10518035293 -256183.91180849075 0 0 0 0 -816683.0405330658 5371299.7521693483 0 5371299.7521693483 1845263.9682094455 0 0 0 0 2819947.8404502869 -141336.84466418624 0 -141336.84466418624 -1381357.2970624268 0 0 0 0 1194720.0470914841 3622719.3443578519 0 3622719.3443578519 -5421654.1920289993 0 0 0 0 158995.52545897925 41582.239667907357 0 41582.239667907357 -1118.6989078321203 0 0 0 0 586807.80616837949 683787.46416855045 0 683787.46416855045 -127213.922041513 0 0 0 0 3314747.0020444393 18905.775212394074 0 18905.775212394074 -422094.52713251114 0 0 0 0 3770594.6635304689 2641404.4122023042 0 2641404.4122023042 -156779.29584598541 0 0 0 0 1603293.9607038498 512810.88173660636 0 512810.88173660636 449636.98669570684 0 0 0 0 1839053.4125447543 65977.732050374732 0 65977.732050374732 -532975.07213367056 0 0 0 0 3169034.9785385132 6695.4601793885231 0 6695.4601793885231 -95803.945751875639 0 0 0 0 12072313.572670937 911254.39805242419 0 911254.39805242419 -8572330.1052656174 0 0 0 0 1895802.6717681885 5221485.1511552632 0 5221485.1511552632 5355253.3833489418 0 0 0 0 450709.53603428602 2669031.0346506033 0 2669031.0346506033 -4359891.7073575258 0 0 0 0 131676.68723988719 330037.80210683838 0 330037.80210683838 -48520.999554322334 0 0 0 0 -1889312.8244132996 2337139.1472638845 0 2337139.1472638845 -3737001.7180229276 0 0 0 0 9755822.5712423325 9920373.8467219025 0 9920373.8467219025 -14737953.943066299 0 0 0 0 5726318.9926166534 19766194.313604765 0 19766194.313604765 -3233916.9225112051 0 0 0 0 11060438.719135761 5896403.8886760175 0 5896403.8886760175 -4964250.5114083886 0 0 0 0 8716052.5676422119 3392778.4116362631 0 3392778.4116362631 -5760044.754611522 0 0 0 0 3494942.3727550507 1237684.8130775392 0 1237684.8130775392 -3896582.499990657 0 0 0 0 6100099.6041574478 4324998.0140674859 0 4324998.0140674859 -2257581.8677578866 0 0 0 0 -1040302.3043994904 8670553.5896074027 0 8670553.5896074027 2188995.5172442943 0 0 0 0 -470536.12098443508 12862401.503471283 0 12862401.503471283 7816367.4170181751 0 0 0 0 3924145.8937244415 10381578.433806684 0 10381578.433806684 5419747.661310941 0 0 0 0 6355700.7928667068 510906.9969139602 0 510906.9969139602 -1143940.1513151284 0 0 0 0 7702519.0169830322 -6872285.2153572273 0 -6872285.2153572273 19489750.343135171 0 0 0 0 5115035.5567030907 15401653.395981405 0 15401653.395981405 22890302.574619032 0 0 0 0 -13733551.164802551 6588925.522791923 0 6588925.522791923 9395313.1338467859 0 0 0 0 -6719323.7807321548 13164982.780274559 0 13164982.780274559 10506504.700115521 0 0 0 0 -26711.957852508174 14594.718983710278 0 14594.718983710278 18397.23287775604 0 0 0 0 -73283.879301071167 324894.34059101343 0 324894.34059101343 -418170.9589795135 0 0 0 0 869596.336779356 -689177.31148075871 0 -689177.31148075871 663280.99489825964 0 0 0 0 557647.96728900424 36204.868081458844 0 36204.868081458844 -94073.526871598981 0 0 0 0 368335.44375588279 241150.05936356308 0 241150.05936356308 41992.053842059089 0 0 0 0 990866.58166599274 87273.238934956491 0 87273.238934956491 -59410.412463434041 0 0 0 0 -1955491.276699543 -558736.84646691009 0 -558736.84646691009 1969954.5077405572 0 0 0 0 1369532.4729261398 200213.66313381307 0 200213.66313381307 -68096.694693796337 0 0 0 0 1155638.6055278778 -217759.52502009273 0 -217759.52502009273 -30499.048876613379 0 0 0 0 846031.85532003315 -34863.560758966021 0 -34863.560758966021 -38974.519076205004 0 0 0 0 -1358284.1073417664 477738.28367356956 0 477738.28367356956 6296618.9097892344 0 0 0 0 -1348731.2721395493 1113199.8488259092 0 1113199.8488259092 -162624.25173079967 0 0 0 0 1932420.5079078674 -1456800.4547227137 0 -1456800.4547227137 -1962393.205245845 0 0 0 0 1581653.2814102173 -1450707.5988530293 0 -1450707.5988530293 -1552366.4283019602 0 0 0 0 1855595.882396698 -369592.63316829503 0 -369592.63316829503 -1624758.0147984317 0 0 0 0 1658920.2128753662 -30432.871302008629 0 -30432.871302008629 -430900.47978539765 0 0 0 0 338393.74914562982 54508.846625440288 0 54508.846625440288 -32453.733245387659 0 0 0 0 1257921.6836442947 -307160.49173638225 0 -307160.49173638225 -386889.90109452605 0 0 0 0 1122796.351023674 102287.35646961629 0 102287.35646961629 -102779.18101891875 0 0 0 0 1873023.8921852112 -887244.27435237914 0 -887244.27435237914 -550386.29294297099 0 0 0 0 1477120.8600912094 -496351.80925891176 0 -496351.80925891176 -914190.90221108869 0 0 0 0 -121034.59526824951 -947345.07814138383 0 -947345.07814138383 -525624.49786721915 0 0 0 0 -1963413.977432251 -1754843.635821864 0 -1754843.635821864 774137.10130415857 0 0 0 0 105136.53390159633 32044.94894635817 0 32044.94894635817 -13801.538184781193 0 0 0 0 1135888.221159935 372478.38299804181 0 372478.38299804181 -195080.1929173395 0 0 0 0 1468794.6066570282 -1081761.2346550077 0 -1081761.2346550077 -62818.364537339658 0 0 0 0 916622.59262561798 -1919530.6030439809 0 -1919530.6030439809 4446722.7012558356 0 0 0 0 1010217.2524824142 -2618706.6498563504 0 -2618706.6498563504 545610.30845295638 0 0 0 0 2584867.5260467529 -2532776.1549991407 0 -2532776.1549991407 -1217680.8726039883 0 0 0 0 2381964.193934679 -1518648.2293372839 0 -1518648.2293372839 -3013364.7373614945 0 0 0 0 4182914.4038257599 -5000585.8399362843 0 -5000585.8399362843 444443.35165924951 0 0 0 0 7870481.9987945557 -865114.4318097739 0 -865114.4318097739 -7189962.7587939752 0 0 0 0 98059.620370628312 -19431.776356521877 0 -19431.776356521877 -16215.750585999956 0 0 0 0 35400930.299728394 -25749679.884597138 0 -25749679.884597138 7751032.9022457823 0 0 0 0 -18880098.2669487 2377229.1731746658 0 2377229.1731746658 21193376.531432044 0 0 0 0 44968018.310322344 41529646.249523714 0 41529646.249523714 -23635727.322837409 0 0 0 0 41853375.642299652 -19401960.287733551 0 -19401960.287733551 -11674258.782138877 0 0 0 0 -4537753.3565158844 -8298699.8709413595 0 -8298699.8709413595 -8517247.8552931212 0 0 0 0 10855953.247636795 1514622.1031470969 0 1514622.1031470969 -2627979.4703191034 0 0 0 0 -3596241.4770441055 2298820.0572951846 0 2298820.0572951846 7465068.5029711779 0 0 0 0 1574963.4201927185 4110694.0029322356 0 4110694.0029322356 -6566291.7469023345 0 0 0 0 710000.51895332336 -885763.03090126067 0 -885763.03090126067 -1721939.1327102184 0 0 0 0 -2766865.03419137 2508006.1033581505 0 2508006.1033581505 1097043.0232453328 0 0 0 0 117644.98453796469 -81773.035122606903 0 -81773.035122606903 -67651.084703744258 0 0 0 0 -3247566.6917114258 -292754.93244659528 0 -292754.93244659528 599140.73289496964 0 0 0 0 -1744874.8337864876 -4390858.596974561 0 -4390858.596974561 -2736516.5497836731 0 0 0 0 1393402.3534696093 -45202.413343388704 0 -45202.413343388704 -80435.639746395318 0 0 0 0 -3018262.1997280121 -4392379.2297928184 0 -4392379.2297928184 5551717.6327944137 0 0 0 0 10728345.351419926 -1328506.9686766881 0 -1328506.9686766881 -9491933.7747694775 0 0 0 0 1473405.1780489665 -62021.269261003588 0 -62021.269261003588 -69861.295596745142 0 0 0 0 -483533.07605457306 3906253.071297463 0 3906253.071297463 -7876091.3067101538 0 0 0 0 2419637.9091873169 1933917.0285371346 0 1933917.0285371346 -1517743.0548582771 0 0 0 0 620744.23975944519 51237.763876186218 0 51237.763876186218 799987.83349982463 0 0 0 0 753529.87340641022 1870667.2058363082 0 1870667.2058363082 1626016.535549419 0 0 0 0 398517.11902618408 657487.64572763909 0 657487.64572763909 -267052.99216710404 0 0 0 0 865183.79514744668 157223.28878399357 0 157223.28878399357 -12687.510870606275 0 0 0 0 83359.756185624748 218158.14240111178 0 218158.14240111178 -60551.847064010428 0 0 0 0 -458362.37913274765 -1176866.1616269005 0 -1176866.1616269005 -1132278.923575731 0 0 0 0 1965679.702703476 421054.90770535171 0 421054.90770535171 -2273393.0605080351 0 0 0 0 144389.02323573537 1254.062563946005 0 1254.062563946005 -482.06321700409171 0 0 0 0 487488.16974192578 -276206.12164104288 0 -276206.12164104288 -304414.93475449464 0 0 0 0 234761.55806064606 42617.393765412271 0 42617.393765412271 -103140.88081947342 0 0 0 0 620532.50621734932 -38257.460036727134 0 -38257.460036727134 -58337.460016326142 0 0 0 0 494895.6191701889 54601.984466686845 0 54601.984466686845 -86343.306917268783 0 0 0 0 535930.71482731402 97551.538628752809 0 97551.538628752809 -165966.03555006959 0 0 0 0 1334177.9761962891 44704.2237637043 0 44704.2237637043 240385.47932189703 0 0 0 0 592716.93125684373 59857.312641765282 0 59857.312641765282 -60983.380141804235 0 0 0 0 277944.20040553901 -32794.482402023626 0 -32794.482402023626 6263.7829734381303 0 0 0 0 422283.18673324585 7759.9521825313568 0 7759.9521825313568 -63951.763631105423 0 0 0 0 233116.91213989258 23664.313194453716 0 23664.313194453716 -25585.070485949516 0 0 0 0 523169.8899518149 -38904.670351542532 0 -38904.670351542532 -98485.406101253553 0 0 0 0 219803.36335754395 83948.308683753014 0 83948.308683753014 -214654.08248114586 0 0 0 0 1099806.9144703611 -46395.572722064331 0 -46395.572722064331 -53309.48505796917 0 0 0 0 383414.97832107544 -15093.849592477083 0 -15093.849592477083 -16727.839727163315 0 0 0 0 291966.23140699789 121323.45587520907 0 121323.45587520907 -136068.819424102 0 0 0 0 368906.82395935059 51646.277943253517 0 51646.277943253517 -94181.179184854031 0 0 0 0 858074.28688793257 140590.76564027282 0 140590.76564027282 -287395.37477305456 0 0 0 0 250056.4868850708 84700.355409026146 0 84700.355409026146 -218459.50166144967 0 0 0 0 1099590.3210444781 -64037.887538695242 0 -64037.887538695242 -69197.377240786125 0 0 0 0 200395.99942779541 93082.733879029751 0 93082.733879029751 -9880.7441491484642 0 0 0 0 4181273.6777133942 688603.02734644711 0 688603.02734644711 290886.36501720548 0 0 0 0 211754.752150635 36309.890606809873 0 36309.890606809873 -9786.5812831132207 0 0 0 0 3014250.8611421585 176250.47927662171 0 176250.47927662171 -131926.59110948443 0 0 0 0 394851.03869926231 46679.901107131038 0 46679.901107131038 -20101.423975967231 0 0 0 0 394293.75690078735 14975.699080314487 0 14975.699080314487 -86294.124152311124 0 0 0 0 698090.28781012911 -226728.64670696715 0 -226728.64670696715 -166972.3424539039 0 0 0 0 514830.14831161499 209221.4394711256 0 209221.4394711256 135785.4759131819 0 0 0 0 1257153.2885503769 -113055.81166685955 0 -113055.81166685955 -36369.694628436118 0 0 0 0 822264.43280220032 -28255.605407486437 0 -28255.605407486437 137314.25564805698 0 0 0 0 923680.04742527008 233610.80489343405 0 233610.80489343405 -146003.59740689397 0 0 0 0 795643.4361333847 157521.69005157799 0 157521.69005157799 -126977.92408667505 0 0 0 0 973715.76307296753 133491.38228777051 0 133491.38228777051 -380584.73027703166 0 0 0 0 514416.6859521867 -200172.98314839602 0 -200172.98314839602 -150461.0138574731 0 0 0 0 1014731.1564311981 -128626.4142197296 0 -128626.4142197296 -365098.29084521532 0 0 0 0 1721677.2944583893 -1556845.3165417109 0 -1556845.3165417109 -527866.74846681207 0 0 0 0 5114547.9772853851 63803.398295022547 0 63803.398295022547 -622784.1172856912 0 0 0 0 76105.789809257723 -31707.569887676742 0 -31707.569887676742 -33717.971943175275 0 0 0 0 6990915.9608821869 -4069830.9134508353 0 -4069830.9134508353 -5129755.0283948779 0 0 0 0 697448.68585205078 79304.334352940321 0 79304.334352940321 -342169.42579945922 0 0 0 0 17360977.621736526 5450920.1031903597 0 5450920.1031903597 -6007921.2910077218 0 0 0 0 839698.5623292923 -132027.40587563813 0 -132027.40587563813 -179162.96664822102 0 0 0 0 596374.20575332642 183846.38968151808 0 183846.38968151808 -385039.2181648612 0 0 0 0 601552.61164283752 227131.00469486415 0 227131.00469486415 -241536.02188569307 0 0 0 0 329998.69633388519 270182.13524416089 0 270182.13524416089 -244703.41783410311 0 0 0 0 1457458.4485111237 2469307.9292051871 0 2469307.9292051871 -1348352.3085228307 0 0 0 0 496734.84137845039 -45295.078558057547 0 -45295.078558057547 -406380.46017795801 0 0 0 0 254200.8575942833 41355.318936815194 0 41355.318936815194 -189221.39795853765 0 0 0 0 -229083.40376663208 142562.34637537829 0 142562.34637537829 304.5935409116143 0 0 0 0 706499.59356832504 -1596910.2155507649 0 -1596910.2155507649 21350933.280601352 0 0 0 0 432658.93580537359 -179062.33125486365 0 -179062.33125486365 -194641.04352365545 0 0 0 0 13375319.7096138 4017095.5092032147 0 4017095.5092032147 -10926634.656532573 0 0 0 0 473451.31347090215 100133.74599040439 0 100133.74599040439 -32292.456332796181 0 0 0 0 19837144.743335724 -10926763.210379027 0 -10926763.210379027 -1341593.7861555531 0 0 0 0 -2584.8970411024056 55175.983003464993 0 55175.983003464993 246010.8625457962 0 0 0 0 -118549.49091911316 454520.80540684611 0 454520.80540684611 -88386.378192186356 0 0 0 0 2474320.8246703148 -319697.23691647657 0 -319697.23691647657 503241.95919797389 0 0 0 0 2438186.7840833664 -416411.77367255685 0 -416411.77367255685 379381.29888899904 0 0 0 0 -6184457.9697325742 762076.22415356943 0 762076.22415356943 1217053.078461834 0 0 0 0 181858.42888287827 98292.906288583996 0 98292.906288583996 -180445.67469718936 0 0 0 0 225688.45675468445 181453.19465494156 0 181453.19465494156 -278296.35026603565 0 0 0 0 -381988.61519885063 -2548826.0390919149 0 -2548826.0390919149 192959.69687316925 0 0 0 0 269413.80285263062 450095.42881990969 0 450095.42881990969 -232580.819314152 0 0 0 0 283976.08598327637 509731.96689997613 0 509731.96689997613 -81071.491555508226 0 0 0 0 -722242.58057570457 168630.32294970565 0 168630.32294970565 1381162.5596246719 0 0 0 0 -964911.6928217411 971991.09832186811 0 971991.09832186811 142991.77262946963 0 0 0 0 844818.40420269966 571257.990274176 0 571257.990274176 -295071.26721909642 0 0 0 0 1931097.8051643372 389319.16350740986 0 389319.16350740986 -377125.26051639067 0 0 0 0 1531056.1840982437 1608891.3070551874 0 1608891.3070551874 224145.76005667215 0 0 0 0 -1280527.0545310974 2964060.979006039 0 2964060.979006039 386315.73091557994 0 0 0 0 -2595078.9972720146 546099.667419523 0 546099.667419523 1311019.1720246822 0 0 0 0 -4944.5506723788567 7286.4961797604337 0 7286.4961797604337 56217.446182264073 0 0 0 0 42359.804360389709 -2762791.4760630131 0 -2762791.4760630131 4848117.4334054478 0 0 0 0 -13465436.120157242 10777415.753662704 0 10777415.753662704 4202513.530281269 0 0 0 0 5470194.0482349396 8330573.4858372649 0 8330573.4858372649 3246423.667691648 0 0 0 0 16062282.15857029 -21934.618612188715 0 -21934.618612188715 626667.05463656434 0 0 0 0 4881080.4757585526 80449.428949908208 0 80449.428949908208 676079.95778407471 0 0 0 0 -1016.6801981730387 33163.046670992859 0 33163.046670992859 150116.22803720046 0 0 0 0 3492798.4450302124 -900996.55121870548 0 -900996.55121870548 417594.23535304039 0 0 0 0 5888893.5451364517 -1207996.8147808593 0 -1207996.8147808593 376029.54272279493 0 0 0 0 4523212.7291326523 -292195.96747933363 0 -292195.96747933363 332843.51011972025 0 0 0 0 4268559.986166954 -207943.60109212279 0 -207943.60109212279 -73.796384458429117 0 0 0 0 4445331.128361702 -2411.8585025875218 0 -2411.8585025875218 238768.95606884689 0 0 0 0 4552359.4759054184 -534492.11146140809 0 -534492.11146140809 -164271.81142811597 0 0 0 0 3563819.3123207092 -174534.04302345714 0 -174534.04302345714 -161.91700292088382 0 0 0 0 1431997.8781454936 437129.58907482174 0 437129.58907482174 252010.41055076866 0 0 0 0 3092217.5540866852 -191401.35046226368 0 -191401.35046226368 -874.62781556508003 0 0 0 0 3844503.5896062851 287139.79238757014 0 287139.79238757014 -28056.613914578978 0 0 0 0 3566351.0396175385 -339494.79017224314 0 -339494.79017224314 369054.33252935926 0 0 0 0 4299089.7060475349 317350.51381620183 0 317350.51381620183 894874.76597398682 0 0 0 0 3553356.8430194855 246776.82140378607 0 246776.82140378607 -101854.76583679125 0 0 0 0 3676548.0255203247 -154976.49731199164 0 -154976.49731199164 -415625.66152886162 0 0 0 0 4082638.8013496399 -2045693.2065034527 0 -2045693.2065034527 3634743.5146659082 0 0 0 0 -5514433.8980302811 -2537220.4797071745 0 -2537220.4797071745 5706421.8399112364 0 0 0 0 -10790557.70492363 -4011044.0246135965 0 -4011044.0246135965 6352685.5204816498 0 0 0 0 22478.738733156584 -27497.272400280694 0 -27497.272400280694 12752.345687334593 0 0 0 0 16090402.815470695 -5671140.2019598624 0 -5671140.2019598624 -21368774.044769309 0 0 0 0 -9921808.6932830811 -719663.6344942376 0 -719663.6344942376 10466636.0906712 0 0 0 0 949439.3321262598 24692.763288452756 0 24692.763288452756 -641573.25561784208 0 0 0 0 502631.5781917572 136948.60145743936 0 136948.60145743936 -401989.4026290942 0 0 0 0 568088.64464950562 -110045.66249768622 0 -110045.66249768622 529820.19170803623 0 0 0 0 1112920.3090486526 1555733.603253521 0 1555733.603253521 93531.238063313067 0 0 0 0 1436944.06588702 -103866.1798337939 0 -103866.1798337939 -44858.846922635537 0 0 0 0 1268530.2415676117 617847.26460262388 0 617847.26460262388 -2385770.8400998563 0 0 0 0 27591472.084083557 -9227308.5460948721 0 -9227308.5460948721 -22194975.822440684 0 0 0 0 3093908.3436317444 -1828127.3004414402 0 -1828127.3004414402 -4435975.7083026227 0 0 0 0 1497539.0631411402 -84989.284687738633 0 -84989.284687738633 -59403.176729146391 0 0 0 0 -9753633.6819038391 3329123.3923982233 0 3329123.3923982233 5975731.0068891458 0 0 0 0 -1152964.1300163269 716709.91849764134 0 716709.91849764134 3723335.2471642662 0 0 0 0 162554.87510734517 2768.2927944574039 0 2768.2927944574039 -96045.296765229985 0 0 0 0 1254286.1208114624 2766497.9896205668 0 2766497.9896205668 -854525.04066793201 0 0 0 0 1118000.042324543 376543.23779244907 0 376543.23779244907 -413105.3845333308 0 0 0 0 1505272.3155059814 400960.58523749933 0 400960.58523749933 -1731528.6824571639 0 0 0 0 708137.56181579921 39762.862110019894 0 39762.862110019894 -14583.767789113852 0 0 0 0 7960424.0323297977 -2313572.6477247728 0 -2313572.6477247728 400514.38597072009 0 0 0 0 646842.17813026393 -259392.42939627892 0 -259392.42939627892 -14365.540067466747 0 0 0 0 70681.149086765014 -112065.26940541563 0 -112065.26940541563 -1095.1619475566222 0 0 0 0 -9527225.8373851776 3622492.905846877 0 3622492.905846877 -1589296.2488301592 0 0 0 0 4005397.9863948822 4343097.2090817094 0 4343097.2090817094 -3396183.1800772259 0 0 0 0 765608.14366149902 -1884686.6684235781 0 -1884686.6684235781 -3023144.4244103432 0 0 0 0 803843.9394903183 154075.26889620349 0 154075.26889620349 -929995.46486974263 0 0 0 0 1300238.5898981094 699416.64603355527 0 699416.64603355527 -932148.75473782385 0 0 0 0 1168655.0791454315 1181015.1730787456 0 1181015.1730787456 -324789.12161591789 0 0 0 0 239545.25229549408 1036253.0802164674 0 1036253.0802164674 1120865.4918910265 0 0 0 0 465464.35925006866 572197.19817842543 0 572197.19817842543 -340487.57423637353 0 0 0 0 428834.34208774567 59760.943990558386 0 59760.943990558386 -98674.547183930874 0 0 0 0 648685.67034081882 86413.937861828425 0 86413.937861828425 15735.36552189826 0 0 0 0 700430.81616479158 33852.217555966927 0 33852.217555966927 -357127.38497603312 0 0 0 0 838095.02643680573 799564.33273028582 0 799564.33273028582 -1295033.6589160711 0 0 0 0 717879.82634210587 -1446158.2696051151 0 -1446158.2696051151 856616.57189035416 0 0 0 0 184139.20723867416 -509431.24161410332 0 -509431.24161410332 216420.7140339613 0 0 0 0 981777.89266395569 -152778.97295898199 0 -152778.97295898199 -68336.286779761314 0 0 0 0 810206.77903366089 171119.75934222341 0 171119.75934222341 107147.54211723804 0 0 0 0 1099468.9219112396 -86842.055549293756 0 -86842.055549293756 -204802.28630757332 0 0 0 0 71688.622772109695 32412.616460887948 0 32412.616460887948 -43934.603459077844 0 0 0 0 544465.49111270905 -396339.26935595274 0 -396339.26935595274 -300805.94670056552 0 0 0 0 128289.5341882403 76518.725331390655 0 76518.725331390655 -5344.5564754621992 0 0 0 0 386396.80155181885 420910.12939612567 0 420910.12939612567 -177330.25645315647 0 0 0 0 47227.79754944751 38903.468929192517 0 38903.468929192517 -6706.7763091965135 0 0 0 0 457437.2946844101 2680958.1720296219 0 2680958.1720296219 4868086.4406069517 0 0 0 0 -346820.91089439392 16233.925972342491 0 16233.925972342491 1431976.971944809 0 0 0 0 1490152.43957901 -2166445.0059750378 0 -2166445.0059750378 3999666.69971928 0 0 0 0 5215142.7368049622 -3941889.4305188805 0 -3941889.4305188805 2022145.9521139264 0 0 0 0 12189847.407152176 248267.58307152987 0 248267.58307152987 -1155555.7242139578 0 0 0 0 2957085.4793643951 770944.7826757133 0 770944.7826757133 -945057.00265663862 0 0 0 0 5496296.3120412827 -2708321.2443728894 0 -2708321.2443728894 -98502.275404453278 0 0 0 0 2652871.9615936279 -1031977.6494534016 0 -1031977.6494534016 -871128.06142884493 0 0 0 0 3132124.8457889557 -1273171.1113202572 0 -1273171.1113202572 -969684.67851871252 0 0 0 0 2773113.5574436188 592456.83995348215 0 592456.83995348215 -1531076.0356369615 0 0 0 0 4555743.6889436245 418531.03975249827 0 418531.03975249827 -1233127.91718328 0 0 0 0 2445876.2883987427 307740.84184026718 0 307740.84184026718 -1105986.2257143259 0 0 0 0 2416073.0257968903 162429.19463825226 0 162429.19463825226 -1507535.218129158 0 0 0 0 1477982.7670402527 -1958860.2496970296 0 -1958860.2496970296 1202251.0043608248 0 0 0 0 2386110.3015937805 -2156083.7311756611 0 -2156083.7311756611 1282404.2639358938 0 0 0 0 1915817.6646060944 -1590654.8999392688 0 -1590654.8999392688 733894.30751156807 0 0 0 0 2936400.9103667736 -2153660.4297391921 0 -2153660.4297391921 285275.41003382206 0 0 0 0 1998541.1117801666 -1346637.5117784142 0 -1346637.5117784142 -344893.81522959471 0 0 0 0 2043347.088010788 -1554304.1341279745 0 -1554304.1341279745 9188.8209823966026 0 0 0 0 1287119.9484119415 -1000799.7503910065 0 -1000799.7503910065 -337754.51941516995 0 0 0 0 1888887.4837331772 -638376.50271430612 0 -638376.50271430612 -1068906.6888308525 0 0 0 0 2879248.1023082733 -1251535.5317290425 0 -1251535.5317290425 -892479.20519411564 0 0 0 0 1518908.8992547989 -276320.61970925331 0 -276320.61970925331 -755247.80721282959 0 0 0 0 2064726.2780199051 -893510.20708486438 0 -893510.20708486438 -725044.42538815737 0 0 0 0 1108734.1521892548 76441.979057997465 0 76441.979057997465 -2401358.2300117016 0 0 0 0 1355519.078332901 485663.33257418871 0 485663.33257418871 -1722798.8302201033 0 0 0 0 2748469.8259983063 460982.38375300169 0 460982.38375300169 -1927082.9198278189 0 0 0 0 1983659.4061584473 811838.82879185677 0 811838.82879185677 -2460316.469848156 0 0 0 0 2234158.6959953308 -171291.6746584177 0 -171291.6746584177 -1672391.507383123 0 0 0 0 3421118.2799978256 -747884.95819219947 0 -747884.95819219947 -1781304.2183401585 0 0 0 0 948879.19032287598 518868.72029268742 0 518868.72029268742 -1438522.0209687203 0 0 0 0 2619813.7010221481 -292019.53503322601 0 -292019.53503322601 -1678701.2853978276 0 0 0 0 1757605.7289581299 516188.01333522797 0 516188.01333522797 -2823252.534134984 0 0 0 0 1295777.562056303 1265072.6175077334 0 1265072.6175077334 -2206638.7965687513 0 0 0 0 1541328.1812701225 -53990.28070256114 0 -53990.28070256114 -620817.87854224443 0 0 0 0 1991033.6915020943 1732751.2591218203 0 1732751.2591218203 135387.07447069883 0 0 0 0 2498172.9980914593 -640332.44401558116 0 -640332.44401558116 -261650.84920489788 0 0 0 0 1195245.345921386 103712.59167695406 0 103712.59167695406 -15780.623351785965 0 0 0 0 1841198.9903430939 -171078.0670209229 0 -171078.0670209229 -926255.28317809105 0 0 0 0 1457209.6987991333 147665.68783926964 0 147665.68783926964 -976180.44729387015 0 0 0 0 1206949.1100412179 162953.92362454394 0 162953.92362454394 62114.104074526491 0 0 0 0 966844.22316967044 43526.175067304284 0 43526.175067304284 -5344.4178087253822 0 0 0 0 1542866.5554800034 -65385.283392488956 0 -65385.283392488956 -467415.44009995461 0 0 0 0 777847.05764293671 121420.07474663854 0 121420.07474663854 -109554.53343689442 0 0 0 0 1153756.6436452866 -683654.06733898818 0 -683654.06733898818 -146822.45602089167 0 0 0 0 619414.72179794312 41112.818100810051 0 41112.818100810051 -507071.82137063146 0 0 0 0 872103.02270949818 -128628.1273857411 0 -128628.1273857411 144389.13834838403 0 0 0 0 1434870.9885578156 -287748.73944592476 0 -287748.73944592476 -596861.35222986341 0 0 0 0 1446176.2089481354 -680433.24075216055 0 -680433.24075216055 -161017.26883199811 0 0 0 0 1501750.5013580322 -845132.48210781813 0 -845132.48210781813 295425.09075854719 0 0 0 0 1287885.8440204859 -976875.65516996756 0 -976875.65516996756 215906.90385180712 0 0 0 0 1137097.416882515 156289.68757718801 0 156289.68757718801 89720.965405881405 0 0 0 0 846734.67416993668 109075.85521850467 0 109075.85521850467 -55512.492166739234 0 0 0 0 1268917.0054235458 23096.807579807937 0 23096.807579807937 35937.060995459557 0 0 0 0 1226121.3497638702 -113002.92218220234 0 -113002.92218220234 123542.87009260058 0 0 0 0 173999.27947309893 -18423.864012466976 0 -18423.864012466976 -55823.615539786435 0 0 0 0 799149.9330866863 30439.028996121604 0 30439.028996121604 141988.80451868186 0 0 0 0 883702.93950366974 -64215.445789843798 0 -64215.445789843798 -247586.12383252382 0 0 0 0 756898.67798376083 118051.00303860009 0 118051.00303860009 -3393.0689688920975 0 0 0 0 754925.26654148102 95769.474434792995 0 95769.474434792995 -239049.91291025933 0 0 0 0 74235.352470397949 544210.81106546521 0 544210.81106546521 311531.33646208048 0 0 0 0 770310.98616600037 173367.05115363002 0 173367.05115363002 -620973.99488666654 0 0 0 0 630607.26436138153 -33431.016708433628 0 -33431.016708433628 -267159.53246831894 0 0 0 0 873294.51238434948 -200629.37336586183 0 -200629.37336586183 -110779.61556643517 0 0 0 0 2598887.15056777 -453927.12764827162 0 -453927.12764827162 -2522379.0710435361 0 0 0 0 8248.286195226945 -42180.101142810592 0 -42180.101142810592 6151.3473408387044 0 0 0 0 -275014.99521064758 -2248559.7632884085 0 -2248559.7632884085 500305.64237466641 0 0 0 0 915611.50513315201 -399337.7362922132 0 -399337.7362922132 -1787374.6700311899 0 0 0 0 1179214.8900363822 17693.829594439099 0 17693.829594439099 -55994.756803710108 0 0 0 0 472390.57398478827 173248.990973757 0 173248.990973757 -72748.364234447028 0 0 0 0 447415.60788917542 267840.69679680467 0 267840.69679680467 -1578124.3011206836 0 0 0 0 865104.85731683322 -698425.6605989557 0 -698425.6605989557 -353711.55686062801 0 0 0 0 1498194.0863314271 6408.102483574301 0 6408.102483574301 -942777.25906617939 0 0 0 0 3424378.4730887413 -690116.64814716578 0 -690116.64814716578 -719085.73416278511 0 0 0 0 822008.32744598389 -434094.28187856078 0 -434094.28187856078 47072.355969592929 0 0 0 0 222282.56132066157 -74126.426666340907 0 -74126.426666340907 -30345.055299876898 0 0 0 0 3326072.5441873074 -1893773.3043204658 0 -1893773.3043204658 641137.59231942799 0 0 0 0 2726912.4625828266 -78591.713223407045 0 -78591.713223407045 639503.18917370029 0 0 0 0 1853075.8918681145 -829597.19971756823 0 -829597.19971756823 -1067272.8763576238 0 0 0 0 1553336.5884547234 -1250285.9265490323 0 -1250285.9265490323 -949790.3852764219 0 0 0 0 625862.04185604001 -183957.96755808429 0 -183957.96755808429 -207111.83485941117 0 0 0 0 1335920.4641988277 661444.56552129239 0 661444.56552129239 -1610602.8443957865 0 0 0 0 1895122.3766593933 -1191351.9452509582 0 -1191351.9452509582 2068.0268646478653 0 0 0 0 3204506.084104538 718262.37725901604 0 718262.37725901604 -3212147.7108688354 0 0 0 0 1170029.6709526009 -105310.55017245861 0 -105310.55017245861 -29903.550358474182 0 0 0 0 1370518.2472579479 -1095872.188898664 0 -1095872.188898664 194546.84568497539 0 0 0 0 1902616.7186594009 815608.18800397217 0 815608.18800397217 -1232070.4407714009 0 0 0 0 907477.68779384624 -197995.09859047667 0 -197995.09859047667 -132977.46432561934 0 0 0 0 184989.16802074108 142467.14748699067 0 142467.14748699067 -80163.608392350521 0 0 0 0 1433485.2325725555 -664677.65638765693 0 -664677.65638765693 624624.19191230834 0 0 0 0 1104478.3202564716 -200651.25387109816 0 -200651.25387109816 -29636.700100421906 0 0 0 0 2880971.9908952713 -244413.73717973754 0 -244413.73717973754 -1260272.3374837637 0 0 0 0 1129929.5365658388 -449551.54356170679 0 -449551.54356170679 -139784.57897787075 0 0 0 0 840278.36634159088 -625291.34069642425 0 -625291.34069642425 59644.791372403502 0 0 0 0 968624.78409826756 -80999.709165289998 0 -80999.709165289998 -146278.87151396275 0 0 0 0 924796.89072656631 -369151.81283436716 0 -369151.81283436716 -881487.70483899117 0 0 0 0 934624.79655444622 2054082.0690145474 0 2054082.0690145474 -500065.64343467355 0 0 0 0 394134.86092027556 -107062.22120363242 0 -107062.22120363242 -188777.81968094187 0 0 0 0 1695889.9942955971 -1518732.7484639138 0 -1518732.7484639138 -497930.53845255077 0 0 0 0 2196830.9192314148 -453533.88916711882 0 -453533.88916711882 -1423288.6967356708 0 0 0 0 1181609.8896714663 -290377.35306412971 0 -290377.35306412971 -4614.5405769492354 0 0 0 0 1484725.6971104145 -498635.60177717544 0 -498635.60177717544 -387111.8377629742 0 0 0 0 3992508.596288681 -1686017.7891644239 0 -1686017.7891644239 129936.5024484992 0 0 0 0 3182896.5377058983 -1036351.000352174 0 -1036351.000352174 -332799.85833969712 0 0 0 0 1160508.570684562 -419079.27300032671 0 -419079.27300032671 -381607.89600001485 0 0 0 0 3231000.7656240463 -1867738.510163337 0 -1867738.510163337 -401393.62098371983 0 0 0 0 3408955.2444024086 -1322309.9837673306 0 -1322309.9837673306 41773.644679188728 0 0 0 0 1093200.4537797133 -623432.10005696712 0 -623432.10005696712 41467.665016666666 0 0 0 0 823033.76841926575 -560249.60303330421 0 -560249.60303330421 -996013.77153823525 0 0 0 0 2777143.32170403 -1689651.9071079753 0 -1689651.9071079753 -904715.77360111475 0 0 0 0 93566.739167690277 -500867.35364023596 0 -500867.35364023596 -278348.92051035166 0 0 0 0 1929065.89639387 -672497.76096281968 0 -672497.76096281968 -431813.49677065475 0 0 0 0 816697.50553226471 112058.73551769555 0 112058.73551769555 -155509.13030660152 0 0 0 0 810845.8775786825 -333590.17620323016 0 -333590.17620323016 43285.575268098852 0 0 0 0 516438.78659296036 -656665.47412147745 0 -656665.47412147745 741984.50150376558 0 0 0 0 223863.11850643158 -378551.36266511679 0 -378551.36266511679 -290590.2409081459 0 0 0 0 327279.49802060192 163841.76433779323 0 163841.76433779323 228594.81585431006 0 0 0 0 2882635.7103013992 -829732.06734794378 0 -829732.06734794378 817794.0414853096 0 0 0 0 2283961.1575274467 -1383948.1672434211 0 -1383948.1672434211 1490997.64128232 0 0 0 0 1138533.7812733508 -929427.17384423409 0 -929427.17384423409 -111801.18495334273 0 0 0 0 257173.86988846585 1435.7178488561185 0 1435.7178488561185 -160139.5886607868 0 0 0 0 2362632.2631187439 -252109.86999057233 0 -252109.86999057233 -375828.77292057872 0 0 0 0 2645683.9535140991 -2047359.0684047937 0 -2047359.0684047937 724957.88613076508 0 0 0 0 1482732.4810742829 333327.81385476608 0 333327.81385476608 27799.032216552179 0 0 0 0 1379682.8618631363 -307509.1285058856 0 -307509.1285058856 -345077.5830668211 0 0 0 0 162190.71740969038 -23973.530634480063 0 -23973.530634480063 -45362.872106423514 0 0 0 0 1315585.1845419954 -279641.77433839883 0 -279641.77433839883 -288824.2061548825 0 0 0 0 841704.40650939941 -145895.52043564618 0 -145895.52043564618 -616425.32718765736 0 0 0 0 2287716.1865634918 648744.86665654182 0 648744.86665654182 214011.36977744102 0 0 0 0 2840717.8625769615 566051.06074368954 0 566051.06074368954 216595.51590639353 0 0 0 0 2949855.6295804977 295088.00895175338 0 295088.00895175338 -310326.91926854849 0 0 0 0 937631.80955710483 -106577.011027965 0 -106577.011027965 281347.06418181694 0 0 0 0 2086916.045071125 915123.50164377689 0 915123.50164377689 -122249.45850682259 0 0 0 0 2550718.4700756073 -1121414.0227885395 0 -1121414.0227885395 289729.99726068974 0 0 0 0 2876083.6664800644 1010735.0646861494 0 1010735.0646861494 -675082.94713681936 0 0 0 0 -922455.07357692719 1633064.4193617254 0 1633064.4193617254 546450.47269356251 0 0 0 0 574989.99854820967 -142341.40482402756 0 -142341.40482402756 92720.038460680342 0 0 0 0 2318481.1002225876 2523790.9657483548 0 2523790.9657483548 -154584.66874134541 0 0 0 0 -1006209.3359351158 -1540664.5436151624 0 -1540664.5436151624 245786.38210952282 0 0 0 0 6061886.0111103058 359807.53178986907 0 359807.53178986907 -1028883.9559093118 0 0 0 0 7449705.5982456207 2187769.5277042687 0 2187769.5277042687 1008944.3844740987 0 0 0 0 6215879.6774120331 4101880.35358724 0 4101880.35358724 5902833.4858118296 0 0 0 0 9737767.0801887512 -1010513.3978339434 0 -1010513.3978339434 3904282.4603826404 0 0 0 0 4368258.3368415833 1206294.0587171316 0 1206294.0587171316 1544800.3273353577 0 0 0 0 2440877.6613588333 3046435.9978054762 0 3046435.9978054762 2040532.8299655616 0 0 0 0 3608760.2971420288 874890.81957057118 0 874890.81957057118 -1106452.2972105145 0 0 0 0 2969872.7887115479 637741.36949324608 0 637741.36949324608 -877683.58977597952 0 0 0 0 1058447.3226652145 -2335404.3531418294 0 -2335404.3531418294 405137.66717350483 0 0 0 0 4288493.2729644775 45428.779245316982 0 45428.779245316982 -1278495.0039872602 0 0 0 0 1039001.3070375738 -582428.15086514037 0 -582428.15086514037 4562.0377856951382 0 0 0 0 1481433.5596728325 -601808.11103376746 0 -601808.11103376746 -1283.1708210613579 0 0 0 0 -22396.959723472595 1538077.6803679019 0 1538077.6803679019 -3062211.9356322885 0 0 0 0 -359848.34082984924 1101254.6413650215 0 1101254.6413650215 -509208.96020495892 0 0 0 0 -478205.81019592285 2369261.7944476604 0 2369261.7944476604 -2499091.8505983055 0 0 0 0 38680.426592467818 962.67890811478719 0 962.67890811478719 -23681.653047733358 0 0 0 0 -308023.87285995483 1631897.9333646297 0 1631897.9333646297 -1095212.0940456986 0 0 0 0 106420.95889066719 -657545.28225306817 0 -657545.28225306817 9779.4583207602554 0 0 0 0 2658018.6938066483 -1437158.639793396 0 -1437158.639793396 240370.80020865798 0 0 0 0 3769574.107178688 -7534325.8652926534 0 -7534325.8652926534 3080682.6292449236 0 0 0 0 -4434330.1112413406 -735414.57302732766 0 -735414.57302732766 -363742.64158684947 0 0 0 0 23481864.192389011 -1139333.569991162 0 -1139333.569991162 214107.91324424744 0 0 0 0 6477337.4371792376 4295447.1513576712 0 4295447.1513576712 1021893.2242802083 0 0 0 0 570974.16914787423 -306460.33830829826 0 -306460.33830829826 -109494.40222443864 0 0 0 0 -62715.388422951568 -1607.3527897826862 0 -1607.3527897826862 44019.650480856682 0 0 0 0 44603.746852341108 -20647.514536066214 0 -20647.514536066214 -16246.70912647972 0 0 0 0 16729600.289116859 1924732.0519032478 0 1924732.0519032478 -626852.10685074329 0 0 0 0 6208968.855014801 8941120.7984627187 0 8941120.7984627187 11626906.61767754 0 0 0 0 -2406152.3965244293 4414761.8929844797 0 4414761.8929844797 2179682.750164181 0 0 0 0 1638569.6278223991 1993562.3617856726 0 1993562.3617856726 -1361460.8935630322 0 0 0 0 3600825.8384552002 1447029.0940265656 0 1447029.0940265656 -1218163.8700175285 0 0 0 0 498828.23502075672 -11565120.291388474 0 -11565120.291388474 2652518.7782587409 0 0 0 0 2892472.9614229202 5673846.6495782882 0 5673846.6495782882 1289281.3075328767 0 0 0 0 -1334338.5182447433 8593178.7862208039 0 8593178.7862208039 8286569.1253828928 0 0 0 0 606535.59081370384 -311744.44128139596 0 -311744.44128139596 -20952.344287233704 0 0 0 0 9556187.4598474503 3177809.8730003536 0 3177809.8730003536 -2900242.1065014005 0 0 0 0 7873333.1362876892 3097954.4211811721 0 3097954.4211811721 -773943.14363586903 0 0 0 0 5470056.9138870239 6572182.0842897594 0 6572182.0842897594 -900380.40070670843 0 0 0 0 4016616.7031402588 5629032.3086241782 0 5629032.3086241782 -1065671.8453790545 0 0 0 0 2932447.4136121273 2146141.4201550744 0 2146141.4201550744 -2465589.8142355084 0 0 0 0 6943915.8541269302 669681.17784749717 0 669681.17784749717 -5842677.8151810318 0 0 0 0 293794.36345571931 -84774.112328391406 0 -84774.112328391406 -47343.300287289123 0 0 0 0 10353484.786153793 205132.1421238184 0 205132.1421238184 -3163795.2909786403 0 0 0 0 2711846.7035884857 2569229.9722738117 0 2569229.9722738117 -3887193.5459736511 0 0 0 0 2660038.0282058716 -244319.67144006491 0 -244319.67144006491 -255420.52956755459 0 0 0 0 -3270090.4401531219 -1575598.7032045275 0 -1575598.7032045275 -374990.80503883213 0 0 0 0 490940.76543091377 -164284.78337423969 0 -164284.78337423969 -100608.6844496845 0 0 0 0 -2330963.440776825 125608.37474903464 0 125608.37474903464 223893.81507646292 0 0 0 0 -443858.55334186554 -4202174.4966357052 0 -4202174.4966357052 -3754539.6348521709 0 0 0 0 2170730.178647995 -109396.35979384184 0 -109396.35979384184 -1231437.7288686782 0 0 0 0 667604.11133909225 -3222705.3173818104 0 -3222705.3173818104 -1704018.9991675019 0 0 0 0 378155.63040924072 -3832112.5125034451 0 -3832112.5125034451 -1115800.5061400533 0 0 0 0 -2410858.8792438507 -4602827.253098201 0 -4602827.253098201 -767077.55432337523 0 0 0 0 -1120879.7858279198 -1001568.3303111203 0 -1001568.3303111203 2611075.5710794926 0 0 0 0 -3766374.3352308273 -695016.01970931888 0 -695016.01970931888 1874768.9214496613 0 0 0 0 -1129138.870029524 -1449257.9395512575 0 -1449257.9395512575 -2729727.6147373319 0 0 0 0 958419.92453861237 1732368.7436622232 0 1732368.7436622232 4824193.3776503801 0 0 0 0 1780426.2418842316 -1691664.5085484385 0 -1691664.5085484385 2266769.7217529416 0 0 0 0 2277503.7425727844 848580.2651475966 0 848580.2651475966 7209210.1362833977 0 0 0 0 7757024.9692611694 -630007.45974564552 0 -630007.45974564552 5146819.7440985516 0 0 0 0 23661814.157602549 2755011.2082589306 0 2755011.2082589306 3604199.0916854143 0 0 0 0 9987418.6161270142 4588663.2469757795 0 4588663.2469757795 10867499.689095259 0 0 0 0 8406107.5382022858 -605640.61117130518 0 -605640.61117130518 1596888.0914049149 0 0 0 0 8769930.8109016418 -2480205.831173718 0 -2480205.831173718 8681166.0394399464 0 0 0 0 2459951.5363140106 -563043.58951738477 0 -563043.58951738477 1723598.7390188575 0 0 0 0 101888.95211570407 -81705.056654589484 0 -81705.056654589484 160255.11702083662 0 0 0 0 639418.38229846954 -368299.39873562753 0 -368299.39873562753 -159765.67176413536 0 0 0 0 535276.80904272781 -203207.53584543196 0 -203207.53584543196 -100719.6331708933 0 0 0 0 535716.16998386383 30277.701983675361 0 30277.701983675361 14956.623486161232 0 0 0 0 509485.6846280098 -513.67634665220976 0 -513.67634665220976 -21098.398074358702 0 0 0 0 292329.62668018509 -131035.93330813345 0 -131035.93330813345 37697.672705893914 0 0 0 0 566437.19665039587 -54956.224085137248 0 -54956.224085137248 -193695.54766676205 0 0 0 0 -532202.59664916992 -506532.88831811026 0 -506532.88831811026 -280357.07987852115 0 0 0 0 207969.61449123919 169502.9917352281 0 169502.9917352281 149301.95014897431 0 0 0 0 -18700511.92954731 -9314549.3507619016 0 -9314549.3507619016 12491132.785169512 0 0 0 0 -69472.582072257996 -156533.1291385293 0 -156533.1291385293 -191091.25305783004 0 0 0 0 -51515.156126160524 -36561.6232327912 0 -36561.6232327912 -8591.8715999399992 0 0 0 0 13151850.836676598 -5221346.4323213948 0 -5221346.4323213948 -14753064.179031266 0 0 0 0 -50979.506671157666 8325.8156334873056 0 8325.8156334873056 43689.347505181548 0 0 0 0 -73021.882580757141 54434.612206399441 0 54434.612206399441 164795.88049035519 0 0 0 0 -64989.983569563366 44362.285588317085 0 44362.285588317085 243286.19155116813 0 0 0 0 158221.2765712738 162474.24677943438 0 162474.24677943438 61543.264860808849 0 0 0 0 -19313.887602295727 -35059.450756095815 0 -35059.450756095815 101274.97769199425 0 0 0 0 -411169.55571508408 -152459.16450209916 0 -152459.16450209916 390402.80224743485 0 0 0 0 2395516.29413414 -4813459.3386210874 0 -4813459.3386210874 9414747.7979453932 0 0 0 0 10526415.961730003 -9932406.2000394855 0 -9932406.2000394855 1521286.9706171714 0 0 0 0 33520257.115375519 -13912521.952463061 0 -13912521.952463061 133713.48278342187 0 0 0 0 1539.9900824064389 -24286.197282863315 0 -24286.197282863315 30922.407196864355 0 0 0 0 -316511.35889625549 -29112583.224422172 0 -29112583.224422172 5311559.4411515817 0 0 0 0 -920558.0257768631 -912664.52896109223 0 -912664.52896109223 308497.52244645357 0 0 0 0 663319.84148740768 610959.87027543038 0 610959.87027543038 -219429.59606933594 0 0 0 0 36520.110062764958 -29880.933178496547 0 -29880.933178496547 124528.78364642611 0 0 0 0 59861.35799407959 7195.6236289739609 0 7195.6236289739609 -620818.06547166407 0 0 0 0 -34003.499145507812 376419.3159390986 0 376419.3159390986 1371285.4617912471 0 0 0 0 365849.25187206268 -477900.21342387795 0 -477900.21342387795 150088.83271512389 0 0 0 0 100692.98401451111 -593136.46418516338 0 -593136.46418516338 -161876.13267809153 0 0 0 0 -403143.39797115326 -153838.98149600625 0 -153838.98149600625 254378.08023041487 0 0 0 0 199603.33164477348 -376432.09878996015 0 -376432.09878996015 118404.16930472851 0 0 0 0 1343197.7216701508 -500440.36187684536 0 -500440.36187684536 -22094.007553696632 0 0 0 0 367667.27401828766 -547082.16966187954 0 -547082.16966187954 708446.02710974962 0 0 0 0 2562335.3280209303 -1216602.5030976366 0 -1216602.5030976366 236135.31226712465 0 0 0 0 876064.31399154663 -725808.7596988678 0 -725808.7596988678 669967.28140977025 0 0 0 0 -548894.62413787842 -1218599.3045141399 0 -1218599.3045141399 1279209.7829207778 0 0 0 0 197526.23004722595 -1292623.0604768395 0 -1292623.0604768395 1273236.7213299274 0 0 0 0 1142809.6193742752 -1923352.5731323808 0 -1923352.5731323808 580553.94024550915 0 0 0 0 -730826.0187587738 -352966.78099837899 0 -352966.78099837899 2759523.5862933397 0 0 0 0 -3472378.8926296234 -1467631.9931046665 0 -1467631.9931046665 2401517.8388390094 0 0 0 0 -994814.69170093536 -2350778.5842200369 0 -2350778.5842200369 809683.76289215684 0 0 0 0 -2890077.7226457596 1073214.348866947 0 1073214.348866947 9736692.204254806 0 0 0 0 -1324698.5691175461 -5581547.7585206032 0 -5581547.7585206032 3142383.1410010457 0 0 0 0 1026385.7069988251 -7559501.7681258172 0 -7559501.7681258172 4410269.5213657618 0 0 0 0 -1381494.5536880493 -6180158.1918729991 0 -6180158.1918729991 -3159021.7754587829 0 0 0 0 -10616809.071218491 -8404722.8898840845 0 -8404722.8898840845 2131795.3548026234 0 0 0 0 -9780225.9449090958 -175832.37290735543 0 -175832.37290735543 -5532327.226092577 0 0 0 0 1955585.6883792877 -9455330.6485458016 0 -9455330.6485458016 -4697413.8654022217 0 0 0 0 -15670648.271068573 -5914591.6524584293 0 -5914591.6524584293 2149758.7548649311 0 0 0 0 12161880.776596069 1103030.4094089866 0 1103030.4094089866 -1731348.2780431509 0 0 0 0 287211.29496349464 7392.2505901004188 0 7392.2505901004188 -19193.949074456483 0 0 0 0 7891251.2945461273 -3468297.2772964537 0 -3468297.2772964537 -14658.878900773823 0 0 0 0 2210591.3533706665 -1644165.8752061129 0 -1644165.8752061129 681022.09731733799 0 0 0 0 6587969.4707546234 1737501.3877914548 0 1737501.3877914548 488420.5921772439 0 0 0 0 7239785.3768875599 -2475846.9275127072 0 -2475846.9275127072 67514.926237344742 0 0 0 0 2989867.1069507599 -761964.35977599025 0 -761964.35977599025 47799.41864168644 0 0 0 0 2437126.6200973936 -388584.56098843471 0 -388584.56098843471 39256.667941273903 0 0 0 0 3749038.2486228943 -483437.68407532573 0 -483437.68407532573 -800903.00312519073 0 0 0 0 3802807.8569946289 -563569.05161818862 0 -563569.05161818862 -811485.6441655308 0 0 0 0 3289093.123257637 -735833.4649618268 0 -735833.4649618268 402060.79285103083 0 0 0 0 4159079.6670036316 -1347909.5923136771 0 -1347909.5923136771 -81525.806485004723 0 0 0 0 3800483.3561992645 -609458.19786325842 0 -609458.19786325842 -758766.24394269288 0 0 0 0 3758143.7179946899 435584.92298182845 0 435584.92298182845 422914.61429107375 0 0 0 0 3779706.1654586792 -587179.35458382964 0 -587179.35458382964 -643858.58648985624 0 0 0 0 5809919.7534008026 -346162.52528117597 0 -346162.52528117597 -659446.77142044902 0 0 0 0 2907396.6895561218 -339949.39386972412 0 -339949.39386972412 -20155.078403145075 0 0 0 0 3996954.4266338348 -12662061.362082124 0 -12662061.362082124 7415991.868282944 0 0 0 0 7448344.810256958 -7959833.0006768405 0 -7959833.0006768405 -10791737.008121669 0 0 0 0 975337.5364511339 -54339.751014133682 0 -54339.751014133682 -123918.40143646477 0 0 0 0 579612.55462265015 -11678794.654523835 0 -11678794.654523835 -2934511.1375960112 0 0 0 0 -163557.09053993225 -10903310.197949409 0 -10903310.197949409 -1690692.5349738598 0 0 0 0 -1338492.8970680237 -11785165.363699228 0 -11785165.363699228 -2255750.7889412642 0 0 0 0 -780391.78077125549 -12327244.639594465 0 -12327244.639594465 -2753652.3014076985 0 0 0 0 2279525.7521227002 4575696.9063231666 0 4575696.9063231666 -1723354.6092336476 0 0 0 0 544424.76720619434 106489.27604458015 0 106489.27604458015 -291034.05094260542 0 0 0 0 2818780.130048275 -209109.68687993288 0 -209109.68687993288 -154722.27851384878 0 0 0 0 4930069.1573853493 -398251.64724043012 0 -398251.64724043012 -543020.23551905155 0 0 0 0 1053054.7257953854 -19645.343969644746 0 -19645.343969644746 -37129.426292856515 0 0 0 0 2273208.7247030805 -620515.74110177648 0 -620515.74110177648 134282.6229213964 0 0 0 0 1615576.671626091 1406988.9310839176 0 1406988.9310839176 -631083.58684265614 0 0 0 0 2242558.631629467 -720418.75006687641 0 -720418.75006687641 92484.718961089849 0 0 0 0 2771890.5578420162 -317568.16308411956 0 -317568.16308411956 378220.15458339453 0 0 0 0 1315452.7101941253 72052.253222930769 0 72052.253222930769 -81285.193181234761 0 0 0 0 5269471.0402593613 1948932.0476737544 0 1948932.0476737544 -9806040.5191225111 0 0 0 0 583516.4571352005 -195853.65600405633 0 -195853.65600405633 -588969.72178064659 0 0 0 0 942072.46933829412 -166704.04749550193 0 -166704.04749550193 29601.938056011495 0 0 0 0 1075553.0203022156 -415612.82568078779 0 -415612.82568078779 64296.039680780348 0 0 0 0 537963.31169128418 -60396.777416110039 0 -60396.777416110039 -474663.57255164906 0 0 0 0 1289574.3653509989 -230222.06011721224 0 -230222.06011721224 132623.75902021735 0 0 0 0 3066652.419677496 -3141343.9320042133 0 -3141343.9320042133 -443104.81391963363 0 0 0 0 6804410.1744918823 -4290193.9772260636 0 -4290193.9772260636 -13727829.229871627 0 0 0 0 -934270.68832996488 -3325319.6609181077 0 -3325319.6609181077 -7410582.2488158047 0 0 0 0 13289679.52283287 -8768894.1107300967 0 -8768894.1107300967 -5327489.2442688644 0 0 0 0 11859008.936559677 1380611.4749552757 0 1380611.4749552757 -7551207.7093340904 0 0 0 0 591238.76362371445 557136.1673868373 0 557136.1673868373 -7039862.4914102554 0 0 0 0 2849208.9842128754 5749595.8121527433 0 5749595.8121527433 648173.47084519267 0 0 0 0 5542389.0794858932 4891655.3313364238 0 4891655.3313364238 551450.28139817715 0 0 0 0 14011823.384864807 13883053.283687867 0 13883053.283687867 6243722.934340477 0 0 0 0 1920671.7932114601 -10082748.624311741 0 -10082748.624311741 5205171.6936666965 0 0 0 0 7718105.7457714081 -294763.54563257098 0 -294763.54563257098 -4661341.4301041961 0 0 0 0 33137446.442092896 -3971751.4692695737 0 -3971751.4692695737 -4408307.2031509876 0 0 0 0 10131885.989736557 -16695827.759074152 0 -16695827.759074152 18609127.243244648 0 0 0 0 3079851.0346336365 -5256954.7212067544 0 -5256954.7212067544 2435895.0961046219 0 0 0 0 154472.27295827866 1718482.4061489999 0 1718482.4061489999 10530758.50361383 0 0 0 0 32019095.099756718 -12441884.850706682 0 -12441884.850706682 4858081.1568320394 0 0 0 0 8292.2466680079233 -5740.0086132646538 0 -5740.0086132646538 49425.141895457258 0 0 0 0 633096.61247253418 1959744.1608677804 0 1959744.1608677804 1956416.6179570854 0 0 0 0 15443815.775858879 11961014.667422988 0 11961014.667422988 -15443654.206129938 0 0 0 0 33165181.629193306 -10348138.892996058 0 -10348138.892996058 7530670.4699403588 0 0 0 0 -10465257.239511967 987174.52185673267 0 987174.52185673267 6882741.5037746131 0 0 0 0 -54147.184368656017 111654.3538228031 0 111654.3538228031 21327.436960260155 0 0 0 0 -3328573.7572574615 -487394.45987081528 0 -487394.45987081528 2269375.7824942078 0 0 0 0 14975605.70559597 -8425006.3903043196 0 -8425006.3903043196 -39018741.86832875 0 0 0 0 259140.84706878662 135585.18054044992 0 135585.18054044992 768229.20352749527 0 0 0 0 -2721770.5593290329 3358752.4151345938 0 3358752.4151345938 -774250.15172055364 0 0 0 0 -2561005.5257205963 2788719.3089973256 0 2788719.3089973256 1242507.6620995551 0 0 0 0 1598959.1709537506 7414314.4375712276 0 7414314.4375712276 5946982.4732052069 0 0 0 0 3345107.7145144939 5527413.967193488 0 5527413.967193488 -3798855.5503890067 0 0 0 0 -149726.78061580658 4025813.4081981108 0 4025813.4081981108 -4013219.5701764002 0 0 0 0 1427038.0479968581 361417.25834254129 0 361417.25834254129 117657.18174193379 0 0 0 0 1217144.6575677292 380934.63993279869 0 380934.63993279869 115001.96037926241 0 0 0 0 42258857.311601639 15416861.748015163 0 15416861.748015163 5263407.5958494097 0 0 0 0 86985774.919945478 -55696096.30925411 0 -55696096.30925411 16063550.84424638 0 0 0 0 100955.03947505867 224819.76123781031 0 224819.76123781031 19574.556152314439 0 0 0 0 20639077.365086555 -22550444.165231898 0 -22550444.165231898 8799001.4049952962 0 0 0 0 199890195.56860638 -22723105.291275211 0 -22723105.291275211 -62040143.346994847 0 0 0 0 314988048.15190506 -84046133.529510543 0 -84046133.529510543 -48855371.270756222 0 0 0 0 200022814.91658306 -27607968.56296102 0 -27607968.56296102 -19316947.93088083 0 0 0 0 100750996.60645294 -35110041.464899018 0 -35110041.464899018 6916189.9269144982 0 0 0 0 198231487.34195137 -84297187.516051218 0 -84297187.516051218 -25517827.360271551 0 0 0 0 314587647.62462473 -169083011.11313415 0 -169083011.11313415 26643622.934664335 0 0 0 0 157779534.32220817 -120442508.57327899 0 -120442508.57327899 51069700.878275543 0 0 0 0 125218167.8828125 -81151606.799505457 0 -81151606.799505457 49613485.784090117 0 0 0 0 991399.83619294409 310336.14051980991 0 310336.14051980991 109788.77763255493 0 0 0 0 -224325.05060889758 474500.93438744987 0 474500.93438744987 79179.993437566474 0 0 0 0 29811742.957447052 -17941495.156115137 0 -17941495.156115137 -40011783.584161662 0 0 0 0 -1684906.1470828056 1878879.3369489871 0 1878879.3369489871 1027201.1387567669 0 0 0 0 170415.09552140487 320144.56622958847 0 320144.56622958847 83889.049734614251 0 0 0 0 124199634.02367401 -218114369.25320554 0 -218114369.25320554 244057346.20342636 0 0 0 0 -21132103.00545311 78607640.931352079 0 78607640.931352079 140309312.35889822 0 0 0 0 313219905.24353027 344610.14757353027 0 344610.14757353027 -204155.84310042101 0 0 0 0 113631.05380042456 93673.619881052757 0 93673.619881052757 118194.79015945285 0 0 0 0 116401666.16570663 75962399.686948165 0 75962399.686948165 -1396333.3642950691 0 0 0 0 314282416.45627499 235167724.09313565 0 235167724.09313565 99335106.849834442 0 0 0 0 143885342.55435467 89685351.222690582 0 89685351.222690582 4310324.620123826 0 0 0 0 314717798.10535431 76062544.437594295 0 76062544.437594295 -33018217.34223371 0 0 0 0 105699399.63251591 40062293.633169994 0 40062293.633169994 5456512.2269739266 0 0 0 0 84834035.686096191 50387003.930583313 0 50387003.930583313 16460144.171118457 0 0 0 0 62441964.343536377 78140839.36164993 0 78140839.36164993 53618765.685509831 0 0 0 0 -10692156.521932602 6297484.5271734949 0 6297484.5271734949 20785622.8115343 0 0 0 0 -9953026.8136529922 -1349350.122395657 0 -1349350.122395657 7992319.9618704319 0 0 0 0 14075324.515002251 -3526837.0182959698 0 -3526837.0182959698 7767751.8875234928 0 0 0 0 4211973.2436394691 2190806.3899372662 0 2190806.3899372662 16546961.788328437 0 0 0 0 73542371.604007721 45391226.110153496 0 45391226.110153496 28155219.878093343 0 0 0 0 107513233.86471367 17911265.547478773 0 17911265.547478773 291596.33575494215 0 0 0 0 39939813.726963043 25955843.665612489 0 25955843.665612489 6858682.3017994631 0 0 0 0 84263006.079060555 19441583.069801632 0 19441583.069801632 -3974347.9202570301 0 0 0 0 15796402.445837975 -15854110.647562588 0 -15854110.647562588 16405270.668327894 0 0 0 0 49025278.654303551 -8149930.0719072875 0 -8149930.0719072875 3427181.7866451722 0 0 0 0 112157961.03922653 2130766.2401118204 0 2130766.2401118204 238158.32458178326 0 0 0 0 60760848.346900463 17909672.443037406 0 17909672.443037406 8089135.118835859 0 0 0 0 142981865.1241827 33721889.216868803 0 33721889.216868803 5982599.319361411 0 0 0 0 149277454.77672386 34212685.572432593 0 34212685.572432593 -2080435.1337054446 0 0 0 0 145225365.13525963 36979972.124314226 0 36979972.124314226 -1566755.4521782128 0 0 0 0 105465543.2965951 21050979.892498568 0 21050979.892498568 -1815713.8490330279 0 0 0 0 154070994.48568058 66376584.443588063 0 66376584.443588063 36462434.745802045 0 0 0 0 138945284.31971502 23646020.367795013 0 23646020.367795013 -17839044.071994592 0 0 0 0 314968607.48354769 136113254.61832461 0 136113254.61832461 53671228.643896975 0 0 0 0 459851.52425860148 20503.792645310983 0 20503.792645310983 -49581.363186863091 0 0 0 0 154965010.76251602 38010836.374950692 0 38010836.374950692 -29943155.576392338 0 0 0 0 157230598.93714237 50213187.302037641 0 50213187.302037641 -12946831.208799724 0 0 0 0 142033669.92519474 43035505.648485363 0 43035505.648485363 -15452513.610173274 0 0 0 0 93680380.49077177 -86663548.842877537 0 -86663548.842877537 37491008.984699249 0 0 0 0 163247462.26316595 -127885112.87236436 0 -127885112.87236436 59521104.84035334 0 0 0 0 104045244.53992057 -68651022.673572466 0 -68651022.673572466 40055135.176441774 0 0 0 0 34430290.707904339 -34656907.476837277 0 -34656907.476837277 62160382.289528996 0 0 0 0 58236273.75394249 -102219049.95362568 0 -102219049.95362568 113512193.25565565 0 0 0 0 190272743.13692892 -99941046.676815912 0 -99941046.676815912 19435296.066893991 0 0 0 0 314555005.81066775 -189799867.2027669 0 -189799867.2027669 66313819.80597803 0 0 0 0 169782522.52712679 -95603897.339327142 0 -95603897.339327142 18521559.998137683 0 0 0 0 247439735.78175592 -103228607.85115753 0 -103228607.85115753 77073.009313177026 0 0 0 0 173823249.08645701 -89311940.104955062 0 -89311940.104955062 21614034.627386227 0 0 0 0 119612763.42352533 -42219052.655800037 0 -42219052.655800037 25308310.471807785 0 0 0 0 112166507.04540682 -56886536.739657477 0 -56886536.739657477 29752291.894710373 0 0 0 0 28538248.544976234 -38711194.420979314 0 -38711194.420979314 46156463.672177717 0 0 0 0 57606335.107347012 -27007889.997923054 0 -27007889.997923054 33766622.268859528 0 0 0 0 57830782.431381702 -55939541.344782054 0 -55939541.344782054 50823732.720108576 0 0 0 0 19709059.801222801 -33533492.956732899 0 -33533492.956732899 28462283.416295588 0 0 0 0 26176337.929091692 -28995009.60536509 0 -28995009.60536509 31547389.80559117 0 0 0 0 655853.89066650439 -48924.451463383099 0 -48924.451463383099 -250540.17385756923 0 0 0 0 20991381.070284605 -6588630.2134737652 0 -6588630.2134737652 16696302.36682272 0 0 0 0 229458.07620000839 98806.898261800408 0 98806.898261800408 -154325.32263171673 0 0 0 0 294150.93439483643 113409.29505886883 0 113409.29505886883 -393407.28502480686 0 0 0 0 490962.38902918948 60143.101166646695 0 60143.101166646695 -138633.3399013771 0 0 0 0 149662.00191233912 43732.257931249216 0 43732.257931249216 -115673.97713401112 0 0 0 0 -1559467.4546256065 -35341562.28407909 0 -35341562.28407909 60401720.000726104 0 0 0 0 53686372.081481457 -32995950.421739772 0 -32995950.421739772 20746371.59238252 0 0 0 0 2421711.7767906189 2111609.0440110434 0 2111609.0440110434 -2194576.8603920564 0 0 0 0 814776.28652022313 45031.924850707408 0 45031.924850707408 -114266.63500675083 0 0 0 0 -1083713.4952478409 1211589.8124653962 0 1211589.8124653962 3310900.775402307 0 0 0 0 -2281992.9820299149 -9272502.9652800336 0 -9272502.9652800336 -6778859.1490636878 0 0 0 0 16931.822037996259 35929.500528472126 0 35929.500528472126 2956.6589652119674 0 0 0 0 1198511.79824543 10563.936180048157 0 10563.936180048157 1212484.3272389905 0 0 0 0 2109231.3475227356 2522683.1100941692 0 2522683.1100941692 -867612.09577103704 0 0 0 0 -12395.651155114174 -1834006.9297473014 0 -1834006.9297473014 -2968704.8252363522 0 0 0 0 -6565781.1904392242 -3903989.532351804 0 -3903989.532351804 2617839.5765975025 0 0 0 0 11688057.35001564 3397614.9398446605 0 3397614.9398446605 -2558339.1551091447 0 0 0 0 398507.95782695524 -303.35084525239654 0 -303.35084525239654 -76401.703088841939 0 0 0 0 -5975849.7939541675 1708154.5689640252 0 1708154.5689640252 -111997.56514010765 0 0 0 0 118520.2475523618 -26592.48587266414 0 -26592.48587266414 -127628.15395279331 0 0 0 0 -484552.04552936554 3279277.2276183441 0 3279277.2276183441 -10820955.588712022 0 0 0 0 -6177776.6780235767 -11537497.454328544 0 -11537497.454328544 -6134965.4267511647 0 0 0 0 -1421400.3473100662 -9432812.4983310066 0 -9432812.4983310066 -8191040.5142741911 0 0 0 0 -328516.06725549698 -14292103.8132217 0 -14292103.8132217 -9943610.4305682294 0 0 0 0 3357828.4228477478 -8008925.7459736727 0 -8008925.7459736727 -8163788.4100138815 0 0 0 0 2673646.2480688095 -10344923.110238235 0 -10344923.110238235 2281167.9872574508 0 0 0 0 9588510.0636734962 -7964096.800648585 0 -7964096.800648585 -9997133.2830495052 0 0 0 0 -13999.914912223816 -1627769.9526694659 0 -1627769.9526694659 -12925176.569199435 0 0 0 0 45905.409496327862 150799.75532361559 0 150799.75532361559 13131.939312509259 0 0 0 0 -828086.97586631775 1072939.0791411714 0 1072939.0791411714 -13230.818702309858 0 0 0 0 1474538.1759705544 -15569590.294929471 0 -15569590.294929471 -39156379.04048989 0 0 0 0 98988478.809904099 -83194223.51865299 0 -83194223.51865299 93015639.584799871 0 0 0 0 681663.36961645912 -88332.979347320681 0 -88332.979347320681 -114159.70397626924 0 0 0 0 1248151.7576031685 -889402.74982772022 0 -889402.74982772022 -1786868.0286831222 0 0 0 0 55663676.601454377 -186982891.96916112 0 -186982891.96916112 312080033.17282319 0 0 0 0 210127.5536291888 -81091.608745952253 0 -81091.608745952253 -9114.0715044681183 0 0 0 0 311282280.86949921 152549.00447219616 0 152549.00447219616 -273454.33011834155 0 0 0 0 143208.88399974047 -25246.178306652921 0 -25246.178306652921 -24136.841452379351 0 0 0 0 227825228.58601475 183977807.056788 0 183977807.056788 75670241.03655237 0 0 0 0 314543076.76191831 175038848.61459133 0 175038848.61459133 65819054.522216477 0 0 0 0 631100.86468839645 17058140.176182732 0 17058140.176182732 10079736.263174571 0 0 0 0 214791.69218292087 -26014.916415327345 0 -26014.916415327345 -17395.683404166073 0 0 0 0 -41487865.099400043 -11010530.834772587 0 -11010530.834772587 16501712.050396856 0 0 0 0 307673001.93624902 158687205.66213489 0 158687205.66213489 67513099.652084008 0 0 0 0 168181889.83018827 88654006.024232298 0 88654006.024232298 37092442.332737975 0 0 0 0 496328.79227171233 -111327.60105020262 0 -111327.60105020262 29091.621787952456 0 0 0 0 162408099.65648645 58389016.41421786 0 58389016.41421786 22166996.105245907 0 0 0 0 315043035.29262495 84697096.727481991 0 84697096.727481991 -30365658.750157762 0 0 0 0 210568881.42546988 36837759.776126325 0 36837759.776126325 -44471187.331437662 0 0 0 0 194601076.72201347 36270057.920772091 0 36270057.920772091 -43699382.276868977 0 0 0 0 189780495.93243754 44453226.383378223 0 44453226.383378223 -14048522.493866138 0 0 0 0 102275285.08234787 -6563519.0999801159 0 -6563519.0999801159 -18316414.670699529 0 0 0 0 190566626.55290461 1075997.5768946223 0 1075997.5768946223 -29110837.445910394 0 0 0 0 314882197.76363802 -17102607.010758508 0 -17102607.010758508 -65070153.49567952 0 0 0 0 887240.80109643936 -11952795.981769497 0 -11952795.981769497 2364985.5873478651 0 0 0 0 6657413.9576029778 3715719.1161553375 0 3715719.1161553375 7897006.9590533748 0 0 0 0 -3600198.8891026974 13900870.429307323 0 13900870.429307323 4780268.1710985005 0 0 0 0 101054434.09247494 -7397400.522470586 0 -7397400.522470586 -6087477.2947829217 0 0 0 0 76927268.716481209 18505882.198717445 0 18505882.198717445 -17343611.770146891 0 0 0 0 76909308.891902924 18152714.998943117 0 18152714.998943117 -10529508.606748715 0 0 0 0 57749324.853653908 -7400741.4239487648 0 -7400741.4239487648 -3385924.9297841848 0 0 0 0 -357077.60252532363 -3142834.6821239493 0 -3142834.6821239493 939251.44333904982 0 0 0 0 -876238.65910227597 8041760.2680000868 0 8041760.2680000868 10401169.658570156 0 0 0 0 682419.64228969137 -188547.77529678901 0 -188547.77529678901 132189.70476909308 0 0 0 0 61835722.384508133 52152632.206513546 0 52152632.206513546 23632321.033901311 0 0 0 0 7280847.6265864372 12788011.477539837 0 12788011.477539837 6959700.3149912618 0 0 0 0 9912767.1486914158 7075419.207033677 0 7075419.207033677 -18828524.564055536 0 0 0 0 -2481610.2919018269 -9102146.9023492709 0 -9102146.9023492709 -19262298.555274155 0 0 0 0 -13187936.017720222 -1290148.3057732712 0 -1290148.3057732712 9721370.4411478434 0 0 0 0 1226195.9581754208 -4340796.417961698 0 -4340796.417961698 -9186981.7281337604 0 0 0 0 -571084.25653600693 -3079932.1529548373 0 -3079932.1529548373 -2659503.7659897683 0 0 0 0 778064.55329990387 -4853091.6700763404 0 -4853091.6700763404 -7479393.9877218753 0 0 0 0 854212.74541187286 -8148946.3381047472 0 -8148946.3381047472 -11285741.24686829 0 0 0 0 -13295.804671984166 7536.2347708618036 0 7536.2347708618036 24042.840366425509 0 0 0 0 255031.45581960678 -3624730.6613119766 0 -3624730.6613119766 -8864122.3441032544 0 0 0 0 2994724.7938647866 -678909.31604863051 0 -678909.31604863051 -2815511.012814641 0 0 0 0 3918003.9460871816 -5287749.9220946375 0 -5287749.9220946375 -10524563.665480334 0 0 0 0 1768030.4787356853 359566.43094555289 0 359566.43094555289 4454288.9608322978 0 0 0 0 6832066.4736502171 -1101638.5168340479 0 -1101638.5168340479 -5185725.6541172937 0 0 0 0 757581.9514169693 -1427078.8341717273 0 -1427078.8341717273 -2013540.1071077585 0 0 0 0 1098376.41065979 -2312233.4724261463 0 -2312233.4724261463 -1859690.8870857283 0 0 0 0 191172.0050110817 -681354.09426500648 0 -681354.09426500648 1113245.9022083879 0 0 0 0 998354.76055138558 -186244.95772646659 0 -186244.95772646659 115043.90637100681 0 0 0 0 627639.8038187027 -874937.62120547891 0 -874937.62120547891 2684307.659296155 0 0 0 0 -1091151.0156822205 -2631340.1910898685 0 -2631340.1910898685 3378787.520529151 0 0 0 0 -786841.9137802124 -2064709.9134163409 0 -2064709.9134163409 3681702.255033046 0 0 0 0 -437432.40660476685 -1348330.3986568376 0 -1348330.3986568376 3938176.0272946954 0 0 0 0 -2233752.2043762207 -2156634.2075654864 0 -2156634.2075654864 3769701.1344476044 0 0 0 0 3243821.0171365738 -4504828.5810226202 0 -4504828.5810226202 5474376.4928209856 0 0 0 0 10898828.496622086 -4425060.880559653 0 -4425060.880559653 -325368.20225012302 0 0 0 0 4902908.2782235146 -2425469.5224966705 0 -2425469.5224966705 -1516213.3091086149 0 0 0 0 -3216945.4344997406 -2098579.3196220398 0 -2098579.3196220398 -1357584.7002283186 0 0 0 0 14478972.421723366 2603473.3006355837 0 2603473.3006355837 -1392639.1961246133 0 0 0 0 6508023.9456419945 1092649.8060481846 0 1092649.8060481846 -2970267.2236267924 0 0 0 0 3198266.3410694599 -597028.58252234757 0 -597028.58252234757 954798.42651385069 0 0 0 0 597707.26361529529 -2913670.8885654602 0 -2913670.8885654602 -4539567.0775289536 0 0 0 0 153017.82543833111 -38475.301606168156 0 -38475.301606168156 -79636.61062698836 0 0 0 0 2470021.2994227409 -374893.70464031398 0 -374893.70464031398 -392674.13794213533 0 0 0 0 2238179.7977324724 -1039925.2899307571 0 -1039925.2899307571 -1340159.940802753 0 0 0 0 1890870.7989066839 -318005.54040273279 0 -318005.54040273279 -40614.433039307594 0 0 0 0 273739.48119191756 45002.973045104882 0 45002.973045104882 21903.728529194312 0 0 0 0 2038310.1272439957 -872307.385242939 0 -872307.385242939 -1653303.7466518879 0 0 0 0 2044955.7674193382 -1236897.9295213223 0 -1236897.9295213223 -1104713.1073160172 0 0 0 0 1077440.0691661835 -1632684.7552148402 0 -1632684.7552148402 -1269992.5438262224 0 0 0 0 3830800.5640220642 -6071421.6448826296 0 -6071421.6448826296 22261.767653021961 0 0 0 0 4246534.4694190025 -6278549.6303600147 0 -6278549.6303600147 -1287028.153155406 0 0 0 0 4794861.931055069 -6243737.0841108728 0 -6243737.0841108728 -1585013.3928847243 0 0 0 0 4751084.6293830872 -3925482.9900430813 0 -3925482.9900430813 -4897780.3543645516 0 0 0 0 4943421.9120713472 -2724610.3363029216 0 -2724610.3363029216 1840469.3943859525 0 0 0 0 4518888.8956168294 -415653.98438354488 0 -415653.98438354488 -955841.69998756051 0 0 0 0 4589536.7634882033 -966188.08190274891 0 -966188.08190274891 -19276.391946226358 0 0 0 0 4039335.6496534348 -146696.20222818851 0 -146696.20222818851 -880219.55132270418 0 0 0 0 4359415.4385123253 -486029.31363509595 0 -486029.31363509595 -910929.34808963444 0 0 0 0 5886964.2991907597 1090078.4549890682 0 1090078.4549890682 -640126.40538772941 0 0 0 0 5354690.4621858597 -27905.621093213558 0 -27905.621093213558 -2064147.413622573 0 0 0 0 3850155.2130904198 50786.453430533409 0 50786.453430533409 -870202.76718273759 0 0 0 0 4603269.9002037048 2744146.0800545365 0 2744146.0800545365 2006966.3762515485 0 0 0 0 867163.56872272864 -18024.364974305208 0 -18024.364974305208 314214.73885726929 0 0 0 0 1102578.1119132042 -3409318.5480082501 0 -3409318.5480082501 -10055171.734535739 0 0 0 0 -640952.43314027786 2350064.9156838953 0 2350064.9156838953 -6594648.6718875468 0 0 0 0 43138.615039003547 42222.705267571728 0 42222.705267571728 -2779.2964852044606 0 0 0 0 879608.64255469851 1333459.6918644398 0 1333459.6918644398 -470559.97133785486 0 0 0 0 354356.43012809753 108940.73365104198 0 108940.73365104198 -173291.34880936146 0 0 0 0 343872.21460580826 10179.187461987138 0 10179.187461987138 -173103.19865334034 0 0 0 0 276321.48392815795 110234.45458723395 0 110234.45458723395 -161147.01853348262 0 0 0 0 689435.03265357018 -123075.42376354337 0 -123075.42376354337 37735.954973101616 0 0 0 0 72569.533084277296 23274.862145352527 0 23274.862145352527 -8663.9857721261797 0 0 0 0 1858982.9144210815 457085.98559655249 0 457085.98559655249 -348200.80197909474 0 0 0 0 4156268.6520643234 503800.57554297149 0 503800.57554297149 -1191945.4837404937 0 0 0 0 265822.06998634338 13370.537489205599 0 13370.537489205599 -155953.44354581833 0 0 0 0 494608.63421486225 145460.7876632323 0 145460.7876632323 -216070.78549464652 0 0 0 0 284432.85122251511 156168.43549996614 0 156168.43549996614 -266943.1348375231 0 0 0 0 5228365.4906566143 -2887168.2954061851 0 -2887168.2954061851 5514594.07880022 0 0 0 0 -564925.43575924635 178204.44025047868 0 178204.44025047868 811990.49578201771 0 0 0 0 -22177.057862408459 34275.923393048928 0 34275.923393048928 -41076.676065258507 0 0 0 0 460076.6212562322 115862.59065565746 0 115862.59065565746 -143996.94726023954 0 0 0 0 3973858.1692905426 -985098.17034097016 0 -985098.17034097016 -179109.04809826612 0 0 0 0 4092307.9521713257 -1142976.1992619038 0 -1142976.1992619038 -347950.15679889917 0 0 0 0 3516535.2626173496 -126939.49259129167 0 -126939.49259129167 174879.00350540876 0 0 0 0 4884770.8661324978 -516320.89872512221 0 -516320.89872512221 -841664.70266437531 0 0 0 0 4075738.3929014206 -650675.62714418769 0 -650675.62714418769 -1096931.6506258845 0 0 0 0 4236108.3858783245 -372983.38304935396 0 -372983.38304935396 -732685.08935046196 0 0 0 0 3366109.9468853474 -674102.32998637855 0 -674102.32998637855 -110430.19867944717 0 0 0 0 -1400052.4544968605 -1963037.7805371583 0 -1963037.7805371583 675266.91260700673 0 0 0 0 2480218.7972414494 -2276966.043594718 0 -2276966.043594718 -1733792.2258605957 0 0 0 0 3384722.4531550407 -434432.34266091883 0 -434432.34266091883 -382410.48497265577 0 0 0 0 3134826.4538626671 -879036.73720169067 0 -879036.73720169067 -530021.47932225466 0 0 0 0 1008224.2680811882 -1182508.6946344972 0 -1182508.6946344972 864285.79577507079 0 0 0 0 236705.76265525818 25614.248565971851 0 25614.248565971851 644650.11013016105 0 0 0 0 1327987.9979765415 784940.0240303725 0 784940.0240303725 1083592.3782473058 0 0 0 0 1745432.6779811382 -30698.024016343057 0 -30698.024016343057 259403.20767515898 0 0 0 0 -1337770.8650403023 574791.80950967968 0 574791.80950967968 2642996.6059445441 0 0 0 0 -1231608.5588696003 -5621492.3698637113 0 -5621492.3698637113 4435134.9482094944 0 0 0 0 -1709365.6354705095 207818.64687166736 0 207818.64687166736 12697022.261715889 0 0 0 0 -2784915.1183753014 -3476794.7388048768 0 -3476794.7388048768 1527277.723549217 0 0 0 0 969624.71846795082 -9854076.2292393036 0 -9854076.2292393036 -11499533.501003552 0 0 0 0 1212768.5282695293 -7109213.4306270368 0 -7109213.4306270368 3750235.9893182404 0 0 0 0 3686827.410102129 -767785.94663969427 0 -767785.94663969427 -1288853.3666101098 0 0 0 0 50508.227887828485 22434.272886789986 0 22434.272886789986 -57411.103517746931 0 0 0 0 3562014.4813079834 -1093264.4196974561 0 -1093264.4196974561 257345.36034739017 0 0 0 0 4420982.558578968 -328861.93794696033 0 -328861.93794696033 -957624.70906502753 0 0 0 0 5280937.4918341637 -989065.24761245213 0 -989065.24761245213 -850673.10936580226 0 0 0 0 5776916.5825343132 -2568463.6318742242 0 -2568463.6318742242 591319.86716099316 0 0 0 0 86569.333152389503 36656.481134956121 0 36656.481134956121 -100933.74966788295 0 0 0 0 6390749.2604776621 -2651647.3010054436 0 -2651647.3010054436 -5835160.8806197792 0 0 0 0 7297448.1677200794 -5670047.6712436695 0 -5670047.6712436695 -407619.6792154219 0 0 0 0 4612895.6180620193 333087.26821652055 0 333087.26821652055 -1569654.6781268064 0 0 0 0 4776375.4428819418 218203.27185388096 0 218203.27185388096 -4678695.3977026343 0 0 0 0 52552.616304473719 23174.129072355456 0 23174.129072355456 -59925.763004729735 0 0 0 0 5549801.8593233824 237677.93206648529 0 237677.93206648529 -5478134.9363534898 0 0 0 0 2969415.3849797249 -2725958.9113872945 0 -2725958.9113872945 -4935809.5072491728 0 0 0 0 3561038.1999719143 -809491.77535523474 0 -809491.77535523474 -1074372.3339754343 0 0 0 0 3590005.4682168961 -1039101.9121814817 0 -1039101.9121814817 -2920034.779985249 0 0 0 0 2311492.1931476593 -1594905.3372684717 0 -1594905.3372684717 -675101.26405903697 0 0 0 0 2153497.4153807163 -337229.14378475305 0 -337229.14378475305 -324100.76493502595 0 0 0 0 3535786.8288856745 -549040.74847530574 0 -549040.74847530574 -2275554.9507656693 0 0 0 0 491677.09137261542 -269492.60779228178 0 -269492.60779228178 -166764.00232679886 0 0 0 0 4332730.2119438648 -2326983.8381982986 0 -2326983.8381982986 90834.847987466026 0 0 0 0 1431940.003259182 2828284.0072243288 0 2828284.0072243288 -5635259.8046382666 0 0 0 0 2409072.1124219894 676964.29010034353 0 676964.29010034353 -3101422.4502019212 0 0 0 0 5041674.0844509602 -3685633.6819677325 0 -3685633.6819677325 68868.664378764108 0 0 0 0 228371.78010333353 -136952.41493797244 0 -136952.41493797244 -114198.08990792451 0 0 0 0 2468457.0192821026 -436268.65619556978 0 -436268.65619556978 -4698655.2570429994 0 0 0 0 2546929.1770892143 53268.043371751904 0 53268.043371751904 -2096292.8611530736 0 0 0 0 -809883.82885110378 5864283.5567873903 0 5864283.5567873903 -16674280.775377147 0 0 0 0 15630183.13330698 1520220.7315107137 0 1520220.7315107137 -17587941.416410763 0 0 0 0 3178573.4850525856 -10324336.387903683 0 -10324336.387903683 -11018277.485428993 0 0 0 0 -2366662.5463955402 -8510036.3770877514 0 -8510036.3770877514 966363.85996892303 0 0 0 0 76744.06077536149 -38349.736346644931 0 -38349.736346644931 -52302.162018466261 0 0 0 0 1744141.3936405182 -2056557.8980888519 0 -2056557.8980888519 702449.78344467282 0 0 0 0 1316127.2977440953 -3608091.2947629667 0 -3608091.2947629667 -4921552.1331556337 0 0 0 0 744062.78896391392 1306949.4730094196 0 1306949.4730094196 -4610877.6694713719 0 0 0 0 1726138.0714635849 -1619261.7333275042 0 -1619261.7333275042 -3017768.3738879855 0 0 0 0 6121061.0988892019 -1952782.9787899638 0 -1952782.9787899638 1648643.5329288393 0 0 0 0 12854953.088009834 -5568466.2563100522 0 -5568466.2563100522 377191.20400346629 0 0 0 0 67792.462068708148 -19072.046986055677 0 -19072.046986055677 -10895.212862315457 0 0 0 0 -477232.78171145916 9346352.0620165113 0 9346352.0620165113 -6286244.6776414271 0 0 0 0 5130070.8896684647 4147242.3529298268 0 4147242.3529298268 -4814294.0142988684 0 0 0 0 8189557.6412615776 -6031104.5277675092 0 -6031104.5277675092 -19516687.546922825 0 0 0 0 5624.3364646965638 -14239.477095542854 0 -14239.477095542854 5142.1956200717814 0 0 0 0 10394249.007606879 9611972.1478675064 0 9611972.1478675064 -891248.18258611113 0 0 0 0 11428214.956236839 -3739868.1216261238 0 -3739868.1216261238 -6064456.8782333061 0 0 0 0 13088855.413291931 2416503.2967688888 0 2416503.2967688888 -10386638.087822616 0 0 0 0 8969957.5265284777 4838459.57802785 0 4838459.57802785 -5863784.3953083307 0 0 0 0 13314048.099240959 -3356531.9868841562 0 -3356531.9868841562 -7109587.4226442724 0 0 0 0 15963848.592442989 -12907372.427720666 0 -12907372.427720666 10257216.232078481 0 0 0 0 6257009.0849010944 2242549.3263235465 0 2242549.3263235465 11459737.464339077 0 0 0 0 8078127.8783919811 8806549.3139788508 0 8806549.3139788508 -7261187.9069577903 0 0 0 0 -2443169.3785479069 -15171972.692156576 0 -15171972.692156576 8421769.7841424197 0 0 0 0 93414.064214707236 29175.959576374851 0 29175.959576374851 3771.0883454411814 0 0 0 0 4169673.4162421227 2445409.8243505359 0 2445409.8243505359 1958477.706129849 0 0 0 0 1202761.9075670242 -417237.17173281312 0 -417237.17173281312 587056.16820466518 0 0 0 0 1060232.9717102051 -46032.514308571815 0 -46032.514308571815 352372.12984669209 0 0 0 0 816868.75417566299 -230212.86518889666 0 -230212.86518889666 496447.64678379893 0 0 0 0 787408.39110058546 -101177.05513583869 0 -101177.05513583869 68462.202064394951 0 0 0 0 768323.33677268028 -217948.77398326993 0 -217948.77398326993 43125.623020887375 0 0 0 0 320405.96730861731 88614.839667907916 0 88614.839667907916 -9428.5033472159121 0 0 0 0 11213041.271925688 -17009209.658048347 0 -17009209.658048347 19732010.996523678 0 0 0 0 8601904.5447368622 -6426556.1120927334 0 -6426556.1120927334 7407165.6469320953 0 0 0 0 29798838.472685814 -7239271.0436046571 0 -7239271.0436046571 1645672.2626920044 0 0 0 0 17947445.069252729 -387989.08207392693 0 -387989.08207392693 19274351.62840566 0 0 0 0 12906728.651718378 -3193810.4334956557 0 -3193810.4334956557 680496.96561378241 0 0 0 0 14827206.262661695 -11098758.555996209 0 -11098758.555996209 7555649.2700943649 0 0 0 0 286510.1219701767 152200.4002559185 0 152200.4002559185 -32414.925507187843 0 0 0 0 -28649.412142634392 474285.58312439919 0 474285.58312439919 -271534.69394481182 0 0 0 0 -385139.37598800659 424001.76506348699 0 424001.76506348699 163384.7917445302 0 0 0 0 175959.01173233986 361811.25986212492 0 361811.25986212492 -490018.63443142176 0 0 0 0 -133106.52442598343 285027.72059690952 0 285027.72059690952 402659.22319841385 0 0 0 0 2273.7608247944154 3374.3828362426721 0 3374.3828362426721 -1605.4735281294852 0 0 0 0 -127087.56416988373 252834.18595731258 0 252834.18595731258 573699.71406626701 0 0 0 0 228356.44414758682 312749.11049133539 0 312749.11049133539 -446300.21594274044 0 0 0 0 3511.0704611591063 111630.82948402734 0 111630.82948402734 317926.23417866707 0 0 0 0 20000077.732688665 -3370855.3447899222 0 -3370855.3447899222 1150426.7976859659 0 0 0 0 34489371.818954945 -3682766.6390617266 0 -3682766.6390617266 56019.311683088541 0 0 0 0 34315480.84850812 -16723884.119031318 0 -16723884.119031318 8710205.9605357647 0 0 0 0 22166660.393966913 -13077014.774649963 0 -13077014.774649963 7762509.2573735118 0 0 0 0 41881561.407496691 -5175624.056207329 0 -5175624.056207329 264907.15359678864 0 0 0 0 80439.225879001082 29512.432504246011 0 29512.432504246011 48570.300172627816 0 0 0 0 483950.23014497757 -353283.58622819185 0 -353283.58622819185 -16119.211948633194 0 0 0 0 -106791.26316165924 -85728.002955675125 0 -85728.002955675125 -133302.1589012146 0 0 0 0 678700.61324446672 247188.78333995584 0 247188.78333995584 234021.40862063202 0 0 0 0 997205.33465886116 -334620.98437935114 0 -334620.98437935114 -332302.04103755951 0 0 0 0 649781.31977295876 -172815.04014655948 0 -172815.04014655948 61121.427337527275 0 0 0 0 912042.86169195175 -310988.52443647385 0 -310988.52443647385 -45708.294794425368 0 0 0 0 1215310.0476727486 -287106.42845028639 0 -287106.42845028639 -67518.719809770584 0 0 0 0 1063081.1714439392 -108260.03558498621 0 -108260.03558498621 -320143.91124999523 0 0 0 0 287226.45201992989 253667.72517192364 0 253667.72517192364 -295313.0308920145 0 0 0 0 2841581.936670661 1210545.3721989989 0 1210545.3721989989 -1017662.2136061192 0 0 0 0 1029192.6944401857 -7660.373539614724 0 -7660.373539614724 3523.0923637145606 0 0 0 0 60725.936887690914 291841.10750083951 0 291841.10750083951 86276.32220030413 0 0 0 0 232040.54797387123 114702.99153080583 0 114702.99153080583 -233060.62018668652 0 0 0 0 -108407.52766442299 -105020.07322686911 0 -105020.07322686911 -50803.279141187668 0 0 0 0 -86383.390291213989 1583.2027203440666 0 1583.2027203440666 -166651.39069485664 0 0 0 0 2636521.9918010235 3776382.6738523245 0 3776382.6738523245 1052624.8352543414 0 0 0 0 -21040.142861339846 249594.66705777531 0 249594.66705777531 87774.485125658917 0 0 0 0 -666338.72359329462 -140996.36021769047 0 -140996.36021769047 1423194.457698226 0 0 0 0 3546579.5391408205 4247587.0001441836 0 4247587.0001441836 422060.06956970692 0 0 0 0 3205373.5644226074 3232920.0366282463 0 3232920.0366282463 2971346.4011077881 0 0 0 0 -115216.77893579006 -98015.714508861303 0 -98015.714508861303 -17624.163306117058 0 0 0 0 -158600.04178750515 -31301.279661953449 0 -31301.279661953449 214923.68463885784 0 0 0 0 -236758.25763678551 142113.70696049929 0 142113.70696049929 -161567.20469963551 0 0 0 0 -6479.1598033577939 -6897.9431950670842 0 -6897.9431950670842 1267.7307470133528 0 0 0 0 236647.39451146126 -410009.71498838067 0 -410009.71498838067 244879.47231531143 0 0 0 0 7512.3103361129761 -120175.22422277927 0 -120175.22422277927 -121489.1292206943 0 0 0 0 -45069.457496166229 -227812.16611176729 0 -227812.16611176729 120789.42527759075 0 0 0 0 -146062.358325243 -46332.88052162528 0 -46332.88052162528 254993.50872838497 0 0 0 0 -159657.04170632362 -31279.862691983581 0 -31279.862691983581 238434.05377984047 0 0 0 0 -157343.24755048752 -70183.664134144783 0 -70183.664134144783 457431.33393885195 0 0 0 0 410499.6335849762 -307432.16417637467 0 -307432.16417637467 -664683.44621610641 0 0 0 0 948059.37776756287 -1210990.1951845586 0 -1210990.1951845586 459689.7735992372 0 0 0 0 293565.25502991676 153682.6578502655 0 153682.6578502655 -531185.83027480543 0 0 0 0 371061.41352891922 238130.5423913002 0 238130.5423913002 -485734.57098960876 0 0 0 0 18877.870452431147 66859.781379652501 0 66859.781379652501 193268.58351818548 0 0 0 0 -1096842.8598372936 1527488.5942240208 0 1527488.5942240208 -1139538.5562373698 0 0 0 0 1443503.6418421865 388923.85163106024 0 388923.85163106024 -2222392.8158961833 0 0 0 0 3319911.679101944 -2248283.3251366615 0 -2248283.3251366615 -291369.97283488512 0 0 0 0 -677393.85029244423 -858368.17254260182 0 -858368.17254260182 6290383.9953091741 0 0 0 0 -863945.61867618561 141550.55466865003 0 141550.55466865003 1384290.9581089541 0 0 0 0 -495359.74154901505 410248.23653924465 0 410248.23653924465 1223409.2164440751 0 0 0 0 -334787.32732057571 -348692.23179063573 0 -348692.23179063573 1682450.900246501 0 0 0 0 825574.382563591 2035622.8366451431 0 2035622.8366451431 -3040580.7434711196 0 0 0 0 824358.67874985933 1868474.5871034157 0 1868474.5871034157 -45210.945338621736 0 0 0 0 -293151.80837655067 4208686.0881125554 0 4208686.0881125554 2516464.3457822297 0 0 0 0 2567318.153195858 -3378003.9192947 0 -3378003.9192947 1211764.7382522076 0 0 0 0 1720666.1494156122 -1684080.2974462621 0 -1684080.2974462621 3032245.0113886637 0 0 0 0 125316.76485557877 98368.226479284989 0 98368.226479284989 8863.5057559629677 0 0 0 0 573916.07464408875 -420577.45671263337 0 -420577.45671263337 -2102070.5119264107 0 0 0 0 54052.267780008027 16213.941199409426 0 16213.941199409426 -16322.629045853371 0 0 0 0 731571.12479352951 673828.29137492925 0 673828.29137492925 -1244830.2734313607 0 0 0 0 442194.28859388828 273051.70445643365 0 273051.70445643365 -204771.59159190953 0 0 0 0 -1588660.5556334257 337616.40379914641 0 337616.40379914641 742679.68752372265 0 0 0 0 295626.31109750597 275949.84635517094 0 275949.84635517094 -2519.4925323599273 0 0 0 0 -944024.40014192462 -17789626.461652867 0 -17789626.461652867 55334160.8166942 0 0 0 0 -4177270.5127720833 2141107.6659228653 0 2141107.6659228653 -326680.78065930307 0 0 0 0 115003.36946726992 -109969.7157046303 0 -109969.7157046303 190735.23529207119 0 0 0 0 45298340.659627199 42879589.738606527 0 42879589.738606527 -3971792.4848411228 0 0 0 0 80915989.501457214 -8772160.2186207175 0 -8772160.2186207175 40520508.894895554 0 0 0 0 9039589.6301648617 41647819.1941562 0 41647819.1941562 5492433.4584214315 0 0 0 0 895715.35094761848 399263.22657085955 0 399263.22657085955 -401123.43040413782 0 0 0 0 382959.21861548361 389916.38636725006 0 389916.38636725006 -50641.798370236102 0 0 0 0 1244626.8759201244 373661.86359040067 0 373661.86359040067 -1041263.9284073114 0 0 0 0 1217528.172314167 1142140.5290520042 0 1142140.5290520042 -2124689.4492908716 0 0 0 0 318653.44840192795 477671.62724198401 0 477671.62724198401 129741.0619183043 0 0 0 0 674971.40308094025 740675.63410314638 0 740675.63410314638 88361.103859290481 0 0 0 0 170818.78940355778 558730.08274519071 0 558730.08274519071 192838.6810451597 0 0 0 0 14982.312856716744 171527.71746999648 0 171527.71746999648 246532.16105681221 0 0 0 0 105075.66415691376 584931.9002699703 0 584931.9002699703 276082.63919465244 0 0 0 0 -476330.7747297287 235794.45215666294 0 235794.45215666294 520219.10624843836 0 0 0 0 -79996.879094839096 934874.3115260303 0 934874.3115260303 40392.759253852069 0 0 0 0 54462.168036222458 1474107.3476827368 0 1474107.3476827368 1511517.6098996252 0 0 0 0 -258816.39195871353 387632.62197777629 0 387632.62197777629 1008882.2843798399 0 0 0 0 -263268.42611038685 285904.98853241466 0 285904.98853241466 447947.23386371136 0 0 0 0 -340606.32813262939 159744.76629009843 0 159744.76629009843 597836.63951531053 0 0 0 0 -277470.4303458035 -113439.26983843744 0 -113439.26983843744 603201.04545396566 0 0 0 0 -54167.046825250858 162316.01214365024 0 162316.01214365024 252696.31314075814 0 0 0 0 -575666.85323792696 344496.20951428823 0 344496.20951428823 455369.84947013855 0 0 0 0 -404082.91483449936 320630.74923247099 0 320630.74923247099 190790.22437921725 0 0 0 0 -391732.88933610916 338297.78887343407 0 338297.78887343407 91464.344822734594 0 0 0 0 -53636.252230785787 528109.43171707913 0 528109.43171707913 262303.43872046471 0 0 0 0 201405.43738465666 81091.253269706824 0 81091.253269706824 -51387.173090143187 0 0 0 0 8354531.0092608929 2021143.2388919592 0 2021143.2388919592 829653.0594509542 0 0 0 0 2058740.8406434059 2318673.242051959 0 2318673.242051959 2617004.6843165755 0 0 0 0 6710681.8129481077 2515298.734376967 0 2515298.734376967 2143898.4187343121 0 0 0 0 4566286.6189365387 1238328.08960706 0 1238328.08960706 2994411.6111277044 0 0 0 0 6672789.4598942995 2694434.5975899547 0 2694434.5975899547 1728798.8603713512 0 0 0 0 5941717.0053656846 3914699.0895129591 0 3914699.0895129591 4652572.0719395876 0 0 0 0 872470.15495836735 211378.54005584121 0 211378.54005584121 -977579.21415293217 0 0 0 0 77878.78209227664 22380.918975694251 0 22380.918975694251 -32544.050376844534 0 0 0 0 4534289.1593019962 1418352.6959113181 0 1418352.6959113181 -963100.40396886459 0 0 0 0 4747126.5117270574 -559960.42604026571 0 -559960.42604026571 660935.08237886429 0 0 0 0 889299.29145348072 739314.77383369207 0 739314.77383369207 -334367.32979667187 0 0 0 0 386306.07423222065 134259.70141151547 0 134259.70141151547 -382616.19221904315 0 0 0 0 -1338653.4525902942 272601.45795373991 0 272601.45795373991 1624833.965362668 0 0 0 0 1391047.1642856598 -1400261.4841357023 0 -1400261.4841357023 1941304.6010830794 0 0 0 0 676688.04767889529 1782941.0931843519 0 1782941.0931843519 2476895.0549510717 0 0 0 0 7498111.6591150165 -2944246.8204135969 0 -2944246.8204135969 -2336630.7963207923 0 0 0 0 3765700.4265329316 7743933.1161476858 0 7743933.1161476858 1263874.705198586 0 0 0 0 -356247.84621822834 920353.62696204334 0 920353.62696204334 -643304.96124874428 0 0 0 0 29832.31529728492 181678.32043077721 0 181678.32043077721 4395.0813852332831 0 0 0 0 710782.98635354638 66990.836453534663 0 66990.836453534663 -908267.17132860422 0 0 0 0 6246546.1240800321 -1642557.2072383985 0 -1642557.2072383985 -329450.26868830621 0 0 0 0 1306828.2808565795 -1329360.7061921507 0 -1329360.7061921507 502720.03493994474 0 0 0 0 -19939.695132492579 -32353.841121375353 0 -32353.841121375353 27144.224842919088 0 0 0 0 26428493.830357611 5040692.6866673455 0 5040692.6866673455 -6319800.4934765548 0 0 0 0 11453.245902895036 -62614.306240873637 0 -62614.306240873637 14678.805724515638 0 0 0 0 -4195591.2031563818 2207758.275288932 0 2207758.275288932 2452729.1401194632 0 0 0 0 13700040.132275522 4055885.8243151903 0 4055885.8243151903 434058.79753136635 0 0 0 0 12656433.791538447 -1248616.4563255608 0 -1248616.4563255608 3939919.220802784 0 0 0 0 649176.79954265803 158547.88808842003 0 158547.88808842003 -827433.45211201906 0 0 0 0 -200977.22521448135 283926.89290189743 0 283926.89290189743 -41594.745417177677 0 0 0 0 623822.49012202024 -988864.35158775747 0 -988864.35158775747 121181.71595549583 0 0 0 0 150740.46075079995 -58360.056221871055 0 -58360.056221871055 -52743.563803445955 0 0 0 0 -1686625.8519431353 1097474.8536022902 0 1097474.8536022902 5428430.2933540344 0 0 0 0 26258.717753539517 -93586.353198982397 0 -93586.353198982397 56441.24530904647 0 0 0 0 16714197.00562802 2223160.5915986598 0 2223160.5915986598 -2244988.9122773409 0 0 0 0 8099.541561056918 2664.5734781055362 0 2664.5734781055362 -1943.0455870296864 0 0 0 0 15434192.305905402 -252043.04869794846 0 -252043.04869794846 -2045335.1022197604 0 0 0 0 18001276.390065551 5736759.6283687353 0 5736759.6283687353 3570142.8008140326 0 0 0 0 10389166.011465967 -721520.51965469122 0 -721520.51965469122 771217.33421874046 0 0 0 0 13047139.977008894 6161654.9974161386 0 6161654.9974161386 -6696166.5906188488 0 0 0 0 24385.000253045509 -77081.788316267659 0 -77081.788316267659 75399.942663910799 0 0 0 0 17577004.036770701 -4896781.4373617172 0 -4896781.4373617172 -1234522.9510571957 0 0 0 0 12518275.182528019 4982687.8776862621 0 4982687.8776862621 2621537.7329685688 0 0 0 0 -10852495.221098781 22781207.789554477 0 22781207.789554477 -8776156.8584547043 0 0 0 0 10615451.824540615 2022175.8427323103 0 2022175.8427323103 797475.39565229416 0 0 0 0 11381035.40364182 -326634.25935447216 0 -326634.25935447216 536156.40255045891 0 0 0 0 -490814.45289957523 -3124363.0040765107 0 -3124363.0040765107 -3652443.7320020199 0 0 0 0 -576039.83627358079 -2884214.208956778 0 -2884214.208956778 -1538794.5623364449 0 0 0 0 -1501790.7041658163 -1924869.0402516127 0 -1924869.0402516127 3560225.2779266238 0 0 0 0 -3414386.2365076542 -374632.14574027061 0 -374632.14574027061 2380201.1731648445 0 0 0 0 -2461068.3811661005 -5511680.1222524643 0 -5511680.1222524643 -5873649.6726555824 0 0 0 0 -9626969.8634650707 -5327960.1176145077 0 -5327960.1176145077 -827368.79590988159 0 0 0 0 991060.62411111593 -557754.12725225091 0 -557754.12725225091 -6286664.091613885 0 0 0 0 -6660625.0841231644 991333.62725569308 0 991333.62725569308 -216597.28396701813 0 0 0 0 -3921819.1015604958 -6361920.8845063001 0 -6361920.8845063001 -3855018.7040749788 0 0 0 0 377653.99523566116 -199035.83168292095 0 -199035.83168292095 -283482.03375498741 0 0 0 0 2750013.4322037697 -769391.67770463228 0 -769391.67770463228 -2013375.8542764485 0 0 0 0 1713781.4726448115 -193142.86485705967 0 -193142.86485705967 -178995.17084574435 0 0 0 0 2314659.064365387 -454692.10000580549 0 -454692.10000580549 -1829417.6113836765 0 0 0 0 9607959.9232967198 8886767.3812402785 0 8886767.3812402785 -7634676.4311037064 0 0 0 0 1337357.6979112625 -1220461.5480600595 0 -1220461.5480600595 -1153726.0313796401 0 0 0 0 741075.13344192505 -796181.47100305557 0 -796181.47100305557 -687747.41163527966 0 0 0 0 8218935.8059946895 -3262359.3006962538 0 -3262359.3006962538 -518093.3820681572 0 0 0 0 7566440.7351518869 -4005349.3247148395 0 -4005349.3247148395 29426.472760915756 0 0 0 0 13962082.488462646 -1417629.517012924 0 -1417629.517012924 -1153544.5764634609 0 0 0 0 8989.2837957405336 -30363.502794694999 0 -30363.502794694999 15838.503563342907 0 0 0 0 -5723112.3896403909 -6731253.5817693472 0 -6731253.5817693472 11310487.314163208 0 0 0 0 -10523610.120186269 -15007830.776478171 0 -15007830.776478171 7198588.006634742 0 0 0 0 9049642.8918406963 -176100.66835045815 0 -176100.66835045815 532863.45774208009 0 0 0 0 2924798.5936421752 820703.34413817525 0 820703.34413817525 -993593.17459750175 0 0 0 0 2299364.8176107407 2026791.6934185624 0 2026791.6934185624 1798283.850754003 0 0 0 0 6607878.0255168676 1168392.6867843568 0 1168392.6867843568 1808015.0362200737 0 0 0 0 3991467.1882779151 4189226.8704224639 0 4189226.8704224639 3329548.7224740982 0 0 0 0 2330347.7705265284 3358919.081617713 0 3358919.081617713 3349174.3616174459 0 0 0 0 4349623.5593708307 1992374.7383504659 0 1992374.7383504659 -562655.96768474579 0 0 0 0 572781.52942204475 2291590.373456955 0 2291590.373456955 3828088.8329800963 0 0 0 0 2284061.5085971355 2585369.2668113708 0 2585369.2668113708 -3638679.701892972 0 0 0 0 3015702.9742451012 -685864.8485276103 0 -685864.8485276103 -5430237.6767416 0 0 0 0 1051859.3394423425 1309012.3393267989 0 1309012.3393267989 -199277.33806705475 0 0 0 0 1463314.5499740548 -215904.17576468369 0 -215904.17576468369 -53210.615121826035 0 0 0 0 -3865671.7319782376 -1093477.8258613944 0 -1093477.8258613944 -1273697.8639490604 0 0 0 0 7509928.4632740021 -3321184.7697429657 0 -3321184.7697429657 -12652723.371656716 0 0 0 0 1196454.9475245476 -632451.57232964039 0 -632451.57232964039 -990058.25597429276 0 0 0 0 902443.39539861679 -415232.27941790223 0 -415232.27941790223 -159584.69893532991 0 0 0 0 1240829.6095189692 -134474.99234895065 0 -134474.99234895065 -17924.544874377549 0 0 0 0 1108916.4027643204 -439508.04476225376 0 -439508.04476225376 -638630.45739525557 0 0 0 0 1034819.5510439873 -296405.25323343277 0 -296405.25323343277 -4479.805799305439 0 0 0 0 1050007.8317813724 29886.901402231306 0 29886.901402231306 319908.03481829166 0 0 0 0 -18192.467782497406 -430483.3084975481 0 -430483.3084975481 764233.07414412498 0 0 0 0 649732.15218639374 -450991.85161292553 0 -450991.85161292553 -140897.65068498254 0 0 0 0 745495.56112337112 -781981.40651971102 0 -781981.40651971102 776303.03745150566 0 0 0 0 1546160.8469209671 -1257737.5785622001 0 -1257737.5785622001 734476.48430125415 0 0 0 0 1623077.3782223463 -362673.77968712151 0 -362673.77968712151 962325.43738746643 0 0 0 0 2502170.7835285664 -815094.15463885665 0 -815094.15463885665 -164868.36628437042 0 0 0 0 3277427.2778406143 -1268457.1419151425 0 -1268457.1419151425 -1395146.8135893345 0 0 0 0 1630948.3423340321 -947511.8419265151 0 -947511.8419265151 -84432.763112068176 0 0 0 0 975228.67261314392 -984230.73039638996 0 -984230.73039638996 -28197.190916612744 0 0 0 0 1829023.8182377815 -956092.5624076128 0 -956092.5624076128 -665320.46964347363 0 0 0 0 1242617.0768141747 -763201.93431225419 0 -763201.93431225419 -71223.94017791748 0 0 0 0 1771052.9527845383 2157586.847451061 0 2157586.847451061 661605.21565854549 0 0 0 0 5054214.3655362129 1131852.260343045 0 1131852.260343045 -1776169.1551232338 0 0 0 0 203354.60108304024 240670.5229177773 0 240670.5229177773 -1139058.696516037 0 0 0 0 1226040.3496189117 1963680.4909286499 0 1963680.4909286499 -2034481.9575113654 0 0 0 0 1140979.8584051132 399005.45584642887 0 399005.45584642887 -1363225.6224378347 0 0 0 0 5006660.2482881546 -1478288.7074058652 0 -1478288.7074058652 -1045245.7070323825 0 0 0 0 2726256.5711431503 -157110.30486547947 0 -157110.30486547947 -1734933.237251699 0 0 0 0 2513504.6709700823 -1113477.5130792856 0 -1113477.5130792856 2502713.4828257561 0 0 0 0 5577397.2705826759 884725.65883708 0 884725.65883708 666872.1918900013 0 0 0 0 5910776.6086473465 -1321223.1378308535 0 -1321223.1378308535 -332151.36001946032 0 0 0 0 -71772.512037167326 92857.790453209134 0 92857.790453209134 -33513.573082713818 0 0 0 0 3552136.6433019638 -2083933.8423909545 0 -2083933.8423909545 394410.0797175914 0 0 0 0 -144398.89268398285 1278345.4331358075 0 1278345.4331358075 798105.0744535327 0 0 0 0 -797233.51763391495 774360.17074552178 0 774360.17074552178 743609.23465383053 0 0 0 0 -234481.04227364063 356704.81215132028 0 356704.81215132028 -537959.11132062972 0 0 0 0 794545.21700070496 278327.79249474534 0 278327.79249474534 -422151.26989440672 0 0 0 0 43260939.242165804 -25513951.221681379 0 -25513951.221681379 10777148.910501875 0 0 0 0 76876982.174402714 -52347213.37467587 0 -52347213.37467587 8259811.2184316441 0 0 0 0 53227811.952224016 -13231587.526945179 0 -13231587.526945179 -2691557.0999852642 0 0 0 0 17062.493717529811 91422.132367767335 0 91422.132367767335 -8281.7665211264739 0 0 0 0 50245510.966633439 -70660636.014159858 0 -70660636.014159858 47100880.142840415 0 0 0 0 78995699.4791646 -36433852.792411745 0 -36433852.792411745 39728639.752394408 0 0 0 0 51274.863618312898 -16602.219102722185 0 -16602.219102722185 5168.1206572529991 0 0 0 0 34809947.389851809 -43658030.8689325 0 -43658030.8689325 43135209.667624742 0 0 0 0 45954074.358124733 -66441743.826765627 0 -66441743.826765627 58260642.277411863 0 0 0 0 356068.34264913911 86474.363992262282 0 86474.363992262282 -6219.6689121706586 0 0 0 0 55636123.858077049 -94934388.402792335 0 -94934388.402792335 56767002.506313011 0 0 0 0 -320683.63357362151 5326691.6183093172 0 5326691.6183093172 -21174400.478974998 0 0 0 0 10977940.777493954 -588032.35484962165 0 -588032.35484962165 13033388.115409572 0 0 0 0 12953908.386350989 -91778283.25878799 0 -91778283.25878799 -66484795.078391023 0 0 0 0 93178101.87302649 -54204249.161910363 0 -54204249.161910363 -153338024.07372132 0 0 0 0 96343678.206166267 -26200651.008949563 0 -26200651.008949563 -19614171.787767183 0 0 0 0 -80032462.621526778 52388212.5748806 0 52388212.5748806 -13914927.960929692 0 0 0 0 -21767115.499734879 140593565.29682025 0 140593565.29682025 -50582766.257234991 0 0 0 0 195668025.99406672 43743468.969580859 0 43743468.969580859 -3513865.660827294 0 0 0 0 95104822.91255188 16285025.994551346 0 16285025.994551346 -6516861.7445273604 0 0 0 0 8068613.1692211628 113986785.55387844 0 113986785.55387844 30491153.502203338 0 0 0 0 -12524091.283875152 -18592266.80314637 0 -18592266.80314637 126683476.77753498 0 0 0 0 97965842.632692695 137973748.15479133 0 137973748.15479133 148219891.90439305 0 0 0 0 77499915.647266746 82981632.769963518 0 82981632.769963518 5953867.8191738278 0 0 0 0 -13343018.263835654 12094605.295558494 0 12094605.295558494 257409116.20985132 0 0 0 0 48060.893840745819 43943.070814146457 0 43943.070814146457 -1332.5265530257384 0 0 0 0 271938891.0223608 69475062.320440814 0 69475062.320440814 93757805.904798076 0 0 0 0 235701453.99295068 115692914.53717345 0 115692914.53717345 56000125.475117743 0 0 0 0 66622.334118399944 6723.8515980092634 0 6723.8515980092634 -33772.791617967661 0 0 0 0 105518635.62682831 -22698970.308460999 0 -22698970.308460999 111027955.61266404 0 0 0 0 132746249.5475058 -66216084.861324854 0 -66216084.861324854 17348069.531473886 0 0 0 0 160352047.37044835 -27463081.320355143 0 -27463081.320355143 61508718.530540295 0 0 0 0 103305379.16093946 -11120467.8728403 0 -11120467.8728403 90789799.224152029 0 0 0 0 4371758.1704752445 32494562.596715298 0 32494562.596715298 -72934896.522155941 0 0 0 0 -8019958.2784395218 110268749.30874257 0 110268749.30874257 -74498688.439040601 0 0 0 0 761125.44271290302 -99415.01155269146 0 -99415.01155269146 -660481.0230897665 0 0 0 0 449273.34727272275 365854.41019852855 0 365854.41019852855 -191384.26058936934 0 0 0 0 -3801642.8314268589 130381390.81131124 0 130381390.81131124 -87153951.828528389 0 0 0 0 -34229460.162185192 93397615.11772278 0 93397615.11772278 -82991879.605176717 0 0 0 0 17514799.958424091 90756819.729857117 0 90756819.729857117 -60482730.478245459 0 0 0 0 1026623.6907458305 399273.4773465991 0 399273.4773465991 -825829.47203320265 0 0 0 0 53372186.36346367 -133748764.93750589 0 -133748764.93750589 28172424.50713256 0 0 0 0 801225.35000404413 372604.65748100739 0 372604.65748100739 -251440.16142738095 0 0 0 0 989418.69353032112 167027.34702658653 0 167027.34702658653 -1028108.8863137364 0 0 0 0 35032.846487402916 57927569.549157336 0 57927569.549157336 1850718.9887328744 0 0 0 0 122990382.38440406 -74727181.483650744 0 -74727181.483650744 -21225726.094939619 0 0 0 0 1153270.8893264832 46885.194276857306 0 46885.194276857306 -452797.26751214714 0 0 0 0 69333375.875533998 -23420010.043412335 0 -23420010.043412335 -41481329.134173572 0 0 0 0 1751894.4586529732 354538.39815461636 0 354538.39815461636 -2020474.2106482983 0 0 0 0 3318861.5849757195 -142242.49642181396 0 -142242.49642181396 -1923717.3195117712 0 0 0 0 1433503.276408467 -106160.64615777024 0 -106160.64615777024 -573634.71925684216 0 0 0 0 1290234.782241106 360930.58131483197 0 360930.58131483197 -1264495.0013631582 0 0 0 0 1300728.9263444543 407467.48132109642 0 407467.48132109642 -4004957.176599741 0 0 0 0 1258460.3000596762 172746.84392899275 0 172746.84392899275 -1634006.6275627613 0 0 0 0 860078.18834513426 -997530.12573426962 0 -997530.12573426962 -2032819.1305280924 0 0 0 0 863513.95699697733 -628557.2508290112 0 -628557.2508290112 -89220.858085751534 0 0 0 0 734578.42352443933 -20835.662735581398 0 -20835.662735581398 -889983.7841219902 0 0 0 0 843522.80241298676 -230123.41835743189 0 -230123.41835743189 -957549.17699503899 0 0 0 0 283053.53741077089 -183540.84656634563 0 -183540.84656634563 -275981.34649217315 0 0 0 0 449614.19613675587 -901195.77444371162 0 -901195.77444371162 -151488.7509983778 0 0 0 0 272650.22880864143 -1365509.7517550588 0 -1365509.7517550588 162130.74550414085 0 0 0 0 439342.85163789988 -434594.96829634905 0 -434594.96829634905 984134.26695102453 0 0 0 0 314475.86697842763 -141708.74511237012 0 -141708.74511237012 -130092.34066653403 0 0 0 0 820048.89620401338 -408957.91759347916 0 -408957.91759347916 -278375.74933834374 0 0 0 0 48415.104204718846 -107726.51329249883 0 -107726.51329249883 -36384.550409593066 0 0 0 0 253759.10197410363 -9672.3608607234382 0 -9672.3608607234382 -143409.26569829299 0 0 0 0 5315149.8180571198 714557.31641351432 0 714557.31641351432 -294356.5538738519 0 0 0 0 11707604.115072012 15555616.756603524 0 15555616.756603524 -15247992.186465673 0 0 0 0 8689921.1339730695 -9147840.7485037111 0 -9147840.7485037111 -36107704.789031669 0 0 0 0 -1680930.2998277014 25023155.285532422 0 25023155.285532422 -17845956.875554562 0 0 0 0 -18748471.513770595 936970.21280107647 0 936970.21280107647 -12306124.345546002 0 0 0 0 111742.16067801868 -21536.230493783376 0 -21536.230493783376 -31631.38413360175 0 0 0 0 112453353.70643605 46002747.893105246 0 46002747.893105246 4584964.6901675314 0 0 0 0 10415249.239160746 -46955281.84177155 0 -46955281.84177155 -11181865.864324316 0 0 0 0 3260646.2894979864 5953205.6973985694 0 5953205.6973985694 21327634.119593896 0 0 0 0 156412838.71622363 -6363462.7359207422 0 -6363462.7359207422 -14580005.832706526 0 0 0 0 101629822.08544764 12765972.935499609 0 12765972.935499609 -14313938.511925071 0 0 0 0 132119938.18395853 -68846.108189418912 0 -68846.108189418912 -16946813.663196191 0 0 0 0 80144688.766838402 -21250694.110278532 0 -21250694.110278532 -10034947.37060868 0 0 0 0 84854385.475969911 -715774.90915131569 0 -715774.90915131569 -17751614.754070796 0 0 0 0 842025.02760952711 -258556.66091680527 0 -258556.66091680527 -766081.67208814621 0 0 0 0 46354242.178517282 16078631.203135546 0 16078631.203135546 6329589.8107009232 0 0 0 0 322083.55290352559 -187283.21468151166 0 -187283.21468151166 -339832.78067825519 0 0 0 0 123958348.62897265 -3446410.0944269076 0 -3446410.0944269076 10473543.809363924 0 0 0 0 120030079.93229586 5093827.1316791121 0 5093827.1316791121 -645827.22180187702 0 0 0 0 108668147.30626436 -26592485.432926647 0 -26592485.432926647 -10019564.677372515 0 0 0 0 146342207.84435534 258257.80949288234 0 258257.80949288234 1161883.170452727 0 0 0 0 32236049.726813674 -98302993.281165302 0 -98302993.281165302 23774496.542864501 0 0 0 0 130900245.95819932 18071108.529855512 0 18071108.529855512 67268174.569772214 0 0 0 0 129459457.98043066 5082281.2250363212 0 5082281.2250363212 16411430.899721362 0 0 0 0 109382344.24330795 -7376705.1705769803 0 -7376705.1705769803 58792005.89231354 0 0 0 0 105793869.10812831 -23515099.385173537 0 -23515099.385173537 7242346.0604722649 0 0 0 0 120190008.44916427 -10281437.865030505 0 -10281437.865030505 17149376.787443604 0 0 0 0 124032897.76428521 -4348510.2897466794 0 -4348510.2897466794 1418343.033967033 0 0 0 0 125100657.20526975 -33816013.212608911 0 -33816013.212608911 1997711.0993912071 0 0 0 0 115817748.96146946 -27273002.153163031 0 -27273002.153163031 -1995980.8077420965 0 0 0 0 140629196.24907598 -53638982.133902922 0 -53638982.133902922 366194.2206036374 0 0 0 0 155500136.88766998 -27148617.620376177 0 -27148617.620376177 -1996116.6241342768 0 0 0 0 139451578.84363803 -16248613.869718179 0 -16248613.869718179 -4904170.4675618261 0 0 0 0 137339533.69903278 -9197699.4675623924 0 -9197699.4675623924 -1097238.372869648 0 0 0 0 136093014.76593494 -11852651.463877961 0 -11852651.463877961 -6689870.0206754059 0 0 0 0 141742328.98856339 -10849874.894819468 0 -10849874.894819468 -14845058.545383755 0 0 0 0 178737702.02149907 -16155382.510884978 0 -16155382.510884978 -16566137.376632296 0 0 0 0 148810424.13898012 -15095399.187021907 0 -15095399.187021907 -6289939.3661489189 0 0 0 0 173912983.95113781 -31905853.120190319 0 -31905853.120190319 -28812988.018185787 0 0 0 0 165355234.21509081 -1360035.1067214087 0 -1360035.1067214087 -12149294.804249808 0 0 0 0 210456791.26598138 -21120849.311104778 0 -21120849.311104778 -25704738.342966512 0 0 0 0 164754087.72530055 -1556180.5543575138 0 -1556180.5543575138 3973593.4609890282 0 0 0 0 242026204.51947731 -4837836.0554742329 0 -4837836.0554742329 -39150369.933431722 0 0 0 0 243111468.55195504 -38039942.629963934 0 -38039942.629963934 -48550752.391574554 0 0 0 0 314916766.1270237 5409820.2829286037 0 5409820.2829286037 -69322344.118658617 0 0 0 0 220213869.61583215 -45088668.215447769 0 -45088668.215447769 -47613985.507113077 0 0 0 0 315038147.4390161 -98797519.464328557 0 -98797519.464328557 -48405882.147731245 0 0 0 0 219577652.89145306 -53439970.403846137 0 -53439970.403846137 -20690419.022541754 0 0 0 0 176761072.92602426 -99301194.009416044 0 -99301194.009416044 13130062.160134126 0 0 0 0 117450684.56216276 -53131228.133874267 0 -53131228.133874267 1724231.511345352 0 0 0 0 175457930.78342342 -108387208.56324109 0 -108387208.56324109 -44422680.991587304 0 0 0 0 314424512.66822237 -183017082.90238783 0 -183017082.90238783 -29744857.529708076 0 0 0 0 79888777.048282623 -197234755.9275026 0 -197234755.9275026 95309038.346447691 0 0 0 0 230288494.6262002 124145256.16207319 0 124145256.16207319 -132139855.17269331 0 0 0 0 288141.28243994527 -251301.48108495108 0 -251301.48108495108 37321.744549332041 0 0 0 0 -38826734.357085109 -6999886.7959432397 0 -6999886.7959432397 -5347049.9750103578 0 0 0 0 43696730.409245968 -63793835.756327033 0 -63793835.756327033 32231177.39153897 0 0 0 0 111172075.65548992 -21919872.208169006 0 -21919872.208169006 -16781246.989756778 0 0 0 0 107281450.43831801 -39286761.490406215 0 -39286761.490406215 839508.03007975593 0 0 0 0 128099416.10830164 -44388261.8172732 0 -44388261.8172732 -67005239.389911324 0 0 0 0 101288381.59908283 38029.529388138559 0 38029.529388138559 -62887169.489389487 0 0 0 0 135778143.1983242 -29740856.554459907 0 -29740856.554459907 -64296130.459949471 0 0 0 0 103215852.10066223 -37307852.530017659 0 -37307852.530017659 17417663.433205839 0 0 0 0 93482245.412442684 -43085010.923009917 0 -43085010.923009917 31355061.21973398 0 0 0 0 99713465.545297027 -40706832.636032298 0 -40706832.636032298 21525222.39603433 0 0 0 0 111885434.26414698 -41400470.406251177 0 -41400470.406251177 -34182521.618542418 0 0 0 0 130631512.1525352 -54672325.101588503 0 -54672325.101588503 -27448305.863669023 0 0 0 0 120198374.52542037 -72211745.048745066 0 -72211745.048745066 -56811048.667417154 0 0 0 0 88891384.851317704 -79834053.970018908 0 -79834053.970018908 -17196842.59631741 0 0 0 0 109377602.06590319 -51166953.7435669 0 -51166953.7435669 -58834667.426627576 0 0 0 0 39751398.080209494 83549.653954775073 0 83549.653954775073 -40244791.174948864 0 0 0 0 811730.01265898964 102576.42385647466 0 102576.42385647466 -79638.225535371777 0 0 0 0 78006419.842033386 46738682.562222809 0 46738682.562222809 -141694168.44419929 0 0 0 0 94685744.800688624 -65202647.680589877 0 -65202647.680589877 -49805049.36626599 0 0 0 0 79520166.218586683 -44091913.549312577 0 -44091913.549312577 -52479167.543979377 0 0 0 0 88264238.379261494 -47350928.838284746 0 -47350928.838284746 -65694171.932990238 0 0 0 0 116609855.79057801 -132356278.84526387 0 -132356278.84526387 38912009.203557938 0 0 0 0 -35172194.960891724 89199714.757653147 0 89199714.757653147 39020711.363567844 0 0 0 0 137895434.51185441 -179328326.47084695 0 -179328326.47084695 95854787.280359492 0 0 0 0 -114673336.48944497 18666022.235616088 0 18666022.235616088 318038820.63752687 0 0 0 0 76540689.970610619 31796396.83165627 0 31796396.83165627 -123709681.68305384 0 0 0 0 307303.10093090998 -199014.96894563621 0 -199014.96894563621 33603.530590798415 0 0 0 0 152750293.43018675 -249924574.92128006 0 -249924574.92128006 25811722.269266289 0 0 0 0 156635033.12617803 -38185620.046353035 0 -38185620.046353035 -155253723.97980881 0 0 0 0 177462679.37691212 -62816820.921126984 0 -62816820.921126984 -89130161.673380882 0 0 0 0 134774229.27433896 -34796766.236769885 0 -34796766.236769885 -82710450.694782853 0 0 0 0 133411010.23681068 -117166687.70061675 0 -117166687.70061675 115936310.75084391 0 0 0 0 228855895.08595467 -127411489.22028296 0 -127411489.22028296 -45223496.152484328 0 0 0 0 110745361.38538361 -257450555.08844936 0 -257450555.08844936 130796419.45587233 0 0 0 0 466155.01423370896 2493.0233533626597 0 2493.0233533626597 -69226.478850436019 0 0 0 0 48657868.701079369 48304847.229897469 0 48304847.229897469 -79830170.638800681 0 0 0 0 19829853.350943565 -14529941.332928061 0 -14529941.332928061 27244980.102584966 0 0 0 0 23373191.760619164 -40812959.468949035 0 -40812959.468949035 -26240406.203580253 0 0 0 0 -36679595.683060884 -1213891.9757590555 0 -1213891.9757590555 8098636.7495183125 0 0 0 0 -13061524.687665224 -42119453.210909672 0 -42119453.210909672 5013031.1706201769 0 0 0 0 8096634.4626536369 -37687575.407197341 0 -37687575.407197341 38202324.956864983 0 0 0 0 5483587.9079272747 -34178971.069456913 0 -34178971.069456913 35504225.422712617 0 0 0 0 150605049.1922164 -9921063.4717595838 0 -9921063.4717595838 -56136125.3733624 0 0 0 0 29523430.244829178 -18850130.99816633 0 -18850130.99816633 24776049.421366297 0 0 0 0 34659162.653059959 -24218070.186579458 0 -24218070.186579458 9221691.7955236137 0 0 0 0 88159954.577888966 -16835592.147041701 0 -16835592.147041701 21545567.154300965 0 0 0 0 164196547.46714091 -32268942.598915819 0 -32268942.598915819 6078008.5300114816 0 0 0 0 212872273.79170704 -94468128.631419361 0 -94468128.631419361 17741457.10314044 0 0 0 0 315092246.09049249 -53975302.258088872 0 -53975302.258088872 -1258926.41042366 0 0 0 0 178059660.58413696 -10459925.560908098 0 -10459925.560908098 -13662757.314426331 0 0 0 0 314358608.44498348 31275617.560809243 0 31275617.560809243 -38119861.016572118 0 0 0 0 130109825.00016117 -276095162.40553248 0 -276095162.40553248 70589944.439528853 0 0 0 0 51430069.409759283 91098078.661141932 0 91098078.661141932 69027689.72184661 0 0 0 0 184948631.84333867 -46755359.969039448 0 -46755359.969039448 159415384.6179018 0 0 0 0 13352744.760154486 4598743.6420103759 0 4598743.6420103759 2678145.1733416319 0 0 0 0 11059947.494816303 3520617.2171232998 0 3520617.2171232998 -3623337.7570283413 0 0 0 0 90934.941666398314 -75335.557640303741 0 -75335.557640303741 -63758.266912227497 0 0 0 0 13820858.00077796 6649408.1698513329 0 6649408.1698513329 10416199.089728236 0 0 0 0 19109549.04816246 4031695.9446629286 0 4031695.9446629286 -1315193.476617083 0 0 0 0 19117105.430921674 4664673.7180025876 0 4664673.7180025876 -345134.11251103878 0 0 0 0 19130326.627066255 4628357.0747791231 0 4628357.0747791231 -344241.62767446041 0 0 0 0 23073735.74685812 5608801.7529659867 0 5608801.7529659867 -1068466.9328635037 0 0 0 0 15971486.527979851 5580608.7167605162 0 5580608.7167605162 -432495.93951620162 0 0 0 0 9993942.2662043571 5603140.9782693386 0 5603140.9782693386 -2634621.0173985958 0 0 0 0 9169941.2490367889 8986661.2119737864 0 8986661.2119737864 -9463595.8782453537 0 0 0 0 686878.05923247337 7676433.9631148279 0 7676433.9631148279 -3013142.0748751163 0 0 0 0 5122006.5849380493 -339998.58233249187 0 -339998.58233249187 -776139.94885200262 0 0 0 0 317623.86631273478 -1489493.9647183083 0 -1489493.9647183083 -1004181.6985749006 0 0 0 0 9999334.4595155716 55259.345787286758 0 55259.345787286758 1118656.5679002255 0 0 0 0 4019296.9892854691 -1182208.1705398262 0 -1182208.1705398262 908925.48483872414 0 0 0 0 6959386.8165783882 4862145.4047922492 0 4862145.4047922492 -2782976.3102301955 0 0 0 0 10404957.87128067 1818777.3144442737 0 1818777.3144442737 -95319.212434470654 0 0 0 0 12392505.159207582 5215915.2963931412 0 5215915.2963931412 2305676.6992756128 0 0 0 0 10782056.564270258 -119267.37680511177 0 -119267.37680511177 988740.95441862941 0 0 0 0 89840.991886864649 -70612.882954376866 0 -70612.882954376866 -71661.580779008858 0 0 0 0 9350652.1561923921 -2978176.8792405641 0 -2978176.8792405641 2356964.2647927999 0 0 0 0 9641336.8498834074 -459214.96386042051 0 -459214.96386042051 1805792.2802307606 0 0 0 0 16134501.285920918 -7300419.1932147406 0 -7300419.1932147406 -1481890.9634860158 0 0 0 0 18100863.900729775 3795320.3702757228 0 3795320.3702757228 3790765.4745025635 0 0 0 0 11506741.812407017 4997909.4582072198 0 4997909.4582072198 2088808.5164400935 0 0 0 0 11493376.690395117 4727080.2406396419 0 4727080.2406396419 3779446.4073100686 0 0 0 0 13111313.679645538 5834018.5314902067 0 5834018.5314902067 2188806.1750465631 0 0 0 0 12790284.854707718 5339741.15453583 0 5339741.15453583 1532734.886059016 0 0 0 0 14470230.929602861 4033143.4163663983 0 4033143.4163663983 -343696.52042114735 0 0 0 0 11200200.938855648 1386834.6412563324 0 1386834.6412563324 462853.6383779645 0 0 0 0 12221041.477169991 1420022.8624280095 0 1420022.8624280095 -1794177.0842956081 0 0 0 0 10170981.650811672 3535100.4303143024 0 3535100.4303143024 1928662.4247511923 0 0 0 0 9032997.8548183441 499947.02177307755 0 499947.02177307755 396851.31437468529 0 0 0 0 10853955.942080498 3590548.40704602 0 3590548.40704602 1892994.7840205133 0 0 0 0 6317970.8847365379 4999379.9243737608 0 4999379.9243737608 7023932.8945605159 0 0 0 0 3440424.0468893051 104624.17859326303 0 104624.17859326303 3407814.5799959898 0 0 0 0 1976837.3235319853 -1118304.0939956857 0 -1118304.0939956857 3520049.0679867864 0 0 0 0 1931449.0126657486 103272.57294207811 0 103272.57294207811 4624503.4054501951 0 0 0 0 4911148.5252137184 1044103.4321894944 0 1044103.4321894944 3895505.5990664065 0 0 0 0 1015009.1908369064 -1427894.8034797907 0 -1427894.8034797907 4497943.9648276269 0 0 0 0 852019.92540168762 -1279655.3699240088 0 -1279655.3699240088 4520791.2422493845 0 0 0 0 1392595.7140130997 -2996905.9695287794 0 -2996905.9695287794 5684175.0064049065 0 0 0 0 -7168.9749622344971 -813139.64162817597 0 -813139.64162817597 7848634.9962219894 0 0 0 0 149200.43726849556 -757565.47026050836 0 -757565.47026050836 4163056.5091844797 0 0 0 0 1244414.8064007759 -1536995.5102418363 0 -1536995.5102418363 2080076.0986027122 0 0 0 0 802042.3869407177 1631604.1877048165 0 1631604.1877048165 -3620148.8561122715 0 0 0 0 -1626188.0858287811 357697.81719565392 0 357697.81719565392 2604803.9349075556 0 0 0 0 5378253.4138221741 -4296330.1421891153 0 -4296330.1421891153 -749959.87755852938 0 0 0 0 -962459.96342754364 -2261310.2460102439 0 -2261310.2460102439 2815808.5134201795 0 0 0 0 4038573.6004515886 -2196642.1793194711 0 -2196642.1793194711 2391246.9168903232 0 0 0 0 -1314423.6704359055 2272745.553284049 0 2272745.553284049 11749152.932564318 0 0 0 0 -591973.22925662994 216383.86794281006 0 216383.86794281006 10051113.125234783 0 0 0 0 879828.32579040527 1897267.2204995751 0 1897267.2204995751 5527333.9105161428 0 0 0 0 1453086.3817305863 224320.56991498917 0 224320.56991498917 7513752.0569750071 0 0 0 0 -1577845.2945318222 2474216.3051131368 0 2474216.3051131368 9162946.7395508289 0 0 0 0 4517737.3847289085 -210548.69105769694 0 -210548.69105769694 2940991.7753619179 0 0 0 0 854570.10680389404 1362028.0434839725 0 1362028.0434839725 4377381.3674916402 0 0 0 0 2287627.0527510643 3767763.7544720471 0 3767763.7544720471 8185703.6951080859 0 0 0 0 17745.767017364502 -1461851.0261460543 0 -1461851.0261460543 2617383.1150327176 0 0 0 0 -1627519.951997757 -994699.8454939127 0 -994699.8454939127 -1949723.8546965271 0 0 0 0 -1588567.3072853088 3287598.2246060371 0 3287598.2246060371 -9192342.0284690857 0 0 0 0 -3766869.1565990448 -433120.04443585873 0 -433120.04443585873 -2032550.118529886 0 0 0 0 -3836873.9512195587 3174907.6097179651 0 3174907.6097179651 -3545198.1458232403 0 0 0 0 -1365031.7610931396 389900.62904363871 0 389900.62904363871 4224772.8354053944 0 0 0 0 768194.92929470539 1285075.5030533671 0 1285075.5030533671 -113005.7325180769 0 0 0 0 609569.81936144829 -1368600.3317802846 0 -1368600.3317802846 -1689770.2616134882 0 0 0 0 25218.081915964372 93242.817790709407 0 93242.817790709407 42026.217129208322 0 0 0 0 1153829.6177368164 2704483.5135273933 0 2704483.5135273933 -6156597.4967661053 0 0 0 0 2271549.484205246 1401538.7178768516 0 1401538.7178768516 -5861378.8730214685 0 0 0 0 782950.92185020447 1523810.1196509302 0 1523810.1196509302 -343.79522562026978 0 0 0 0 -652430.14280891418 1594481.022008419 0 1594481.022008419 14372.766995668411 0 0 0 0 -116525.04641366005 2600314.3416461051 0 2600314.3416461051 -2741871.7646048069 0 0 0 0 -2597754.3099060059 1074216.7575285435 0 1074216.7575285435 -5451569.7590866089 0 0 0 0 -3769885.0587482452 2772710.7890564203 0 2772710.7890564203 -2738162.0773839951 0 0 0 0 -1307841.2227869034 1009778.4661542773 0 1009778.4661542773 5443504.6367348209 0 0 0 0 -11054572.693465233 -6601776.8574630916 0 -6601776.8574630916 14793830.706260443 0 0 0 0 12672991.207355499 -2324912.3718695045 0 -2324912.3718695045 -12394484.902629972 0 0 0 0 -1558173.7694211006 -801708.99985462427 0 -801708.99985462427 -581688.44313955307 0 0 0 0 -172942.0237493515 -761535.4690181911 0 -761535.4690181911 -1955136.8064858317 0 0 0 0 1485804.5817558765 66698.175452023745 0 66698.175452023745 -5817949.4005993009 0 0 0 0 18002.932853211707 -48008.166523052379 0 -48008.166523052379 17001.384412953688 0 0 0 0 -1189434.9697341919 -1315441.6544933319 0 -1315441.6544933319 -17360617.075826645 0 0 0 0 883.17861039011041 -1199.0764313496184 0 -1199.0764313496184 -249.76971127529396 0 0 0 0 11726008.062412739 3580997.7456606925 0 3580997.7456606925 -7597188.9830260277 0 0 0 0 -972704.1908659935 -1706605.8232012987 0 -1706605.8232012987 794819.28887104988 0 0 0 0 17307813.460969925 11221771.136870861 0 11221771.136870861 -991120.40828871727 0 0 0 0 18268376.828460693 11532187.044070959 0 11532187.044070959 -1304318.7714715004 0 0 0 0 -16081114.601387024 -12872537.033912897 0 -12872537.033912897 -2526747.894538641 0 0 0 0 52857.466413220507 -38514.695016173646 0 -38514.695016173646 -65190.23238518124 0 0 0 0 9800834.9026539326 -4988338.980245471 0 -4988338.980245471 2366726.7325421572 0 0 0 0 22959804.743504524 4613599.0133904219 0 4613599.0133904219 -7901905.6146221161 0 0 0 0 15808632.442926407 -754600.09315907955 0 -754600.09315907955 -11625181.623652458 0 0 0 0 8248993.8659219742 6975177.8234081268 0 6975177.8234081268 2898026.3037334681 0 0 0 0 12056011.033117294 -2424109.7226289213 0 -2424109.7226289213 -2668647.2114024758 0 0 0 0 -2942.6527418233454 61171.866043595684 0 61171.866043595684 16711.929080322188 0 0 0 0 -4126.4261442832649 118971.61412997491 0 118971.61412997491 20215.80422161294 0 0 0 0 498256.40723609924 -1435045.3053748012 0 -1435045.3053748012 -1458996.4631208181 0 0 0 0 4199800.8642635345 3889450.6926133037 0 3889450.6926133037 3124802.4443144454 0 0 0 0 -1088713.6595652103 -432335.82453772426 0 -432335.82453772426 3057105.4475448132 0 0 0 0 398948.20683526993 1026255.4998171329 0 1026255.4998171329 -207047.92792010307 0 0 0 0 9815314.4759795666 845573.239640221 0 845573.239640221 5198973.7081580162 0 0 0 0 10089539.056677341 4889147.1454972625 0 4889147.1454972625 2631939.5540595055 0 0 0 0 7666537.3798699379 4922729.8415971398 0 4922729.8415971398 2932046.8938454092 0 0 0 0 8811201.5490864515 1288006.1322519034 0 1288006.1322519034 2318346.6254912615 0 0 0 0 401742.48130083084 700971.18243801594 0 700971.18243801594 2948575.7640483379 0 0 0 0 4064952.9278240204 3659927.1269960403 0 3659927.1269960403 2673743.0473368168 0 0 0 0 5591962.0066461563 2311946.6889301538 0 2311946.6889301538 -858815.30352604389 0 0 0 0 454713.75921678543 -93491.269459068775 0 -93491.269459068775 698144.34717607498 0 0 0 0 6528604.084569931 5006587.0034859776 0 5006587.0034859776 1758046.2706561983 0 0 0 0 6158962.707497716 1608944.2555294782 0 1608944.2555294782 794362.74994468689 0 0 0 0 5288253.8341948986 2499237.112706989 0 2499237.112706989 964041.66223812103 0 0 0 0 7248603.7382926941 2043277.8952525258 0 2043277.8952525258 -1238467.9995620251 0 0 0 0 14451082.480400205 8090578.0405270606 0 8090578.0405270606 3340716.0369837284 0 0 0 0 63711.279553808272 16608.604588967515 0 16608.604588967515 -45458.749875732581 0 0 0 0 -2793.8406918061664 -55388.956521914806 0 -55388.956521914806 61455.7126041007 0 0 0 0 17408786.408914089 -12651206.479463279 0 -12651206.479463279 5712987.9840014279 0 0 0 0 3150087.3493745327 2816499.017151624 0 2816499.017151624 979377.19841575623 0 0 0 0 -1899071.9758353233 1593406.3488423824 0 1593406.3488423824 2764270.8976403475 0 0 0 0 12198287.705378056 1739759.7051155567 0 1739759.7051155567 -4956328.6878848672 0 0 0 0 12324429.059438705 844402.62414169312 0 844402.62414169312 -1323710.1065738201 0 0 0 0 11324352.36070776 -4399841.9745768905 0 -4399841.9745768905 1192732.4630218744 0 0 0 0 6190.2890435755253 50240.150443399034 0 50240.150443399034 1420.1046923655667 0 0 0 0 13246148.420166969 160755.46181440353 0 160755.46181440353 -4097169.0909492373 0 0 0 0 -13822.103291930282 -67862.018001412856 0 -67862.018001412856 61930.838019490126 0 0 0 0 -2186042.0545995235 5826827.8756850958 0 5826827.8756850958 7097710.2100653648 0 0 0 0 5086077.3319380283 -6575729.9503646195 0 -6575729.9503646195 708714.49192810059 0 0 0 0 -5205205.575138092 -704480.89551186562 0 -704480.89551186562 695354.61988246441 0 0 0 0 14864619.299057484 1652052.8703098297 0 1652052.8703098297 -3056318.3002419472 0 0 0 0 6930342.9582018852 7354151.5130195618 0 7354151.5130195618 6897671.0275076628 0 0 0 0 7756550.6347776651 5278917.5888035148 0 5278917.5888035148 -234833.52345657349 0 0 0 0 7780213.5729460716 4252374.5676641464 0 4252374.5676641464 -1043581.3397865891 0 0 0 0 7603913.9148273468 3890528.4444415569 0 3890528.4444415569 -322248.05655908585 0 0 0 0 8347101.6197319031 3497136.0191316009 0 3497136.0191316009 -483595.0996440649 0 0 0 0 -21544.068583695276 -85541.21975433873 0 -85541.21975433873 39362.210136093548 0 0 0 0 21205821.306347132 -1926726.4260946959 0 -1926726.4260946959 -3710153.7551586628 0 0 0 0 6444279.856066227 75580.916169881821 0 75580.916169881821 -3027314.3195230961 0 0 0 0 4563401.2637972832 6508962.4116386175 0 6508962.4116386175 -2062709.4719221592 0 0 0 0 3996881.6607627869 4853894.6534062624 0 4853894.6534062624 -12161184.79287672 0 0 0 0 3100372.0782843232 726742.79273824394 0 726742.79273824394 -2689489.1969900131 0 0 0 0 -4205371.7939426899 389701.79663395882 0 389701.79663395882 -2367305.6386785507 0 0 0 0 -2582440.8735935688 -10267945.064905301 0 -10267945.064905301 -12794648.113830328 0 0 0 0 -6685505.6670942307 7012874.074764967 0 7012874.074764967 -13504996.034612775 0 0 0 0 5801614.0896854401 -3289853.0428537726 0 -3289853.0428537726 -3713991.5571624637 0 0 0 0 12702187.488919377 4943979.8429498374 0 4943979.8429498374 -11015271.176961422 0 0 0 0 5763561.3179397583 -60865.649397850037 0 -60865.649397850037 -1724053.8032654524 0 0 0 0 4851847.647954464 2956497.4649644494 0 2956497.4649644494 -440819.98837161064 0 0 0 0 2699805.9317884445 -4234254.1735506058 0 -4234254.1735506058 2207138.5773435831 0 0 0 0 12502829.66669178 3884452.8159592748 0 3884452.8159592748 1438685.0531561375 0 0 0 0 11483743.654005527 -3937790.1604765654 0 -3937790.1604765654 -1200993.6056499481 0 0 0 0 8799789.3432712555 -3635095.6327186227 0 -3635095.6327186227 307731.02531796694 0 0 0 0 9125848.1147910058 -7315993.2548688687 0 -7315993.2548688687 681164.75893902779 0 0 0 0 14444078.846418262 -3785433.1361926049 0 -3785433.1361926049 -1372180.9510644674 0 0 0 0 13048646.099436879 -6587906.4901379794 0 -6587906.4901379794 -2174878.6362661123 0 0 0 0 47976.993614588748 -41306.461044120137 0 -41306.461044120137 -31478.355081587448 0 0 0 0 6458687.7064295411 -2380908.3717935309 0 -2380908.3717935309 15327613.083711028 0 0 0 0 22690795.386047363 2667788.1238532066 0 2667788.1238532066 -1571079.2307657003 0 0 0 0 16628382.727153063 -1175502.3081853688 0 -1175502.3081853688 2636780.7192225456 0 0 0 0 451905.29762518406 6248060.0517023951 0 6248060.0517023951 -5618540.1338949203 0 0 0 0 3045809.321706295 -275234.5955747962 0 -275234.5955747962 -5309571.529733859 0 0 0 0 -26379.607155440608 39004.19091076823 0 39004.19091076823 50694.2832976504 0 0 0 0 10659428.66015625 -7964933.4356782436 0 -7964933.4356782436 -1199763.2758798897 0 0 0 0 -38652.541928205639 69406.440032655373 0 69406.440032655373 85791.137919599249 0 0 0 0 1764633.7579841614 2446813.3387821317 0 2446813.3387821317 -5854589.6513887942 0 0 0 0 18359679.576856852 187762.73410944641 0 187762.73410944641 -4986944.7479590178 0 0 0 0 6503535.1782704592 74891.800420686603 0 74891.800420686603 10324866.397744894 0 0 0 0 6262056.7561130524 -9785712.4401443601 0 -9785712.4401443601 5335216.4101288915 0 0 0 0 14014983.004789829 7232162.0096625686 0 7232162.0096625686 -631877.86475884914 0 0 0 0 17817240.896588445 -2675975.5425543487 0 -2675975.5425543487 -3836346.2175867558 0 0 0 0 3122199.8306202888 -7198327.2240065038 0 -7198327.2240065038 11083968.601995826 0 0 0 0 42411.835365939653 27529.092380723945 0 27529.092380723945 -29789.23091127543 0 0 0 0 1062841.0625610352 1675503.867043376 0 1675503.867043376 -392590.28601229191 0 0 0 0 -4736141.4286692142 -225296.02848768234 0 -225296.02848768234 7955968.0629401207 0 0 0 0 -2265368.231470108 6872565.2142919302 0 6872565.2142919302 -2363382.2379852831 0 0 0 0 -31640.354211948346 41608.672234946454 0 41608.672234946454 55041.393243405386 0 0 0 0 1568672.0921278 -2917732.1056838632 0 -2917732.1056838632 2116677.9252970219 0 0 0 0 3867003.2866239548 3983079.4812275767 0 3983079.4812275767 -1020965.6212637126 0 0 0 0 162470.60153913498 -6041847.2169322371 0 -6041847.2169322371 -3361600.6668983847 0 0 0 0 232687.26499651768 -113348.68856296033 0 -113348.68856296033 -218435.59813427442 0 0 0 0 563755.90934753418 -2655.0828001499176 0 -2655.0828001499176 -404033.1397061944 0 0 0 0 534422.90742921829 206488.03664919734 0 206488.03664919734 -650826.18255762756 0 0 0 0 796261.45286679082 69560.439055345283 0 69560.439055345283 -369802.1384354789 0 0 0 0 459605.11459064484 82898.452909246087 0 82898.452909246087 -126203.53020101786 0 0 0 0 -4130610.3105096817 -4463364.777892381 0 -4463364.777892381 7182935.2365233898 0 0 0 0 9892808.9076566696 3427103.1540439129 0 3427103.1540439129 -4540256.6075705886 0 0 0 0 516993.39543679578 -57167.063859714312 0 -57167.063859714312 -368214.00218517613 0 0 0 0 1249407.4538497925 751909.09065924585 0 751909.09065924585 -1164640.474830389 0 0 0 0 4748381.7620706558 -972063.97902616858 0 -972063.97902616858 -359169.0099131614 0 0 0 0 426797.32665416872 -157520.63225923979 0 -157520.63225923979 -241084.28147908347 0 0 0 0 667296.43043661118 -67167.023777425289 0 -67167.023777425289 -67816.338473066688 0 0 0 0 413854.34002473415 206642.69252781745 0 206642.69252781745 -324915.35209142434 0 0 0 0 -1213885.117442131 -378620.28305915743 0 -378620.28305915743 -791182.56853620708 0 0 0 0 323614.20613085589 132852.91467631259 0 132852.91467631259 -291464.99329686549 0 0 0 0 -244331.83568191528 300249.80318468809 0 300249.80318468809 -398028.00150772929 0 0 0 0 -1524852.0546221733 754537.48782762885 0 754537.48782762885 -440664.0592873916 0 0 0 0 11524.846840515151 -32995.661904227687 0 -32995.661904227687 -89970.890351316135 0 0 0 0 4807182.6345849037 -1558970.1719064415 0 -1558970.1719064415 -2036255.6840506196 0 0 0 0 3510822.4449591637 -2619685.4811659455 0 -2619685.4811659455 -2143000.663880311 0 0 0 0 397195.11674308777 866217.58437609673 0 866217.58437609673 -2847243.0996145308 0 0 0 0 7532670.4833745956 -3447425.2340147495 0 -3447425.2340147495 -715226.16710478067 0 0 0 0 2459170.3221722841 -2071629.5041573197 0 -2071629.5041573197 -1056835.0102247 0 0 0 0 3961172.701294899 -560256.43485456891 0 -560256.43485456891 -8091713.5559071377 0 0 0 0 2005056.3695111275 -781751.02494715154 0 -781751.02494715154 169501.62680850178 0 0 0 0 11189340.035686672 2056520.1165406902 0 2056520.1165406902 -3879471.9667566326 0 0 0 0 4223732.9434323311 2327321.9193234481 0 2327321.9193234481 -338569.68007340282 0 0 0 0 6707823.0872695446 2809621.3456358179 0 2809621.3456358179 -1640197.5032088161 0 0 0 0 3868406.0296735764 2610718.5423824415 0 2610718.5423824415 -1181593.4608237147 0 0 0 0 3661689.0473928452 909775.20423984248 0 909775.20423984248 -2229452.7734159231 0 0 0 0 3649029.8675978184 1219077.89725505 0 1219077.89725505 -3461668.3801204339 0 0 0 0 1651444.6894497871 1874043.0376674831 0 1874043.0376674831 -2256522.0741555393 0 0 0 0 3485196.6841138601 1135132.8514018059 0 1135132.8514018059 -2468392.3579217643 0 0 0 0 465699.11129283905 -146919.97409594804 0 -146919.97409594804 -1798209.3340780851 0 0 0 0 381962.17987656593 59870.971939982846 0 59870.971939982846 -2306877.6666295454 0 0 0 0 -1524064.7474875525 -3331088.8273691414 0 -3331088.8273691414 -6128554.8420165358 0 0 0 0 -1408091.4974794388 636324.02176361158 0 636324.02176361158 -1770117.868538145 0 0 0 0 -371104.26437473297 8558245.2595874742 0 8558245.2595874742 7025152.1700671576 0 0 0 0 1798356.7004880905 -2946682.9952097647 0 -2946682.9952097647 -11885075.648838723 0 0 0 0 -1176.1558306366205 -14923.445976687013 0 -14923.445976687013 7496.9307753300818 0 0 0 0 1390956.600584507 1942994.2040475607 0 1942994.2040475607 -8196781.9131428618 0 0 0 0 750930.31062031281 115801.30716459011 0 115801.30716459011 -320960.64176141028 0 0 0 0 -369762.12134170532 208481.79643053934 0 208481.79643053934 -2328996.8707629293 0 0 0 0 1090605.6799790859 -693673.4686813365 0 -693673.4686813365 -3051151.1853714716 0 0 0 0 -470765.32926869392 230002.11585656181 0 230002.11585656181 -1667454.4628001451 0 0 0 0 -625371.64805603027 -790848.10786417779 0 -790848.10786417779 -2818233.8090864625 0 0 0 0 155979.76248073578 -1843001.1975711039 0 -1843001.1975711039 -6618782.6910374202 0 0 0 0 433909.81751585007 163220.14965608716 0 163220.14965608716 -668825.33735594153 0 0 0 0 315248.27677488327 52166.733942255378 0 52166.733942255378 -237290.57549113035 0 0 0 0 528427.08637530915 157063.87686071324 0 157063.87686071324 -289937.52502494352 0 0 0 0 22408.47092962265 3880460.9406840168 0 3880460.9406840168 3034225.4431057125 0 0 0 0 573731.21559298038 -61104.522229664028 0 -61104.522229664028 -270270.85364979506 0 0 0 0 435740.30876111984 2713266.4756637923 0 2713266.4756637923 -5268803.4631920941 0 0 0 0 3250845.8056902885 663912.36698679626 0 663912.36698679626 -1932517.3672825098 0 0 0 0 4747218.5118101835 3529516.3537290916 0 3529516.3537290916 -1388851.2154867798 0 0 0 0 -1327825.7218294144 -375678.06787659228 0 -375678.06787659228 -246194.55462116748 0 0 0 0 578954.35663378239 2802808.6114717312 0 2802808.6114717312 787619.65657269955 0 0 0 0 -4260261.5442042351 394528.2915179804 0 394528.2915179804 -315390.58757907152 0 0 0 0 -1857147.1107874513 2425922.9711409565 0 2425922.9711409565 -4461108.6929522455 0 0 0 0 -7974321.44053936 -1062286.9996003062 0 -1062286.9996003062 -5637554.0314925909 0 0 0 0 -1338187.01988554 7627317.9390569106 0 7627317.9390569106 -4719694.1997795394 0 0 0 0 -12337582.937280178 10242723.624787197 0 10242723.624787197 -4736781.9619612386 0 0 0 0 3552886.6526563764 10764657.422747862 0 10764657.422747862 -17012456.123404682 0 0 0 0 767243.85236239433 3449775.3663223442 0 3449775.3663223442 1451624.9337149709 0 0 0 0 2777100.0603505373 5811263.9238187652 0 5811263.9238187652 -8517926.3446559459 0 0 0 0 3959494.4578304291 7282306.6812567413 0 7282306.6812567413 -7256347.5684957355 0 0 0 0 6483351.8458156586 7045112.8790296912 0 7045112.8790296912 -8111031.873594813 0 0 0 0 6120595.3956365585 1144483.047012344 0 1144483.047012344 -7726626.6844593883 0 0 0 0 -1286870.2803702354 2756849.9926535487 0 2756849.9926535487 -7627598.5247574002 0 0 0 0 8588.6470047370531 -23031.503645401535 0 -23031.503645401535 8672.6470590562421 0 0 0 0 4946836.673992157 4164394.4381365404 0 4164394.4381365404 -8417133.1544386595 0 0 0 0 11672646.961504459 254404.45563033968 0 254404.45563033968 -776924.80903631449 0 0 0 0 16909489.126001477 -750311.32808446139 0 -750311.32808446139 -1226187.1813873947 0 0 0 0 5887.0155570721108 15447.611078287591 0 15447.611078287591 217.20085936400574 0 0 0 0 3723358.8709683418 5033018.6574284732 0 5033018.6574284732 -8415324.1027981006 0 0 0 0 3708173.9413483143 627864.81302592158 0 627864.81302592158 377814.11124683917 0 0 0 0 3443916.5790739059 2948975.6920352653 0 2948975.6920352653 -1193032.919462651 0 0 0 0 3871004.6630754471 2425675.0686004907 0 2425675.0686004907 -1500102.3040627092 0 0 0 0 5541644.497136116 1167810.1906483695 0 1167810.1906483695 -3696346.0774677098 0 0 0 0 5114063.3383564949 3887537.8736035526 0 3887537.8736035526 -13219465.769856602 0 0 0 0 -5737225.7257740498 19498605.665865704 0 19498605.665865704 -13930855.910858244 0 0 0 0 -9131508.6027736664 16604639.985819772 0 16604639.985819772 -16321259.502574831 0 0 0 0 -9634437.8557579368 8134260.5667842049 0 8134260.5667842049 -6603635.9395743012 0 0 0 0 -26786071.447626948 10933105.031774268 0 10933105.031774268 -6914665.6256013811 0 0 0 0 5477.0442184041603 10313.41477422195 0 10313.41477422195 -47143.338566747028 0 0 0 0 -10988938.319735765 29104213.276933819 0 29104213.276933819 -13085329.95959872 0 0 0 0 -28374742.813169003 32918711.548729777 0 32918711.548729777 -4777758.7524833679 0 0 0 0 2475811.8721995354 -18112399.865375943 0 -18112399.865375943 -11988783.781839907 0 0 0 0 -4572591.9035556316 4196186.219223462 0 4196186.219223462 1006743.8076179028 0 0 0 0 -3315.3111526979483 -5950.8649531495757 0 -5950.8649531495757 -57091.479359668883 0 0 0 0 4965787.9600820541 5032392.1046594679 0 5032392.1046594679 -3551012.5421923995 0 0 0 0 9906339.4931499958 1535685.8242287785 0 1535685.8242287785 -2125868.2344341129 0 0 0 0 9967.0202528180089 20566.801351304166 0 20566.801351304166 6227.6751743630448 0 0 0 0 5609699.2830424309 -313498.47934350371 0 -313498.47934350371 1553917.8219379783 0 0 0 0 18739329.426373005 -1911810.5151215196 0 -1911810.5151215196 -2775805.7213493586 0 0 0 0 5898750.9298737049 1107380.1870351434 0 1107380.1870351434 3559459.1956718564 0 0 0 0 -251600.54188913107 1293095.2740756012 0 1293095.2740756012 29671.932565927505 0 0 0 0 4748797.3151791096 -3839311.5549173951 0 -3839311.5549173951 1010685.5864460375 0 0 0 0 -70597.562765982933 -49265.76753324992 0 -49265.76753324992 25447.91259760526 0 0 0 0 3890032.9049401283 -2965092.4390057474 0 -2965092.4390057474 2361082.6809428334 0 0 0 0 3447236.4536653757 -2577530.0905028284 0 -2577530.0905028284 2048277.1612984538 0 0 0 0 2961307.9024367332 -2012038.8508225679 0 -2012038.8508225679 860317.84723037481 0 0 0 0 327956.52636623383 301638.16917553544 0 301638.16917553544 -375191.79951184988 0 0 0 0 -55347.92645016883 38648.336337141751 0 38648.336337141751 -1339.8012138790509 0 0 0 0 -48801915.551787853 18630269.835676819 0 18630269.835676819 1045840.9501792192 0 0 0 0 52845.179560368066 10571.451624070294 0 10571.451624070294 -61670.576737298339 0 0 0 0 352020.46493601799 301312.06645431742 0 301312.06645431742 -15399260.295397043 0 0 0 0 207695.9521958828 -441316.32144746184 0 -441316.32144746184 -201672.1301054135 0 0 0 0 128286.80928392312 118165.57258286781 0 118165.57258286781 -38317.026820745727 0 0 0 0 -6033396.9720213413 11968222.003296927 0 11968222.003296927 -12804027.973965287 0 0 0 0 -5266123.6517763138 12464275.047108799 0 12464275.047108799 -15263401.090306938 0 0 0 0 -13480979.223675489 11185935.37880452 0 11185935.37880452 -5836591.5292634964 0 0 0 0 -8286190.7569997311 1833684.5642409325 0 1833684.5642409325 4310980.7552042902 0 0 0 0 -4930506.7396783829 7024449.0098444819 0 7024449.0098444819 -15914700.517930791 0 0 0 0 -4282130.1913249493 3309088.5773392245 0 3309088.5773392245 -7802480.5808852911 0 0 0 0 -807991.06227016449 5169553.0625393689 0 5169553.0625393689 -24380483.954600848 0 0 0 0 104851.81052314723 121890.71012354508 0 121890.71012354508 43422.415738083015 0 0 0 0 -553104.74722862244 -1461577.8646602035 0 -1461577.8646602035 -638177.95563399792 0 0 0 0 -5160664.8457543254 15990424.145248519 0 15990424.145248519 -23779370.192332923 0 0 0 0 -46492.537138134008 -25258.556742495275 0 -25258.556742495275 33036.254937070538 0 0 0 0 5539655.4753552675 -3586204.2005640715 0 -3586204.2005640715 2843020.249209553 0 0 0 0 67172.207837932976 121801.37820220424 0 121801.37820220424 107728.06863556201 0 0 0 0 694366.22270870209 -1733453.7598889172 0 -1733453.7598889172 -2184026.0086163431 0 0 0 0 -532325.82902622223 2007755.5027435422 0 2007755.5027435422 1377414.3882475197 0 0 0 0 -11878087.971908331 29311444.819830701 0 29311444.819830701 -18789245.348746359 0 0 0 0 -2698113.1761388779 34942333.384271368 0 34942333.384271368 -44384118.600308895 0 0 0 0 -5351790.6664671302 -3054426.1830696501 0 -3054426.1830696501 -10298065.964778244 0 0 0 0 3236462.1255178452 30857933.807852112 0 30857933.807852112 16563820.88512677 0 0 0 0 -22315518.7760849 19340665.481468882 0 19340665.481468882 78255748.073806524 0 0 0 0 30044356.706225395 30310282.478268377 0 30310282.478268377 19350840.351371646 0 0 0 0 -697410.73797154427 -2667227.5127818035 0 -2667227.5127818035 42560626.053731769 0 0 0 0 26381939.669229984 -12648035.109993622 0 -12648035.109993622 4062886.3644774891 0 0 0 0 -6241203.9054960608 865050.75408982113 0 865050.75408982113 -11135634.276989043 0 0 0 0 -1198633.5595183372 6128596.7980785519 0 6128596.7980785519 -5659065.6064772606 0 0 0 0 -5291532.9812231064 -7067206.1094419435 0 -7067206.1094419435 5561874.1634105742 0 0 0 0 4368310.4056258202 -3075350.4888108671 0 -3075350.4888108671 -8678316.4488090854 0 0 0 0 -6525841.2705178261 -5055445.7821115032 0 -5055445.7821115032 2288249.9766296074 0 0 0 0 -90462.189076185226 -1474292.987264052 0 -1474292.987264052 1381933.2818006948 0 0 0 0 -497924.86119771004 10731538.603006005 0 10731538.603006005 11797281.823639184 0 0 0 0 -6736383.8420500755 13168443.288738869 0 13168443.288738869 14438529.767341517 0 0 0 0 -10385.759711162129 -10307.809077439946 0 -10307.809077439946 19725.287496314195 0 0 0 0 -76854.278297901154 7425074.6548971683 0 7425074.6548971683 13197568.207142349 0 0 0 0 3522152.7202348709 4099292.0275310948 0 4099292.0275310948 -874453.43273366988 0 0 0 0 4923737.6692433357 7254094.1626949757 0 7254094.1626949757 4013195.7172362506 0 0 0 0 16168140.061977386 14102425.350825191 0 14102425.350825191 3935594.6977444068 0 0 0 0 3394887.1309404373 6510031.7429921329 0 6510031.7429921329 638126.74892115593 0 0 0 0 8646711.1700518131 3759118.8172027282 0 3759118.8172027282 -6954621.615046829 0 0 0 0 4452945.2153329849 -1009800.3385937065 0 -1009800.3385937065 -6196987.7181452289 0 0 0 0 298407.13420119719 125026.83630729944 0 125026.83630729944 38586.273597527252 0 0 0 0 14096792.361153126 5062843.1745273322 0 5062843.1745273322 -1004532.8924819231 0 0 0 0 -1050513.2731685638 4691556.526265502 0 4691556.526265502 6829953.8283853233 0 0 0 0 89443.848726272583 -1491712.9703673869 0 -1491712.9703673869 1231652.6764106452 0 0 0 0 -4410009.423404932 -13558873.51618096 0 -13558873.51618096 4358740.8373259902 0 0 0 0 124553.97743299115 -20333.722555033761 0 -20333.722555033761 -27000.186098218295 0 0 0 0 23126818.685424328 -11888490.236741334 0 -11888490.236741334 -6695009.5852223784 0 0 0 0 11701085.267829895 27389004.806385934 0 27389004.806385934 29992040.865973532 0 0 0 0 976003.37814903259 14366926.89153878 0 14366926.89153878 18782911.655540615 0 0 0 0 8293840.6277427673 3714648.4345668256 0 3714648.4345668256 1339355.6762513518 0 0 0 0 36423145.254402399 17222519.283405595 0 17222519.283405595 4435119.5005380511 0 0 0 0 22495008.300524712 -8327941.2958856523 0 -8327941.2958856523 3198516.683094807 0 0 0 0 23238131.275768042 -8208808.6739952527 0 -8208808.6739952527 2472918.2470956445 0 0 0 0 8708510.5041227341 -7764812.3239329159 0 -7764812.3239329159 10681979.58890909 0 0 0 0 17894003.849196553 -7552036.106278196 0 -7552036.106278196 3301942.94308424 0 0 0 0 5421.1799627846485 7238.328611485078 0 7238.328611485078 5675.7050794579554 0 0 0 0 14893188.031613231 590354.0200021565 0 590354.0200021565 -1484696.2748580277 0 0 0 0 18864232.330581188 -3100297.1938938946 0 -3100297.1938938946 1992014.0472321808 0 0 0 0 5736824.3706531525 1659144.5773871988 0 1659144.5773871988 6422177.2231580243 0 0 0 0 4282737.4205873013 -2064911.7009609491 0 -2064911.7009609491 -1083283.0489506721 0 0 0 0 -15077.072746894788 -17081.404352392652 0 -17081.404352392652 5084.6145503211301 0 0 0 0 -9226996.2730952501 6496745.9814383946 0 6496745.9814383946 2240908.1891416311 0 0 0 0 -8982929.9414440989 -1249372.8177211508 0 -1249372.8177211508 13669471.532957315 0 0 0 0 156605.33898115158 3193959.7326917723 0 3193959.7326917723 15314994.73737178 0 0 0 0 10193851.904237986 -529156.61384105682 0 -529156.61384105682 -490436.02657546476 0 0 0 0 11205905.510148525 10015317.296536768 0 10015317.296536768 15912576.88847509 0 0 0 0 10633842.473464921 -5263807.0358940568 0 -5263807.0358940568 5566421.3153486848 0 0 0 0 23482547.429971457 -1745549.1248070598 0 -1745549.1248070598 5731027.6648985595 0 0 0 0 21348289.558783531 -5272070.575288035 0 -5272070.575288035 7635987.135730885 0 0 0 0 32785483.70183301 -10459825.629088312 0 -10459825.629088312 2250293.7918836772 0 0 0 0 44903987.59403038 19371618.72314636 0 19371618.72314636 -8126571.6022829935 0 0 0 0 32402004.523796082 20287723.444302104 0 20287723.444302104 11303235.29985702 0 0 0 0 -3194625.6709877253 4393090.255387105 0 4393090.255387105 8467246.2632598132 0 0 0 0 -45.210669518914074 14294.306132648489 0 14294.306132648489 77239.539638553077 0 0 0 0 64987174.799375653 3145495.5281965062 0 3145495.5281965062 6414917.8890317976 0 0 0 0 31554554.511172771 -5609046.6472329609 0 -5609046.6472329609 5532164.0722558536 0 0 0 0 10426872.761842251 6830700.408495456 0 6830700.408495456 22048402.95296967 0 0 0 0 8942059.7113034129 437893.45021999814 0 437893.45021999814 9134682.138508141 0 0 0 0 -1160248.2707676888 2884042.5464824662 0 2884042.5464824662 9625464.163149707 0 0 0 0 -1514823.3852686882 1106084.3641161323 0 1106084.3641161323 16482912.225833133 0 0 0 0 -326606.73060595989 3230511.2909696288 0 3230511.2909696288 8380668.7684949338 0 0 0 0 -2330448.839458704 -736824.82722324505 0 -736824.82722324505 -7080555.6763518602 0 0 0 0 -5965225.6385545731 -6505106.9008060396 0 -6505106.9008060396 3492363.6512705125 0 0 0 0 437988.36691768398 -382921.86766663607 0 -382921.86766663607 -267499.5932563211 0 0 0 0 -510359.37683820724 -13622986.410606474 0 -13622986.410606474 -16122796.7829803 0 0 0 0 -23470566.380758524 13946714.06096518 0 13946714.06096518 -16306596.885689013 0 0 0 0 -34356806.193655938 3875859.0740906149 0 3875859.0740906149 -11838866.030903786 0 0 0 0 -48139230.839493454 39357565.786735132 0 39357565.786735132 -19378349.360224605 0 0 0 0 65493913.11076498 45908895.466368169 0 45908895.466368169 -52782232.333054036 0 0 0 0 11101900.319611788 17194411.91588521 0 17194411.91588521 -16411768.751836568 0 0 0 0 31143106.902750015 -34634947.398876622 0 -34634947.398876622 -28978924.396906078 0 0 0 0 -1168143.5538368225 -7296838.9186886549 0 -7296838.9186886549 -32268036.980146497 0 0 0 0 93870794.895548105 -41960810.491242737 0 -41960810.491242737 -22660880.927500904 0 0 0 0 3809502.9188275337 8508832.3560623657 0 8508832.3560623657 354306.7927974537 0 0 0 0 -10216958.206524849 -10826496.980356894 0 -10826496.980356894 2558282.8175913366 0 0 0 0 7352278.8315899372 -18443591.811717451 0 -18443591.811717451 -22886551.869184595 0 0 0 0 435235.39434488991 -202396.63538849307 0 -202396.63538849307 -136232.91348280321 0 0 0 0 4343480.9347205162 -8367528.9958150983 0 -8367528.9958150983 -20885306.182864122 0 0 0 0 -43131275.135407925 7244963.8012686968 0 7244963.8012686968 -17959790.475183249 0 0 0 0 197948.89497405116 -59184.067359448032 0 -59184.067359448032 -48377.301624821674 0 0 0 0 65547639.835850716 35895501.140305392 0 35895501.140305392 -8850842.954751851 0 0 0 0 49684637.936423779 32781092.436271876 0 32781092.436271876 -9273131.8503636271 0 0 0 0 -8897098.9039399624 13132149.338810144 0 13132149.338810144 39531409.143651515 0 0 0 0 52103011.998494387 3671518.7319402387 0 3671518.7319402387 -10300687.91362703 0 0 0 0 56522453.775446892 27548589.525150631 0 27548589.525150631 -2791400.0374353132 0 0 0 0 2295828.5877677947 3626986.6771399379 0 3626986.6771399379 4223605.0466814041 0 0 0 0 2270192.6590064317 4322402.2821148857 0 4322402.2821148857 4658910.179391861 0 0 0 0 8251414.0005292892 2317675.9409308434 0 2317675.9409308434 4557831.7613697052 0 0 0 0 1173715.2760988921 812290.34626227617 0 812290.34626227617 351100.03951191902 0 0 0 0 978859.3287388098 696356.72923973831 0 696356.72923973831 506249.32160441205 0 0 0 0 1790360.2022641338 647042.8636702575 0 647042.8636702575 1163988.814759627 0 0 0 0 1916287.5403730497 -275418.45965962019 0 -275418.45965962019 -1395356.2858091681 0 0 0 0 -1252566.4247465134 -2617849.8906895667 0 -2617849.8906895667 -1578504.8012331501 0 0 0 0 9471600.7279453278 3711704.3959283829 0 3711704.3959283829 -141594.78745651245 0 0 0 0 6812458.5929045677 4831552.3039875031 0 4831552.3039875031 10797011.077731133 0 0 0 0 -119808.39973397716 -162705.33860414184 0 -162705.33860414184 -41596.496877017198 0 0 0 0 1159291.2602169961 763921.48903360963 0 763921.48903360963 812852.43766883016 0 0 0 0 1474867.2449404448 783988.93721613288 0 783988.93721613288 997253.66623210907 0 0 0 0 1708715.4535946958 647557.98058438301 0 647557.98058438301 755733.16461718082 0 0 0 0 1571106.9583922923 205585.53992307186 0 205585.53992307186 221441.63828933239 0 0 0 0 1488642.5742042065 375603.38594329357 0 375603.38594329357 -13909.645163953304 0 0 0 0 8513275.4554011822 1986007.264285475 0 1986007.264285475 -1289568.5460757017 0 0 0 0 1717019.5608227823 58250.22927155564 0 58250.22927155564 -35060.062277623569 0 0 0 0 1345273.4494025409 -135824.76745253801 0 -135824.76745253801 209026.8631747663 0 0 0 0 1180286.5493926033 131965.57086339593 0 131965.57086339593 699671.14676594734 0 0 0 0 2414048.0484099388 -1622943.4181723669 0 -1622943.4181723669 -3660722.5494405329 0 0 0 0 1130467.6607633962 405879.09837527049 0 405879.09837527049 83291.786898541366 0 0 0 0 480383.20785421459 181677.36430514697 0 181677.36430514697 -252990.5750635569 0 0 0 0 -1011853.4260714054 -2223384.8398476467 0 -2223384.8398476467 -1397021.4371754825 0 0 0 0 2084762.551568985 3127413.4641022608 0 3127413.4641022608 907158.01931414008 0 0 0 0 -602296.98865365982 1208084.3290064782 0 1208084.3290064782 4698972.2767348737 0 0 0 0 111045.46907901764 -2501226.1067218482 0 -2501226.1067218482 -2362331.1854173541 0 0 0 0 1380653.2740061283 -959911.58559674025 0 -959911.58559674025 -1733529.9521734118 0 0 0 0 -1464294.1016016006 5244959.2264077142 0 5244959.2264077142 12919491.759618044 0 0 0 0 -1627690.3795838356 1490906.3830884919 0 1490906.3830884919 4666041.6347819865 0 0 0 0 -3707161.1925822496 -2778741.9071351402 0 -2778741.9071351402 6309826.2155268192 0 0 0 0 -1141028.7307338715 -1331610.9352011606 0 -1331610.9352011606 795266.93342846632 0 0 0 0 -2901669.4063210487 -3954551.9101087153 0 -3954551.9101087153 740579.75502422452 0 0 0 0 -6318666.2592492104 -4140079.1776789501 0 -4140079.1776789501 629005.30034691235 0 0 0 0 -1188853.9549336433 -6410738.9475615472 0 -6410738.9475615472 -5766039.7184139602 0 0 0 0 100982.16320161091 -909628.51978198753 0 -909628.51978198753 -378456.77697567566 0 0 0 0 1083277.2922568321 -2068666.1522834674 0 -2068666.1522834674 -4164542.346409969 0 0 0 0 -1087995.6358456612 -1664558.9672977775 0 -1664558.9672977775 -1446298.2145511918 0 0 0 0 5713880.9819710255 3307528.5327343941 0 3307528.5327343941 9148318.6630725861 0 0 0 0 432038.28682095127 102543.98403795791 0 102543.98403795791 22886.646811950719 0 0 0 0 2652682.8496944183 174945.71714836912 0 174945.71714836912 -1380809.5101032108 0 0 0 0 8348521.7507610321 8579061.4492173195 0 8579061.4492173195 4346934.564186573 0 0 0 0 6851109.2227802277 -6251126.7362568676 0 -6251126.7362568676 -9416111.5761417449 0 0 0 0 349643.788220644 -7531485.9974027276 0 -7531485.9974027276 -939087.63055065274 0 0 0 0 8588914.6642122269 5544839.7516506314 0 5544839.7516506314 10807519.356525064 0 0 0 0 7584068.1079850197 13859856.562093854 0 13859856.562093854 11476323.586036563 0 0 0 0 2951433.2703805533 -398097.13165927737 0 -398097.13165927737 -1164346.6275334395 0 0 0 0 12622068.786863089 10409335.035436571 0 10409335.035436571 484642.22095620632 0 0 0 0 -637458.71232843399 -5681830.5200071335 0 -5681830.5200071335 1206720.5386419706 0 0 0 0 1769830.4160478115 1493912.4329861999 0 1493912.4329861999 -126944.57801234722 0 0 0 0 -6268494.6507577896 -635685.11279928684 0 -635685.11279928684 16591146.673250735 0 0 0 0 1621668.1195145366 114842.4111683208 0 114842.4111683208 -147478.91500698018 0 0 0 0 5550920.5579319 2116621.7642803192 0 2116621.7642803192 942185.99614810944 0 0 0 0 13632204.987464428 11843024.388290644 0 11843024.388290644 6111945.9963592291 0 0 0 0 5022167.3008821607 4060636.8941179216 0 4060636.8941179216 -1689248.91101408 0 0 0 0 -4278322.5250968933 3875000.8633294106 0 3875000.8633294106 737123.49855136871 0 0 0 0 -351893.32746561873 4556.090354677639 0 4556.090354677639 457736.36118742405 0 0 0 0 2306836.9573075771 6841648.2606471479 0 6841648.2606471479 -726775.04702186584 0 0 0 0 2772874.3250399828 4161775.3351506591 0 4161775.3351506591 4709788.5838470459 0 0 0 0 1721813.201166302 821475.31057226658 0 821475.31057226658 943728.10325777531 0 0 0 0 1340800.0412209406 537217.00660251081 0 537217.00660251081 854503.24229836464 0 0 0 0 18798.813683986664 2207.8521630764008 0 2207.8521630764008 94085.609127044678 0 0 0 0 692137.47195834981 -177817.95193831204 0 -177817.95193831204 800559.54935022444 0 0 0 0 573325.45244212751 246786.8968392039 0 246786.8968392039 716822.45683485176 0 0 0 0 1011352.8922040211 665391.5268302873 0 665391.5268302873 495548.14848868165 0 0 0 0 1842247.9037208706 886090.25799453259 0 886090.25799453259 10633.86539888382 0 0 0 0 -407652.08632206917 22118.976022303104 0 22118.976022303104 557155.55850374699 0 0 0 0 -311333.109202981 52340.446046769619 0 52340.446046769619 555677.48862159252 0 0 0 0 148773.2056834937 80963.901300437021 0 80963.901300437021 1082520.2113335631 0 0 0 0 342677.33193875907 253932.05995859089 0 253932.05995859089 626833.74006804638 0 0 0 0 -6917666.4840101004 -1405617.5421097279 0 -1405617.5421097279 544530.89777686447 0 0 0 0 1343207.0946163535 1203602.9364103675 0 1203602.9364103675 1140560.1003335714 0 0 0 0 10967340.01571399 -321465.92204940319 0 -321465.92204940319 -2140246.6821399331 0 0 0 0 3259905.0078384876 7667853.8762828112 0 7667853.8762828112 2019790.1845053881 0 0 0 0 -4791403.0603379011 5997437.8453810215 0 5997437.8453810215 12923307.682251155 0 0 0 0 6855957.5135674775 5329611.4176421314 0 5329611.4176421314 -1388096.0911847353 0 0 0 0 1249480.3140110075 446505.2128392756 0 446505.2128392756 925879.02572131157 0 0 0 0 2168271.3886141777 1582245.4123571515 0 1582245.4123571515 1020156.4147628844 0 0 0 0 3050120.2390406132 349440.55748546124 0 349440.55748546124 -23483.75749027729 0 0 0 0 711538.26168241352 328056.62597601343 0 328056.62597601343 763931.16333111585 0 0 0 0 331624.01480464649 183537.80935005131 0 183537.80935005131 -23009.220478317759 0 0 0 0 10036974.470863342 6774918.2540240884 0 6774918.2540240884 -6121579.6563687325 0 0 0 0 -1636191.3894262314 4871384.4852640033 0 4871384.4852640033 -4682578.213049233 0 0 0 0 1230565.0356807709 1167723.6648719311 0 1167723.6648719311 -2571757.7028193772 0 0 0 0 244269.24695074989 -14038.363767601142 0 -14038.363767601142 -92706.844336377748 0 0 0 0 141046.89575651253 31425.784657139739 0 31425.784657139739 -18395.274614560651 0 0 0 0 2912609.754638195 12962671.443302035 0 12962671.443302035 2497659.2570594549 0 0 0 0 4027168.5348598957 14427016.013330214 0 14427016.013330214 4409164.757245779 0 0 0 0 11583400.733467758 -8794187.4503464401 0 -8794187.4503464401 8103035.2575749159 0 0 0 0 20340837.403663099 11928791.329822466 0 11928791.329822466 3255113.969242692 0 0 0 0 1279966.7191758156 2220074.7652937472 0 2220074.7652937472 906701.90637245774 0 0 0 0 -272792.4932128191 5303096.3832720965 0 5303096.3832720965 32424146.227874607 0 0 0 0 37539341.386000693 -10842506.987418599 0 -10842506.987418599 5979979.918448925 0 0 0 0 32645380.50160715 8251468.9715273231 0 8251468.9715273231 2608560.284579277 0 0 0 0 -9223154.6295346022 4037372.9877381325 0 4037372.9877381325 12172332.736305341 0 0 0 0 -146.12389063462615 876191.82537264936 0 876191.82537264936 -5112278.9298425317 0 0 0 0 -12017300.919566631 -14600558.052081972 0 -14600558.052081972 7342035.1948532909 0 0 0 0 22087969.622017622 -13161710.602083772 0 -13161710.602083772 -1017576.82745561 0 0 0 0 3543494.3176953346 1572536.2978228331 0 1572536.2978228331 721851.44764149189 0 0 0 0 2390208.6788490117 455165.13556391001 0 455165.13556391001 577861.93636989594 0 0 0 0 1918998.6050922871 418167.45191949606 0 418167.45191949606 1154364.0710045099 0 0 0 0 2634862.093657583 27689.047233998775 0 27689.047233998775 844573.32511240244 0 0 0 0 -13106036.760618806 -8371880.0549433529 0 -8371880.0549433529 -1009660.249506468 0 0 0 0 391312.58998806553 175733.69114434917 0 175733.69114434917 672542.91874628526 0 0 0 0 2725712.1651214063 1540011.381414175 0 1540011.381414175 1783970.5874482095 0 0 0 0 317409.48467764666 145136.94903384571 0 145136.94903384571 593356.95790133823 0 0 0 0 3434649.5718998611 1254299.3729985654 0 1254299.3729985654 489650.96036887169 0 0 0 0 2290844.6956085861 946758.02206194401 0 946758.02206194401 291017.36467360333 0 0 0 0 2210185.0389171988 783376.86812666059 0 783376.86812666059 992591.66689383984 0 0 0 0 1906033.5565631688 69254.02235853672 0 69254.02235853672 300245.05562836491 0 0 0 0 1379615.5924880458 920.30175668094307 0 920.30175668094307 -76986.213356165681 0 0 0 0 5007214.6442382336 -3470777.7867242582 0 -3470777.7867242582 -1300802.4291509688 0 0 0 0 11586526.93029511 -3195063.4514923431 0 -3195063.4514923431 -2191542.382527113 0 0 0 0 595259.221783638 1882986.3753889501 0 1882986.3753889501 898264.6544906348 0 0 0 0 7076885.2464728355 803326.13982609659 0 803326.13982609659 -2926917.2026798725 0 0 0 0 2752927.3837771416 -3427369.8572193682 0 -3427369.8572193682 2575412.0468145311 0 0 0 0 2192964.1862906218 302592.17428976297 0 302592.17428976297 400925.18718367815 0 0 0 0 -1435673.3055953979 -808783.53023239225 0 -808783.53023239225 -528145.56269867718 0 0 0 0 1360820.6726928689 109346.27071053459 0 109346.27071053459 -153233.91101127362 0 0 0 0 2020098.3834761214 1195980.5540891923 0 1195980.5540891923 907780.40981888771 0 0 0 0 220492.26749610901 -2786199.3940345198 0 -2786199.3940345198 -5853565.1693178713 0 0 0 0 6337556.7581248283 -3456279.5714871809 0 -3456279.5714871809 -7508403.2969230153 0 0 0 0 11161253.420074642 6635340.31423885 0 6635340.31423885 -7776167.4958876371 0 0 0 0 1616527.9868223667 119971.91927278042 0 119971.91927278042 -1599848.3491334319 0 0 0 0 -1083244.1494954824 -3553771.8065207079 0 -3553771.8065207079 -6431939.0348330513 0 0 0 0 2366520.2463111728 896829.19417583942 0 896829.19417583942 480237.77325320244 0 0 0 0 434330.97274634021 228997.14123965017 0 228997.14123965017 539658.02083759243 0 0 0 0 411351.73041343689 132602.06490951777 0 132602.06490951777 -738413.09381991625 0 0 0 0 187728.80146789551 -285600.57499660552 0 -285600.57499660552 -48561.772309161723 0 0 0 0 876870.57025963964 -184305.03650196444 0 -184305.03650196444 -9930.2011518352192 0 0 0 0 -9404359.1694040298 -3855980.6720862538 0 -3855980.6720862538 5262391.7607840598 0 0 0 0 906922.76613227022 -108197.15557231812 0 -108197.15557231812 -6445.6721832375115 0 0 0 0 338709.48914185097 539289.48066977086 0 539289.48066977086 515603.48007345042 0 0 0 0 156248.22877645493 400395.26251319051 0 400395.26251319051 377733.16882203892 0 0 0 0 752140.2123041153 1058184.8695300072 0 1058184.8695300072 290520.37393954396 0 0 0 0 510511.75285148621 38466.588494777679 0 38466.588494777679 -752384.53502762318 0 0 0 0 536355.3708503003 250667.75191279134 0 250667.75191279134 200182.79142828184 0 0 0 0 64634.257120415976 7497.593144775019 0 7497.593144775019 -6277.878763678149 0 0 0 0 -696045.07019233704 683913.30017119646 0 683913.30017119646 -127782.05277150869 0 0 0 0 1512622.529504776 945337.74084663391 0 945337.74084663391 -98176.39483140409 0 0 0 0 2168502.0417404175 552281.18774467707 0 552281.18774467707 -1094296.9023416638 0 0 0 0 72602.82518060552 21332.139812352369 0 21332.139812352369 -43063.985311992277 0 0 0 0 227647.14621175139 27637.072186245467 0 27637.072186245467 -58130.663064084787 0 0 0 0 5523246.2424983978 8644812.8724646121 0 8644812.8724646121 2976185.6358418465 0 0 0 0 2554942.3420658112 -358421.65387555957 0 -358421.65387555957 454107.01490652561 0 0 0 0 793010.88801193237 200315.88345855474 0 200315.88345855474 5506793.3819680959 0 0 0 0 2460242.5798110962 -1196506.7541720569 0 -1196506.7541720569 406185.52473807335 0 0 0 0 13545864.295246601 5372820.7536486909 0 5372820.7536486909 1857258.1423851699 0 0 0 0 9966969.4387559891 8218976.3099308312 0 8218976.3099308312 1298760.9312688857 0 0 0 0 12680809.394069672 7160005.8867324963 0 7160005.8867324963 989224.60360020399 0 0 0 0 9129416.7171602249 6034375.7438734472 0 6034375.7438734472 3778701.0816964991 0 0 0 0 38885841.656536102 3769469.251506269 0 3769469.251506269 -1905574.0716923773 0 0 0 0 13067965.581773639 4318837.1761115715 0 4318837.1761115715 -223994.73110052943 0 0 0 0 47831.77843795938 -36755.303934628493 0 -36755.303934628493 -39688.307125378473 0 0 0 0 55527947.960014343 8334054.6156287193 0 8334054.6156287193 -280052.32105557155 0 0 0 0 24655185.922203064 -14806223.050016187 0 -14806223.050016187 12147197.803405285 0 0 0 0 1958234.4354772568 1696618.1810751855 0 1696618.1810751855 4980379.953426078 0 0 0 0 -34214984.001215458 -8397105.3630557209 0 -8397105.3630557209 -23986205.109222725 0 0 0 0 -7949157.4473974705 34250237.64654047 0 34250237.64654047 -7143995.1467537805 0 0 0 0 46912092.541976929 -18967776.136009008 0 -18967776.136009008 3549877.5657742396 0 0 0 0 -27920810.566053867 45407275.412553117 0 45407275.412553117 6061141.8133517355 0 0 0 0 1409.8610008184332 57193.860725132632 0 57193.860725132632 87541.378818072553 0 0 0 0 -43194623.928845406 30504964.473068908 0 30504964.473068908 24639095.350575209 0 0 0 0 -22446099.89574194 -6237670.7869990505 0 -6237670.7869990505 37608078.142185465 0 0 0 0 -1098839.3517618179 16941087.361852825 0 16941087.361852825 9588352.900887236 0 0 0 0 -12963417.802971125 14237617.254448585 0 14237617.254448585 25607809.851245582 0 0 0 0 398345.07590437261 -312308.1580215494 0 -312308.1580215494 -105497.48012881108 0 0 0 0 59450910.40320015 17380110.545505315 0 17380110.545505315 -2997905.8299230747 0 0 0 0 45588290.232476234 69274713.757351562 0 69274713.757351562 37191533.057241708 0 0 0 0 76329640.060256958 5090135.6857730895 0 5090135.6857730895 -12014257.751777828 0 0 0 0 -41412659.669048548 -26237845.403248034 0 -26237845.403248034 4111361.9019526541 0 0 0 0 -26088893.975173712 -36323490.928518593 0 -36323490.928518593 -20738701.077510715 0 0 0 0 1245853.0367250443 -2030269.0663851053 0 -2030269.0663851053 -954138.67919543013 0 0 0 0 1080129.4332015715 -221991.968955238 0 -221991.968955238 14841.661598203689 0 0 0 0 -15434192.290401459 -9264086.4079227448 0 -9264086.4079227448 -15264140.232759595 0 0 0 0 -30301314.230630398 224512.01651078463 0 224512.01651078463 31141726.652231216 0 0 0 0 58826877.191012859 35897672.387759507 0 35897672.387759507 6143959.1803364754 0 0 0 0 -31477643.89503479 19096023.212113336 0 19096023.212113336 74438266.583843559 0 0 0 0 16632.449325446039 -98902.919770304201 0 -98902.919770304201 16679.555158916446 0 0 0 0 -726379.01673984528 -1307239.3313263953 0 -1307239.3313263953 966354.24007882178 0 0 0 0 1110114.6634574905 -99511.295630900888 0 -99511.295630900888 -121257.2068529025 0 0 0 0 47062984.661991656 -61529671.929287948 0 -61529671.929287948 -56308995.943590909 0 0 0 0 5899519.9669947624 1504379.6554482281 0 1504379.6554482281 -556534.4771258235 0 0 0 0 636625.59598827362 2293111.6803536415 0 2293111.6803536415 6277779.9377244562 0 0 0 0 882293.25346565247 -288994.50564551353 0 -288994.50564551353 4423404.1310512722 0 0 0 0 1154035.1332149506 997794.0922061801 0 997794.0922061801 2255521.7989458479 0 0 0 0 1412800.8786149025 873240.17692549527 0 873240.17692549527 2230050.3682672083 0 0 0 0 2010751.4457988739 -1742279.2627847642 0 -1742279.2627847642 2060895.5852223635 0 0 0 0 1078382.4799308777 -81329.43681460619 0 -81329.43681460619 2556023.5242730081 0 0 0 0 1610337.8823318481 783180.43062798679 0 783180.43062798679 1280331.9867877737 0 0 0 0 1552168.4897289276 -357590.43953117728 0 -357590.43953117728 2182957.9866230488 0 0 0 0 2109540.3645172119 73507.848245725036 0 73507.848245725036 671663.40250808001 0 0 0 0 1060603.191942215 775413.86937710643 0 775413.86937710643 794786.83554761857 0 0 0 0 1886087.6793835163 -71283.25302284956 0 -71283.25302284956 1424548.2892514467 0 0 0 0 1815519.0354509354 541889.982883377 0 541889.982883377 -751516.50450178608 0 0 0 0 1014494.6859311261 261587.47034250796 0 261587.47034250796 120516.36307359264 0 0 0 0 1951078.6201534271 713668.9271683991 0 713668.9271683991 145021.61473166943 0 0 0 0 1089618.0428483486 360287.77404094487 0 360287.77404094487 12464.885049760342 0 0 0 0 2235392.1353640556 1341604.2690915391 0 1341604.2690915391 -167023.09606000781 0 0 0 0 1456430.547416687 727359.18774526566 0 727359.18774526566 102879.42294712085 0 0 0 0 1772116.6472377777 552372.10717746988 0 552372.10717746988 142751.6915615201 0 0 0 0 -10191155.963120937 -11262123.630894184 0 -11262123.630894184 -8465228.7401872277 0 0 0 0 1541560.7573051155 -518437.21697499836 0 -518437.21697499836 -2232289.3262697458 0 0 0 0 1083100.013813386 -229174.03788046958 0 -229174.03788046958 55686.934592449943 0 0 0 0 -16731081.69505918 -2550585.3948136121 0 -2550585.3948136121 6661009.9566966295 0 0 0 0 -3610721.8866219521 2815659.0959471464 0 2815659.0959471464 3421495.9079242349 0 0 0 0 -2954588.2635781765 -2797829.2790020406 0 -2797829.2790020406 412517.72306984663 0 0 0 0 -6168140.9179177284 -5428579.6497093141 0 -5428579.6497093141 -6855.5975795984268 0 0 0 0 169592.32475484803 69045.435563565872 0 69045.435563565872 -149919.36878829147 0 0 0 0 -7741487.0400161743 -494692.29762011766 0 -494692.29762011766 2953863.2046347857 0 0 0 0 -1130673.7377696037 -365390.75307297707 0 -365390.75307297707 230925.63917922974 0 0 0 0 1699001.1003837585 -102909.98037326336 0 -102909.98037326336 -56180.81591835618 0 0 0 0 216826.45818247413 -52435.078885427443 0 -52435.078885427443 401829.98125036579 0 0 0 0 -2088953.3488764763 5198968.2964935899 0 5198968.2964935899 -6704488.7549100667 0 0 0 0 -872794.09058451653 -1065168.5856993794 0 -1065168.5856993794 758789.26468288898 0 0 0 0 -2534038.5021402836 -123957.67549261451 0 -123957.67549261451 275155.64387607574 0 0 0 0 319353.09359526634 2783026.9359446168 0 2783026.9359446168 2170820.4183858335 0 0 0 0 -1946511.7048537731 1023041.8208215833 0 1023041.8208215833 2482094.8485124558 0 0 0 0 -3618133.024353981 3200651.2575539351 0 3200651.2575539351 4495565.6676332951 0 0 0 0 9768276.5234937668 9886681.9882222414 0 9886681.9882222414 1693191.4366016388 0 0 0 0 6143035.6607058048 5193258.825312674 0 5193258.825312674 1814606.1725915074 0 0 0 0 1682329.5099141598 8832406.6723433733 0 8832406.6723433733 5695288.7982647419 0 0 0 0 -7211459.0412985086 5498428.2920092344 0 5498428.2920092344 4499716.4851574302 0 0 0 0 8716879.2037498951 19315596.987386286 0 19315596.987386286 12112731.805134892 0 0 0 0 9264068.2926137447 14467859.890869468 0 14467859.890869468 1540451.1390120983 0 0 0 0 10489138.31554985 8687567.2202891707 0 8687567.2202891707 911292.59860777855 0 0 0 0 21383822.433911085 11625784.39795503 0 11625784.39795503 -593625.37236011028 0 0 0 0 10015255.804659814 7903472.5531112812 0 7903472.5531112812 1818209.1660841703 0 0 0 0 16570113.463130832 4180732.4907311499 0 4180732.4907311499 -1746100.6812244654 0 0 0 0 7233296.6364985704 10332562.251151711 0 10332562.251151711 8146477.7962675095 0 0 0 0 16062818.070973396 16494442.651504934 0 16494442.651504934 12426271.249801159 0 0 0 0 6055833.3492517471 7077555.1276413202 0 7077555.1276413202 1957040.515370667 0 0 0 0 4942800.2325848341 6020228.9058451653 0 6020228.9058451653 4224361.7761957645 0 0 0 0 -16671316.37468648 10242672.344519377 0 10242672.344519377 2304141.077278614 0 0 0 0 15474037.242173284 22012015.558976233 0 22012015.558976233 5259488.8304997683 0 0 0 0 43199.09092470695 -52258.48161490052 0 -52258.48161490052 316407.82530568365 0 0 0 0 972776.14889836311 2359759.1066207886 0 2359759.1066207886 296513.4996535778 0 0 0 0 -15660.555316660611 -36959.041812399984 0 -36959.041812399984 140531.91971459432 0 0 0 0 23496718.708052635 8888213.4022706151 0 8888213.4022706151 1347755.7460762262 0 0 0 0 -15572650.99123311 -5757264.3471401036 0 -5757264.3471401036 7467997.1004662514 0 0 0 0 -40369.529965858208 26651.238127597491 0 26651.238127597491 121348.6188669001 0 0 0 0 -17414877.323006868 -5045717.7652227283 0 -5045717.7652227283 13282285.527002245 0 0 0 0 11646840.330380201 -9622325.3458468914 0 -9622325.3458468914 -1401425.213223815 0 0 0 0 11889245.152859211 -2726771.0740061402 0 -2726771.0740061402 -590514.06340587139 0 0 0 0 -27196.692442945554 96369.759887668071 0 96369.759887668071 243339.02140428091 0 0 0 0 13286572.607966781 -15811207.305931181 0 -15811207.305931181 1453234.9459683895 0 0 0 0 -17398786.262627363 36594006.138418674 0 36594006.138418674 13936599.120084301 0 0 0 0 13464.105483367806 141455.9912684306 0 141455.9912684306 263353.61814643064 0 0 0 0 5512629.3340485096 -8265213.2360227108 0 -8265213.2360227108 459317.60109746456 0 0 0 0 6752106.5994284153 -8078976.369541049 0 -8078976.369541049 -1508677.1013275385 0 0 0 0 5171900.5540824533 -5608772.2062514424 0 -5608772.2062514424 -1555134.6239118576 0 0 0 0 7126978.0867943764 -7176805.6490463018 0 -7176805.6490463018 -332242.052339077 0 0 0 0 8027849.7632639408 -4130085.7783503532 0 -4130085.7783503532 -5701947.0024660826 0 0 0 0 2434617.7720694542 -2229752.7594351172 0 -2229752.7594351172 342895.4557826221 0 0 0 0 -2494085.033633709 2002612.1586829424 0 2002612.1586829424 23753426.73431915 0 0 0 0 4019792.9189805984 1191431.167807281 0 1191431.167807281 6115379.7186422348 0 0 0 0 8062573.3422384262 2485000.3261277676 0 2485000.3261277676 -19925700.36446023 0 0 0 0 8529715.6843299866 -8234483.5243757963 0 -8234483.5243757963 -2727065.8239098787 0 0 0 0 -2554189.2356109619 12376218.605504513 0 12376218.605504513 -16505646.06245473 0 0 0 0 4009404.7947635651 -4218083.26280725 0 -4218083.26280725 -5276474.3150153756 0 0 0 0 -362880.44636750221 -2312359.0031732321 0 -2312359.0031732321 -5553893.5112081766 0 0 0 0 4281829.0189533234 -298888.30047369003 0 -298888.30047369003 -11133779.436090589 0 0 0 0 328665.5910949707 267507.63704138994 0 267507.63704138994 -4655296.8969624639 0 0 0 0 326677.50205593184 -13882.539627188351 0 -13882.539627188351 -3890410.5394327641 0 0 0 0 -602106.85085344315 1871173.918081522 0 1871173.918081522 -5919264.680927515 0 0 0 0 -2343232.1806352735 -6468929.2268377692 0 -6468929.2268377692 166892.90293574333 0 0 0 0 -605054.28169083595 -1299243.8431631327 0 -1299243.8431631327 301405.83488166332 0 0 0 0 -4314012.7502556443 926419.4097777456 0 926419.4097777456 592268.4112393856 0 0 0 0 21226.622693291283 148918.90885504219 0 148918.90885504219 234681.99785983341 0 0 0 0 234711.78616079851 31716.464783092495 0 31716.464783092495 -131376.67501141748 0 0 0 0 212095.99567072024 201254.85285455151 0 201254.85285455151 -22538.951442606398 0 0 0 0 -930368.57729446888 2716031.3707022965 0 2716031.3707022965 -2081776.856408596 0 0 0 0 2386433.3289022446 -1774492.9561370015 0 -1774492.9561370015 3978524.9629921913 0 0 0 0 9883107.4616155624 7379169.9759110212 0 7379169.9759110212 4456381.107604146 0 0 0 0 12734838.577836275 13735234.018480301 0 13735234.018480301 6058251.6459116936 0 0 0 0 5587125.040779829 -7734748.9054484367 0 -7734748.9054484367 1394416.0939007998 0 0 0 0 19140983.140124679 4446878.9946186393 0 4446878.9946186393 -3136649.4912297726 0 0 0 0 15447855.969796181 -9631345.8252651691 0 -9631345.8252651691 -5622135.7346400023 0 0 0 0 9580557.6519372463 -1223670.519649744 0 -1223670.519649744 -1929628.1424400806 0 0 0 0 6295408.6359963417 -2070929.875608325 0 -2070929.875608325 -1737533.3846174181 0 0 0 0 8558416.7646170855 17278.810432970524 0 17278.810432970524 -2555062.0155243874 0 0 0 0 11497262.821350932 3050381.2460501194 0 3050381.2460501194 -143189.24110579491 0 0 0 0 1623783.6496815681 2758528.8833687305 0 2758528.8833687305 3451583.1348919868 0 0 0 0 -1058087.3677413464 1872718.9429239035 0 1872718.9429239035 4309712.5047495365 0 0 0 0 357260.81085284922 140825.824069225 0 140825.824069225 253673.33445374027 0 0 0 0 4263835.4812942743 -1314331.4104604721 0 -1314331.4104604721 -215431.77677774429 0 0 0 0 7684052.6678357124 869798.75683701038 0 869798.75683701038 -1059130.8614157438 0 0 0 0 8958858.9379506111 -1151235.0408985615 0 -1151235.0408985615 -303708.19009622931 0 0 0 0 500374.27451473509 -91313.242327534419 0 -91313.242327534419 -273767.74740205368 0 0 0 0 -169541.98080582917 204815.87786903977 0 204815.87786903977 121987.94110810757 0 0 0 0 1622546.2841229048 3461605.4299977422 0 3461605.4299977422 -1501567.7064507008 0 0 0 0 101563.42628614225 491748.36068801046 0 491748.36068801046 798967.26427038282 0 0 0 0 4747887.7318129539 -47197.278951883316 0 -47197.278951883316 4316312.3900011778 0 0 0 0 9283493.745675087 1029742.6538202763 0 1029742.6538202763 -677839.46404874325 0 0 0 0 8035437.7317388058 580814.61390888691 0 580814.61390888691 -824255.25904655457 0 0 0 0 7580027.9573563337 14673520.385299146 0 14673520.385299146 6521427.5993402004 0 0 0 0 -66407.288212561049 260071.55626415863 0 260071.55626415863 634833.36986925977 0 0 0 0 19198970.293622971 -15194292.523133636 0 -15194292.523133636 -3790265.8803552985 0 0 0 0 441797.00236864388 -794075.78603339195 0 -794075.78603339195 -2209988.684458375 0 0 0 0 75364.681971062426 -374446.39636886131 0 -374446.39636886131 212414.90349204291 0 0 0 0 -330288.54959270393 52657.083862015803 0 52657.083862015803 379443.63323782373 0 0 0 0 -4575940.4864044478 -4580170.3607388884 0 -4580170.3607388884 -415565.07439434528 0 0 0 0 -7150951.831069544 6195012.9132039547 0 6195012.9132039547 -7254345.7958836555 0 0 0 0 10755410.274113178 20447758.561663747 0 20447758.561663747 14621435.839670241 0 0 0 0 30132795.796487331 43740618.888589859 0 43740618.888589859 31034173.356323242 0 0 0 0 5249.7325761425309 42001.089643432642 0 42001.089643432642 74272.916614201502 0 0 0 0 1243045.1756159067 5728226.6200299114 0 5728226.6200299114 34654021.303622723 0 0 0 0 348004.15313266218 -4540544.8223664314 0 -4540544.8223664314 3802815.3597996235 0 0 0 0 164404.19159279764 50788.638402450131 0 50788.638402450131 -148986.70651420567 0 0 0 0 1748341.6814370155 995674.85796159506 0 995674.85796159506 -209829.24880552292 0 0 0 0 77664.269643938635 9018.0819644110161 0 9018.0819644110161 -70365.168329551583 0 0 0 0 3837204.8174097538 -2098222.0274043083 0 -2098222.0274043083 -261239.37772226334 0 0 0 0 5581474.6831911802 4139201.0823748708 0 4139201.0823748708 -6295617.3236241341 0 0 0 0 13611469.377692699 1290667.2788517475 0 1290667.2788517475 6691615.9330692291 0 0 0 0 23399337.173983097 20004072.007950068 0 20004072.007950068 622036.38569116592 0 0 0 0 33049440.819471836 12731168.800198555 0 12731168.800198555 -5200239.0351680219 0 0 0 0 -15664317.926822394 6846153.9916499555 0 6846153.9916499555 1670094.8386263847 0 0 0 0 26330584.628469944 26956795.516548038 0 26956795.516548038 -1801988.5810121298 0 0 0 0 10774855.659141541 26202143.624190211 0 26202143.624190211 -538303.31941771507 0 0 0 0 38222720.424347878 13202326.315395117 0 13202326.315395117 -11907215.074191332 0 0 0 0 10806489.552873611 27637164.871243834 0 27637164.871243834 17659932.433716536 0 0 0 0 71793842.336246729 58618426.012289286 0 58618426.012289286 -42845040.62590313 0 0 0 0 -7709161.2755378485 41806829.980838478 0 41806829.980838478 9014557.2074890137 0 0 0 0 583551.67112119286 70685.308526797045 0 70685.308526797045 -438798.4639253075 0 0 0 0 11157417.388345003 3944715.6257234812 0 3944715.6257234812 -938300.16034555435 0 0 0 0 -6919976.1309387684 -69445222.067114115 0 -69445222.067114115 66607645.908223748 0 0 0 0 15290268.502098322 44688081.919432282 0 44688081.919432282 17289009.711718798 0 0 0 0 -920634.77353572845 18489803.955630302 0 18489803.955630302 68968198.717144966 0 0 0 0 -3109633.1395004988 27372820.165002584 0 27372820.165002584 33823948.833456993 0 0 0 0 12463708.286977053 11456560.227473021 0 11456560.227473021 53494912.063435316 0 0 0 0 96403007.305011988 -604247.91749155521 0 -604247.91749155521 -19888150.784159422 0 0 0 0 -88260.466641497565 69886.01101538504 0 69886.01101538504 288463.19664566556 0 0 0 0 75385457.900227785 -37611284.933625877 0 -37611284.933625877 19965564.972149849 0 0 0 0 -243069.57643686951 35165.755593765178 0 35165.755593765178 258209.73438779067 0 0 0 0 2607905.9380924702 7767067.952039957 0 7767067.952039957 33692164.911628723 0 0 0 0 -4829359.4786901474 -20980448.900100231 0 -20980448.900100231 -6223887.9768872261 0 0 0 0 -866117.9695252236 -5086116.4418252707 0 -5086116.4418252707 4937333.6966044903 0 0 0 0 32371839.819626361 28197520.719221354 0 28197520.719221354 18492278.057073355 0 0 0 0 -23811.320575157781 -267153.37736773881 0 -267153.37736773881 126755.30383863114 0 0 0 0 -41440663.98707737 24529697.554875106 0 24529697.554875106 47874132.046522379 0 0 0 0 12353649.335191607 15253890.221196175 0 15253890.221196175 14416950.719557881 0 0 0 0 8513734.8712011576 26554086.959254265 0 26554086.959254265 29542658.875294685 0 0 0 0 1139283.0598721504 25383994.385867119 0 25383994.385867119 34605330.477269396 0 0 0 0 4321889.4257071018 29578341.221226931 0 29578341.221226931 28459000.844309121 0 0 0 0 3926588.2136871815 28987330.324255705 0 28987330.324255705 28443404.995143414 0 0 0 0 4791611.1595649719 7482754.4398026466 0 7482754.4398026466 9003162.8180831969 0 0 0 0 6175587.5719186068 23058672.817248106 0 23058672.817248106 7829055.6654615402 0 0 0 0 4000276.4407409728 28355945.856749892 0 28355945.856749892 37693847.610554218 0 0 0 0 3698551.4538834393 -382740.46154594421 0 -382740.46154594421 26389571.675647259 0 0 0 0 4355584.8504478931 1115682.3750383854 0 1115682.3750383854 -7383023.8503494263 0 0 0 0 8585675.4537782669 10180055.833687544 0 10180055.833687544 -1703514.9342832565 0 0 0 0 15705694.569941521 9353662.6495261192 0 9353662.6495261192 -14095237.053814888 0 0 0 0 7380845.7078133821 -2353231.3555938005 0 -2353231.3555938005 -18003479.606119156 0 0 0 0 -22279979.251827836 6297315.4585508704 0 6297315.4585508704 24780023.890945196 0 0 0 0 -16646947.709709108 13246328.629109263 0 13246328.629109263 33265839.371809244 0 0 0 0 14526410.386348814 17293741.00323391 0 17293741.00323391 7047538.6059589386 0 0 0 0 19039389.909700245 2700934.9785847664 0 2700934.9785847664 -1659729.4770231247 0 0 0 0 7477965.5320153832 10236144.120141029 0 10236144.120141029 -2482817.0273714066 0 0 0 0 9890793.0606206954 13197461.144271374 0 13197461.144271374 -21168546.437063217 0 0 0 0 14954061.256468356 6341675.6551527977 0 6341675.6551527977 -29242917.633198738 0 0 0 0 5947189.8198132515 5385071.7056117058 0 5385071.7056117058 -3478965.5118894577 0 0 0 0 -800724.07873147726 -9411367.5981810093 0 -9411367.5981810093 -16789049.773849487 0 0 0 0 579952.55899891839 151522.37705365662 0 151522.37705365662 113177.09049437125 0 0 0 0 6455243.0686671734 13147471.324998617 0 13147471.324998617 -13280530.537646085 0 0 0 0 17153267.436624095 -5751565.9552543163 0 -5751565.9552543163 -1359102.2539944649 0 0 0 0 1426562.2693552524 -1759736.8134858608 0 -1759736.8134858608 -791116.66617774963 0 0 0 0 283165.98102224624 -125293.75181833142 0 -125293.75181833142 -244073.76466557616 0 0 0 0 8045918.4389115572 19635910.019236088 0 19635910.019236088 -30626220.166789234 0 0 0 0 1667451.7261940253 -48725.181009462336 0 -48725.181009462336 -796578.6860171915 0 0 0 0 2234634.593477726 1722593.2274706364 0 1722593.2274706364 -117810.48138380051 0 0 0 0 509803.44437623024 -217890.3173494339 0 -217890.3173494339 -7253421.7282162905 0 0 0 0 -689247.99009037018 -2818519.2177126408 0 -2818519.2177126408 -12393160.208694935 0 0 0 0 1057742.4654204869 1540647.9006213034 0 1540647.9006213034 64731.858070028946 0 0 0 0 -2938428.0731115341 8741809.9839773178 0 8741809.9839773178 -12449098.771281719 0 0 0 0 3518513.5603399277 19660904.435966492 0 19660904.435966492 -16037992.013906956 0 0 0 0 9664288.8211461902 1479414.9887137413 0 1479414.9887137413 -18943960.090995789 0 0 0 0 -3396584.6899576187 13421242.691445351 0 13421242.691445351 -20274843.333537579 0 0 0 0 -6576558.9357600212 -1193727.8710136414 0 -1193727.8710136414 -36524218.535793304 0 0 0 0 54405.735957115481 14955.038527762867 0 14955.038527762867 -6911.105671595782 0 0 0 0 1908558.3597290516 1128041.494223237 0 1128041.494223237 -366422.06751012802 0 0 0 0 5955287.6117446423 185201.90484011173 0 185201.90484011173 -1528146.6882245541 0 0 0 0 1183110.1949754101 409271.846359091 0 409271.846359091 -877627.9590934359 0 0 0 0 -1602591.5596568584 -9991283.4919090271 0 -9991283.4919090271 -19545430.540732622 0 0 0 0 7815116.3691222668 2203114.9993669987 0 2203114.9993669987 -397068.68528842926 0 0 0 0 17047638.947564363 28724697.430244684 0 28724697.430244684 -22193912.185443401 0 0 0 0 10779733.917832613 -1379779.6892051697 0 -1379779.6892051697 -32394332.870565414 0 0 0 0 1931681.1520237923 7592137.7523390055 0 7592137.7523390055 2676625.3012182713 0 0 0 0 -3849370.6361408234 -6677781.0062776804 0 -6677781.0062776804 -5225544.2458772659 0 0 0 0 -11313882.331635952 6542285.002499342 0 6542285.002499342 17000862.239021778 0 0 0 0 -9359781.2521862984 -2511796.3901745081 0 -2511796.3901745081 -8064374.355202198 0 0 0 0 192487.80158493342 -183834.68689942732 0 -183834.68689942732 -170909.26472729957 0 0 0 0 4538174.3801840544 11177907.417172968 0 11177907.417172968 7603368.5305070877 0 0 0 0 8160391.3613125086 15001681.983837605 0 15001681.983837605 1336005.6128587723 0 0 0 0 3105114.4028799534 8278085.2172613144 0 8278085.2172613144 5237074.5043783188 0 0 0 0 15564382.079738736 -5454579.5849444866 0 -5454579.5849444866 -5841259.6292614937 0 0 0 0 15085176.238865912 -3179523.8823649883 0 -3179523.8823649883 2251258.2837524414 0 0 0 0 57741.182184365796 -68478.295385901642 0 -68478.295385901642 173017.98752854788 0 0 0 0 5250772.9100041389 11616680.980129719 0 11616680.980129719 22481456.612735868 0 0 0 0 58493442.148986936 494671.00965046883 0 494671.00965046883 2745766.1452846527 0 0 0 0 27378040.032604456 -8068428.9239008427 0 -8068428.9239008427 4149484.9319751263 0 0 0 0 31855279.947473496 17236299.841321886 0 17236299.841321886 7681900.9646577835 0 0 0 0 1323368.1625701785 10378697.801286131 0 10378697.801286131 12855170.905693054 0 0 0 0 5209365.6852231026 9733486.4514478445 0 9733486.4514478445 8869839.3443739414 0 0 0 0 -7895287.4534606934 4254406.557354331 0 4254406.557354331 21263245.729156017 0 0 0 0 676605.32396286726 -17521015.180822164 0 -17521015.180822164 -5211122.7102982998 0 0 0 0 -7579562.7494915724 -12906030.798501849 0 -12906030.798501849 39792992.046437263 0 0 0 0 37359294.073825479 35183614.192974925 0 35183614.192974925 37173972.535367727 0 0 0 0 25367653.570084095 7798212.7825651765 0 7798212.7825651765 -21363069.434947729 0 0 0 0 5196830.1080169678 4905490.8697808981 0 4905490.8697808981 -21484479.927944776 0 0 0 0 2661620.3640940189 -1297034.3270849586 0 -1297034.3270849586 -18109499.194219172 0 0 0 0 10570361.618006468 6786255.7380268276 0 6786255.7380268276 -2261787.6220775843 0 0 0 0 352799.46192701883 -335523.20071701682 0 -335523.20071701682 -313548.06706422602 0 0 0 0 4722857.5260977745 8945175.9878759384 0 8945175.9878759384 3696299.6776914597 0 0 0 0 -1164989.0293320417 5019077.7778741121 0 5019077.7778741121 4020269.1773836613 0 0 0 0 3975074.6587486267 12659666.472940683 0 12659666.472940683 12330938.082797766 0 0 0 0 -9099410.9807232618 -4530837.5327436328 0 -4530837.5327436328 5131971.8788044453 0 0 0 0 356431.97124295472 -343835.47099358472 0 -343835.47099358472 -308081.98745655734 0 0 0 0 -12122914.098733902 -4138651.107057333 0 -4138651.107057333 11524591.029763758 0 0 0 0 -4687461.3018856049 1749744.1250588894 0 1749744.1250588894 5391376.3363577127 0 0 0 0 -8650378.7880752087 4118419.134205997 0 4118419.134205997 25626030.891011953 0 0 0 0 15894152.995734692 25696606.250305891 0 25696606.250305891 17319108.757624149 0 0 0 0 2765666.914434433 11199035.553484559 0 11199035.553484559 1443063.9888353348 0 0 0 0 2798468.5270562172 10152333.151153445 0 10152333.151153445 4018221.933920145 0 0 0 0 1017167.4990987778 7213270.8794773817 0 7213270.8794773817 12018533.729061365 0 0 0 0 4377845.080786705 10525016.759964943 0 10525016.759964943 4095629.7798807025 0 0 0 0 998729.86290121078 6854601.2074455023 0 6854601.2074455023 5189248.0360758305 0 0 0 0 -6800472.0882720947 -3934970.6156230569 0 -3934970.6156230569 -506008.58378589153 0 0 0 0 3395118.4364702702 -746254.89862945676 0 -746254.89862945676 -3404207.5069591105 0 0 0 0 -5732237.9359087348 -2919344.5040712282 0 -2919344.5040712282 -6087355.3252477646 0 0 0 0 208376.64634685684 186811.65360065777 0 186811.65360065777 -159984.24945328658 0 0 0 0 -968395.92443466187 -5800019.5053576231 0 -5800019.5053576231 -153402.63639473915 0 0 0 0 7630097.9604020119 23337475.157385647 0 23337475.157385647 17186806.444815144 0 0 0 0 56274.33988237381 10098692.42121613 0 10098692.42121613 17642633.097136259 0 0 0 0 18100573.478546143 -4393398.9594790936 0 -4393398.9594790936 -4439800.0971786976 0 0 0 0 230835.90543779614 155378.11593537609 0 155378.11593537609 -210956.20542552625 0 0 0 0 24692564.503432274 21774464.823820055 0 21774464.823820055 -1794354.1258893907 0 0 0 0 -5298514.1795264482 -9689346.5868258551 0 -9689346.5868258551 -2736678.6427869201 0 0 0 0 -2191102.8424091339 -1194929.8918490447 0 -1194929.8918490447 -5230534.8084274977 0 0 0 0 17307121.403688431 -11786004.006556511 0 -11786004.006556511 -336188.40098788217 0 0 0 0 25978722.176165581 2589292.8093433678 0 2589292.8093433678 -10339010.920539498 0 0 0 0 38580940.747228295 11972332.154364385 0 11972332.154364385 -2662824.2946054935 0 0 0 0 38059570.805833131 -4922516.9099551905 0 -4922516.9099551905 -4633997.7132651806 0 0 0 0 8183668.7945261002 -11370262.535619259 0 -11370262.535619259 1460110.0825025141 0 0 0 0 11977773.859174728 -839370.3534309864 0 -839370.3534309864 -4666789.8072756827 0 0 0 0 11180508.548242092 -3172176.7799803801 0 -3172176.7799803801 -10889108.610315118 0 0 0 0 13698097.293056965 328135.92234237865 0 328135.92234237865 -18616855.089621663 0 0 0 0 -3819118.8302276134 -8987766.0507808775 0 -8987766.0507808775 -9063729.0234912038 0 0 0 0 3540190.3733816147 2314538.0430695862 0 2314538.0430695862 1709937.2737555951 0 0 0 0 489569.47001589229 443160.00281527801 0 443160.00281527801 -95271.968774054156 0 0 0 0 -3988647.1008806229 -4022274.3662579656 0 -4022274.3662579656 -5544148.2025810033 0 0 0 0 10986402.372011945 -2370056.545457229 0 -2370056.545457229 -12392347.358323336 0 0 0 0 111201.56009522363 -183647.37328398594 0 -183647.37328398594 -24296.617788798641 0 0 0 0 -2437012.4050343037 -444365.17249834538 0 -444365.17249834538 2087261.7183656693 0 0 0 0 9574996.519184351 2613512.9371459447 0 2613512.9371459447 23556172.96322298 0 0 0 0 -11281379.086560965 9446018.9492699802 0 9446018.9492699802 -10944171.308018073 0 0 0 0 183055.37752690178 -170815.99402434449 0 -170815.99402434449 -171129.60841022275 0 0 0 0 -27256355.00654006 786016.37244167179 0 786016.37244167179 10537253.196878433 0 0 0 0 -14559469.987168074 5456271.2295895368 0 5456271.2295895368 20964450.747635126 0 0 0 0 10048350.145715903 15032817.570473406 0 15032817.570473406 3649012.6144490838 0 0 0 0 12917953.020801544 14133274.402146757 0 14133274.402146757 3875267.1132071316 0 0 0 0 10818367.989725113 14544247.355700314 0 14544247.355700314 17013924.232903302 0 0 0 0 10384155.555850029 3998798.7268398404 0 3998798.7268398404 -2916397.8675507624 0 0 0 0 15441228.796537995 5734772.1953441584 0 5734772.1953441584 -8532771.5773314312 0 0 0 0 -895609.10208702087 -2599293.7644632757 0 -2599293.7644632757 -10892638.237816945 0 0 0 0 -5692842.6767251492 8354632.7122741491 0 8354632.7122741491 6117781.9955807626 0 0 0 0 -12058874.363558769 -2364582.8631068468 0 -2364582.8631068468 -3345175.8971274495 0 0 0 0 -1771140.6066131592 3570441.4780964255 0 3570441.4780964255 -19172274.232590973 0 0 0 0 -95717.22039526701 298063.67872789502 0 298063.67872789502 223509.00843763351 0 0 0 0 2155511.5300680399 2570522.2025128901 0 2570522.2025128901 1195573.9913174585 0 0 0 0 453999.83606290061 -115189.94623859832 0 -115189.94623859832 -142949.24242343183 0 0 0 0 150970.9187996712 428870.52064995491 0 428870.52064995491 516464.88784491504 0 0 0 0 31869.661256372929 61761.561826378107 0 61761.561826378107 52858.643271923065 0 0 0 0 678286.7428006063 399152.47706473351 0 399152.47706473351 155315.78914230003 0 0 0 0 35802.636116181908 57326.10080212343 0 57326.10080212343 185076.88647382928 0 0 0 0 27214.893514752388 374614.41173315048 0 374614.41173315048 205949.00530433655 0 0 0 0 139570.17545104027 453713.77330458164 0 453713.77330458164 159104.31769108772 0 0 0 0 22841.624086774886 345845.77293670923 0 345845.77293670923 71391.689746260643 0 0 0 0 417923.78058283904 718108.08244565409 0 718108.08244565409 539680.08811047417 0 0 0 0 997805.62833394052 817254.93042568373 0 817254.93042568373 963182.83801759698 0 0 0 0 1311832.7743468285 -105514.85245680809 0 -105514.85245680809 225446.0413069725 0 0 0 0 1131376.4765340593 750428.72491176473 0 750428.72491176473 401631.07697551488 0 0 0 0 85416.116343770176 307480.17367066443 0 307480.17367066443 -51044.410633325577 0 0 0 0 810937.8116890291 245974.00087126935 0 245974.00087126935 63295.767498130968 0 0 0 0 -4766712.1379098892 7798402.3363213539 0 7798402.3363213539 -20516055.049280301 0 0 0 0 432981.36081306927 495224.0597801925 0 495224.0597801925 363129.79335599003 0 0 0 0 -4224434.50968647 2373671.9294458032 0 2373671.9294458032 -15024077.506375074 0 0 0 0 1530251.3184880838 2209051.0907377228 0 2209051.0907377228 -1064302.8348288536 0 0 0 0 2622463.8255013824 1708266.8453437388 0 1708266.8453437388 -1418895.7224110365 0 0 0 0 845515.17753018241 -13278.568722400843 0 -13278.568722400843 -305907.38848802331 0 0 0 0 3822547.1187728047 725664.38309332728 0 725664.38309332728 -1415125.1362791061 0 0 0 0 137863.70794309361 78128.47571841639 0 78128.47571841639 -31532.004804580123 0 0 0 0 2341104.9922758937 -158725.68119311333 0 -158725.68119311333 -1342515.8527050018 0 0 0 0 321957.59827485681 414013.06586891413 0 414013.06586891413 -139762.0221156776 0 0 0 0 1890997.5867199898 354448.1257314682 0 354448.1257314682 -1768286.2442077398 0 0 0 0 919232.06937456131 1090483.6252565384 0 1090483.6252565384 -1314465.2271363735 0 0 0 0 450739.51882833487 448328.87094231258 0 448328.87094231258 13257.085117188573 0 0 0 0 1068330.4785313606 200865.27508151531 0 200865.27508151531 254236.38372409344 0 0 0 0 5124747.4014773369 -16706.134717226028 0 -16706.134717226028 1974618.3465704918 0 0 0 0 5830051.7149426341 3523352.4933685083 0 3523352.4933685083 909291.73609659076 0 0 0 0 1331531.490218997 1868371.045317553 0 1868371.045317553 1671508.5505393147 0 0 0 0 9117226.8870594501 -5277027.8352040648 0 -5277027.8352040648 -20119779.022604451 0 0 0 0 -750203.30509614944 1797002.5195249319 0 1797002.5195249319 933703.6305295527 0 0 0 0 797226.80559139024 765523.77179626888 0 765523.77179626888 -14841.509063209262 0 0 0 0 -213813.58379507065 730194.05020135641 0 730194.05020135641 553070.00312072039 0 0 0 0 135941.08653271198 75965.97319945693 0 75965.97319945693 1776766.4988299608 0 0 0 0 -823372.2597079277 1503356.2132896185 0 1503356.2132896185 2262916.3759572208 0 0 0 0 -291726.47483563423 -279226.29227995872 0 -279226.29227995872 -542865.50896334648 0 0 0 0 1710672.2448449135 996781.01340800524 0 996781.01340800524 -27210.129244208336 0 0 0 0 1095277.4477379092 1044859.4294560376 0 1044859.4294560376 1203406.3421193957 0 0 0 0 2452815.8169240952 2875738.2148374319 0 2875738.2148374319 -178042.85831129551 0 0 0 0 2959608.9838624001 3185428.5961378813 0 3185428.5961378813 3473249.977832377 0 0 0 0 190643.33574216778 35822.900377053535 0 35822.900377053535 -64073.544321407739 0 0 0 0 7587210.2868142128 1284344.6601588726 0 1284344.6601588726 -133202.04920578003 0 0 0 0 1309001.7368245125 561885.84033375978 0 561885.84033375978 -195830.39133310318 0 0 0 0 1257057.5218908829 208433.48253174103 0 208433.48253174103 -26032.940135472687 0 0 0 0 1880911.4319543839 1205571.5811260939 0 1205571.5811260939 279266.11837947369 0 0 0 0 4983752.9687434435 2736871.2046184242 0 2736871.2046184242 2859186.7910525203 0 0 0 0 445124.18838820292 -68132.73459092353 0 -68132.73459092353 -151959.27450595965 0 0 0 0 -944447.06586956978 1249185.7242038846 0 1249185.7242038846 398552.62354874611 0 0 0 0 7537503.5747690201 2228831.7941812351 0 2228831.7941812351 -938797.90116418479 0 0 0 0 1540603.0267333984 3452100.061732471 0 3452100.061732471 -738637.58879583329 0 0 0 0 4169656.3616222739 1785700.2009545863 0 1785700.2009545863 -885105.00865077972 0 0 0 0 2802244.1017146111 -4056221.8208512664 0 -4056221.8208512664 -1040186.9291358367 0 0 0 0 1288232.4533034908 49259.333818278043 0 49259.333818278043 -436473.3694278457 0 0 0 0 4455160.7663698494 9934655.4015478231 0 9934655.4015478231 3215672.3933261633 0 0 0 0 1057585.8827363998 119788.16624790151 0 119788.16624790151 -653688.98403044383 0 0 0 0 3565905.969414413 -650303.57470376045 0 -650303.57470376045 -581977.15372616053 0 0 0 0 1555990.828774929 954854.84031335264 0 954854.84031335264 608365.13673989847 0 0 0 0 7618618.8584985733 -2363648.2125568092 0 -2363648.2125568092 2397201.1667046249 0 0 0 0 1051270.4568829536 1592.4472701270133 0 1592.4472701270133 705297.5842634961 0 0 0 0 666776.32367539406 2252932.6199599188 0 2252932.6199599188 962923.41085959226 0 0 0 0 145465.62294578552 1666816.088237524 0 1666816.088237524 -1382506.4816039503 0 0 0 0 791922.17809295654 2820343.425154388 0 2820343.425154388 -1050347.1679540873 0 0 0 0 -926738.64613413811 1461583.0408816487 0 1461583.0408816487 7603655.6969889402 0 0 0 0 3360592.2263641357 -15091848.88384974 0 -15091848.88384974 -7384472.7491461635 0 0 0 0 4338486.0274891853 10602236.248222113 0 10602236.248222113 -2052148.9053828716 0 0 0 0 156443.9582901001 -10138285.027856231 0 -10138285.027856231 -708948.25189530849 0 0 0 0 -5632877.8561468124 1654274.8850718141 0 1654274.8850718141 842385.73921978474 0 0 0 0 5031039.6155185699 -11445813.516823292 0 -11445813.516823292 -15566721.905449092 0 0 0 0 411545.61807192746 318496.80195056519 0 318496.80195056519 -283288.61733296508 0 0 0 0 -5087285.4892126322 -133247.31981599331 0 -133247.31981599331 -8643473.895483613 0 0 0 0 297222.74385643005 -1369301.7485855818 0 -1369301.7485855818 -13908325.301344275 0 0 0 0 207239.10645453399 195633.43543036311 0 195633.43543036311 -88766.469230388902 0 0 0 0 4321016.5178413391 7022098.5232942291 0 7022098.5232942291 8923495.3094570003 0 0 0 0 -1980779.5928654671 -549462.8302462399 0 -549462.8302462399 717705.16213349998 0 0 0 0 -604092.13620567322 -2186197.6846019626 0 -2186197.6846019626 -7842791.2458001524 0 0 0 0 1446027.7428917885 4193814.5553540289 0 4193814.5553540289 850912.09757142328 0 0 0 0 -837486.00454330444 2820597.6058957446 0 2820597.6058957446 6673308.6649993956 0 0 0 0 10007773.943951488 5116267.1525622662 0 5116267.1525622662 2035850.2112211734 0 0 0 0 -13387822.040590823 35070723.264119357 0 35070723.264119357 -4372305.8366184235 0 0 0 0 11435701.328511715 -2830624.1681884676 0 -2830624.1681884676 -5446948.5712675005 0 0 0 0 -2063405.3513498306 -7102932.1042122915 0 -7102932.1042122915 -1621757.4953585863 0 0 0 0 703311.06297975057 -210136.83642873325 0 -210136.83642873325 138237.54620671744 0 0 0 0 -966557.9539372921 643514.36592842638 0 643514.36592842638 -4595898.5930875242 0 0 0 0 6067093.9868242741 -5267324.892369166 0 -5267324.892369166 -960556.88701593876 0 0 0 0 16103283.230068654 -6493489.7487938777 0 -6493489.7487938777 -1932931.3782105446 0 0 0 0 -6426713.4086797237 -15064295.340012118 0 -15064295.340012118 -4405537.729108423 0 0 0 0 -4577896.4454300404 382872.8609316498 0 382872.8609316498 4837544.4523761198 0 0 0 0 -3792988.4490146041 -4739525.1866822839 0 -4739525.1866822839 29348549.939948022 0 0 0 0 -11167891.440644443 -5245953.1720706075 0 -5245953.1720706075 9733865.0315697193 0 0 0 0 13295483.9510566 14359814.593328595 0 14359814.593328595 9923388.780979991 0 0 0 0 45186698.825722456 -40899007.637071013 0 -40899007.637071013 34458600.531910598 0 0 0 0 3742839.5460379082 -1135805.4887437923 0 -1135805.4887437923 -873228.9113257135 0 0 0 0 4626295.0827883482 10590404.942292722 0 10590404.942292722 3871285.6394030452 0 0 0 0 14034894.688918114 3579863.5096925199 0 3579863.5096925199 8898513.0910037644 0 0 0 0 225040.50428424322 -60231.902598495843 0 -60231.902598495843 31734.014151035721 0 0 0 0 28954680.684453487 -46267570.148981273 0 -46267570.148981273 29315577.757324904 0 0 0 0 3375880.0307817515 -826713.46708600153 0 -826713.46708600153 -999790.3638928195 0 0 0 0 112953827.04838371 -73217834.222629905 0 -73217834.222629905 53020322.739096642 0 0 0 0 -51178984.572810173 65030351.947060555 0 65030351.947060555 -17004799.443523943 0 0 0 0 11271867.927408695 16516013.143888444 0 16516013.143888444 10833915.470855653 0 0 0 0 11979834.864375114 3176691.9991324842 0 3176691.9991324842 9283308.6971237808 0 0 0 0 5833554.2979135513 -3511605.4454105198 0 -3511605.4454105198 1181080.2660091892 0 0 0 0 2043528.0040345192 2058877.1395358741 0 2058877.1395358741 -1098099.9432270527 0 0 0 0 2106426.4758691788 1246924.3771380782 0 1246924.3771380782 -3364177.0997792482 0 0 0 0 855216.29891896574 262973.66544457723 0 262973.66544457723 -815334.73371240404 0 0 0 0 9984455.6901092529 213196.50895965099 0 213196.50895965099 2119372.0523257852 0 0 0 0 8725090.2689832449 6112842.0129940566 0 6112842.0129940566 8847663.062772125 0 0 0 0 14970921.588860512 7473074.4738081098 0 7473074.4738081098 3101292.5308123939 0 0 0 0 17152363.048471451 14227035.553011417 0 14227035.553011417 2675461.4920435101 0 0 0 0 13931866.36787796 9930760.8509687483 0 9930760.8509687483 3017718.1487808228 0 0 0 0 5473280.0654315948 6270802.6757621765 0 6270802.6757621765 1801059.9878516197 0 0 0 0 13378981.944187239 -17528749.891606092 0 -17528749.891606092 10191240.187351167 0 0 0 0 4019838.0934334453 -1380170.0452272114 0 -1380170.0452272114 -735599.1203121586 0 0 0 0 -3060834.2447724342 -10247255.344554484 0 -10247255.344554484 2080230.9221462011 0 0 0 0 447098.68469048385 706046.27705265675 0 706046.27705265675 -901404.02551942784 0 0 0 0 16959828.274112105 11377784.294172607 0 11377784.294172607 -11439678.333153248 0 0 0 0 -9422044.2610683441 24236597.838615656 0 24236597.838615656 20658002.13679266 0 0 0 0 652125.71183800092 457715.8956136792 0 457715.8956136792 -913392.65039276774 0 0 0 0 3821980.3290596008 -4983243.9816660881 0 -4983243.9816660881 -9967178.8879101276 0 0 0 0 12097315.945381165 5661002.1520379782 0 5661002.1520379782 -4994330.7945327759 0 0 0 0 1331308.4572944641 -4705669.8695136309 0 -4705669.8695136309 3366958.9147932529 0 0 0 0 199003.84340989543 187427.68546501501 0 187427.68546501501 -154736.46802332223 0 0 0 0 3858468.0616340637 9761635.3213461637 0 9761635.3213461637 7900749.458029747 0 0 0 0 2797700.2561359406 1172714.0801677704 0 1172714.0801677704 738297.13759160042 0 0 0 0 2144699.2132151127 3269405.781687472 0 3269405.781687472 -1681542.8037236929 0 0 0 0 2108766.9063486457 3140494.086989224 0 3140494.086989224 -1671922.2844792604 0 0 0 0 396022.53522729222 324579.20125890826 0 324579.20125890826 -279497.57462555444 0 0 0 0 168351.33873605728 4707336.3810706139 0 4707336.3810706139 5167791.4175937176 0 0 0 0 -3399646.9828500748 1812002.607139945 0 1812002.607139945 5576502.1940555573 0 0 0 0 2674203.4635715485 2356306.1548287868 0 2356306.1548287868 5477036.3415613174 0 0 0 0 2480715.4821715355 2883099.2629131079 0 2883099.2629131079 4464622.3870830536 0 0 0 0 2670138.2002909184 3268031.3400995731 0 3268031.3400995731 4014032.0783209801 0 0 0 0 347103.35777543997 -18267.862687771441 0 -18267.862687771441 -120581.51850056741 0 0 0 0 -3134831.3905558586 1457517.7107515335 0 1457517.7107515335 1364191.203649044 0 0 0 0 6804241.6564874649 3118890.3033239841 0 3118890.3033239841 2318102.7537189722 0 0 0 0 9227440.8485126495 3872873.3648989201 0 3872873.3648989201 2514571.0873346329 0 0 0 0 3562366.967376709 3339855.0098109245 0 3339855.0098109245 4631457.359621048 0 0 0 0 5202435.5057873726 1018721.5269477367 0 1018721.5269477367 3009044.9788899422 0 0 0 0 4544457.9424705505 685217.97102212906 0 685217.97102212906 2849042.212836504 0 0 0 0 4733291.8692836761 -15963.984900951385 0 -15963.984900951385 187714.61839532852 0 0 0 0 3744047.6922149658 -1969212.3165540695 0 -1969212.3165540695 999278.05311775208 0 0 0 0 -2880331.1618984938 -2409561.5374080539 0 -2409561.5374080539 4530743.5716319084 0 0 0 0 1020359.022808075 449640.50364947319 0 449640.50364947319 4049149.4687886238 0 0 0 0 3294792.04373312 -1840832.6068553925 0 -1840832.6068553925 4576878.0511579514 0 0 0 0 8196836.7020635605 -4382643.7713048458 0 -4382643.7713048458 1853870.3914222717 0 0 0 0 4113842.0139970779 -387320.52422761917 0 -387320.52422761917 1507865.6788938642 0 0 0 0 5648404.0674011707 3207615.4300040901 0 3207615.4300040901 -2765811.1162934303 0 0 0 0 -7136276.1703019142 5117518.6974103451 0 5117518.6974103451 6421364.4437445998 0 0 0 0 9292938.8433576226 1047913.7701428235 0 1047913.7701428235 -2105741.8741695881 0 0 0 0 1858099.1186587811 -14327020.553643644 0 -14327020.553643644 -6089300.8361668587 0 0 0 0 816374.81113290787 6497893.5456233025 0 6497893.5456233025 3750825.3655616045 0 0 0 0 12240183.297512054 19812371.331206322 0 19812371.331206322 22391201.312356234 0 0 0 0 -11332631.148569107 -6729915.8545175791 0 -6729915.8545175791 28917765.450695008 0 0 0 0 18713655.370780468 -555696.27835255861 0 -555696.27835255861 -15816951.305544615 0 0 0 0 429314.31067898381 263068.7656221647 0 263068.7656221647 -371631.95709751511 0 0 0 0 6895560.5104150772 -1052352.1696751118 0 -1052352.1696751118 -4412987.6470165253 0 0 0 0 35223323.464478493 11916702.286153257 0 11916702.286153257 -14142679.391848326 0 0 0 0 406326.7945007435 241681.50715732167 0 241681.50715732167 -346023.16034812771 0 0 0 0 -7024242.6264910698 4271582.2147186995 0 4271582.2147186995 3440503.7728102207 0 0 0 0 4242270.7697205544 765611.61649262905 0 765611.61649262905 -12991762.146162629 0 0 0 0 7465771.8183507919 -2394941.9185740948 0 -2394941.9185740948 -6322653.1096367836 0 0 0 0 454039.52202140237 337099.5160531915 0 337099.5160531915 -300838.02796382736 0 0 0 0 837188.72699117661 2853931.6235558391 0 2853931.6235558391 -1604228.7518370152 0 0 0 0 -4981189.7477531433 7211656.8619641066 0 7211656.8619641066 5040444.0922920704 0 0 0 0 6926164.6304941177 -5565435.4779094458 0 -5565435.4779094458 -5559029.2625834942 0 0 0 0 -1781435.6490907669 -2243605.4702119827 0 -2243605.4702119827 5629008.9821633101 0 0 0 0 203666.05590104964 130693.58929989673 0 130693.58929989673 -181840.7621609323 0 0 0 0 -5394852.5169160366 1901162.9504983425 0 1901162.9504983425 9767342.6780018806 0 0 0 0 2657602.0189270973 4593758.9498529434 0 4593758.9498529434 7987680.7245035172 0 0 0 0 5217300.8541460037 3201327.1859574318 0 3201327.1859574318 3751944.4479122162 0 0 0 0 3404102.1015300751 -313374.81478333473 0 -313374.81478333473 6186531.9596512318 0 0 0 0 897269.66766166687 1331354.3678629398 0 1331354.3678629398 5433117.3932373524 0 0 0 0 274129.90533065796 4104932.6105790138 0 4104932.6105790138 3396983.8776138425 0 0 0 0 1947580.5136165619 3948981.6049199104 0 3948981.6049199104 3389742.1569662094 0 0 0 0 2727149.5897929668 2095089.7328850031 0 2095089.7328850031 3180841.288107872 0 0 0 0 612590.20162582397 2102895.6816058159 0 2102895.6816058159 3226259.8899947405 0 0 0 0 1025919.457816124 2996220.6538419724 0 2996220.6538419724 1792738.2914142609 0 0 0 0 -323761.73109149933 3438898.8844013214 0 3438898.8844013214 2322178.8584804535 0 0 0 0 80462.23250579834 3966585.8857302666 0 3966585.8857302666 702004.91853481531 0 0 0 0 538548.36853170395 1973696.6537011862 0 1973696.6537011862 4283180.7950811386 0 0 0 0 1155324.8424062729 3630109.4503772259 0 3630109.4503772259 7374732.4891045094 0 0 0 0 4251332.3434667587 3303334.8353571892 0 3303334.8353571892 3262458.7086396217 0 0 0 0 830292.41962838173 2372243.0513495803 0 2372243.0513495803 4534945.3513207436 0 0 0 0 2436597.4093408585 4296752.8653783798 0 4296752.8653783798 2323279.5820841789 0 0 0 0 2647473.2071247101 3592176.3735289574 0 3592176.3735289574 3603192.4106128216 0 0 0 0 11297992.713768005 4184575.0205097198 0 4184575.0205097198 2112449.732156992 0 0 0 0 5023592.0758049488 5688396.4260671139 0 5688396.4260671139 6955045.3563580513 0 0 0 0 3085623.5287246704 4294537.8817293644 0 4294537.8817293644 6669140.1819487214 0 0 0 0 9851762.1935863495 11657443.499590933 0 11657443.499590933 11004460.752846241 0 0 0 0 2717117.8221006393 2658605.4130154848 0 2658605.4130154848 11070061.877598286 0 0 0 0 146121.49913384672 -235594.84193253203 0 -235594.84193253203 138989.26245516003 0 0 0 0 -8533706.1386072636 -3637085.8443567753 0 -3637085.8443567753 7209996.3902609348 0 0 0 0 39980504.951123238 11969318.2186867 0 11969318.2186867 2678045.2803347111 0 0 0 0 18356390.45634222 1743493.4418843389 0 1743493.4418843389 3261903.2573416233 0 0 0 0 10487919.94197917 2411251.7404150367 0 2411251.7404150367 3361025.3158595562 0 0 0 0 11058990.705247402 3337894.2787353992 0 3337894.2787353992 1702377.5628404617 0 0 0 0 14332750.555709839 268706.66644990444 0 268706.66644990444 -460513.370449543 0 0 0 0 620344.43395317113 -289947.66037622828 0 -289947.66037622828 335961.20092428708 0 0 0 0 8171259.4343956709 -680551.70950168371 0 -680551.70950168371 -34632.242893695831 0 0 0 0 6110628.789855957 1427042.6335319281 0 1427042.6335319281 -1700038.6379234791 0 0 0 0 3136859.9589924812 3706927.7042472363 0 3706927.7042472363 -1168911.9650537372 0 0 0 0 5291737.4784030914 2495941.2604286671 0 2495941.2604286671 -950627.90504914522 0 0 0 0 9793255.9563119411 1878061.8091381788 0 1878061.8091381788 422043.79863786697 0 0 0 0 6289700.124468565 3480409.2429003119 0 3480409.2429003119 6778.8217458724976 0 0 0 0 5595917.3525352478 3803461.3181154728 0 3803461.3181154728 2188787.0788520575 0 0 0 0 5769867.8991185427 4566787.8173018098 0 4566787.8173018098 842024.20396232605 0 0 0 0 2938835.0846128464 3442226.1652274132 0 3442226.1652274132 520320.88389205933 0 0 0 0 1845103.9579162598 5676895.9043557644 0 5676895.9043557644 -723847.05159807205 0 0 0 0 2411822.2891368866 3464436.1268086433 0 3464436.1268086433 -1112019.4478487968 0 0 0 0 1363645.7376775742 2694319.7493031025 0 2694319.7493031025 566611.53653049469 0 0 0 0 -3430521.5858602524 4085769.6463165283 0 4085769.6463165283 322627.55475616455 0 0 0 0 328129.86500753585 100722.03661983414 0 100722.03661983414 22187.807351844618 0 0 0 0 244106.01118850708 528602.03585910797 0 528602.03585910797 -100616.73569202423 0 0 0 0 1477532.2240996496 1145622.8650685649 0 1145622.8650685649 541922.38521053153 0 0 0 0 1583217.0841946602 4243452.4865422249 0 4243452.4865422249 211304.81281763315 0 0 0 0 -147050.54103326797 -101576.04633951187 0 -101576.04633951187 44967.770059585571 0 0 0 0 1391502.9512907055 620255.04553598934 0 620255.04553598934 6496.5603175705764 0 0 0 0 1664003.0094637871 3673693.5791859627 0 3673693.5791859627 -996772.49925899506 0 0 0 0 4269066.668368578 5036086.4177528024 0 5036086.4177528024 -352349.22515439987 0 0 0 0 4171865.6025662422 3991621.9485707283 0 3991621.9485707283 -2556368.4683170319 0 0 0 0 6767656.5788297653 -764555.824672997 0 -764555.824672997 -3753398.9570026398 0 0 0 0 3201432.7723785155 1630997.6321312934 0 1630997.6321312934 508059.51357132639 0 0 0 0 1370442.077937101 242603.4860331486 0 242603.4860331486 -536331.7311662758 0 0 0 0 2586215.3124427795 792213.45546984673 0 792213.45546984673 -429327.23327210546 0 0 0 0 850838.91564782127 575439.96702113189 0 575439.96702113189 56831.949894362362 0 0 0 0 3308063.669254303 1524672.2768377364 0 1524672.2768377364 -49479.389290213585 0 0 0 0 1066331.9202643149 732928.21241966146 0 732928.21241966146 445448.99308323953 0 0 0 0 2809513.2479810715 831661.17457824945 0 831661.17457824945 448012.03429624438 0 0 0 0 2052069.2421736717 1822925.5226966143 0 1822925.5226966143 134217.29083776474 0 0 0 0 2873193.5861206055 1410681.8122923374 0 1410681.8122923374 -490592.48711955547 0 0 0 0 3746413.8484172821 2424887.8300352097 0 2424887.8300352097 -1891052.8518076241 0 0 0 0 -2559921.776140213 7068713.6609429121 0 7068713.6609429121 724737.60314881802 0 0 0 0 3858651.8650027001 1749294.6156109413 0 1749294.6156109413 317840.97871342429 0 0 0 0 5895024.0635192394 686211.09940296412 0 686211.09940296412 -3073147.2342643738 0 0 0 0 7001680.0142526627 4331958.3062183261 0 4331958.3062183261 -4873250.5047658682 0 0 0 0 539595.05598268681 1143227.1252478608 0 1143227.1252478608 1198015.6571262577 0 0 0 0 385500.27521898178 711753.9177612965 0 711753.9177612965 699092.36337280972 0 0 0 0 -3416521.194521904 4165768.3921867609 0 4165768.3921867609 136097.64611744881 0 0 0 0 4067306.337433815 1477877.3978078365 0 1477877.3978078365 62193.511703968048 0 0 0 0 4076787.8805994987 1518046.0492410064 0 1518046.0492410064 156798.69581604004 0 0 0 0 1271948.866435051 3188444.3407120705 0 3188444.3407120705 8895.7109647616744 0 0 0 0 2969538.6020998955 1205047.7308677435 0 1205047.7308677435 667866.5891046524 0 0 0 0 1404211.7217327398 -158407.47601806372 0 -158407.47601806372 -422668.16363629163 0 0 0 0 6127341.7890257239 2489173.4793695062 0 2489173.4793695062 261612.21127176285 0 0 0 0 5585085.5450801849 2186634.8051900864 0 2186634.8051900864 1801641.865165472 0 0 0 0 62729.656497410964 -201505.65773808677 0 -201505.65773808677 -109746.05748835637 0 0 0 0 6070784.3657369614 1960884.9163868427 0 1960884.9163868427 86850.065886497498 0 0 0 0 5695031.4188652039 2355849.610619545 0 2355849.610619545 -98929.988451004028 0 0 0 0 6021954.9098892212 2132805.359108448 0 2132805.359108448 -344116.24319982529 0 0 0 0 5318505.1442928314 1745592.3797354698 0 1745592.3797354698 -259371.66250228882 0 0 0 0 6269057.3853378296 1228117.1220054626 0 1228117.1220054626 814751.8006567955 0 0 0 0 5318558.5393850543 1702946.1556850958 0 1702946.1556850958 1473486.2308278084 0 0 0 0 368213.34881305695 -228233.24862241745 0 -228233.24862241745 -121028.7014374733 0 0 0 0 718845.22994232178 906085.30566573143 0 906085.30566573143 461842.57771110535 0 0 0 0 1089225.1392799106 828685.9418201918 0 828685.9418201918 386675.67364623444 0 0 0 0 1014590.1137997555 -401188.03665030841 0 -401188.03665030841 -205850.39154609246 0 0 0 0 584637.39357948303 369916.03588008881 0 369916.03588008881 87791.886108875275 0 0 0 0 861085.77159500122 -114636.99943947792 0 -114636.99943947792 -256736.34986329079 0 0 0 0 946214.68748664856 588291.59923195839 0 588291.59923195839 -28699.778990745544 0 0 0 0 1110523.1395305805 333499.52009941544 0 333499.52009941544 -57870.457550559833 0 0 0 0 284905.47747039795 163271.40224480629 0 163271.40224480629 414153.423371315 0 0 0 0 64517.09024809394 45609.13968590321 0 45609.13968590321 6079.0449809456477 0 0 0 0 2842815.6662704945 570344.86233121157 0 570344.86233121157 297888.88799774647 0 0 0 0 1939884.6401720047 717310.67431944609 0 717310.67431944609 504332.51938718557 0 0 0 0 1638525.6124248505 572855.37839639187 0 572855.37839639187 507027.44024682045 0 0 0 0 1529862.2252006531 1393511.5029439926 0 1393511.5029439926 -861514.91343653202 0 0 0 0 1805131.6948318481 520678.77357947826 0 520678.77357947826 519117.73765408993 0 0 0 0 617548.73389747366 504323.9804308177 0 504323.9804308177 255683.66304681101 0 0 0 0 2006290.5756626129 827417.29488158226 0 827417.29488158226 560658.85804843903 0 0 0 0 1528170.4515201282 -72555.507444044109 0 -72555.507444044109 -788322.87575565896 0 0 0 0 3630057.5378513336 415896.45205658674 0 415896.45205658674 832716.73994708061 0 0 0 0 3823215.7811689377 1196574.4743893147 0 1196574.4743893147 66855.136791586876 0 0 0 0 1204710.330821991 1558024.7032823563 0 1558024.7032823563 961007.75047564507 0 0 0 0 2635380.4690232277 1337952.4204226434 0 1337952.4204226434 -1350412.2168011665 0 0 0 0 7487876.0873384476 5063996.5015695691 0 5063996.5015695691 -1253883.6046380997 0 0 0 0 234664.12958578439 297629.49029163038 0 297629.49029163038 170805.96249503025 0 0 0 0 292532.1935280133 241856.5643409295 0 241856.5643409295 118141.84935918637 0 0 0 0 2100709.429046154 -304239.75367698073 0 -304239.75367698073 -1098408.2570314407 0 0 0 0 840420.19793701172 1055885.6710488796 0 1055885.6710488796 -1193011.4973125458 0 0 0 0 4012754.6409015656 -1465373.4786546528 0 -1465373.4786546528 285429.68517136574 0 0 0 0 8350210.5787055492 3914532.3008323014 0 3914532.3008323014 1955157.5105657578 0 0 0 0 122676.05532010831 83053.099288235884 0 83053.099288235884 -64921.102415772388 0 0 0 0 -4188209.8844003677 -2640854.945851177 0 -2640854.945851177 -1872000.7129198313 0 0 0 0 4759416.9248523712 3314436.9073534012 0 3314436.9073534012 -19182574.068372723 0 0 0 0 5561023.5470981598 4247028.5649183989 0 4247028.5649183989 -19143762.377833582 0 0 0 0 1334332.0738887787 993566.93715882301 0 993566.93715882301 3170570.7753112912 0 0 0 0 40947.816933827009 110247.77001581667 0 110247.77001581667 73724.120641543181 0 0 0 0 -144323.67656421661 3941563.5334531665 0 3941563.5334531665 -2698276.7304069996 0 0 0 0 4962980.0596828461 10034476.100348532 0 10034476.100348532 -5635559.7572692633 0 0 0 0 -544196.1789264679 -7589080.5923641324 0 -7589080.5923641324 -16126585.11498332 0 0 0 0 1772393.3951187134 1531269.5499056578 0 1531269.5499056578 -1357023.7814427018 0 0 0 0 1183824.3889336586 -2516705.0471119583 0 -2516705.0471119583 -5345611.2133300304 0 0 0 0 6399335.3207931519 2531687.0864828229 0 2531687.0864828229 -14533356.907542109 0 0 0 0 5627546.2185134888 5328705.9049261808 0 5328705.9049261808 -15066648.357006371 0 0 0 0 7455393.7182716131 3312388.686195299 0 3312388.686195299 -13958983.761478424 0 0 0 0 8039105.8266029358 -323992.80500668287 0 -323992.80500668287 -21784742.716778696 0 0 0 0 12069138.442308426 5354220.5161648393 0 5354220.5161648393 -15439622.217144668 0 0 0 0 13375955.652366638 8596049.9505542517 0 8596049.9505542517 -14049698.337411806 0 0 0 0 10852995.402470589 5106420.4291221201 0 5106420.4291221201 -8574735.3902724981 0 0 0 0 688441.90587234497 10550087.179826379 0 10550087.179826379 -12653405.198471904 0 0 0 0 6231708.552311182 4405490.0891420953 0 4405490.0891420953 -6640550.8222768307 0 0 0 0 1877926.2165374756 425714.0374943018 0 425714.0374943018 -1977228.5291585922 0 0 0 0 1623222.8068828583 3709063.1251892447 0 3709063.1251892447 -6169932.4991009235 0 0 0 0 1497019.5897137821 1312646.2330274601 0 1312646.2330274601 -1013867.1936197281 0 0 0 0 400070.74644359318 290342.3493445632 0 290342.3493445632 8314.5756199385505 0 0 0 0 3860008.5803546906 2046963.4437879324 0 2046963.4437879324 -1423429.2857577801 0 0 0 0 -12398911.082274437 12920243.629025668 0 12920243.629025668 -5157338.1690449715 0 0 0 0 109357.56785527174 110262.78811933426 0 110262.78811933426 4416.7810455474537 0 0 0 0 -228544.16647815704 5399005.1028642878 0 5399005.1028642878 -1309170.3176925182 0 0 0 0 -4248760.0038983822 3715051.2023532316 0 3715051.2023532316 8615587.1991769075 0 0 0 0 -2749510.0260396004 9930457.8864494972 0 9930457.8864494972 -9615391.1124384999 0 0 0 0 45123.645624238998 -64154.491206763167 0 -64154.491206763167 -7396.612952904713 0 0 0 0 31055252.768135071 -16914461.85374862 0 -16914461.85374862 -30374620.890594848 0 0 0 0 2458128.695728302 12692591.288393855 0 12692591.288393855 18676948.386448078 0 0 0 0 15408927.554306746 -2393022.6437402032 0 -2393022.6437402032 1979849.8923918605 0 0 0 0 34251797.898058891 786908.13846519589 0 786908.13846519589 -9218083.6366012096 0 0 0 0 4870510.8040523529 15514579.615338326 0 15514579.615338326 -15458784.29061538 0 0 0 0 10854757.965611458 4572978.9074299932 0 4572978.9074299932 -11740412.419480979 0 0 0 0 21172062.142015457 17768537.440977335 0 17768537.440977335 4025383.6694927216 0 0 0 0 19208262.687770844 5630923.567171514 0 5630923.567171514 -8818259.3203053176 0 0 0 0 9431136.7988128662 -4924198.0859894753 0 -4924198.0859894753 864636.96267592907 0 0 0 0 6666627.3606338501 1852275.8498471081 0 1852275.8498471081 -3999792.116268158 0 0 0 0 13806758.804561615 -12625516.465995401 0 -12625516.465995401 -3014206.2445540428 0 0 0 0 -6681157.6971988678 -6331211.8741731048 0 -6331211.8741731048 1658169.7654336691 0 0 0 0 11229263.549739838 -2813114.5963891745 0 -2813114.5963891745 -784771.50383353233 0 0 0 0 23876093.905525208 -5468498.246632576 0 -5468498.246632576 -4914422.1222886927 0 0 0 0 15129655.263385773 -7413377.9095413685 0 -7413377.9095413685 -5010782.9600348473 0 0 0 0 26400011.401611328 -11020438.720877141 0 -11020438.720877141 -624886.26657366753 0 0 0 0 16739841.934221268 3050834.6546779275 0 3050834.6546779275 21801820.436522752 0 0 0 0 -20475299.86203289 20513492.342280265 0 20513492.342280265 -1577760.1760474145 0 0 0 0 17873790.530088425 744550.6846871227 0 744550.6846871227 7010999.2113995701 0 0 0 0 293203.60936397407 133179.44476882787 0 133179.44476882787 -55778.931620491901 0 0 0 0 -17673671.27009964 9352715.7854747921 0 9352715.7854747921 2181243.5061457157 0 0 0 0 -30191377.279338837 -2526735.3741206527 0 -2526735.3741206527 1167401.9029920101 0 0 0 0 5221919.2819061279 -22317048.446654916 0 -22317048.446654916 -27062606.776368856 0 0 0 0 3348110.0162963867 -24797.033836126328 0 -24797.033836126328 -15631372.276075721 0 0 0 0 -1943370.1980323792 1512823.823501274 0 1512823.823501274 -9913995.3916626126 0 0 0 0 -10306145.708221436 -4563301.9840113521 0 -4563301.9840113521 -13859844.153359339 0 0 0 0 -11627343.465370178 -22124713.290727139 0 -22124713.290727139 -18417302.880922198 0 0 0 0 -2801237.8932380676 -2345847.9452890977 0 -2345847.9452890977 1146302.7007827181 0 0 0 0 -16954374.135292053 564986.80978503823 0 564986.80978503823 4148988.5696295202 0 0 0 0 6960532.8048801422 5487724.9395785127 0 5487724.9395785127 2014938.4113218952 0 0 0 0 -1414424.8303544521 -1132416.1553162187 0 -1132416.1553162187 -2998545.8153581917 0 0 0 0 6297551.5037536621 14013082.51477167 0 14013082.51477167 -15049895.529457301 0 0 0 0 -2321902.3353748322 468169.50856429338 0 468169.50856429338 -906321.12257361412 0 0 0 0 21360170.920063019 9990809.4231444597 0 9990809.4231444597 -15626126.389332831 0 0 0 0 393338.06863171794 156428.96233888133 0 156428.96233888133 -101353.81672557193 0 0 0 0 18933.772987362929 -4433.3969126397278 0 -4433.3969126397278 -6032.7840729581949 0 0 0 0 -2331727.5596175194 563526.1391043067 0 563526.1391043067 -8931.8661680221558 0 0 0 0 -4371534.127456665 27492340.709794909 0 27492340.709794909 -16631236.761087477 0 0 0 0 5748516.1547470093 5110000.519685626 0 5110000.519685626 -21541313.843968213 0 0 0 0 133784.92640826479 -29316.094378675567 0 -29316.094378675567 -111564.68801042825 0 0 0 0 -2060579.5118217468 -140307.11078250408 0 -140307.11078250408 -1271096.1836574376 0 0 0 0 2541280.746263504 10976474.429494619 0 10976474.429494619 12636201.779228874 0 0 0 0 10968334.119581699 -8775041.031767562 0 -8775041.031767562 -3223114.1364414096 0 0 0 0 -12262940.832428932 3310530.7644606233 0 3310530.7644606233 19791105.818412304 0 0 0 0 16611019.918172359 10674084.940882497 0 10674084.940882497 -5902104.1136369705 0 0 0 0 328686.57670573751 49689.124538770411 0 49689.124538770411 -87887.982848890475 0 0 0 0 21682005.21953392 -6287948.3163260818 0 -6287948.3163260818 -517684.82856708765 0 0 0 0 1113905.2402219772 -1069472.6372113824 0 -1069472.6372113824 7509445.0765691996 0 0 0 0 1109262.9923353195 -680625.99579149485 0 -680625.99579149485 1822068.8540616632 0 0 0 0 385664.19120132923 2098111.5007727593 0 2098111.5007727593 6648735.901665926 0 0 0 0 713706.72208499908 3724059.9133085608 0 3724059.9133085608 1184493.4712857306 0 0 0 0 5937133.3925256729 2653007.1037723646 0 2653007.1037723646 1127623.0027438402 0 0 0 0 9797453.7142112255 2559547.1872841567 0 2559547.1872841567 -4617489.4111828208 0 0 0 0 2115392.4391136169 8328012.7020226419 0 8328012.7020226419 -3038792.4440059364 0 0 0 0 -6281509.6329669952 5814960.1397539973 0 5814960.1397539973 -10129648.667548001 0 0 0 0 5042233.2252669334 5151383.5825414211 0 5151383.5825414211 -10091695.733845532 0 0 0 0 -844196.82947921753 11013299.967628092 0 11013299.967628092 -9000012.6528593302 0 0 0 0 78028.975055143237 -86773.919322307949 0 -86773.919322307949 -13356.525852862864 0 0 0 0 11511468.618962288 17840699.71559459 0 17840699.71559459 -20290411.059513763 0 0 0 0 971678.49874210358 8973415.8941333443 0 8973415.8941333443 -10867438.814385384 0 0 0 0 34177.26668409165 -51097.555763946577 0 -51097.555763946577 -6822.9823055424758 0 0 0 0 -8361715.4551372528 16610167.569420904 0 16610167.569420904 23677257.262563217 0 0 0 0 5754737.9653244019 13500952.758859336 0 13500952.758859336 -8309814.9232455492 0 0 0 0 13324138.395060539 6742318.0520610511 0 6742318.0520610511 -34303171.6565139 0 0 0 0 20912121.194177628 4640509.4137850702 0 4640509.4137850702 -13410326.097240269 0 0 0 0 -5372749.1686222553 -4540737.5174068213 0 -4540737.5174068213 -2904411.6936999559 0 0 0 0 4478672.7518959045 7972169.8282974958 0 7972169.8282974958 -13362819.47951803 0 0 0 0 1293336.2577514648 12083518.579014584 0 12083518.579014584 -468634.99166285992 0 0 0 0 -421684.94525337219 12996243.568776667 0 12996243.568776667 5413877.0944206119 0 0 0 0 1440633.4947757721 524810.66761833429 0 524810.66761833429 103604.71304357052 0 0 0 0 2125656.3053445816 2306246.8380390033 0 2306246.8380390033 1464778.2368667349 0 0 0 0 641905.39743556734 841262.31098535424 0 841262.31098535424 400553.38116669282 0 0 0 0 2269288.9425392151 774305.99737453461 0 774305.99737453461 111183.08287632465 0 0 0 0 1719455.1441326141 759775.71947216988 0 759775.71947216988 185207.41601324081 0 0 0 0 1374064.3047308922 308425.6710203886 0 308425.6710203886 -179162.96278560162 0 0 0 0 1337296.4524844082 654355.99323688308 0 654355.99323688308 69283.510991716757 0 0 0 0 1275147.3201789856 235735.91809815168 0 235735.91809815168 -223334.51159870625 0 0 0 0 884034.73813861422 255191.75699402601 0 255191.75699402601 -254638.35745778593 0 0 0 0 1479945.6233863831 176523.74065339565 0 176523.74065339565 -3855.0383182764053 0 0 0 0 1183997.98834306 302445.54195178766 0 302445.54195178766 46936.867528212722 0 0 0 0 2052805.4605350494 64486.964194297791 0 64486.964194297791 -87017.151788949966 0 0 0 0 687674.38839054108 659133.57337611914 0 659133.57337611914 620532.95113658905 0 0 0 0 3025824.9530086517 89879.989284813404 0 89879.989284813404 -113062.1075091362 0 0 0 0 44052.993278414942 13223.711648554308 0 13223.711648554308 -28024.858078640362 0 0 0 0 1612107.6183859166 650314.99275439512 0 650314.99275439512 160369.27710796078 0 0 0 0 2056362.751537323 551681.7066514492 0 551681.7066514492 -88531.395879268646 0 0 0 0 878785.00010297669 1054454.1286350386 0 1054454.1286350386 447805.11078722362 0 0 0 0 1733679.4441542625 563744.98310619593 0 563744.98310619593 109572.18203878403 0 0 0 0 6014779.9290714264 2421769.2907041758 0 2421769.2907041758 281392.05131916702 0 0 0 0 1025253.6829961515 503829.55582777038 0 503829.55582777038 56851.058893758483 0 0 0 0 1914869.8334617615 331771.07332348824 0 331771.07332348824 338000.72469562292 0 0 0 0 2343045.6862416267 337026.91397792101 0 337026.91397792101 -43960.780324220657 0 0 0 0 2018865.6302263867 684685.40435467009 0 684685.40435467009 309594.15511818428 0 0 0 0 949576.43676022394 1240207.5067759017 0 1240207.5067759017 402724.85336542211 0 0 0 0 1915848.8326511383 640915.46720331907 0 640915.46720331907 141395.0694770813 0 0 0 0 1913602.4001970291 678374.51453393698 0 678374.51453393698 7427.4782259464264 0 0 0 0 2982953.5735611916 1321361.1863694191 0 1321361.1863694191 284561.115234375 0 0 0 0 1131011.6122621542 860057.09470344172 0 860057.09470344172 84032.250466938363 0 0 0 0 1433323.396856308 1183213.2879676819 0 1183213.2879676819 3890.4963159561157 0 0 0 0 2135818.106505394 554396.41807663441 0 554396.41807663441 197192.32418866456 0 0 0 0 1949597.5335648553 1012786.9995979012 0 1012786.9995979012 49286.937055177288 0 0 0 0 1587698.1424255371 970474.49628996849 0 970474.49628996849 965372.34271216393 0 0 0 0 899978.41165469773 637210.75353368628 0 637210.75353368628 98037.305534722982 0 0 0 0 2471499.1930775642 699965.18537551165 0 699965.18537551165 -131221.52469074726 0 0 0 0 2374569.0220040083 1192031.8924827278 0 1192031.8924827278 466844.5504566431 0 0 0 0 2461311.7321004868 819088.1772851944 0 819088.1772851944 -254076.65038830042 0 0 0 0 1481042.5717584286 466839.85193214938 0 466839.85193214938 -213435.67249178281 0 0 0 0 3391706.4154367447 887665.71993458271 0 887665.71993458271 -448454.17832779884 0 0 0 0 2449418.4322912693 839042.49286332726 0 839042.49286332726 378647.01864635944 0 0 0 0 1522209.8219165006 306150.89396447642 0 306150.89396447642 -174827.35038389207 0 0 0 0 1211352.8880384909 135226.26966518397 0 135226.26966518397 -297671.13079968718 0 0 0 0 2717197.0464525223 1216394.6416897774 0 1216394.6416897774 297722.56436283886 0 0 0 0 1354733.3715579957 176122.51346863993 0 176122.51346863993 -271619.03587820998 0 0 0 0 1722578.2283039093 471815.67374449968 0 471815.67374449968 132181.21977639198 0 0 0 0 1725004.049128145 505842.02518640459 0 505842.02518640459 192399.81960189342 0 0 0 0 1212088.7071917257 -380561.31307184929 0 -380561.31307184929 -471115.8028542726 0 0 0 0 -3095097.7361078262 -2021877.7702033371 0 -2021877.7702033371 -651185.59036342055 0 0 0 0 -33383.655413150787 -40081.142193505075 0 -40081.142193505075 -109872.19219624207 0 0 0 0 -2007881.3915681839 2504190.8068737984 0 2504190.8068737984 -7413489.6975160241 0 0 0 0 -6914554.2776432037 4993509.4301577806 0 4993509.4301577806 -5678118.2056427002 0 0 0 0 3074862.2452907562 1226367.3616251796 0 1226367.3616251796 215581.86668530107 0 0 0 0 15363529.259128571 444222.73125308007 0 444222.73125308007 -3112458.3536626101 0 0 0 0 13874075.422545433 -1565640.5383443087 0 -1565640.5383443087 -3356318.2365761399 0 0 0 0 6138560.1144332886 -1304258.1289585531 0 -1304258.1289585531 -596563.70252220333 0 0 0 0 12627772.149177551 -495509.37688830495 0 -495509.37688830495 -1787995.1346455812 0 0 0 0 5973188.7459344864 465538.61802688241 0 465538.61802688241 -587604.74631050229 0 0 0 0 1072804.241101265 16755369.418523371 0 16755369.418523371 9272923.7833037376 0 0 0 0 5237.7389947636984 -15676.014995240141 0 -15676.014995240141 -41411.412673164828 0 0 0 0 27723240.666292191 7443708.809520781 0 7443708.809520781 -2237942.0382695198 0 0 0 0 17231119.682498932 -2240190.3706183247 0 -2240190.3706183247 -2255560.2590281367 0 0 0 0 15339852.872253418 4069963.204536587 0 4069963.204536587 762358.71016439795 0 0 0 0 7075953.7392616272 296091.13112580776 0 296091.13112580776 -10611360.051195867 0 0 0 0 7246032.538816452 18106549.132767648 0 18106549.132767648 24024768.122590959 0 0 0 0 225725.20752803143 187596.27709782234 0 187596.27709782234 24951.857235032323 0 0 0 0 23442449.61443758 -4693087.5543661118 0 -4693087.5543661118 -3979201.9749133587 0 0 0 0 22340966.497751236 -32092077.15594992 0 -32092077.15594992 -10460887.34691 0 0 0 0 42025840.74350071 14847909.607886866 0 14847909.607886866 -6990469.3526515961 0 0 0 0 -23666002.297073364 5863983.2643804848 0 5863983.2643804848 32404421.892865717 0 0 0 0 29629974.774843693 -23056732.890543684 0 -23056732.890543684 -12196481.771964788 0 0 0 0 -10255042.846419334 -25301256.689403474 0 -25301256.689403474 -4656845.4644210637 0 0 0 0 2154485.2629146576 4459932.5511552095 0 4459932.5511552095 -6848501.9823568566 0 0 0 0 -3966376.4413089752 -2344480.7718074918 0 -2344480.7718074918 10620038.487399697 0 0 0 0 16129703.114666939 4799314.6315925717 0 4799314.6315925717 -19279302.910567403 0 0 0 0 2397281.0282478333 346049.25164365768 0 346049.25164365768 223862.4682843145 0 0 0 0 1473330.0611223495 -331944.69784505642 0 -331944.69784505642 -376222.7835804479 0 0 0 0 -28908045.385704041 -5868188.1003443897 0 -5868188.1003443897 14869390.621288836 0 0 0 0 3887561.5923681259 1815729.0900140181 0 1815729.0900140181 14926.203274577856 0 0 0 0 3190323.3731164932 919044.31011727161 0 919044.31011727161 -45655.783254384995 0 0 0 0 3071634.3073167801 28831.300056695938 0 28831.300056695938 -133419.36079192546 0 0 0 0 1552959.0804914613 315330.55683215545 0 315330.55683215545 -288291.2460178812 0 0 0 0 2047959.4025129317 -61745.191441137576 0 -61745.191441137576 -213431.22699418638 0 0 0 0 1770387.9426162243 882216.30735072866 0 882216.30735072866 -368576.96123552322 0 0 0 0 1707043.7484354973 499980.12911391258 0 499980.12911391258 -209479.05993407965 0 0 0 0 2165563.2426991346 388744.90681200975 0 388744.90681200975 -593152.57052117668 0 0 0 0 4255418.9544742107 3658468.7551269531 0 3658468.7551269531 -3875773.2266039848 0 0 0 0 2557819.50475686 -990432.52111209917 0 -990432.52111209917 -1005208.4389884039 0 0 0 0 4617280.6891688854 -5607795.6007853374 0 -5607795.6007853374 276443.06427049637 0 0 0 0 1241914.1346797943 1576990.9828140736 0 1576990.9828140736 825217.68794059753 0 0 0 0 1229737.0942069292 1756407.227404058 0 1756407.227404058 -656783.03115272522 0 0 0 0 2661414.376057148 662008.96795558929 0 662008.96795558929 110556.78598189354 0 0 0 0 -813610.78948402405 3306577.0974013805 0 3306577.0974013805 -1914691.9518319964 0 0 0 0 3653456.6237243502 987349.67578132497 0 987349.67578132497 -238083.58125667929 0 0 0 0 2635878.225574255 4066856.7100183964 0 4066856.7100183964 -5322835.4681088924 0 0 0 0 4459230.6136188507 4193566.9910988212 0 4193566.9910988212 -4094521.5164079666 0 0 0 0 2442356.0948833073 786475.71141182783 0 786475.71141182783 -665555.41069197666 0 0 0 0 1402181.1334402561 4107489.3579535186 0 4107489.3579535186 -4633766.2154519558 0 0 0 0 413974.1123804634 -14007.665216212627 0 -14007.665216212627 -85210.544201984769 0 0 0 0 3366835.3549966812 -50303.962600708008 0 -50303.962600708008 1496864.5923938751 0 0 0 0 7268531.5135016441 5112299.0052070618 0 5112299.0052070618 -1973204.7424852252 0 0 0 0 5610955.4262652397 335939.92418593168 0 335939.92418593168 -3746527.550444603 0 0 0 0 1988902.5686321259 1727791.745197773 0 1727791.745197773 3027979.2719551325 0 0 0 0 2112870.5325162411 1235745.7193953991 0 1235745.7193953991 777094.02185189724 0 0 0 0 2052267.4654483795 2488021.4435667396 0 2488021.4435667396 1944425.1028398275 0 0 0 0 1232922.5466508865 3251464.7290493846 0 3251464.7290493846 -2064527.8095675707 0 0 0 0 2256661.8835444227 769343.07944240677 0 769343.07944240677 -888090.68455578934 0 0 0 0 3593405.2921824455 2028766.7371911108 0 2028766.7371911108 1957249.5362522602 0 0 0 0 3262111.0582512617 844103.6751005128 0 844103.6751005128 2188295.3432340622 0 0 0 0 2987731.1849479675 2902255.6699524596 0 2902255.6699524596 2200463.2530189417 0 0 0 0 -337410.77160024643 254145.22940528393 0 254145.22940528393 -1606127.7497208118 0 0 0 0 -27226.645514011383 2512063.3853399754 0 2512063.3853399754 1793022.7666053772 0 0 0 0 3737635.0443429947 3518528.7803338766 0 3518528.7803338766 -2319425.0433824062 0 0 0 0 2415822.5116763115 838632.12913954258 0 838632.12913954258 -5196804.259572506 0 0 0 0 2234603.9230999947 1167858.0255006552 0 1167858.0255006552 -1727533.2885614187 0 0 0 0 10865848.902702332 4328600.1045217514 0 4328600.1045217514 897863.41982841492 0 0 0 0 2497429.5956160743 663979.58764414373 0 663979.58764414373 -909942.33407441876 0 0 0 0 13509143.819056034 623299.36799764633 0 623299.36799764633 -2831443.803327322 0 0 0 0 288598.10012117832 19767.656954082078 0 19767.656954082078 -49552.416169768665 0 0 0 0 6516955.187520504 4273766.4926533699 0 4273766.4926533699 3850335.5550100803 0 0 0 0 541385.76105954009 -644948.08636204118 0 -644948.08636204118 -523272.07695408689 0 0 0 0 -2874615.5454077721 -2934435.0153913498 0 -2934435.0153913498 -86196.944797039032 0 0 0 0 3282962.2505512848 -173896.49203131907 0 -173896.49203131907 -932187.61378735979 0 0 0 0 1192057.4823684692 485359.47421938181 0 485359.47421938181 502595.60796499252 0 0 0 0 2387923.4617490768 1469396.5928261876 0 1469396.5928261876 -9070.0128872394562 0 0 0 0 14609848.989450216 -3612210.2743529081 0 -3612210.2743529081 -1646225.245382309 0 0 0 0 315143.70141983032 1156449.0127073526 0 1156449.0127073526 674040.89625793695 0 0 0 0 135592.3191482398 -1167.1971111170715 0 -1167.1971111170715 -5510.3045132376719 0 0 0 0 2510857.5188951492 -1457217.8825061321 0 -1457217.8825061321 1773921.7128170729 0 0 0 0 7110352.437646389 -1012368.3645713329 0 -1012368.3645713329 -2012980.124232769 0 0 0 0 5674841.1584296227 2112851.4028549194 0 2112851.4028549194 -5222863.6399102211 0 0 0 0 -262497.41365838051 2467207.7423714399 0 2467207.7423714399 -339669.86558151245 0 0 0 0 10077688.320814133 8279412.574375391 0 8279412.574375391 -3122281.381428957 0 0 0 0 647786.68735073367 195702.42427486664 0 195702.42427486664 -217125.55358547438 0 0 0 0 1700978.0473788057 40041.255186493625 0 40041.255186493625 -955449.43521057558 0 0 0 0 14437285.039367676 -1380484.3269281387 0 -1380484.3269281387 3256581.0414738655 0 0 0 0 9305065.754216671 11340413.56690383 0 11340413.56690383 -7038122.1466829777 0 0 0 0 13901311.753926799 3708635.5026347339 0 3708635.5026347339 -14507758.812067032 0 0 0 0 1960646.5225192904 1899359.376162529 0 1899359.376162529 2642096.8183488846 0 0 0 0 7580717.6410064697 5426851.1334514618 0 5426851.1334514618 -6305354.281126976 0 0 0 0 7013230.2048522234 1317569.7427757978 0 1317569.7427757978 -244073.27659988403 0 0 0 0 511056.66285287007 85070.952074437402 0 85070.952074437402 -74048.629577097716 0 0 0 0 8137658.9659634829 2747298.9146251678 0 2747298.9146251678 -4066969.9424629211 0 0 0 0 3316176.3462877274 4870899.4391372204 0 4870899.4391372204 10391239.174198866 0 0 0 0 6149759.6773917675 4230122.546335578 0 4230122.546335578 -2339099.7471165657 0 0 0 0 561803.20849967003 -2318999.3285233974 0 -2318999.3285233974 -2578990.6434941292 0 0 0 0 -290209.00239229202 5149827.7570660114 0 5149827.7570660114 93256.219838142395 0 0 0 0 1683446.4672133385 500159.60153160978 0 500159.60153160978 368063.8003403456 0 0 0 0 3036878.1883640289 4965696.0991344452 0 4965696.0991344452 -3158390.5560361445 0 0 0 0 5394345.0601251125 2209888.1971650124 0 2209888.1971650124 1310221.4565992355 0 0 0 0 5621412.5007362366 2623923.4558756351 0 2623923.4558756351 -1423813.0085263252 0 0 0 0 4210888.6083315611 2766693.8469312787 0 2766693.8469312787 856785.70059394836 0 0 0 0 1741727.1651711003 1729741.3052778814 0 1729741.3052778814 575054.75431427651 0 0 0 0 5073019.9039275646 3946966.2608430386 0 3946966.2608430386 -75309.478774309158 0 0 0 0 1008469.0593323708 3824855.5375287533 0 3824855.5375287533 644071.58677315712 0 0 0 0 928341.61228710879 542783.20782299456 0 542783.20782299456 40783.431668827776 0 0 0 0 521309.39836120605 1041153.0541200638 0 1041153.0541200638 166337.20964163542 0 0 0 0 1933582.0918428644 1577754.2494947086 0 1577754.2494947086 447709.42641355738 0 0 0 0 2764639.7653052807 168636.96717649698 0 168636.96717649698 -411956.92449569702 0 0 0 0 1531924.0641231537 909331.79333496094 0 909331.79333496094 -74787.946490287781 0 0 0 0 2300532.1478767395 1017154.5995781422 0 1017154.5995781422 -380472.79935288429 0 0 0 0 2027346.4802796748 1106803.1745657267 0 1106803.1745657267 -30375.646434588591 0 0 0 0 3313682.7096010447 1522864.7694970518 0 1522864.7694970518 -415787.36884498596 0 0 0 0 2331868.1709023421 1527993.0129411812 0 1527993.0129411812 -489509.76849056251 0 0 0 0 2250378.2702293396 1252207.9198544025 0 1252207.9198544025 21152.679616451263 0 0 0 0 2112960.0832252502 127954.21666908264 0 127954.21666908264 1212522.3734827042 0 0 0 0 2020730.1527085104 -862232.49344651774 0 -862232.49344651774 -1347348.5518209292 0 0 0 0 140504.51220729458 38524.100077239331 0 38524.100077239331 -9092.9607427848969 0 0 0 0 1984421.0077251275 695660.01451477245 0 695660.01451477245 -459800.09285981389 0 0 0 0 2369898.4542775154 536187.11697140336 0 536187.11697140336 -1081999.7480578423 0 0 0 0 2193050.8267483711 1980968.1451961994 0 1980968.1451961994 -1892936.3960936069 0 0 0 0 2512712.3229093552 471372.76448917389 0 471372.76448917389 1577179.1279009581 0 0 0 0 2916208.0604376793 1857243.3214991093 0 1857243.3214991093 -1026673.7649488449 0 0 0 0 1146528.1125402451 1727174.513092041 0 1727174.513092041 -859832.07979297638 0 0 0 0 2705648.7735128403 2061384.4867749214 0 2061384.4867749214 -636831.89895057678 0 0 0 0 142660.96199300117 24673.295357775874 0 24673.295357775874 -3433.0672127592843 0 0 0 0 1983864.4415442757 500472.99151016143 0 500472.99151016143 -917194.48559799511 0 0 0 0 1324464.7921671746 702023.41341935261 0 702023.41341935261 236951.353915215 0 0 0 0 4291560.3624970913 2477203.3313155174 0 2477203.3313155174 2165728.5594100952 0 0 0 0 4988043.5178607702 5387753.9473452568 0 5387753.9473452568 3078490.8930934072 0 0 0 0 136801122.73609889 105201275.5526482 0 105201275.5526482 41913920.354290664 0 0 0 0 314268489.91888571 266950434.18897244 0 266950434.18897244 186545985.80322191 0 0 0 0 752853.19605356047 64696.997888453305 0 64696.997888453305 299286.30498048232 0 0 0 0 137734296.51856208 99502161.866188988 0 99502161.866188988 46503435.965836734 0 0 0 0 273645.66727542016 -11910.091418468946 0 -11910.091418468946 373149.83406570129 0 0 0 0 486866.59503173828 -155237.22548103333 0 -155237.22548103333 361485.98521757126 0 0 0 0 908278.45227140817 -280210.01041904639 0 -280210.01041904639 423145.29972043214 0 0 0 0 343578.40468621254 -429734.80432069302 0 -429734.80432069302 22040.7571362257 0 0 0 0 78505843.271665186 1963027.7736401372 0 1963027.7736401372 -9725006.0281553864 0 0 0 0 53371834.36779356 47869737.132045776 0 47869737.132045776 34466095.760701329 0 0 0 0 191806099.22397268 83849740.744488269 0 83849740.744488269 34737286.867115341 0 0 0 0 125725554.63015831 104393266.00405237 0 104393266.00405237 43265203.049527094 0 0 0 0 109316763.71331689 -4861786.7112131175 0 -4861786.7112131175 -4363553.5099075362 0 0 0 0 136140.41106434772 -2954.2515951003079 0 -2954.2515951003079 146321.27195898024 0 0 0 0 122703610.03819141 63344412.880850889 0 63344412.880850889 16362378.992861003 0 0 0 0 161175732.95198971 54360863.541414514 0 54360863.541414514 12639544.898147348 0 0 0 0 191265061.69184116 89167286.4981464 0 89167286.4981464 -6972148.3595676962 0 0 0 0 315108541.09174347 162868985.21850163 0 162868985.21850163 22137263.93924582 0 0 0 0 314921324.58072293 60316456.304681517 0 60316456.304681517 -47489235.669961147 0 0 0 0 228540971.3993994 83178140.120335966 0 83178140.120335966 -6471732.4737998992 0 0 0 0 314976939.41014349 5420596.8455920303 0 5420596.8455920303 -69321525.581521079 0 0 0 0 243496879.94249704 45788414.57413128 0 45788414.57413128 -50442137.690452389 0 0 0 0 240664113.00224492 29625355.336063158 0 29625355.336063158 -35091519.465716437 0 0 0 0 132425611.59308352 16283874.220199257 0 16283874.220199257 -5796256.8891815841 0 0 0 0 141625908.03065068 3059129.8852682859 0 3059129.8852682859 -12626114.548217043 0 0 0 0 205435101.38144201 10893772.929267574 0 10893772.929267574 -22573817.017231211 0 0 0 0 184761033.27540302 12260118.475661244 0 12260118.475661244 -22610023.177038424 0 0 0 0 131508095.42127401 24169053.344597951 0 24169053.344597951 -9683398.8628342003 0 0 0 0 178198143.74199039 29591296.141226776 0 29591296.141226776 -17005057.131427914 0 0 0 0 176841442.29827651 33176605.029390633 0 33176605.029390633 -17448647.481392749 0 0 0 0 177052981.87607291 41281783.219850987 0 41281783.219850987 -18032420.752879776 0 0 0 0 212866837.08363205 44468135.278831162 0 44468135.278831162 -21163449.265120342 0 0 0 0 122058849.7046417 44599648.981233977 0 44599648.981233977 721367.29983020574 0 0 0 0 155287771.15556064 37629437.798515238 0 37629437.798515238 -4829235.3407081589 0 0 0 0 47632434.590507716 41536628.392997563 0 41536628.392997563 20360833.144191068 0 0 0 0 23323715.923562378 12695118.831191156 0 12695118.831191156 19566257.57962314 0 0 0 0 27103093.954355329 3842880.3581922576 0 3842880.3581922576 14505571.669038951 0 0 0 0 46780257.894967705 7476067.9341138778 0 7476067.9341138778 7088866.5384114459 0 0 0 0 6666569.154001832 -3312006.2584557012 0 -3312006.2584557012 14607460.815855369 0 0 0 0 22735235.541200846 8835007.3671250045 0 8835007.3671250045 10445957.8197653 0 0 0 0 42973942.941881716 18591863.338673003 0 18591863.338673003 11487932.658285409 0 0 0 0 71940239.285999179 5524638.7896885574 0 5524638.7896885574 6554000.5537734628 0 0 0 0 119298770.53448251 26758009.337342143 0 26758009.337342143 -1067607.089756012 0 0 0 0 78690383.991166711 28982137.623637289 0 28982137.623637289 4234344.8948307484 0 0 0 0 132193388.15228276 17699470.520861126 0 17699470.520861126 -8268159.4875874221 0 0 0 0 109715077.05094454 23505155.102473855 0 23505155.102473855 -896858.94326827675 0 0 0 0 96972701.881173089 -4339316.4571093321 0 -4339316.4571093321 -3072823.4718077481 0 0 0 0 46775285.832119077 15050127.124270037 0 15050127.124270037 10258232.416686401 0 0 0 0 39872773.055948541 6249045.1290514134 0 6249045.1290514134 12403737.242806196 0 0 0 0 21625922.635187514 14129277.707749832 0 14129277.707749832 16023514.344840169 0 0 0 0 42582019.984275408 -14867621.72476716 0 -14867621.72476716 3609324.3309952319 0 0 0 0 122284037.17479204 -16124235.409151539 0 -16124235.409151539 -5455215.0117111802 0 0 0 0 13955254.894052416 34742029.436737597 0 34742029.436737597 19417002.3454495 0 0 0 0 -8575473.5151436478 -12796940.203476775 0 -12796940.203476775 34752690.293055922 0 0 0 0 -13231370.874046179 7308436.475252986 0 7308436.475252986 8612786.5026669241 0 0 0 0 14859034.206585139 -13836764.151694342 0 -13836764.151694342 20985493.409316853 0 0 0 0 13403473.671698719 9617529.6690626591 0 9617529.6690626591 29572353.376261175 0 0 0 0 553205.41443584859 23084217.703521322 0 23084217.703521322 18892171.521525204 0 0 0 0 19727166.215990007 16985241.11255344 0 16985241.11255344 11341048.236933321 0 0 0 0 13663640.84021467 7936629.3650681227 0 7936629.3650681227 813205.09735573828 0 0 0 0 -341492.17570508271 17116624.134604782 0 17116624.134604782 2962813.6976475418 0 0 0 0 8462347.806881981 -5664747.0180960633 0 -5664747.0180960633 11850613.876135528 0 0 0 0 17306310.252359577 -21739129.973238692 0 -21739129.973238692 15535431.494229257 0 0 0 0 -20280.371707916274 -42512.194459161139 0 -42512.194459161139 151946.28834028216 0 0 0 0 -45120041.266847134 -5322102.4476584196 0 -5322102.4476584196 -7249879.7281649113 0 0 0 0 5656275.1449276805 8581817.5550021529 0 8581817.5550021529 -18586969.458910108 0 0 0 0 -22296164.158583406 3793077.8594931858 0 3793077.8594931858 6276456.3579744864 0 0 0 0 86569.144102395978 -93444.35664756145 0 -93444.35664756145 318147.70360197127 0 0 0 0 -6042.9818194943218 -1382.1960562216846 0 -1382.1960562216846 10847.436391802195 0 0 0 0 -14093981.522708982 -14050886.855352215 0 -14050886.855352215 -18710089.274815321 0 0 0 0 -39086589.319635749 21442910.576938733 0 21442910.576938733 -10529385.162455551 0 0 0 0 23926265.422669709 391141.47909016907 0 391141.47909016907 3927617.9682397246 0 0 0 0 -6934134.0720335841 -715422.76555156708 0 -715422.76555156708 2525205.6351959705 0 0 0 0 8325056.5152391791 15874634.455642745 0 15874634.455642745 -10953180.464329123 0 0 0 0 6301432.3613607287 671283.17309555411 0 671283.17309555411 -943169.07857827842 0 0 0 0 -11953594.002851993 -5268739.6137882024 0 -5268739.6137882024 8385291.1352332085 0 0 0 0 13719923.231632531 -4280155.1078337207 0 -4280155.1078337207 5909884.0591212586 0 0 0 0 6692518.8115406856 4610167.2381279925 0 4610167.2381279925 9786128.6827202737 0 0 0 0 6319873.5534243286 -1544987.4883449525 0 -1544987.4883449525 6394161.3168139458 0 0 0 0 3274348.5477403849 2615797.8788960502 0 2615797.8788960502 8373196.2562939748 0 0 0 0 -6034637.6790190339 -5707209.4694986083 0 -5707209.4694986083 9965140.339597635 0 0 0 0 -5227183.6740452042 -2079051.1239174271 0 -2079051.1239174271 37275.925062406808 0 0 0 0 -15317795.481722722 6328570.4718838753 0 6328570.4718838753 4326556.5375231579 0 0 0 0 -7181551.8733181134 -3393525.1059602406 0 -3393525.1059602406 3047124.7243408933 0 0 0 0 -3347892.5404653549 -5653661.1214939207 0 -5653661.1214939207 397588.27887187898 0 0 0 0 -2630586.7450134456 -5042221.8125182278 0 -5042221.8125182278 -4332858.121650517 0 0 0 0 634082.96253228188 -1810269.1377085447 0 -1810269.1377085447 2194576.1918128729 0 0 0 0 3838303.5825390816 730577.71512913704 0 730577.71512913704 -303846.68773365021 0 0 0 0 1263207.694458256 -180422.43420454036 0 -180422.43420454036 168917.52773007189 0 0 0 0 145197.57030817866 -10505605.988270834 0 -10505605.988270834 -10090743.310436085 0 0 0 0 -3875643.5408297628 -4473043.1648789309 0 -4473043.1648789309 -5570448.2515348792 0 0 0 0 -1222646.854670912 -9851305.0050105397 0 -9851305.0050105397 6247235.3549647518 0 0 0 0 10433104.528921187 -5452851.7294743061 0 -5452851.7294743061 -5615482.5282452404 0 0 0 0 5966214.0203302503 -5082945.0059477491 0 -5082945.0059477491 19304521.039502498 0 0 0 0 22685154.995233119 -13476026.184879832 0 -13476026.184879832 -10453468.970324069 0 0 0 0 10288320.264604688 48576861.876920521 0 48576861.876920521 52822938.334396541 0 0 0 0 478196.36086310004 -288395.80401193973 0 -288395.80401193973 336936.69587709184 0 0 0 0 14473229.641121596 4689511.2013772577 0 4689511.2013772577 -26085978.918800265 0 0 0 0 -573568.088565588 -1849748.4431825876 0 -1849748.4431825876 2294914.2649986595 0 0 0 0 891809.46360331518 -610115.83882389544 0 -610115.83882389544 722155.5960007183 0 0 0 0 1110857.501424551 -517491.88614183664 0 -517491.88614183664 -639633.31482315063 0 0 0 0 776951.07722949982 -707304.59129965305 0 -707304.59129965305 -152394.00457429886 0 0 0 0 1703470.2707503482 59437.062085658195 0 59437.062085658195 179536.22846145276 0 0 0 0 -1279977.4604625702 -4638429.0301572531 0 -4638429.0301572531 -1409687.4157211334 0 0 0 0 -6909151.0443025827 2744709.1016898751 0 2744709.1016898751 17628305.221611172 0 0 0 0 79100.310587024083 -203960.29317252935 0 -203960.29317252935 609127.74812145636 0 0 0 0 331495.37805318832 -576794.03448611498 0 -576794.03448611498 317555.29125869274 0 0 0 0 1539423.6210025921 -1057885.487038994 0 -1057885.487038994 545725.92051238497 0 0 0 0 1711346.063328743 -3723414.6232511997 0 -3723414.6232511997 -13311195.463342905 0 0 0 0 580238.55692958832 -8130875.8833386898 0 -8130875.8833386898 -8760370.6754852533 0 0 0 0 1834899.9893743559 -568134.78002106491 0 -568134.78002106491 279823.42787534825 0 0 0 0 4931569.6574668884 -8801579.6281454563 0 -8801579.6281454563 -20450892.113204837 0 0 0 0 -744325.98798370361 125492.25458049774 0 125492.25458049774 1547222.8621134758 0 0 0 0 1301167.405371666 -62729.076707601547 0 -62729.076707601547 -1767420.4809597135 0 0 0 0 -39385.301860555192 22341.046166804677 0 22341.046166804677 308158.69439348893 0 0 0 0 804033.08234548569 -306452.93720173836 0 -306452.93720173836 830366.83156430721 0 0 0 0 1012131.2278586531 -1216.3126249798515 0 -1216.3126249798515 498582.02778771962 0 0 0 0 945309.55717539787 -636879.10142731667 0 -636879.10142731667 -671846.3291426897 0 0 0 0 1939352.0543806441 628969.59568589984 0 628969.59568589984 -192610.07289654616 0 0 0 0 2234955.4913946949 326876.05891717959 0 326876.05891717959 -244246.87294691376 0 0 0 0 3102520.6008363962 359796.43740153313 0 359796.43740153313 1502925.5700719357 0 0 0 0 521475.84093666077 -160134.68288469315 0 -160134.68288469315 -3093578.2573004961 0 0 0 0 4147852.8368625343 252265.93676447868 0 252265.93676447868 -608107.29519104958 0 0 0 0 2299942.76361578 -714014.16019064304 0 -714014.16019064304 155452.41116551636 0 0 0 0 329571.87781055504 239887.52867780416 0 239887.52867780416 -272206.70419414749 0 0 0 0 4781395.7815933228 8428815.9166431427 0 8428815.9166431427 -12061824.202073574 0 0 0 0 3609228.5597968102 1843655.3617956638 0 1843655.3617956638 2258898.3636617661 0 0 0 0 2182223.9702402875 140297.02971310308 0 140297.02971310308 12024.33357006681 0 0 0 0 1107006.103312254 -373857.77136427164 0 -373857.77136427164 -2249512.745511651 0 0 0 0 2802828.4345319271 1789021.703309536 0 1789021.703309536 2999093.7398788929 0 0 0 0 1845816.1318907454 -317865.99869432312 0 -317865.99869432312 232843.70173686795 0 0 0 0 6020135.9498062134 -707915.00381278992 0 -707915.00381278992 1520962.6487822533 0 0 0 0 2307961.7732217312 2236689.1193435192 0 2236689.1193435192 2692564.7434859276 0 0 0 0 8569976.5440263748 -10050524.13373363 0 -10050524.13373363 -15054051.38226676 0 0 0 0 8413940.5714607239 -4759301.6131370068 0 -4759301.6131370068 -26132449.183281541 0 0 0 0 413466.32917785645 -1340451.4408391714 0 -1340451.4408391714 -19634454.471634626 0 0 0 0 6496360.7832317352 -3194457.5629690886 0 -3194457.5629690886 -19971316.503892541 0 0 0 0 3136478.3949394226 -202027.52464914322 0 -202027.52464914322 -27690065.459378242 0 0 0 0 6601963.3813858032 -5470906.5187318325 0 -5470906.5187318325 -22421747.857753515 0 0 0 0 1614896.5989952087 -4935508.614705801 0 -4935508.614705801 -37110052.178355694 0 0 0 0 5852080.6887123585 672319.84712833166 0 672319.84712833166 -30143229.214057922 0 0 0 0 4148102.7183351517 -3566102.8197598457 0 -3566102.8197598457 -21108213.366050005 0 0 0 0 8588003.6971626282 1561740.2779049873 0 1561740.2779049873 -39009783.847733021 0 0 0 0 2516310.8757739877 -626336.72591348027 0 -626336.72591348027 -181389.43824273255 0 0 0 0 9757798.4170913696 -2285633.6219480038 0 -2285633.6219480038 -33202509.628393024 0 0 0 0 6747860.8730278015 2105555.2805626392 0 2105555.2805626392 -28961281.592646599 0 0 0 0 2125704.5812759399 -2316448.8073356152 0 -2316448.8073356152 -32691579.911280155 0 0 0 0 4511407.544438839 3035364.788631916 0 3035364.788631916 -32567614.02830267 0 0 0 0 2509404.0774659747 161168.61786231305 0 161168.61786231305 -164778.75177697031 0 0 0 0 17380921.671809196 775360.23457503319 0 775360.23457503319 -4696859.2527332306 0 0 0 0 7377005.9180088043 4603180.0801055431 0 4603180.0801055431 -50573164.093140125 0 0 0 0 6405202.4671859741 -2972717.2894892693 0 -2972717.2894892693 -35023501.919286251 0 0 0 0 2611245.8329982758 10008525.769642591 0 10008525.769642591 -39693060.640439987 0 0 0 0 2767570.4496151349 -48379.681058983086 0 -48379.681058983086 -260384.08819313889 0 0 0 0 428450.18383407593 -2943705.3210737705 0 -2943705.3210737705 -4120489.7846004367 0 0 0 0 5462748.4395494461 -6655349.8502076864 0 -6655349.8502076864 -1386494.3926961944 0 0 0 0 13978679.59461689 -1423241.0695240498 0 -1423241.0695240498 -3661034.7590560913 0 0 0 0 7222212.8180360794 5599052.7872786522 0 5599052.7872786522 2278053.9501538277 0 0 0 0 8099677.9912576675 -10643930.041435719 0 -10643930.041435719 1518716.8964062929 0 0 0 0 -4951028.8509101868 -893875.54644322395 0 -893875.54644322395 -1101538.2074742317 0 0 0 0 290377.9836139679 -3011960.5669031143 0 -3011960.5669031143 959987.54424548149 0 0 0 0 4464298.5302096605 1365903.6428388357 0 1365903.6428388357 1011349.8788332939 0 0 0 0 670843.10936164856 599329.76851320267 0 599329.76851320267 -3728912.262373209 0 0 0 0 1340886.9937687507 1072286.3555594608 0 1072286.3555594608 -532707.09245117102 0 0 0 0 -3937738.957151413 1189803.8477737904 0 1189803.8477737904 -1151539.1942162514 0 0 0 0 -30223.463980301283 -93963.759159030276 0 -93963.759159030276 48562.978662492154 0 0 0 0 4334473.235683497 418020.20593238622 0 418020.20593238622 -2569276.050855875 0 0 0 0 5807410.5821787417 4538470.534705162 0 4538470.534705162 -1354204.7462050617 0 0 0 0 4687574.9656469375 3228260.3349497616 0 3228260.3349497616 4946783.4725738764 0 0 0 0 4553538.80001086 5548893.3280949891 0 5548893.3280949891 2935540.766079545 0 0 0 0 291241.23643065855 61550.720909202413 0 61550.720909202413 -19908.299035574571 0 0 0 0 2525250.9596811533 2817262.3001717925 0 2817262.3001717925 3749911.7524871826 0 0 0 0 4027249.5634726584 5592260.5067079663 0 5592260.5067079663 5418374.6565736532 0 0 0 0 3444225.2972797751 1682883.166603148 0 1682883.166603148 1858614.8222854137 0 0 0 0 486807.25863759953 -75813.002056532656 0 -75813.002056532656 119381.85339113831 0 0 0 0 232134.28984092921 44807.31395316124 0 44807.31395316124 245366.6468372345 0 0 0 0 2448071.3713279366 2486542.105471313 0 2486542.105471313 2372967.9001760483 0 0 0 0 4922202.3024804592 1726997.9974092245 0 1726997.9974092245 1668430.0707211494 0 0 0 0 3478985.5795173347 2048730.6403226256 0 2048730.6403226256 3345408.6505289078 0 0 0 0 3435425.0202429295 1774608.3037763834 0 1774608.3037763834 1675458.0191590786 0 0 0 0 2170572.8454303741 -1252296.3795676231 0 -1252296.3795676231 -1592588.1819008589 0 0 0 0 954211.62498820084 -169665.9843720338 0 -169665.9843720338 159761.03355272126 0 0 0 0 3131419.922970295 2392605.153876543 0 2392605.153876543 1633091.3371765614 0 0 0 0 -291129.65106773376 907879.56997859478 0 907879.56997859478 1450638.4116073996 0 0 0 0 -21394.643521905236 -165161.46593715227 0 -165161.46593715227 148670.90230759839 0 0 0 0 341269.53614315018 -73007.753600284457 0 -73007.753600284457 124709.30776596069 0 0 0 0 -4496336.7471302729 -3777651.3747951463 0 -3777651.3747951463 -1792384.6284957826 0 0 0 0 -7877710.1012397669 -1671158.8159891386 0 -1671158.8159891386 921842.23966117576 0 0 0 0 124257.7565389548 -207269.6458252173 0 -207269.6458252173 421164.39214370778 0 0 0 0 98575.039517067373 -47285.821773841977 0 -47285.821773841977 150146.31050544232 0 0 0 0 265997.87158366293 -15142.04378837347 0 -15142.04378837347 145626.70807290077 0 0 0 0 81154.68805552274 195796.7408605963 0 195796.7408605963 -46569.389852941036 0 0 0 0 6717281.0653068125 -4181454.7330926992 0 -4181454.7330926992 9993927.3840314746 0 0 0 0 334983.75161279738 245352.48297253251 0 245352.48297253251 -253558.04040679336 0 0 0 0 -2114963.4887123406 -6118969.2960597575 0 -6118969.2960597575 15741425.281352341 0 0 0 0 152847.93540237099 13774.869296632707 0 13774.869296632707 -13203.791218787432 0 0 0 0 47960.451958356964 121383.89659931362 0 121383.89659931362 93337.215312540968 0 0 0 0 171186.718676202 -4576987.5724571496 0 -4576987.5724571496 15416193.7651373 0 0 0 0 -4299443.3634590805 -8927355.4698794987 0 -8927355.4698794987 16461117.507105522 0 0 0 0 -6341166.6306457967 2104472.8390385956 0 2104472.8390385956 6590142.9514397494 0 0 0 0 -1097144.028713569 553797.01134154969 0 553797.01134154969 2768514.7797449306 0 0 0 0 -318414.65296526253 -5702969.2750437111 0 -5702969.2750437111 13518089.086553678 0 0 0 0 38098.520573875867 91996.411822577415 0 91996.411822577415 -39723.146811091719 0 0 0 0 2359083.9257003665 908490.91329052299 0 908490.91329052299 -1186285.875556156 0 0 0 0 2813747.1807493567 4689515.7203552052 0 4689515.7203552052 3012095.4271146925 0 0 0 0 11488570.698593685 12875880.012989111 0 12875880.012989111 -3921803.3711522818 0 0 0 0 11947968.827071212 8764127.9083889648 0 8764127.9083889648 8106324.7768957317 0 0 0 0 10048215.758832872 -902867.83375875652 0 -902867.83375875652 1381770.1217744201 0 0 0 0 2194232.4089842439 3210601.9644852653 0 3210601.9644852653 -426873.93312756717 0 0 0 0 9788618.9138687253 8188667.6063724086 0 8188667.6063724086 1835190.935533002 0 0 0 0 -17625951.425200704 37949508.136275567 0 37949508.136275567 -169597.73390774429 0 0 0 0 -4658306.2221094444 6243659.5385184698 0 6243659.5385184698 -11558458.848538898 0 0 0 0 -9316530.9095760901 270545.34680090984 0 270545.34680090984 5461516.9715395048 0 0 0 0 -9537170.8209748268 11532366.945768662 0 11532366.945768662 1440738.7848803848 0 0 0 0 -70997.860567271709 372028.16058746912 0 372028.16058746912 260243.90999436006 0 0 0 0 -479416.41568779945 2025872.9545733016 0 2025872.9545733016 2530504.0849338174 0 0 0 0 -596100.36828643084 -1240330.4290077835 0 -1240330.4290077835 2143542.7113504345 0 0 0 0 3476541.775076896 2267589.0676520988 0 2267589.0676520988 -345658.61365583539 0 0 0 0 53284.454251151998 204084.0465603137 0 204084.0465603137 -90914.824871154939 0 0 0 0 5578555.3840054274 -4021471.7984549813 0 -4021471.7984549813 -5315287.7874683812 0 0 0 0 -358077.08102583885 -449154.04734620824 0 -449154.04734620824 -622872.93665784225 0 0 0 0 -3662465.0535161495 -8606025.189974308 0 -8606025.189974308 26727056.21328041 0 0 0 0 4517572.7361658812 5548122.0629499853 0 5548122.0629499853 3991747.6910633743 0 0 0 0 -3209684.8760840893 -8874241.6691110283 0 -8874241.6691110283 19553760.324812412 0 0 0 0 118475.20510424921 142807.21686623723 0 142807.21686623723 92761.420802626759 0 0 0 0 319939.46081987023 312968.16203379631 0 312968.16203379631 144896.06293332577 0 0 0 0 9151.793037712574 41083.532518208027 0 41083.532518208027 -11897.92524689436 0 0 0 0 219526.76680655358 164021.29831301942 0 164021.29831301942 98870.536933967436 0 0 0 0 320621.77755327523 374289.75896119326 0 374289.75896119326 -149008.84538522363 0 0 0 0 61697.150542585412 166844.09795363498 0 166844.09795363498 -93302.209706488939 0 0 0 0 1056762.1094286442 10149082.463203967 0 10149082.463203967 12380901.564584732 0 0 0 0 2688502.4558511972 8036445.537930578 0 8036445.537930578 9192775.6824986935 0 0 0 0 19546767.267469883 -9562584.4345846176 0 -9562584.4345846176 5574693.9973506927 0 0 0 0 -2274468.7913829088 6391700.7592383325 0 6391700.7592383325 41438264.822315454 0 0 0 0 -23268.641377620224 84625.06721209368 0 84625.06721209368 43382.18651882773 0 0 0 0 59659.342040710093 37028.619969079533 0 37028.619969079533 -22554.141961682471 0 0 0 0 -22220477.135091782 -18516180.078217387 0 -18516180.078217387 44748028.167926311 0 0 0 0 59054226.002312064 28889103.181037471 0 28889103.181037471 -23902483.047365904 0 0 0 0 87623.084970641939 -88570.71613594779 0 -88570.71613594779 -31344.73515544174 0 0 0 0 34402252.80483526 40529726.562694967 0 40529726.562694967 -18847789.134187222 0 0 0 0 -4968581.0690214634 22423269.241377234 0 22423269.241377234 10704554.38539362 0 0 0 0 17117284.737615228 2880.1561217419803 0 2880.1561217419803 -18247428.453245342 0 0 0 0 -3703455.9520910382 -24350679.253106162 0 -24350679.253106162 28392137.544164479 0 0 0 0 10440725.637372017 11520025.571989626 0 11520025.571989626 -16811422.045689061 0 0 0 0 3346248.2062082291 -9050698.861333549 0 -9050698.861333549 12441340.597070813 0 0 0 0 3294330.1058368683 -4602318.8933850527 0 -4602318.8933850527 59691581.416709065 0 0 0 0 21326308.405920148 -15852238.704204425 0 -15852238.704204425 6173242.0024328232 0 0 0 0 3894385.8756241798 5528859.3760619164 0 5528859.3760619164 -9046549.3361730129 0 0 0 0 -1133657.9472901821 -13504668.327532157 0 -13504668.327532157 9480592.439817369 0 0 0 0 -3437945.9232964516 5333650.119874537 0 5333650.119874537 -12547219.133497518 0 0 0 0 2973.9061064179186 -19882.906206748128 0 -19882.906206748128 -8237.7388852737276 0 0 0 0 2286520.1369490623 4624768.8481543884 0 4624768.8481543884 308813.30083850026 0 0 0 0 122633.74312701961 131032.06517566208 0 131032.06517566208 -66094.735563572045 0 0 0 0 9679007.4028708935 3740249.0649380535 0 3740249.0649380535 -15267098.50821501 0 0 0 0 3865964.2368590087 -3510305.7530139051 0 -3510305.7530139051 -13655456.730777293 0 0 0 0 -10990319.563506663 2913198.6687960923 0 2913198.6687960923 4875983.9893908352 0 0 0 0 -1590523.6516587734 11407247.185852662 0 11407247.185852662 -11206132.708952196 0 0 0 0 3194809.6657381058 -6197838.6461234838 0 -6197838.6461234838 6939868.6638936102 0 0 0 0 47410.347052921308 63775.692785629435 0 63775.692785629435 -29855.864264448166 0 0 0 0 1395053.6128382683 -472862.86068891734 0 -472862.86068891734 -1259050.286860168 0 0 0 0 1169760.7203917503 -222536.19065167755 0 -222536.19065167755 -884461.81679266691 0 0 0 0 710266.40550518036 -494727.29969891906 0 -494727.29969891906 283503.25884817541 0 0 0 0 140442.34861084912 1559.0475945744547 0 1559.0475945744547 -51663.327893666748 0 0 0 0 250457.62768445909 70187.649118237197 0 70187.649118237197 -296181.39852106571 0 0 0 0 18026241.96587798 3721636.5100569138 0 3721636.5100569138 -3786794.9469499886 0 0 0 0 -4865650.0356984138 -44012790.94851312 0 -44012790.94851312 7003819.1181119084 0 0 0 0 186458.40530209191 64061.000346922374 0 64061.000346922374 -76272.344974049687 0 0 0 0 28417748.635789156 15499150.558154523 0 15499150.558154523 -8237071.6296414137 0 0 0 0 112789321.2201333 -79156869.314882576 0 -79156869.314882576 -5190695.49855721 0 0 0 0 33187630.058252573 29725186.203456834 0 29725186.203456834 31047334.721951008 0 0 0 0 6076502.5663104057 -10902450.198520511 0 -10902450.198520511 95649767.38488096 0 0 0 0 9526034.5230829716 -6172210.4352357537 0 -6172210.4352357537 19286633.115648389 0 0 0 0 205597.57919633389 6796756.5124952495 0 6796756.5124952495 -8587318.3907604218 0 0 0 0 3045614.4932289124 43751.420080572367 0 43751.420080572367 -1515239.7996635735 0 0 0 0 16364770.999156952 -3333424.3384802938 0 -3333424.3384802938 -23982135.210963845 0 0 0 0 19475180.445110321 20837894.173374772 0 20837894.173374772 -8169025.9486119449 0 0 0 0 24206326.346320152 20203235.36072588 0 20203235.36072588 -9470670.6949734688 0 0 0 0 28210867.943802357 33624924.824052036 0 33624924.824052036 -15103929.231229663 0 0 0 0 20832544.35292244 18112169.397307813 0 18112169.397307813 -8897687.2779863179 0 0 0 0 -3839557.4165496826 -9623952.7810532153 0 -9623952.7810532153 10192805.784018278 0 0 0 0 124927.41584283696 -129157.44835823716 0 -129157.44835823716 68525.325994035855 0 0 0 0 17831607.288065434 24612090.143196106 0 24612090.143196106 16394961.735299826 0 0 0 0 20636968.984164 25785742.844132841 0 25785742.844132841 -35480758.578364193 0 0 0 0 13615780.430996001 4810574.7051803656 0 4810574.7051803656 -1608277.6295652241 0 0 0 0 -5877775.3351287842 2338866.9594291449 0 2338866.9594291449 6345711.5513567328 0 0 0 0 2316345.951130867 34186019.419267803 0 34186019.419267803 -20074653.0693506 0 0 0 0 -2777435.7853884697 787856.58776827157 0 787856.58776827157 6476917.0722145308 0 0 0 0 7390151.0045346022 260048.75826224871 0 260048.75826224871 -4745986.8498834819 0 0 0 0 1335178.8353111031 -341710.63263382448 0 -341710.63263382448 255657.24375027069 0 0 0 0 -2100773.8088023663 -11194512.825199723 0 -11194512.825199723 17987264.210347652 0 0 0 0 883536.38014891325 124226.95615961298 0 124226.95615961298 -467814.27102520369 0 0 0 0 6027954.3222632408 -3650163.7773070335 0 -3650163.7773070335 42109753.601504564 0 0 0 0 8881081.7728142738 -2222392.2777885199 0 -2222392.2777885199 -8001658.9425908327 0 0 0 0 -3331848.6529896259 14692188.012546301 0 14692188.012546301 2002524.2476527691 0 0 0 0 26749312.191388607 -17959987.072117269 0 -17959987.072117269 32329504.951326251 0 0 0 0 4609678.7330277562 -4492171.1758742332 0 -4492171.1758742332 319578.72482998669 0 0 0 0 -11139380.312056541 -8674952.1475754976 0 -8674952.1475754976 -3801235.2079610825 0 0 0 0 -3326350.9853258133 -10426342.951186657 0 -10426342.951186657 -41058372.612694502 0 0 0 0 -103191.18494609185 -44836.733597213344 0 -44836.733597213344 58243.215114295512 0 0 0 0 4124822.9337782841 -1605466.9529052856 0 -1605466.9529052856 -470463.68545903778 0 0 0 0 2596802.2237640321 11637131.260009766 0 11637131.260009766 -1337153.8489105701 0 0 0 0 14070011.390172958 -9071754.5922338963 0 -9071754.5922338963 -2463945.7577171326 0 0 0 0 9809596.7073106766 6345775.5327403545 0 6345775.5327403545 -42076909.214670658 0 0 0 0 13639324.052685261 -48550339.002917454 0 -48550339.002917454 50227420.131515503 0 0 0 0 -5872868.4461994171 12322847.685129166 0 12322847.685129166 35661070.592543125 0 0 0 0 -63581991.66560936 73721203.792306423 0 73721203.792306423 -29092011.420230687 0 0 0 0 -123605712.08841038 -20472827.259427071 0 -20472827.259427071 113574855.57371521 0 0 0 0 8167706.0952939987 6667563.8247470856 0 6667563.8247470856 24875938.367732525 0 0 0 0 3002159.0167264938 12604796.074107647 0 12604796.074107647 24013794.00922358 0 0 0 0 -69008.087020187639 154841.69860625709 0 154841.69860625709 279030.14161766623 0 0 0 0 124410002.66722679 -5826855.5484063625 0 -5826855.5484063625 -25386710.268953502 0 0 0 0 6810422.732343155 -57299283.080414616 0 -57299283.080414616 -13570938.914123058 0 0 0 0 65579187.216638565 -36732570.142380357 0 -36732570.142380357 11623244.274091005 0 0 0 0 94275607.680309296 53403418.145927668 0 53403418.145927668 18274095.892119527 0 0 0 0 6480493.4862689972 149680612.09743094 0 149680612.09743094 -81597986.256217957 0 0 0 0 4707400.2036188338 629228.05563308299 0 629228.05563308299 -1348504.599219799 0 0 0 0 3365558.8317736681 -392752.90211835742 0 -392752.90211835742 39723.956532443874 0 0 0 0 21244.30001440458 -1577422.1913166749 0 -1577422.1913166749 852795.41399708285 0 0 0 0 -999141.84718052391 -642544.74538908992 0 -642544.74538908992 576144.70136829978 0 0 0 0 311246466.82259369 -189219818.64005852 0 -189219818.64005852 123006715.2681675 0 0 0 0 1753315.5246928171 -1301232.7545826284 0 -1301232.7545826284 247509.47482221946 0 0 0 0 -2351624.4957046509 -3481967.818710804 0 -3481967.818710804 -2721084.7023303509 0 0 0 0 20463522.379784852 13944226.90105328 0 13944226.90105328 -3584320.345256567 0 0 0 0 -17960772.641893148 -13469391.467954993 0 -13469391.467954993 51053784.601824045 0 0 0 0 7771629.9298126698 -3151020.0430992842 0 -3151020.0430992842 -15909605.255428076 0 0 0 0 8627705.6567718983 11481369.971938014 0 11481369.971938014 -2004304.4330108166 0 0 0 0 702112.56799507141 -1900668.9570906162 0 -1900668.9570906162 -2133009.2005512714 0 0 0 0 2226326.1583844051 -925768.7790474717 0 -925768.7790474717 197864.76232730137 0 0 0 0 2928613.6956443787 658199.51670980453 0 658199.51670980453 -3448054.9744507074 0 0 0 0 -77013.684759274591 -37062.285077718087 0 -37062.285077718087 167237.01637595613 0 0 0 0 6587025.6134033203 7917763.0733494759 0 7917763.0733494759 -16131416.08797095 0 0 0 0 3221805.3915954535 155411.05399834551 0 155411.05399834551 -823289.4429648763 0 0 0 0 -55728703.99555397 -30339153.140066504 0 -30339153.140066504 17918884.380213737 0 0 0 0 2691771.8978957618 -958735.83488212456 0 -958735.83488212456 225700.9205833982 0 0 0 0 -5446539.0458962917 -941367.30834954977 0 -941367.30834954977 -3102627.6253576279 0 0 0 0 -29109564.547800064 -883978.49562621117 0 -883978.49562621117 4526972.5147428513 0 0 0 0 -1728717.8967188597 2907536.2221475542 0 2907536.2221475542 4414646.1588606834 0 0 0 0 -2898318.7517414093 -147412.58162975311 0 -147412.58162975311 1618440.2580103874 0 0 0 0 3523595.413567543 -3129760.7770633698 0 -3129760.7770633698 -3165265.2584562302 0 0 0 0 -31666267.96944046 -7638358.174516201 0 -7638358.174516201 -240028.63553333282 0 0 0 0 1809642.9968407666 -791250.81334989052 0 -791250.81334989052 536798.48923052591 0 0 0 0 -1279301.2753810883 3729126.9079284668 0 3729126.9079284668 1393591.2176861763 0 0 0 0 -5893201.2123422623 -2984174.3818101883 0 -2984174.3818101883 782749.99980139732 0 0 0 0 -2704.0595144119579 -8167.650576662505 0 -8167.650576662505 29410.521212458611 0 0 0 0 -5728970.2180395126 2302545.0956690311 0 2302545.0956690311 3023902.2843159437 0 0 0 0 809767.87294769287 6204089.2889976501 0 6204089.2889976501 -92603796.582898617 0 0 0 0 -32312561.418582916 -8316348.4898633957 0 -8316348.4898633957 750664.54863166809 0 0 0 0 -22554820.257105827 -8668030.4999557734 0 -8668030.4999557734 -26956133.964741707 0 0 0 0 137475.55970613007 -415516.40145342587 0 -415516.40145342587 -73454.672449050704 0 0 0 0 -11040860.827409744 17136140.574244142 0 17136140.574244142 -26319304.314409256 0 0 0 0 -21686602.735946655 10214432.992605686 0 10214432.992605686 -26298579.544574738 0 0 0 0 -33188850.584512711 -7391442.2658920288 0 -7391442.2658920288 -36487798.280620575 0 0 0 0 -14656153.148197174 -14751296.089211464 0 -14751296.089211464 -74913751.329529762 0 0 0 0 -11356320.607456207 1161706.2764143944 0 1161706.2764143944 -45740831.710213661 0 0 0 0 -1871882.178401947 9993928.4521410465 0 9993928.4521410465 -64242981.192867279 0 0 0 0 -4927976.6782073975 -4139180.1634397507 0 -4139180.1634397507 -52037256.769178391 0 0 0 0 -9238793.1251945496 2026887.5239238739 0 2026887.5239238739 -31335269.063059807 0 0 0 0 -11689352.27725029 -5024415.8587377071 0 -5024415.8587377071 -43390973.22778511 0 0 0 0 536416.38581466675 -718379.35208845139 0 -718379.35208845139 -37647956.073668003 0 0 0 0 -2744621.0499191284 -4264220.2813930511 0 -4264220.2813930511 -40575868.141542643 0 0 0 0 -1865965.1893005371 6523207.3201169968 0 6523207.3201169968 -46639284.091674805 0 0 0 0 -4957349.780418396 -353510.96683120728 0 -353510.96683120728 -40654885.182806998 0 0 0 0 18005085.070266724 9899876.8644099236 0 9899876.8644099236 -19991001.757027626 0 0 0 0 -3205618.5858154297 14456650.036990166 0 14456650.036990166 324080.74828869104 0 0 0 0 4523459.2589607239 10725284.178741455 0 10725284.178741455 -28105934.411463261 0 0 0 0 7459453.5773639679 18210733.328257561 0 18210733.328257561 -11958534.952624798 0 0 0 0 19326769.711437702 14329264.110700607 0 14329264.110700607 -5846531.5588974953 0 0 0 0 49683291.542388916 13508067.581896663 0 13508067.581896663 -17283742.15937686 0 0 0 0 60014302.675621033 -13272362.546091795 0 -13272362.546091795 -6737599.4052343071 0 0 0 0 33374359.580408096 -7229909.0192742348 0 -7229909.0192742348 -5825148.907664448 0 0 0 0 344342.98086711694 444781.8671246171 0 444781.8671246171 63549.262034868356 0 0 0 0 13944948.374556541 -15513107.215688527 0 -15513107.215688527 19179562.467288971 0 0 0 0 309177.66739257472 14158.486435882747 0 14158.486435882747 -134886.30839744362 0 0 0 0 -7400938.3496376276 10584816.558397666 0 10584816.558397666 47357809.063839436 0 0 0 0 66044432.695833206 29154710.225067377 0 29154710.225067377 -2018420.6876496077 0 0 0 0 17819651.378328323 15036870.393316984 0 15036870.393316984 -5134703.1172691584 0 0 0 0 12763066.408334732 16864899.848539472 0 16864899.848539472 -3579514.2997368574 0 0 0 0 11051225.527585983 14459721.13977325 0 14459721.13977325 355915.47830057144 0 0 0 0 8815239.8501491547 4773065.2905119658 0 4773065.2905119658 -1836390.3252506554 0 0 0 0 20486498.599273682 -2034958.8123592138 0 -2034958.8123592138 -5736392.5422682762 0 0 0 0 22741621.636397362 2116630.372358799 0 2116630.372358799 -1349601.0300540924 0 0 0 0 20348137.387818098 13693689.704354376 0 13693689.704354376 -12052403.161741734 0 0 0 0 22800278.258272171 12940450.299597263 0 12940450.299597263 -11850145.528745413 0 0 0 0 11312189.639848709 20046851.302319765 0 20046851.302319765 -12866710.166293144 0 0 0 0 24918185.217587233 20101942.143596053 0 20101942.143596053 -18904687.676179886 0 0 0 0 -1376684.522190094 22133738.221706867 0 22133738.221706867 -17565408.598092079 0 0 0 0 11352848.991136551 19651047.918115377 0 19651047.918115377 -18369052.914698362 0 0 0 0 9548204.7284431458 20613850.751419067 0 20613850.751419067 -11863372.452625394 0 0 0 0 1611793.5393238068 19134576.685575247 0 19134576.685575247 -11504153.537508965 0 0 0 0 16559529.091449976 19453827.882834166 0 19453827.882834166 -12800400.892671108 0 0 0 0 -1671111.7884864807 5976440.1664571762 0 5976440.1664571762 -31443679.778506756 0 0 0 0 -13201934.452747345 5252287.6645481586 0 5252287.6645481586 -19498156.643455029 0 0 0 0 851052.92828369141 8462189.8193202019 0 8462189.8193202019 -19444662.123879254 0 0 0 0 -3736082.711391449 10506177.234673023 0 10506177.234673023 -28472478.494493484 0 0 0 0 -8352132.6851377487 12143013.52761054 0 12143013.52761054 -17420845.072280884 0 0 0 0 3264797.2379074097 17948551.189157963 0 17948551.189157963 -17088822.312507987 0 0 0 0 3450832.5438041687 15615425.735737324 0 15615425.735737324 -6643846.2840614319 0 0 0 0 5858017.7785396576 16068787.504070997 0 16068787.504070997 -11351206.101485968 0 0 0 0 -4760980.7858638763 12111946.426660776 0 12111946.426660776 -12600733.837083817 0 0 0 0 3932763.0014801025 10574500.924663126 0 10574500.924663126 -7892520.0950627327 0 0 0 0 -843669.89451217651 10233035.675204992 0 10233035.675204992 -14225555.428679466 0 0 0 0 3572656.9968910217 7662794.2004189491 0 7662794.2004189491 -12920738.092274427 0 0 0 0 8284796.4787187576 4412202.229465723 0 4412202.229465723 -15893342.183754921 0 0 0 0 -491066.81982141733 1715992.9400538281 0 1715992.9400538281 -16417740.664946556 0 0 0 0 11638306.256437659 11654718.873822719 0 11654718.873822719 -7802263.1657280922 0 0 0 0 11349452.049263 9357159.5722947121 0 9357159.5722947121 -3495897.75421381 0 0 0 0 10169280.2539711 17997254.724439383 0 17997254.724439383 -1865255.1968717575 0 0 0 0 11140577.006511688 16455070.121326923 0 16455070.121326923 -6657160.3598656654 0 0 0 0 15054856.38312912 15936332.415454984 0 15936332.415454984 4383067.7568235397 0 0 0 0 16766859.88186264 15153312.232580662 0 15153312.232580662 -766842.66081941128 0 0 0 0 21044199.869375229 13531972.680626392 0 13531972.680626392 -1699149.5458748341 0 0 0 0 17301890.649538994 4522989.3694314361 0 4522989.3694314361 954832.88341331482 0 0 0 0 13032538.027829409 18501447.328118414 0 18501447.328118414 -2774851.6942720413 0 0 0 0 10896981.61182785 21543089.177406073 0 21543089.177406073 -5556098.0184841156 0 0 0 0 8975852.3958091736 21265764.846112728 0 21265764.846112728 -1571785.4632850885 0 0 0 0 10225876.100314617 18411164.219188035 0 18411164.219188035 -7242478.7568378448 0 0 0 0 11475345.50340271 20314676.751003265 0 20314676.751003265 3853397.3940191269 0 0 0 0 11947730.929895401 19071882.926541328 0 19071882.926541328 -700592.95849788189 0 0 0 0 10789543.422634125 21236361.852182031 0 21236361.852182031 2252498.5983355045 0 0 0 0 7910969.6332702637 17122367.406850934 0 17122367.406850934 5293367.6148406267 0 0 0 0 8301667.09953475 18396706.707793951 0 18396706.707793951 6940666.2422738075 0 0 0 0 9318776.7712342739 22495398.857706934 0 22495398.857706934 14663520.252873421 0 0 0 0 5951650.2595825195 16042522.569890141 0 16042522.569890141 12200064.065450549 0 0 0 0 3510791.1108722687 14851610.035413384 0 14851610.035413384 10700293.062089443 0 0 0 0 21332497.6068573 20978440.054558277 0 20978440.054558277 3885136.1967412233 0 0 0 0 20472761.957466125 12677689.202826023 0 12677689.202826023 5454432.147316277 0 0 0 0 30142191.418258905 11192134.176059812 0 11192134.176059812 11051230.869750738 0 0 0 0 29077486.424089432 17621046.379635811 0 17621046.379635811 7340079.5030436516 0 0 0 0 81358632.351124763 18940915.360401094 0 18940915.360401094 4750232.7918913364 0 0 0 0 21518778.782115936 32399190.789891005 0 32399190.789891005 25889012.691027641 0 0 0 0 9318689.753900528 41190968.78054744 0 41190968.78054744 44804947.028207302 0 0 0 0 135715.16377076413 -5413.8912059103604 0 -5413.8912059103604 -71150.967646888981 0 0 0 0 -4133104.8130455017 4351952.7856082916 0 4351952.7856082916 15287887.164987415 0 0 0 0 1299970.1287174225 12844753.48519063 0 12844753.48519063 12508324.204761624 0 0 0 0 6406761.7214870453 15517714.617322922 0 15517714.617322922 9468198.1047070026 0 0 0 0 4112833.6238088608 4232607.1663817167 0 4232607.1663817167 -6067967.6915016174 0 0 0 0 1722934.0565834045 4418382.1938840151 0 4418382.1938840151 2766155.684896946 0 0 0 0 249599.33642101288 9829884.1294560432 0 9829884.1294560432 1343347.9148163795 0 0 0 0 -617452.16243171692 3194601.748868227 0 3194601.748868227 -149670.54411935806 0 0 0 0 -558408.63267707825 7632873.5459542871 0 7632873.5459542871 6585944.033008337 0 0 0 0 4573717.4020404816 12981186.934971333 0 12981186.934971333 6504279.3778767586 0 0 0 0 4581732.3204669952 13153793.213143229 0 13153793.213143229 6868660.4411404952 0 0 0 0 5023673.5389396548 7636028.8973915912 0 7636028.8973915912 1752363.6471261978 0 0 0 0 8269362.2787339687 15340763.333151937 0 15340763.333151937 3688038.1759910583 0 0 0 0 12972983.247939825 9131338.6000317037 0 9131338.6000317037 2021950.9176633358 0 0 0 0 4732770.4693517685 4273027.4962514043 0 4273027.4962514043 2409706.2649720311 0 0 0 0 4186442.6101951599 7151541.0654066801 0 7151541.0654066801 3109174.9597922564 0 0 0 0 1327822.3535900116 1412429.7434949279 0 1412429.7434949279 -8924064.5820744038 0 0 0 0 1160704.5518398285 8109738.7694374323 0 8109738.7694374323 -4972926.3549989462 0 0 0 0 5377423.5077085495 5076168.9749496132 0 5076168.9749496132 -18086568.845420122 0 0 0 0 -7113200.2194986343 8789274.9810997248 0 8789274.9810997248 -2117356.2519249916 0 0 0 0 1131901.804107666 7193095.2188630104 0 7193095.2188630104 -1930264.8518733978 0 0 0 0 -707121.68907976151 2606462.3190666437 0 2606462.3190666437 -15464867.364641309 0 0 0 0 15686011.016269684 -8401265.7444972992 0 -8401265.7444972992 -23019159.308354154 0 0 0 0 -6641.3543586730957 283979.79877686501 0 283979.79877686501 -745893.27213835716 0 0 0 0 239128.85821858421 -74566.709099129308 0 -74566.709099129308 -217948.26555234595 0 0 0 0 14479512.021781921 10407034.405082285 0 10407034.405082285 -19773773.447642609 0 0 0 0 193196.58348083496 2677707.7106301785 0 2677707.7106301785 -15465458.788001627 0 0 0 0 886639.60094833374 523511.92945122719 0 523511.92945122719 -1157702.8424373865 0 0 0 0 351414.39486867655 35587.904925648123 0 35587.904925648123 -89442.800222491845 0 0 0 0 4574453.4138317108 4137476.5660271645 0 4137476.5660271645 -18157163.051523343 0 0 0 0 80557.670660370961 5061.4858421820682 0 5061.4858421820682 -78876.496002516069 0 0 0 0 22551317.586250305 3935836.7270363867 0 3935836.7270363867 -1548725.8009290025 0 0 0 0 -13513642.892187119 7170235.6564363837 0 7170235.6564363837 625173.72916227579 0 0 0 0 -14163530.722499847 -10122910.088529408 0 -10122910.088529408 -10160091.932481408 0 0 0 0 -24990615.611406326 3904546.1823626459 0 3904546.1823626459 3125032.1067569256 0 0 0 0 15612156.743732452 -10743776.689389467 0 -10743776.689389467 -3515568.4957763851 0 0 0 0 18814986.559768677 -1875464.0739942789 0 -1875464.0739942789 -8861194.4655497372 0 0 0 0 29441720.509248972 -15766638.773173068 0 -15766638.773173068 -2157978.8786340356 0 0 0 0 25968987.773317337 1547425.0148276985 0 1547425.0148276985 -13501811.234683394 0 0 0 0 36754417.315211475 -21233378.571196802 0 -21233378.571196802 5650887.3244387507 0 0 0 0 36907419.649368286 -6506583.4535030425 0 -6506583.4535030425 -3414683.6738241464 0 0 0 0 47704341.315837145 -4816553.7590602078 0 -4816553.7590602078 8313718.6892641932 0 0 0 0 11543242.448423386 -7927308.479086183 0 -7927308.479086183 10079059.814589322 0 0 0 0 28153944.872142792 -14255098.138944872 0 -14255098.138944872 26143741.929286383 0 0 0 0 9924767.7412128448 -7400885.9740271019 0 -7400885.9740271019 11308744.293063588 0 0 0 0 -693747.96603488922 11343828.260309119 0 11343828.260309119 8520326.4087945819 0 0 0 0 46902740.493709564 -45360647.924724683 0 -45360647.924724683 24319763.170956474 0 0 0 0 56682717.503190994 -49378991.864220321 0 -49378991.864220321 19240146.279753238 0 0 0 0 75717362.148068428 -36589818.625660002 0 -36589818.625660002 1910529.7395622134 0 0 0 0 41255231.778568268 -21735381.401786916 0 -21735381.401786916 24579282.946318287 0 0 0 0 58709768.191381454 -13218571.260142028 0 -13218571.260142028 8122666.3863997459 0 0 0 0 49081985.78576088 -14262294.317205429 0 -14262294.317205429 -5148804.9983439445 0 0 0 0 43394388.646228552 -32079560.608261608 0 -32079560.608261608 4642346.7802798152 0 0 0 0 48398005.614248276 -38178742.174550474 0 -38178742.174550474 12927516.095070183 0 0 0 0 51472925.662893295 -31650987.437601209 0 -31650987.437601209 403132.02533185482 0 0 0 0 50247113.672859192 -42920828.797011077 0 -42920828.797011077 12759646.174747467 0 0 0 0 51744369.894929886 -38653490.190357625 0 -38653490.190357625 8652019.2743498087 0 0 0 0 50954739.269630432 -29855297.245594323 0 -29855297.245594323 5597789.3566915691 0 0 0 0 50664600.074578285 -30957238.53422004 0 -30957238.53422004 1890888.3580470085 0 0 0 0 34710041.560497284 -28573649.378956437 0 -28573649.378956437 6820719.2203161716 0 0 0 0 24604042.245910645 -7475731.3869126439 0 -7475731.3869126439 -7073827.1951504946 0 0 0 0 36044140.337039948 -27453028.107641816 0 -27453028.107641816 332804.65802574158 0 0 0 0 35379272.405418396 -27150455.409477711 0 -27150455.409477711 3735093.7074689269 0 0 0 0 32543078.173811436 -18653814.173740625 0 -18653814.173740625 -1927711.458527565 0 0 0 0 8957112.5542583466 -24781226.492995977 0 -24781226.492995977 7400351.3636535406 0 0 0 0 -3509390.2245159149 -1981543.9243984818 0 -1981543.9243984818 5755938.1675086021 0 0 0 0 -64291.015270233154 290397.03839111328 0 290397.03839111328 -741375.5484393239 0 0 0 0 5314823.2500972748 9411008.6949328184 0 9411008.6949328184 -9008043.1877670288 0 0 0 0 30161183.138996124 -12464224.172442317 0 -12464224.172442317 10485155.386092961 0 0 0 0 27986224.006181717 -26689666.630434513 0 -26689666.630434513 5730066.883728981 0 0 0 0 271738.29815696925 54086.503732238431 0 54086.503732238431 -37538.417914695805 0 0 0 0 1362117.5294084549 13226691.332084954 0 13226691.332084954 -8160429.4047076702 0 0 0 0 182181.75654947385 -113891.54053852754 0 -113891.54053852754 -226605.5187121401 0 0 0 0 584483.86715698242 12234314.257187605 0 12234314.257187605 -1521554.1264998913 0 0 0 0 65401983.721674442 -9251773.3560544252 0 -9251773.3560544252 23014097.990491867 0 0 0 0 54480927.161691666 -35840013.588719726 0 -35840013.588719726 12022222.998775482 0 0 0 0 38694939.060207367 -21997720.568925858 0 -21997720.568925858 4575685.0119436979 0 0 0 0 39136769.481042862 -55153981.169062376 0 -55153981.169062376 43704294.852705479 0 0 0 0 85119315.826697588 -4484049.4350882322 0 -4484049.4350882322 19979679.149848223 0 0 0 0 87123609.054307938 -21069763.238057494 0 -21069763.238057494 18634043.66940093 0 0 0 0 38273482.834833145 -12104380.395663619 0 -12104380.395663619 37005755.465886712 0 0 0 0 35256413.094387054 -12025053.907396436 0 -12025053.907396436 37170704.474986941 0 0 0 0 20938249.485138893 -16959218.182140112 0 -16959218.182140112 44285491.26719594 0 0 0 0 29627819.918491364 -20631866.459094495 0 -20631866.459094495 38817208.414357364 0 0 0 0 29741659.102794647 -33656258.671517164 0 -33656258.671517164 34828521.588592231 0 0 0 0 48678366.266853333 -21254065.26884836 0 -21254065.26884836 14462285.683302641 0 0 0 0 47223261.911385059 -29396530.256043762 0 -29396530.256043762 19101311.27180022 0 0 0 0 40927882.265985489 -34939264.57935895 0 -34939264.57935895 21896916.534818947 0 0 0 0 41263649.138954163 -35084404.743496969 0 -35084404.743496969 14644100.77400732 0 0 0 0 26380592.000313759 -34465002.685626373 0 -34465002.685626373 21953271.934885863 0 0 0 0 28878927.727454185 -32264042.4035502 0 -32264042.4035502 19754694.407615274 0 0 0 0 36832902.93731308 -44591341.735014349 0 -44591341.735014349 23381506.451905943 0 0 0 0 47092397.928409576 -48947515.448793225 0 -48947515.448793225 25220347.082022421 0 0 0 0 29830471.635783195 -13607339.472371191 0 -13607339.472371191 3930995.1216648892 0 0 0 0 19262685.087771893 -26021947.601589009 0 -26021947.601589009 21526283.622282684 0 0 0 0 31957651.195284843 -33261493.302011251 0 -33261493.302011251 20536535.523993984 0 0 0 0 56909933.370170116 -21509792.959948782 0 -21509792.959948782 4996600.944770664 0 0 0 0 10609783.016543388 4543533.6851222366 0 4543533.6851222366 -355607.6277218461 0 0 0 0 -48630.433421612717 22766.698030462489 0 22766.698030462489 191255.28711504658 0 0 0 0 35312266.074209213 -45672082.042464092 0 -45672082.042464092 49716924.914018393 0 0 0 0 15141336.938459396 -21365328.719914705 0 -21365328.719914705 67070518.834017396 0 0 0 0 22974173.952309132 -13882480.833456188 0 -13882480.833456188 41386676.623731077 0 0 0 0 14360258.071937561 -23212665.480358243 0 -23212665.480358243 34295750.504190266 0 0 0 0 9848997.8613033295 -19084147.282851696 0 -19084147.282851696 19114782.406674504 0 0 0 0 4666298.0802891254 -13480799.901534706 0 -13480799.901534706 28457294.575385571 0 0 0 0 18636245.906247139 -18724245.117026329 0 -18724245.117026329 24629284.703344464 0 0 0 0 14924924.51543045 -11957705.262054265 0 -11957705.262054265 7816736.6283583641 0 0 0 0 12070807.832147598 -10657029.908463836 0 -10657029.908463836 18301085.400063276 0 0 0 0 19310660.065034389 -9056736.4150422961 0 -9056736.4150422961 33568019.465066195 0 0 0 0 24436011.085803986 -7650244.0069365799 0 -7650244.0069365799 40535010.47844553 0 0 0 0 18782845.930420876 -16106411.791711211 0 -16106411.791711211 44993260.907019794 0 0 0 0 26455416.11236763 -17815904.228543401 0 -17815904.228543401 33972853.576855719 0 0 0 0 32937468.874175072 -3173265.4559736848 0 -3173265.4559736848 20116569.99794054 0 0 0 0 43979486.792379379 5453003.3916046619 0 5453003.3916046619 52958097.22334075 0 0 0 0 45739328.384078979 -22081763.845260024 0 -22081763.845260024 46081072.631330818 0 0 0 0 27395800.11771965 -7957060.4616935253 0 -7957060.4616935253 17317700.004778862 0 0 0 0 22096417.133707047 -920536.22880721092 0 -920536.22880721092 10961981.076012611 0 0 0 0 25391913.533323288 -5085239.577739954 0 -5085239.577739954 4391910.4019465446 0 0 0 0 39225518.486920357 595517.58164966106 0 595517.58164966106 4580465.5833282471 0 0 0 0 23014713.806932449 7300491.0221481323 0 7300491.0221481323 2110314.642660141 0 0 0 0 25021631.306079865 -4048270.2843856812 0 -4048270.2843856812 3854075.901204586 0 0 0 0 22100870.493713379 -7349626.136341691 0 -7349626.136341691 18399437.050630808 0 0 0 0 17117500.250841141 -12676487.646714091 0 -12676487.646714091 15942343.963899374 0 0 0 0 14934929.989899218 -14689959.730144382 0 -14689959.730144382 8475251.427842617 0 0 0 0 15465320.204455376 -5743670.7996668816 0 -5743670.7996668816 4719501.7316870689 0 0 0 0 15731077.381073415 -2080782.0808796287 0 -2080782.0808796287 -3073822.1056857109 0 0 0 0 15358915.363505036 -10609784.994159918 0 -10609784.994159918 -3183876.5878610611 0 0 0 0 10415426.543970108 -4407720.8129384518 0 -4407720.8129384518 -6192455.9072412252 0 0 0 0 16553800.374597549 7471169.3364160061 0 7471169.3364160061 -3404178.6535167694 0 0 0 0 16727787.222402573 -1518619.4705572128 0 -1518619.4705572128 -3331310.1062889099 0 0 0 0 17618289.86136055 -7635339.4551463127 0 -7635339.4551463127 3561810.6571750641 0 0 0 0 19111504.866847992 1507820.8008913994 0 1507820.8008913994 -271495.62937736511 0 0 0 0 14640963.171422958 -6334669.8167078495 0 -6334669.8167078495 -8760496.3379392624 0 0 0 0 12305576.672847748 2910699.3326299191 0 2910699.3326299191 -6722591.4016368389 0 0 0 0 10808312.694835424 3254941.1563159525 0 3254941.1563159525 -6399821.6546354294 0 0 0 0 8226736.0145969391 6547337.8745567799 0 6547337.8745567799 -9612747.3635456562 0 0 0 0 10252986.563858986 -1088042.3679768443 0 -1088042.3679768443 -11749862.029844761 0 0 0 0 9974176.9701766968 3105322.2920126915 0 3105322.2920126915 -17438881.867879391 0 0 0 0 10449539.640401423 -4790151.9437672198 0 -4790151.9437672198 -19456987.997311115 0 0 0 0 4389274.967663765 553487.88626515865 0 553487.88626515865 -19480539.091780663 0 0 0 0 8759171.7174129486 2339495.9820469618 0 2339495.9820469618 -30622348.989280224 0 0 0 0 3760930.9075469971 -987252.52045106888 0 -987252.52045106888 -19421498.47988081 0 0 0 0 -132070.14912605286 2301031.0212483406 0 2301031.0212483406 -26227815.943162918 0 0 0 0 6188293.2218437195 2740485.3425142765 0 2740485.3425142765 -26206105.253015518 0 0 0 0 13405154.662118435 -10065722.960674047 0 -10065722.960674047 -11243903.626298428 0 0 0 0 7483109.171874404 -7237193.6657783687 0 -7237193.6657783687 -11404052.368348122 0 0 0 0 11314146.405527115 -8228680.5478012562 0 -8228680.5478012562 -13146398.37229538 0 0 0 0 10236521.214578629 -557314.20659017563 0 -557314.20659017563 -11745738.385609508 0 0 0 0 9870299.3495731354 -4973868.6486205459 0 -4973868.6486205459 -26520508.795538902 0 0 0 0 8864123.7703132629 -553765.43397688866 0 -553765.43397688866 -19182589.91292882 0 0 0 0 6956760.8153402805 -10380892.393610328 0 -10380892.393610328 -9608263.2735316753 0 0 0 0 10052081.414445877 -4079526.1189234257 0 -4079526.1189234257 -21649166.81371665 0 0 0 0 9700101.2551078796 -8037616.1581968069 0 -8037616.1581968069 -8560559.4959753156 0 0 0 0 8234910.3518972397 -13250957.234910011 0 -13250957.234910011 -3145506.9701564312 0 0 0 0 5759944.1828775406 -13599455.135158241 0 -13599455.135158241 5764154.7834720612 0 0 0 0 7770917.6734271049 -12099482.111159027 0 -12099482.111159027 6295149.0716586113 0 0 0 0 10993841.168637276 -7217895.410366416 0 -7217895.410366416 -3208382.9701070786 0 0 0 0 10447806.998083115 -14813482.684570909 0 -14813482.684570909 6331604.9045455456 0 0 0 0 -3276413.5114202499 -4939744.0722288489 0 -4939744.0722288489 15298577.709486723 0 0 0 0 1048082.8712143898 -8393266.1828194857 0 -8393266.1828194857 1431005.9097802639 0 0 0 0 258484.41120147705 -13540306.250216722 0 -13540306.250216722 15242351.661290526 0 0 0 0 953047.57858371735 -8641367.3356643915 0 -8641367.3356643915 7884766.2987322807 0 0 0 0 3880814.1665306091 -16499637.976049721 0 -16499637.976049721 18959654.901826859 0 0 0 0 1897540.4428710938 -5638468.020732522 0 -5638468.020732522 -6963091.8444237709 0 0 0 0 5387570.9267177582 -10890676.627557993 0 -10890676.627557993 -9798280.1909804344 0 0 0 0 -1218508.7496652603 -8984648.5711444616 0 -8984648.5711444616 1552176.997266531 0 0 0 0 107895.74495983124 -6409541.9811483622 0 -6409541.9811483622 -7000502.1188985109 0 0 0 0 -5336549.4110529423 -9787369.7879215479 0 -9787369.7879215479 523253.96882820129 0 0 0 0 1109452.6070047244 -745538.95617561904 0 -745538.95617561904 1227100.1101262076 0 0 0 0 1097862.188202858 -264009.6208895864 0 -264009.6208895864 -2038697.1436062157 0 0 0 0 -12793026.453983307 2844434.7659736723 0 2844434.7659736723 15987157.337687418 0 0 0 0 -3146182.5878569335 -8799953.5494441539 0 -8799953.5494441539 15876491.691646814 0 0 0 0 -3490185.3733177185 -608132.23553621769 0 -608132.23553621769 -2175830.3379366398 0 0 0 0 -12304733.726707458 -2211777.574793756 0 -2211777.574793756 49265257.034612775 0 0 0 0 -5768735.1144170761 12484883.699544907 0 12484883.699544907 24106618.628881216 0 0 0 0 -2711233.715033412 5814813.741248861 0 5814813.741248861 -4830970.4418088198 0 0 0 0 790760.20198649331 -594737.91986146045 0 -594737.91986146045 942162.11409812374 0 0 0 0 -11346502.228981733 -3660601.1990895271 0 -3660601.1990895271 10759871.084383011 0 0 0 0 17467435.180200577 22118694.45036602 0 22118694.45036602 69401827.916334867 0 0 0 0 144196.04903989285 -389030.30688671442 0 -389030.30688671442 207.15909722747165 0 0 0 0 -15383279.103106022 9742710.665651381 0 9742710.665651381 78498281.167757094 0 0 0 0 -1630448.1839361191 -20064208.640633643 0 -20064208.640633643 126821414.4862045 0 0 0 0 -14698816.226601601 -1696936.4754843116 0 -1696936.4754843116 49392800.073899254 0 0 0 0 -19280642.969656944 -11035541.633294523 0 -11035541.633294523 51555167.621338964 0 0 0 0 -18759791.547622681 -2576932.1570443809 0 -2576932.1570443809 66810138.96037972 0 0 0 0 -6692844.6433963776 -9743869.1737705469 0 -9743869.1737705469 18618576.455043554 0 0 0 0 -6781209.7354240417 -9337501.8399159908 0 -9337501.8399159908 25985580.581454992 0 0 0 0 -12247215.514155954 -731744.62380249612 0 -731744.62380249612 38765833.157727003 0 0 0 0 6685884.3421313763 -15231890.145568043 0 -15231890.145568043 19420408.334660769 0 0 0 0 -1657286.4237785339 -20148901.376086742 0 -20148901.376086742 38484825.46378541 0 0 0 0 -18687761.648348808 -17620480.144703448 0 -17620480.144703448 42595299.694281459 0 0 0 0 -37318083.545303345 -36452121.51690574 0 -36452121.51690574 62240366.418441728 0 0 0 0 4939518.923687458 -34576044.648978084 0 -34576044.648978084 54564402.13950491 0 0 0 0 -27185138.17171073 -9600957.9327288345 0 -9600957.9327288345 53571415.263547957 0 0 0 0 -22553963.315347195 -18306920.10007599 0 -18306920.10007599 68639340.799867868 0 0 0 0 -23766981.129223347 -33087965.102373987 0 -33087965.102373987 38199865.671037525 0 0 0 0 -59320944.699483871 -18191779.904976066 0 -18191779.904976066 52605921.169719592 0 0 0 0 -26539805.881015301 -10556562.617510095 0 -10556562.617510095 -5749648.2382668536 0 0 0 0 -13222725.568446875 -39599846.510853522 0 -39599846.510853522 -63809544.950696915 0 0 0 0 -24587534.543096542 -42088276.832300007 0 -42088276.832300007 -13456867.471783943 0 0 0 0 118257.69102642545 -65962.035293256165 0 -65962.035293256165 222827.99661496174 0 0 0 0 -4157344.4830145836 -2113619.7706700787 0 -2113619.7706700787 5042725.7725118548 0 0 0 0 37578722.317311764 7924662.0280914754 0 7924662.0280914754 -43013068.421966434 0 0 0 0 -30423791.195090294 -36696283.072219178 0 -36696283.072219178 20239763.959595852 0 0 0 0 26520626.727346897 -33674376.046821237 0 -33674376.046821237 15259809.236034453 0 0 0 0 29110951.476082087 -19258623.737480078 0 -19258623.737480078 28443673.690687515 0 0 0 0 105641563.23647833 -41952297.35745427 0 -41952297.35745427 -13655224.368271738 0 0 0 0 -22138900.250874519 -22804457.972503453 0 -22804457.972503453 62262800.687696904 0 0 0 0 -11755560.223680496 -8545963.197219491 0 -8545963.197219491 57919826.897023752 0 0 0 0 11381775.195238829 -38220976.640581831 0 -38220976.640581831 106006583.89025098 0 0 0 0 13281330.463272095 -34727745.580172598 0 -34727745.580172598 82673336.381336212 0 0 0 0 24856398.335863113 -21074196.690747321 0 -21074196.690747321 94395508.531919062 0 0 0 0 97034763.607956886 -48500918.681883097 0 -48500918.681883097 96545073.165052965 0 0 0 0 99772955.009458542 -71979070.603496462 0 -71979070.603496462 95854186.278843477 0 0 0 0 120593984.42271686 -57629383.209940888 0 -57629383.209940888 68742119.198479325 0 0 0 0 143234519.51517296 -82183098.065475792 0 -82183098.065475792 90662087.991649985 0 0 0 0 98113412.538946152 -63375571.2467179 0 -63375571.2467179 134227594.12760055 0 0 0 0 158237389.9792273 -90315751.803194478 0 -90315751.803194478 55570263.326903611 0 0 0 0 78161339.304736614 -39216986.418285005 0 -39216986.418285005 58258803.271796718 0 0 0 0 77118625.786123276 -60491379.884669073 0 -60491379.884669073 58625240.074321806 0 0 0 0 105162428.92000198 -48246674.762800932 0 -48246674.762800932 8021612.9553081095 0 0 0 0 127650398.28534317 -41799558.965337478 0 -41799558.965337478 2045978.993429184 0 0 0 0 185221807.5194788 -41417989.20149871 0 -41417989.20149871 -42732012.916404188 0 0 0 0 183010901.04057777 -49089711.318511531 0 -49089711.318511531 -53069585.583674461 0 0 0 0 251689504.79578114 -72471139.268119067 0 -72471139.268119067 -61218415.473333731 0 0 0 0 236237617.4321847 -90452586.750371367 0 -90452586.750371367 -15915708.559036028 0 0 0 0 205622911.58859968 -70287559.94567363 0 -70287559.94567363 -12572756.14904242 0 0 0 0 314911490.04772568 -118435671.22594608 0 -118435671.22594608 -30831907.227148615 0 0 0 0 158763586.71207619 -125873305.4757053 0 -125873305.4757053 132875605.07485387 0 0 0 0 315183336.06822586 -162616310.10647038 0 -162616310.10647038 46879530.592967309 0 0 0 0 220389440.31975508 -97365817.526175022 0 -97365817.526175022 5525066.5714166816 0 0 0 0 114477659.65059996 -108464022.9276697 0 -108464022.9276697 130099398.4326413 0 0 0 0 314149571.33326924 -283595665.80325806 0 -283595665.80325806 282854944.03209692 0 0 0 0 539217.5561544341 -337349.8535764463 0 -337349.8535764463 197206.4820491084 0 0 0 0 43659812.50637579 42168118.477958411 0 42168118.477958411 14233650.330491293 0 0 0 0 120131512.93171084 -86681330.452034444 0 -86681330.452034444 141464237.06326008 0 0 0 0 74208691.737689018 -102165745.12573498 0 -102165745.12573498 142683818.61933595 0 0 0 0 63209711.03706646 -79028211.668537855 0 -79028211.668537855 170836467.01771533 0 0 0 0 201009.04896836495 -81756.330080741085 0 -81756.330080741085 -22212.733856591629 0 0 0 0 -855664.75505161285 27389053.631150126 0 27389053.631150126 163060224.0148648 0 0 0 0 1181884.3556601324 -337205.20875126851 0 -337205.20875126851 159362.64526290711 0 0 0 0 -559501.07449579239 -5587260.5520113287 0 -5587260.5520113287 -11879354.629054612 0 0 0 0 -6227239.2293689251 -17736676.908572614 0 -17736676.908572614 9265286.4179038033 0 0 0 0 -12530406.190395355 1811838.2132150049 0 1811838.2132150049 11875115.523491576 0 0 0 0 17638553.277198076 6480374.963450674 0 6480374.963450674 -9442378.7709730323 0 0 0 0 -2056967.5385146141 -4868827.5190063491 0 -4868827.5190063491 532042.7515459545 0 0 0 0 -8781044.0796408653 3274943.8413651614 0 3274943.8413651614 9075230.516588781 0 0 0 0 48605.836111648008 -21418.454757012776 0 -21418.454757012776 -5851.863153331572 0 0 0 0 -969204.53442907333 -957405.40658997931 0 -957405.40658997931 1124459.1521341316 0 0 0 0 963545.08038663864 -533047.60365271196 0 -533047.60365271196 -1316360.8427617317 0 0 0 0 136640.11748770415 -107039.8582628718 0 -107039.8582628718 -29298.296558835595 0 0 0 0 -188343.36672186852 -372537.78119878843 0 -372537.78119878843 -148601.09673375636 0 0 0 0 21007727.806615353 17520974.186277725 0 17520974.186277725 -16328429.679843483 0 0 0 0 276990.69238372776 262039.66016330273 0 262039.66016330273 309349.17473744595 0 0 0 0 356665.82086991728 157771.40533924423 0 157771.40533924423 261635.11287162395 0 0 0 0 944451.20322227478 -470712.3168163026 0 -470712.3168163026 2601728.1577046332 0 0 0 0 27135.13697779295 -85194.190031187856 0 -85194.190031187856 166938.46265442134 0 0 0 0 311734877.8315773 -95075.31837981104 0 -95075.31837981104 -114674.04119465846 0 0 0 0 303538913.03812408 15994912.691159466 0 15994912.691159466 -14424653.60448283 0 0 0 0 59168586.076976299 -151605886.42625836 0 -151605886.42625836 33774278.103235647 0 0 0 0 166960.42188981897 94115.802058080502 0 94115.802058080502 148699.39802730759 0 0 0 0 313534506.21802324 -77656065.173713848 0 -77656065.173713848 -42624673.947814427 0 0 0 0 201387344.90916729 11085394.096876521 0 11085394.096876521 -4029353.1031423137 0 0 0 0 36765286.205104589 42947411.964455135 0 42947411.964455135 23356009.639219224 0 0 0 0 -5745091.3507044315 -20956930.848160408 0 -20956930.848160408 23957289.272343989 0 0 0 0 -12031737.259335399 -1540016.2392786108 0 -1540016.2392786108 31938315.209444169 0 0 0 0 270899784.0883193 -24266610.584278606 0 -24266610.584278606 40381389.818029389 0 0 0 0 241518268.80305958 -1653997.1223746333 0 -1653997.1223746333 53529835.315040193 0 0 0 0 278978487.92653179 23114271.876379106 0 23114271.876379106 21313061.231719956 0 0 0 0 315113042.41249943 1642196.4743043147 0 1642196.4743043147 27331122.91117787 0 0 0 0 212671104.82910919 36296575.918433599 0 36296575.918433599 24211967.633174084 0 0 0 0 239580162.50024176 1784785.3661313523 0 1784785.3661313523 17808649.088768266 0 0 0 0 213193024.87605572 -9509503.2435223535 0 -9509503.2435223535 38060760.194355264 0 0 0 0 267839961.39980602 -56313879.587231822 0 -56313879.587231822 4345548.6169319656 0 0 0 0 275088366.21754742 -38135444.604821138 0 -38135444.604821138 36604702.678559609 0 0 0 0 289155556.30605412 -78199129.425747171 0 -78199129.425747171 -28046228.777942508 0 0 0 0 69880.165136069292 -98601.116151005961 0 -98601.116151005961 100478.91912155112 0 0 0 0 359403315.75009727 -83552911.299025387 0 -83552911.299025387 20060591.757337928 0 0 0 0 297409972.75361252 -75727909.007247195 0 -75727909.007247195 63879245.131298125 0 0 0 0 356639483.63388729 -87102280.843549952 0 -87102280.843549952 39968327.658638686 0 0 0 0 262159983.86222553 -26622225.201129504 0 -26622225.201129504 50967395.257920727 0 0 0 0 330594858.47772408 -38006730.592862874 0 -38006730.592862874 49966833.727126397 0 0 0 0 332722246.60130119 6382305.1853043344 0 6382305.1853043344 73675516.413067847 0 0 0 0 275468944.11074543 -20619739.58385241 0 -20619739.58385241 68248704.307321027 0 0 0 0 379013958.22857666 -101822031.10965773 0 -101822031.10965773 25468285.573564768 0 0 0 0 388328.49908550736 -16527.288761232281 0 -16527.288761232281 -79435.88258723398 0 0 0 0 1916100.2518234253 1600283.2099878788 0 1600283.2099878788 2588842.0463342667 0 0 0 0 321326856.26028585 -57689476.498381123 0 -57689476.498381123 17995575.420973152 0 0 0 0 414623090.06402016 -34747467.492484361 0 -34747467.492484361 22447925.130063366 0 0 0 0 156453873.83413744 93280483.283998802 0 93280483.283998802 56265696.228066504 0 0 0 0 323436827.14759493 -16286170.461117472 0 -16286170.461117472 -34464927.238162816 0 0 0 0 279072654.56787014 -70327372.548488453 0 -70327372.548488453 82168406.983712897 0 0 0 0 287641426.10297656 -54347700.745553352 0 -54347700.745553352 -977869.59613970853 0 0 0 0 276499848.9365263 -16986604.436267275 0 -16986604.436267275 53140986.233471438 0 0 0 0 281803134.30888081 -14355125.446618849 0 -14355125.446618849 33839470.951871641 0 0 0 0 288269695.79293156 -36590236.854901597 0 -36590236.854901597 44102623.662134372 0 0 0 0 314925910.62269866 -35230980.872807063 0 -35230980.872807063 -3621203.6438176339 0 0 0 0 295297389.11650658 -56986076.095650621 0 -56986076.095650621 -18777847.708526447 0 0 0 0 299360382.6877532 -41560087.260911904 0 -41560087.260911904 -30249107.187483847 0 0 0 0 268059091.78377056 -55188926.926649354 0 -55188926.926649354 -35305183.318967365 0 0 0 0 314993019.30613995 -48610087.3873946 0 -48610087.3873946 -51298244.231493741 0 0 0 0 286687525.29027843 -59214809.481275976 0 -59214809.481275976 -70569618.978070065 0 0 0 0 302808111.82850456 -64139108.312590852 0 -64139108.312590852 -70736472.921027705 0 0 0 0 253746997.23991275 -71603600.918352589 0 -71603600.918352589 -58156222.131747574 0 0 0 0 287197321.10282612 -79952850.344701588 0 -79952850.344701588 -64245707.644674174 0 0 0 0 314998638.04896927 -69814777.190792859 0 -69814777.190792859 -78182894.43034865 0 0 0 0 170654116.76954556 -61938774.361711815 0 -61938774.361711815 -47973921.622525215 0 0 0 0 120643037.34302711 -14700997.610258281 0 -14700997.610258281 -39133482.32473731 0 0 0 0 173651354.15715504 -54217905.510099068 0 -54217905.510099068 -38347890.578090012 0 0 0 0 247976074.96742785 -40753955.50561446 0 -40753955.50561446 -62989997.954486281 0 0 0 0 194781826.69994402 -52040327.451434694 0 -52040327.451434694 -49324441.762551591 0 0 0 0 187405480.11583227 3003076.7911468884 0 3003076.7911468884 -35536371.786656529 0 0 0 0 127537658.83059788 -15434243.085817806 0 -15434243.085817806 -26575877.990834564 0 0 0 0 275806341.19287276 -33112379.262358822 0 -33112379.262358822 -56815368.73551549 0 0 0 0 284503727.80491179 -31271827.521663703 0 -31271827.521663703 -896199.8332402017 0 0 0 0 256016059.30395794 -57673369.566886365 0 -57673369.566886365 -21181907.375479147 0 0 0 0 229080584.31182575 35424339.384788319 0 35424339.384788319 -50050616.767526969 0 0 0 0 87699636.997211456 46520365.403116718 0 46520365.403116718 3844240.1596746258 0 0 0 0 6737805.9402694702 -234904.99650713801 0 -234904.99650713801 -6514154.5231864825 0 0 0 0 4326555.3238811493 1925166.5709293187 0 1925166.5709293187 4468403.1663965583 0 0 0 0 6676710.7349720001 6373928.3791325837 0 6373928.3791325837 -7800786.2553295493 0 0 0 0 3881887.6159515381 -4346211.3179662824 0 -4346211.3179662824 -2241682.9288746119 0 0 0 0 699647.43956947117 -571682.14191507804 0 -571682.14191507804 -24235.794738820594 0 0 0 0 763535.36742782593 -3474496.5500425249 0 -3474496.5500425249 -1071245.6947734356 0 0 0 0 16660533.039949894 -14704468.775940388 0 -14704468.775940388 3947468.0110990852 0 0 0 0 -22455387.719916582 -21326773.186530285 0 -21326773.186530285 -1191844.4053785056 0 0 0 0 88797863.085018635 -45733973.610796787 0 -45733973.610796787 -33957720.946642041 0 0 0 0 67472082.615444779 7874104.3894098252 0 7874104.3894098252 -4302536.2745148391 0 0 0 0 81537018.51235199 -59976461.681449279 0 -59976461.681449279 -66015474.186097562 0 0 0 0 -9889509.255115509 1299528.6989689544 0 1299528.6989689544 -117672.28720827401 0 0 0 0 828077.92827199399 -298336.84485841729 0 -298336.84485841729 -172827.85141867053 0 0 0 0 761023.90200090408 -443068.04336666688 0 -443068.04336666688 1306590.3831419945 0 0 0 0 1044794.828499794 5075977.2342490554 0 5075977.2342490554 -3016627.4564194083 0 0 0 0 16619.73253298644 -355986.12033507251 0 -355986.12033507251 -51293.073010585467 0 0 0 0 654696.5797996521 340070.87837228179 0 340070.87837228179 -339557.80764046311 0 0 0 0 630902.13344694953 -562087.75650528772 0 -562087.75650528772 114890.93134173239 0 0 0 0 1706556.9899647236 345480.2438381575 0 345480.2438381575 -489257.19434314966 0 0 0 0 211551.6024646759 -284511.97809073329 0 -284511.97809073329 -225677.43378931284 0 0 0 0 1310756.6856021881 -67508.360516883433 0 -67508.360516883433 -1150374.436241582 0 0 0 0 776120.8121843338 -91661.628641799092 0 -91661.628641799092 -954061.94541862607 0 0 0 0 -518347.86530923843 -377646.14672893286 0 -377646.14672893286 -917813.39266180992 0 0 0 0 719818.17463684082 -108229.11760562658 0 -108229.11760562658 -712906.65214642882 0 0 0 0 612440.83317947388 6741.2235459685326 0 6741.2235459685326 -813999.05569398403 0 0 0 0 662140.99628639221 -217807.91022665799 0 -217807.91022665799 -915351.64272105694 0 0 0 0 1370053.8016891479 -212990.06193983555 0 -212990.06193983555 -1132557.4294500053 0 0 0 0 5775708.064971447 2264216.0528798476 0 2264216.0528798476 -144824.97115564346 0 0 0 0 1242403.1502051353 1695226.4919083342 0 1695226.4919083342 -232795.68956899643 0 0 0 0 325.52393940184265 -4399.53017886827 0 -4399.53017886827 -579.75036360159629 0 0 0 0 -6609.7631460083649 -13193.757963638403 0 -13193.757963638403 5354.6234155350503 0 0 0 0 2252436.8363571167 -2825439.2262817621 0 -2825439.2262817621 510172.972694695 0 0 0 0 667621.46520996094 956339.90738868713 0 956339.90738868713 2140003.3502388 0 0 0 0 -68487.25589521043 -68202.050072381244 0 -68202.050072381244 10475.294454260478 0 0 0 0 -310161.91693305969 818916.83859147877 0 818916.83859147877 -236660.55295446515 0 0 0 0 -199940.1272983551 -214307.71231889725 0 -214307.71231889725 -191043.64046911523 0 0 0 0 -35808.82200307399 -55483.54390492267 0 -55483.54390492267 41459.911860986249 0 0 0 0 -55485.453977297992 -31695.285083109047 0 -31695.285083109047 36375.672429662038 0 0 0 0 2114465.5052847862 -453695.18627009541 0 -453695.18627009541 283260.40371322632 0 0 0 0 -210248.94473266602 -222282.48629695177 0 -222282.48629695177 -156736.76242035627 0 0 0 0 6656432.7973461151 -1969371.5302301347 0 -1969371.5302301347 381752.39171391726 0 0 0 0 2932953.2517356873 -1901895.3464621902 0 -1901895.3464621902 1098907.2116599381 0 0 0 0 61382.722963784821 -30033.683462351095 0 -30033.683462351095 -3141.78387610137 0 0 0 0 -4579.1067581176758 -59276.222652375698 0 -59276.222652375698 -102309.25170978904 0 0 0 0 -63214.260229747742 -387139.22115827881 0 -387139.22115827881 -8808.2328534327989 0 0 0 0 -388570.30542775989 -843399.78564349154 0 -843399.78564349154 -450169.23415692151 0 0 0 0 25047.777618408203 -318596.06522467732 0 -318596.06522467732 -390996.23115381598 0 0 0 0 161571.53057879861 5548.9597668638453 0 5548.9597668638453 -16609.331868999987 0 0 0 0 -45219.820709228516 -115727.72098219395 0 -115727.72098219395 -172690.7092051506 0 0 0 0 28653.270621879958 2456.1633313538041 0 2456.1633313538041 -6650.9605122275971 0 0 0 0 -30677.10651715938 -192183.40921002056 0 -192183.40921002056 9040.2933386259792 0 0 0 0 -405520.06368474662 -105579.78300964599 0 -105579.78300964599 -1170506.1686408222 0 0 0 0 270214.23931090347 -162286.15856565628 0 -162286.15856565628 -35972.603670745004 0 0 0 0 88668.331861495972 -445292.79971009493 0 -445292.79971009493 -246916.94331693649 0 0 0 0 71301.102054051589 -216436.76654484821 0 -216436.76654484821 -94978.282922307844 0 0 0 0 -462375.77658987045 -413456.36463373899 0 -413456.36463373899 -107883.33637189865 0 0 0 0 -75781.313611984253 -813865.73403350264 0 -813865.73403350264 402726.16372516751 0 0 0 0 587337.00755119324 -886172.64569339156 0 -886172.64569339156 377341.00253096968 0 0 0 0 -289441.65684890747 -1185606.4720377326 0 -1185606.4720377326 -689329.63669414818 0 0 0 0 3605555.107000351 -3202390.3321162164 0 -3202390.3321162164 -321455.46804684401 0 0 0 0 -1703405.6609535217 -2578059.9295877293 0 -2578059.9295877293 4836337.097589016 0 0 0 0 -678077.69094753265 -266738.54094279557 0 -266738.54094279557 825356.49294406176 0 0 0 0 -87914.722919356078 -54566.059727955377 0 -54566.059727955377 51652.892188143567 0 0 0 0 905938.26532745361 -2401384.2226729691 0 -2401384.2226729691 -392543.5799767971 0 0 0 0 -26205.1989977872 -10220.608683461789 0 -10220.608683461789 20221.912895062444 0 0 0 0 -124710.19709968567 -260510.64912235737 0 -260510.64912235737 -232685.0327295959 0 0 0 0 -2772881.5971908569 2116159.4624118358 0 2116159.4624118358 167104.99746388197 0 0 0 0 2097836.9658336639 -3398812.5593134165 0 -3398812.5593134165 3939439.7769046724 0 0 0 0 4182081.9470748901 10144578.263798743 0 10144578.263798743 2141679.857287176 0 0 0 0 -2173472.8274087906 -938841.69195865095 0 -938841.69195865095 14394467.561592817 0 0 0 0 -13730.082913390361 -18368.948350709165 0 -18368.948350709165 16213.153739627378 0 0 0 0 5908200.1660938263 10811238.250860333 0 10811238.250860333 -4614554.3195727617 0 0 0 0 2968281.3376274109 -4098154.9471479058 0 -4098154.9471479058 2175119.9236495793 0 0 0 0 1882180.4216346741 -267155.54829919338 0 -267155.54829919338 -21878.284573316574 0 0 0 0 839325.09123878996 -528539.52847858868 0 -528539.52847858868 -269269.59282493481 0 0 0 0 2814090.3493418694 918501.25088049471 0 918501.25088049471 -6936623.8851954974 0 0 0 0 -1672884.5479383469 -4480624.9285755008 0 -4480624.9285755008 2063900.0308936238 0 0 0 0 350754.84682810854 -9259.5377187000122 0 -9259.5377187000122 -42085.967553504241 0 0 0 0 471400.90567779541 -105492.08847743273 0 -105492.08847743273 -153958.63978898525 0 0 0 0 1191329.9448331101 13160.712418929674 0 13160.712418929674 -399911.06632940227 0 0 0 0 2733691.6831417084 302714.79211452603 0 302714.79211452603 1565510.0313333273 0 0 0 0 368373.7354321871 -592617.02034332277 0 -592617.02034332277 174133.43619299473 0 0 0 0 595260.09329823707 -141946.17294173222 0 -141946.17294173222 -105046.00731104807 0 0 0 0 1576773.3937110901 2176953.2012067735 0 2176953.2012067735 -3755760.0915867761 0 0 0 0 3846910.5346012115 -119517.12942036986 0 -119517.12942036986 -4014870.7341811955 0 0 0 0 836865.02220076928 -499795.70752672968 0 -499795.70752672968 -422916.38327563106 0 0 0 0 2836853.2861595154 469967.75169536471 0 469967.75169536471 -2248759.5203373432 0 0 0 0 95736.682888031006 -2666244.7891450524 0 -2666244.7891450524 -916480.84648299217 0 0 0 0 3911465.8825311661 1409976.2498822212 0 1409976.2498822212 -11985769.187764853 0 0 0 0 2367531.4262619019 -690948.20193400979 0 -690948.20193400979 -949176.62589482032 0 0 0 0 71677252.153122425 -86657538.630609483 0 -86657538.630609483 104186278.54009694 0 0 0 0 -289976.15781497955 -2915297.0090021044 0 -2915297.0090021044 -1684140.7357214093 0 0 0 0 418472.80837076018 -206030.83001130074 0 -206030.83001130074 107973.16142412668 0 0 0 0 710328.93154430389 -3599128.4849347621 0 -3599128.4849347621 -5815306.2233901024 0 0 0 0 4404695.1529445648 -7238602.9467896372 0 -7238602.9467896372 -4075183.0277635753 0 0 0 0 4551028.1870746613 -7684309.9196727425 0 -7684309.9196727425 -14464240.428772237 0 0 0 0 5356077.2208771706 -4779916.0765117481 0 -4779916.0765117481 -20047935.852288634 0 0 0 0 -621720.65047931671 2050724.8996694088 0 2050724.8996694088 -2722324.8594877124 0 0 0 0 2390830.8003911972 12704047.600156892 0 12704047.600156892 -14630342.030137114 0 0 0 0 -2250854.6048984528 8537965.9941838533 0 8537965.9941838533 -16285157.175751822 0 0 0 0 14005996.013662338 3445917.6802647635 0 3445917.6802647635 -33996866.724305876 0 0 0 0 690137.72165319417 -368239.2729183177 0 -368239.2729183177 -333749.09101266589 0 0 0 0 -10208.779567379504 99060.686338796586 0 99060.686338796586 -61502.071094134546 0 0 0 0 1059698.553249836 -693057.59293915331 0 -693057.59293915331 -444953.06009280682 0 0 0 0 765840.61732769012 -438420.6859228313 0 -438420.6859228313 106266.30087608099 0 0 0 0 463586.35601806641 -1528461.6113078594 0 -1528461.6113078594 -1182308.6305006146 0 0 0 0 747409.82853747159 -247728.88174650795 0 -247728.88174650795 -312926.62623187911 0 0 0 0 887547.73130989075 -374001.95192247629 0 -374001.95192247629 -1308295.4469128847 0 0 0 0 216838.38979673386 446677.98617014289 0 446677.98617014289 -1711760.5456703305 0 0 0 0 230594.89336872101 1155655.8605722487 0 1155655.8605722487 751287.8811249733 0 0 0 0 -748111.61879444122 504968.50872340798 0 504968.50872340798 555991.34217068553 0 0 0 0 129732.93157424498 -254606.86526987841 0 -254606.86526987841 -49275.391773384908 0 0 0 0 320336.18512178864 -145516.01385889092 0 -145516.01385889092 -108217.28814933531 0 0 0 0 2074782.1496009827 378539.3073489964 0 378539.3073489964 -22729.882493440062 0 0 0 0 206172.67710331827 -28279.080223495926 0 -28279.080223495926 -47979.229289100382 0 0 0 0 1646950.6584920883 -1263019.0689488947 0 -1263019.0689488947 -2184195.8823576272 0 0 0 0 1819802.6528606415 4082944.3557550311 0 4082944.3557550311 3761863.310919595 0 0 0 0 11169683.225656509 15909551.044493526 0 15909551.044493526 22027831.473900277 0 0 0 0 74223.973096762784 -3184.9625037517981 0 -3184.9625037517981 -12116.168931938568 0 0 0 0 3556170.7262948751 -6125492.048953345 0 -6125492.048953345 4229674.5918569565 0 0 0 0 4256302.4124765396 1192251.2632802427 0 1192251.2632802427 108743.8403814137 0 0 0 0 1049185.1864857674 -1118271.3907949943 0 -1118271.3907949943 2182241.3145105839 0 0 0 0 9952390.3171062469 593000.31353291869 0 593000.31353291869 544097.38959956169 0 0 0 0 22538884.592063904 -4587975.1705875993 0 -4587975.1705875993 -2131829.0614222288 0 0 0 0 10620064.958411455 -1536035.8475809805 0 -1536035.8475809805 -2731698.7600226998 0 0 0 0 834337.96147727966 -2065467.5802936256 0 -2065467.5802936256 16469.612164646387 0 0 0 0 863757.31324386597 795904.27202317119 0 795904.27202317119 2288722.2979158163 0 0 0 0 1704481.4331607819 -780354.67878028005 0 -780354.67878028005 -717105.30069106817 0 0 0 0 346171.22173500061 -1614230.5727364123 0 -1614230.5727364123 651582.43903476 0 0 0 0 -123578.45491218567 -852699.7953595221 0 -852699.7953595221 -322220.90080827475 0 0 0 0 1218209.1333274841 -274767.01963970065 0 -274767.01963970065 520949.24462117627 0 0 0 0 -222778.73797607422 70919.750003889203 0 70919.750003889203 1905188.7992144525 0 0 0 0 -253159.71472454071 -228479.60721376538 0 -228479.60721376538 -205582.24047660828 0 0 0 0 -409225.63555908203 -596469.69543680549 0 -596469.69543680549 512371.14065825939 0 0 0 0 -151786.68351173401 -1073560.9032691121 0 -1073560.9032691121 -259510.04925882816 0 0 0 0 -6022.3412482524291 -257351.76797428809 0 -257351.76797428809 -60601.142151653774 0 0 0 0 83020.888328552246 -654774.12446047366 0 -654774.12446047366 -815140.65686291456 0 0 0 0 261784.42492961884 -991108.44033160806 0 -991108.44033160806 -1643247.4912793338 0 0 0 0 -386248.68499183655 -1469167.4334098697 0 -1469167.4334098697 -28907.797562619671 0 0 0 0 -312438.27940940857 -216403.14487755299 0 -216403.14487755299 -827227.38649004698 0 0 0 0 -205509.8321647644 -1372879.9489837289 0 -1372879.9489837289 -742424.15825687349 0 0 0 0 -17932.994015216827 -443984.70935273916 0 -443984.70935273916 -843415.51489253342 0 0 0 0 131192.47782422602 -152800.52426971076 0 -152800.52426971076 3512.2193987809369 0 0 0 0 1764747.8528556824 -583951.3370462358 0 -583951.3370462358 -1538763.8742705286 0 0 0 0 418701.2201726241 -3897.0083357088733 0 -3897.0083357088733 -60724.169675375597 0 0 0 0 591288.45600795746 294367.7457703501 0 294367.7457703501 -1060180.9769231081 0 0 0 0 -1020359.6211395264 1122558.7810860574 0 1122558.7810860574 499356.84005691856 0 0 0 0 736701.085521698 -203839.56050002575 0 -203839.56050002575 -563825.8199506104 0 0 0 0 148550.03291385062 -104059.77844304149 0 -104059.77844304149 -7165.5985699392477 0 0 0 0 299607.9482714897 -95383.808649651939 0 -95383.808649651939 3852.8557616745529 0 0 0 0 60288.006115436554 -361247.43976148218 0 -361247.43976148218 -522810.83760564029 0 0 0 0 -12802.271251678467 -320374.75862267613 0 -320374.75862267613 -532637.58541560173 0 0 0 0 46193.445996817201 32526.554366627941 0 32526.554366627941 -13627.584820138582 0 0 0 0 -131180.79233169556 -256681.18351888657 0 -256681.18351888657 -2200555.0741846263 0 0 0 0 54144.814804434311 24301.375274814432 0 24301.375274814432 -10078.948487702495 0 0 0 0 132870.20002603531 -1337983.1494839191 0 -1337983.1494839191 -1678609.9566188157 0 0 0 0 998834.7957649231 600787.9304022789 0 600787.9304022789 -430365.33911448717 0 0 0 0 406446.22259521484 -588603.74492076039 0 -588603.74492076039 -2087277.4888408184 0 0 0 0 -1407046.7627048492 -753616.59855075181 0 -753616.59855075181 -750072.69827163219 0 0 0 0 479609.88163948059 752685.05873830616 0 752685.05873830616 -282295.95636358671 0 0 0 0 -1302591.5784835815 -90518.814163386822 0 -90518.814163386822 -1772788.0406675339 0 0 0 0 -176648.64470672607 -894491.33120185137 0 -894491.33120185137 -1256515.1631982923 0 0 0 0 2262939.0250434875 -864845.83735971153 0 -864845.83735971153 -892928.70000295341 0 0 0 0 350627.46682929993 -2671074.8437049836 0 -2671074.8437049836 -795365.40953280777 0 0 0 0 -644984.2821559906 -2864783.8351392075 0 -2864783.8351392075 -660837.78995901346 0 0 0 0 -1970871.4798049927 -420911.76260828972 0 -420911.76260828972 -866936.12383216619 0 0 0 0 -397046.99106407166 -481242.82293718308 0 -481242.82293718308 860158.52124015987 0 0 0 0 11172.345038133673 6945.9688353186939 0 6945.9688353186939 2455.9681406092277 0 0 0 0 9058.2342118243687 7357.9132761326618 0 7357.9132761326618 1005.6924469352743 0 0 0 0 -384404.17032623291 -820275.11322563887 0 -820275.11322563887 1088426.5359472036 0 0 0 0 1960921.9810333252 852284.67701914907 0 852284.67701914907 -570096.85695166886 0 0 0 0 1609576.060667038 -934028.31008550525 0 -934028.31008550525 -930046.91649013758 0 0 0 0 1286274.8852977753 222812.52365085483 0 222812.52365085483 -632846.00380963087 0 0 0 0 943610.15484666824 -472941.02322664857 0 -472941.02322664857 1047289.1002064347 0 0 0 0 507134.05645455513 -245190.64476797328 0 -245190.64476797328 -90281.443036361306 0 0 0 0 11049084.444765568 -2031827.5822032988 0 -2031827.5822032988 -5255078.1710294187 0 0 0 0 1827891.2379293442 -3817649.134049356 0 -3817649.134049356 7048994.5077803656 0 0 0 0 8461912.5752482414 -33603245.13102331 0 -33603245.13102331 40327134.385258347 0 0 0 0 33072713.261283875 -47347171.260148525 0 -47347171.260148525 47009947.765437603 0 0 0 0 14875216.339407444 -27907497.273159571 0 -27907497.273159571 24530052.443379521 0 0 0 0 832003.46140861511 -13753953.02733773 0 -13753953.02733773 19207019.46581395 0 0 0 0 7946907.646739006 5478797.6744611263 0 5478797.6744611263 -2409854.8396813869 0 0 0 0 262992.10438750777 -396878.94304983702 0 -396878.94304983702 -77655.253454586331 0 0 0 0 -29247.829099655151 -666910.0919675082 0 -666910.0919675082 -107582.05302295089 0 0 0 0 1115522.5595266819 -643062.22985777073 0 -643062.22985777073 -775104.80575662851 0 0 0 0 -1847221.4121170044 -936141.1829431951 0 -936141.1829431951 -801613.47868543863 0 0 0 0 33522.904835566878 22105.431615784066 0 22105.431615784066 -21226.313093650271 0 0 0 0 685045.24319458008 -120569.59614449739 0 -120569.59614449739 -386137.65185874701 0 0 0 0 579537.5428371802 -51384.193144901888 0 -51384.193144901888 -98143.24380925647 0 0 0 0 -11396084.582694054 -5123138.9916380942 0 -5123138.9916380942 69353537.681493223 0 0 0 0 -22602290.406673431 -22123855.48898074 0 -22123855.48898074 -24327068.856478393 0 0 0 0 16244.859368519858 -42559.390360649209 0 -42559.390360649209 -18267.361949498176 0 0 0 0 -2458000.3107395172 -8476876.0093769133 0 -8476876.0093769133 -9350450.6591537148 0 0 0 0 -11494179.87275219 -2674787.0882350057 0 -2674787.0882350057 9720427.4602245986 0 0 0 0 10429250.445663452 1664450.3593475819 0 1664450.3593475819 1734799.1006105244 0 0 0 0 -3383263.256814003 333651.65139934421 0 333651.65139934421 5599246.8365511298 0 0 0 0 -2103851.068277359 -2690245.4728930891 0 -2690245.4728930891 -2114777.6399336457 0 0 0 0 -3196088.0633640289 -1666114.3497820795 0 -1666114.3497820795 2036739.8642540276 0 0 0 0 -2584719.7672805786 -271554.06727769971 0 -271554.06727769971 1053696.4129486978 0 0 0 0 -2591580.4339914322 18254.9105707407 0 18254.9105707407 1620005.2391524315 0 0 0 0 1940522.2809076309 -690640.54095073044 0 -690640.54095073044 -4266292.6810873449 0 0 0 0 60.788034634664655 -87793.157162226766 0 -87793.157162226766 -26169.742889771245 0 0 0 0 12246291.201654434 -601980.48240618408 0 -601980.48240618408 -841228.15468281507 0 0 0 0 9000306.7329239845 8272543.4169750065 0 8272543.4169750065 1495601.3114968538 0 0 0 0 3877.3607398085296 -24590.154829219769 0 -24590.154829219769 -7671.3723632404181 0 0 0 0 39197135.947957039 4661315.3024718314 0 4661315.3024718314 -3888507.9610958397 0 0 0 0 38908164.002206802 -2512590.7477563024 0 -2512590.7477563024 2455730.5782883167 0 0 0 0 38138816.406119347 -14577066.239773199 0 -14577066.239773199 -85245.747929705307 0 0 0 0 84801797.322864056 -29494719.442794308 0 -29494719.442794308 1317903.1763573289 0 0 0 0 64073956.269779682 3332693.668832317 0 3332693.668832317 -6533351.7956362367 0 0 0 0 31101961.610330582 12116749.216924623 0 12116749.216924623 -37186.209818214178 0 0 0 0 7445206.8492474556 7564488.295133017 0 7564488.295133017 5316767.2492292523 0 0 0 0 56976003.122262955 475771.80539789796 0 475771.80539789796 -339390.26183640957 0 0 0 0 54053204.242294312 22112032.729980618 0 22112032.729980618 2058466.0666567981 0 0 0 0 -1232405.4560780525 22436082.179810114 0 22436082.179810114 11461789.101025164 0 0 0 0 69188086.432418823 22671795.490787983 0 22671795.490787983 4190384.3514052033 0 0 0 0 189210.10840069037 -215088.37108761165 0 -215088.37108761165 52508.41781076089 0 0 0 0 9663331.3998661041 -35086847.69356674 0 -35086847.69356674 109761187.29212296 0 0 0 0 4356221.4779720306 9212566.421379447 0 9212566.421379447 24322465.99772276 0 0 0 0 89384898.192447662 -90404283.153124541 0 -90404283.153124541 130283735.65726534 0 0 0 0 137704208.05848122 -14455424.126527801 0 -14455424.126527801 -4165427.2455696501 0 0 0 0 111649836.58648041 11967869.786319021 0 11967869.786319021 50218580.206587434 0 0 0 0 69872783.723972321 -24241425.735237271 0 -24241425.735237271 23050920.321195856 0 0 0 0 32904442.987882614 -68736778.777399123 0 -68736778.777399123 96499563.159031421 0 0 0 0 109293690.63491525 -73870428.818760693 0 -73870428.818760693 35892264.918415084 0 0 0 0 23573329.506448746 -24681284.45094718 0 -24681284.45094718 34045524.715860873 0 0 0 0 18430547.975453377 4962732.2809696924 0 4962732.2809696924 28834108.646603324 0 0 0 0 23225383.224332809 -22900730.35700345 0 -22900730.35700345 79524752.861475155 0 0 0 0 53221556.697796822 5287070.8577257991 0 5287070.8577257991 41360006.72286582 0 0 0 0 64818541.52888155 -42733494.780953333 0 -42733494.780953333 37788325.210600838 0 0 0 0 8039136.2380104065 -15752103.386420101 0 -15752103.386420101 39350342.028858081 0 0 0 0 33180784.329269886 -39321119.309402548 0 -39321119.309402548 33221742.117134765 0 0 0 0 40752890.771649361 -30695004.139115952 0 -30695004.139115952 19346814.390191942 0 0 0 0 49190320.531042099 -44799071.383180559 0 -44799071.383180559 42253909.963149965 0 0 0 0 39496989.9829216 -31753657.415048897 0 -31753657.415048897 19452803.390121862 0 0 0 0 38474177.667649269 -29695357.995252043 0 -29695357.995252043 15332742.97780472 0 0 0 0 50736372.586761475 -13060947.733940795 0 -13060947.733940795 11291830.64247179 0 0 0 0 91087724.660449147 -36641988.027105972 0 -36641988.027105972 13810051.87503162 0 0 0 0 -28213876.62666893 6591436.1825130433 0 6591436.1825130433 3695558.6250856519 0 0 0 0 18380.181819488178 -18430.900219587609 0 -18430.900219587609 7575.2782949190587 0 0 0 0 49450930.34348917 -22132311.049076669 0 -22132311.049076669 -680961.83420914412 0 0 0 0 26740663.631199837 -963145.47172801197 0 -963145.47172801197 -1418153.4755108654 0 0 0 0 17703963.615421295 3098281.3819073737 0 3098281.3819073737 -1822269.8794971369 0 0 0 0 21544727.640239716 3233677.8650683612 0 3233677.8650683612 -6747845.1120903194 0 0 0 0 15911150.532619476 -16447745.682563156 0 -16447745.682563156 907642.7287699841 0 0 0 0 37197530.831428528 -4967347.4123334587 0 -4967347.4123334587 -8063483.4903054386 0 0 0 0 21693326.787010193 221865.85951918364 0 221865.85951918364 -9778226.4484530091 0 0 0 0 18233379.292553902 -16145761.056423008 0 -16145761.056423008 9054585.9581243396 0 0 0 0 27909997.334274292 -17327992.32614103 0 -17327992.32614103 2557954.1494343877 0 0 0 0 9363074.9512934685 9205126.3499944657 0 9205126.3499944657 23795816.209002674 0 0 0 0 -24987957.217158318 5859490.9163631052 0 5859490.9163631052 7500698.8727374002 0 0 0 0 33825.373278158368 -87944.965553516988 0 -87944.965553516988 16193.711073623301 0 0 0 0 76163030.622150064 -18594847.321266774 0 -18594847.321266774 10140618.988404006 0 0 0 0 1092353.5954875946 -9562522.2912663519 0 -9562522.2912663519 -343726.76875120401 0 0 0 0 -1548258.6914424896 -2234227.7546379268 0 -2234227.7546379268 -4277538.9937801212 0 0 0 0 395754.9974296093 -9086988.2133762464 0 -9086988.2133762464 -1892130.9981160164 0 0 0 0 42036.698660486843 -177793.38068682514 0 -177793.38068682514 12240.026426690427 0 0 0 0 -18888008.519556046 -4619902.9828908332 0 -4619902.9828908332 3345927.3041325212 0 0 0 0 88809837.260095835 -1053529.5158205144 0 -1053529.5158205144 -9625845.0669683218 0 0 0 0 -3403999.9833545685 -12932677.805636644 0 -12932677.805636644 3878801.0403219163 0 0 0 0 4845646.7468481064 -7224010.4562003911 0 -7224010.4562003911 -3599996.6310924888 0 0 0 0 5283557.4166374207 -8607859.0933997333 0 -8607859.0933997333 727468.15723261237 0 0 0 0 10487292.424063206 2985122.5686165094 0 2985122.5686165094 -4070199.4744754434 0 0 0 0 37446691.688375473 6857879.8620526195 0 6857879.8620526195 -3765556.4010624886 0 0 0 0 19280596.431101322 -6794717.8478575647 0 -6794717.8478575647 -7522297.449909091 0 0 0 0 6567476.5399074554 -2924428.764927119 0 -2924428.764927119 -8115551.0854436457 0 0 0 0 8413687.4033594131 -7884579.5038710833 0 -7884579.5038710833 -5714420.9972015023 0 0 0 0 3681497.5945863724 -5384640.4031929299 0 -5384640.4031929299 -6615782.4812090397 0 0 0 0 26189.506191363558 26722.245809837594 0 26722.245809837594 -4442.0224277208981 0 0 0 0 1833950.323474884 3208028.591386199 0 3208028.591386199 -7118640.1529570222 0 0 0 0 7019581.7126245499 2587770.3931698352 0 2587770.3931698352 -8033363.1613967419 0 0 0 0 -1311860.244600296 -1411186.02334705 0 -1411186.02334705 -6085794.2123249173 0 0 0 0 3618662.2899398804 -1572837.1804667115 0 -1572837.1804667115 -6492137.4255218506 0 0 0 0 1868026.5466527939 2707066.9696402997 0 2707066.9696402997 -7673368.321708262 0 0 0 0 73443.07204081025 52380.994291413226 0 52380.994291413226 -4482.1404538501047 0 0 0 0 -1588215.9229297638 5580838.3596004546 0 5580838.3596004546 -2758282.1785175204 0 0 0 0 131145.9722478562 -10005.830301807728 0 -10005.830301807728 -85477.508121324689 0 0 0 0 270935.94146728516 -742729.12731730938 0 -742729.12731730938 -1064311.7915025353 0 0 0 0 972457.58818435669 1731872.805623889 0 1731872.805623889 6242467.2699594498 0 0 0 0 2727981.5267448425 3246100.6689365804 0 3246100.6689365804 -1892393.1155896373 0 0 0 0 1935205.4722468853 -4469805.7295471691 0 -4469805.7295471691 -199658.18746858835 0 0 0 0 4183144.5603160858 -3451386.4576582387 0 -3451386.4576582387 -1055173.8719214797 0 0 0 0 765135.37153434753 -860582.70665000379 0 -860582.70665000379 -1318971.9039882869 0 0 0 0 7109998.1078357697 2538713.912635684 0 2538713.912635684 432545.27414917946 0 0 0 0 3987476.9223299026 -5529993.2863443494 0 -5529993.2863443494 -6876799.9701744467 0 0 0 0 4816568.331407547 -3129547.8012830317 0 -3129547.8012830317 -4177353.4842740744 0 0 0 0 61157.444096461753 -256442.16562053096 0 -256442.16562053096 38449.481785037788 0 0 0 0 -6682569.1174182892 -490205.41039678454 0 -490205.41039678454 4586182.7391780317 0 0 0 0 104495637.95899916 -15849557.819526672 0 -15849557.819526672 -23574562.933863938 0 0 0 0 119814.96013260202 -271175.90947613493 0 -271175.90947613493 64697.214761095587 0 0 0 0 48990802.358241558 -32387379.422524501 0 -32387379.422524501 65331769.980865538 0 0 0 0 -1679468.7536582947 -2100272.7815775946 0 -2100272.7815775946 -776304.32120846212 0 0 0 0 599300.41365425196 -22157.374183202977 0 -22157.374183202977 -73719.745572213156 0 0 0 0 2154863.551053524 -1026059.4177541137 0 -1026059.4177541137 -2790980.8747424632 0 0 0 0 1280763.8339958191 17953.444000639953 0 17953.444000639953 -2390918.1567261564 0 0 0 0 31815.766269683838 336209.42422144767 0 336209.42422144767 -443686.10393108614 0 0 0 0 -1385280.2367086411 2122196.0283601442 0 2122196.0283601442 -2305223.5640255418 0 0 0 0 103422.56133766461 -59208.1044171229 0 -59208.1044171229 -13652.312953930217 0 0 0 0 1731846.5835888386 2342515.317278631 0 2342515.317278631 -5506002.6784177888 0 0 0 0 2397676.0499913692 -442650.58945174434 0 -442650.58945174434 -2202394.8867054265 0 0 0 0 1861747.4750270844 -1431918.9380002553 0 -1431918.9380002553 -3141042.7067489894 0 0 0 0 1820352.3660697937 -3093519.1547942096 0 -3093519.1547942096 -592.19212941850128 0 0 0 0 6214477.4391937256 -796744.23148991494 0 -796744.23148991494 -5244001.0755974595 0 0 0 0 4440639.3045091629 -3560498.2630922357 0 -3560498.2630922357 -1683426.2861206832 0 0 0 0 -2141198.3100395203 -1456128.5095377804 0 -1456128.5095377804 -2155.7886492598745 0 0 0 0 -1706397.2241873741 -1678514.0872662631 0 -1678514.0872662631 44086.36984109506 0 0 0 0 -1007824.4064407349 -374652.17072131822 0 -374652.17072131822 541722.94495030912 0 0 0 0 469738.46002292633 -1999130.1859314174 0 -1999130.1859314174 -869942.2562032016 0 0 0 0 121437.47810173035 -2322074.2793263509 0 -2322074.2793263509 -375974.31476747047 0 0 0 0 1856209.2844410539 -2156029.4097124785 0 -2156029.4097124785 -960124.60410640761 0 0 0 0 615890.20237159729 -1276049.9953587372 0 -1276049.9953587372 -1562223.2958824569 0 0 0 0 502569.71251583099 -1034317.1168713178 0 -1034317.1168713178 -377146.40637174994 0 0 0 0 -75108.081365585327 -1165531.5509342821 0 -1165531.5509342821 88508.544031780097 0 0 0 0 -491356.46642398834 -443611.58945407625 0 -443611.58945407625 112611.92947643809 0 0 0 0 228976.47479009628 -350372.93737757858 0 -350372.93737757858 -61070.315337486565 0 0 0 0 523319.95607471466 -111690.93687576964 0 -111690.93687576964 -137897.8821836086 0 0 0 0 380916.31779766083 -552659.59336028458 0 -552659.59336028458 -636479.32456193864 0 0 0 0 638139.79923057556 -278632.9632516969 0 -278632.9632516969 -353860.59992988035 0 0 0 0 1003798.6765446663 -517104.60845711594 0 -517104.60845711594 -944710.61234359816 0 0 0 0 512938.76525893807 17136.012260257965 0 17136.012260257965 -28497.480209989506 0 0 0 0 -573977.1316614151 1675853.4893865287 0 1675853.4893865287 -2005592.2626382411 0 0 0 0 429583.95680999756 -251450.42410988919 0 -251450.42410988919 -325763.09955718461 0 0 0 0 291515.04982093675 -72293.972014422994 0 -72293.972014422994 -8735.2104412024637 0 0 0 0 159187.29762363434 7877.2039729729295 0 7877.2039729729295 -100162.86029422097 0 0 0 0 277736.74202149268 -24459.446935142623 0 -24459.446935142623 -24606.00720379861 0 0 0 0 644480.9424495697 -12253.005172461271 0 -12253.005172461271 -636647.96563625336 0 0 0 0 168860.05194187164 -14048.17203566432 0 -14048.17203566432 -69235.125971138477 0 0 0 0 143061.62919712067 -6508.3926003240049 0 -6508.3926003240049 147.67018502950668 0 0 0 0 169983.51611971855 -43258.463576139882 0 -43258.463576139882 15991.485942900181 0 0 0 0 159875.31727552414 -8225.811722362414 0 -8225.811722362414 -12332.79516030848 0 0 0 0 213529.69101905823 -319975.90969343251 0 -319975.90969343251 120431.10329885921 0 0 0 0 271046.74146461487 -172917.0237407469 0 -172917.0237407469 38520.357785006054 0 0 0 0 187840.53277587891 -332509.91925464198 0 -332509.91925464198 -25311.571676342748 0 0 0 0 145508.6273021698 -106445.26331380056 0 -106445.26331380056 223195.50470340159 0 0 0 0 187735.09063810436 -54123.027613055427 0 -54123.027613055427 49863.326916415783 0 0 0 0 172088.45882892609 -34631.589534994215 0 -34631.589534994215 29794.525604590774 0 0 0 0 171163.95185852051 -40124.496474087238 0 -40124.496474087238 583.3054532520473 0 0 0 0 157268.09657542128 -70871.552581515396 0 -70871.552581515396 66128.605746627974 0 0 0 0 48878.18375613261 -55137.702018320328 0 -55137.702018320328 6895.9299925672376 0 0 0 0 188683.64339898434 -38141.769502053037 0 -38141.769502053037 -19235.118874039996 0 0 0 0 165312.24390530586 -19348.216384297051 0 -19348.216384297051 15.94792200978236 0 0 0 0 188447.88285827637 -23843.468068277049 0 -23843.468068277049 -494.14662684749351 0 0 0 0 195622.91287136078 -59643.964736447844 0 -59643.964736447844 24734.596357044702 0 0 0 0 11867.040338894352 -15152.135301062604 0 -15152.135301062604 4962.290738273271 0 0 0 0 17793.520055770874 -386607.65143102239 0 -386607.65143102239 -692387.81863195042 0 0 0 0 637964.21953105927 -237813.36653794095 0 -237813.36653794095 -62.501440152065925 0 0 0 0 563787.95639514923 -201613.22408030953 0 -201613.22408030953 9118.2085094564245 0 0 0 0 189641.13004493713 -63625.546498261392 0 -63625.546498261392 -34317.257089972496 0 0 0 0 710548.76635074615 -195411.72665616969 0 -195411.72665616969 -40657.215756687627 0 0 0 0 975360.12905883789 -108507.52817034592 0 -108507.52817034592 -122083.77689486023 0 0 0 0 254553.46545738788 -31462.907027428504 0 -31462.907027428504 -45928.893818938835 0 0 0 0 382655.64024871413 -72083.341832265258 0 -72083.341832265258 2319.9177536709385 0 0 0 0 600286.51440048218 -150268.17233206076 0 -150268.17233206076 -11644.049274289864 0 0 0 0 378070.07525081281 -51246.120142185129 0 -51246.120142185129 53893.404574952423 0 0 0 0 545100.72839641571 -257413.47955021131 0 -257413.47955021131 100494.32839674965 0 0 0 0 571535.91746306419 -222905.57783665217 0 -222905.57783665217 -3330.8973910549539 0 0 0 0 368472.82858455461 -111724.07401789865 0 -111724.07401789865 70142.33691277825 0 0 0 0 218791.83797287941 -7079.7628203788772 0 -7079.7628203788772 -11892.590137809515 0 0 0 0 208328.17247867584 -34665.604368031025 0 -34665.604368031025 -2326.8067636936903 0 0 0 0 136634.37064783974 -105331.98205682309 0 -105331.98205682309 2446.3569637009423 0 0 0 0 733938.95434093475 64795.067809827626 0 64795.067809827626 -58214.599869862199 0 0 0 0 181971.31761240959 126137.9354600329 0 126137.9354600329 164585.05437001586 0 0 0 0 167523.91226577759 8390.0461059883237 0 8390.0461059883237 -9509.4320462867618 0 0 0 0 1454722.5669193268 -113000.49032190442 0 -113000.49032190442 -552698.25580245256 0 0 0 0 80592.346829367467 -96085.988912096247 0 -96085.988912096247 52097.932742022938 0 0 0 0 944778.9343547821 -298303.03225922585 0 -298303.03225922585 136925.67546238936 0 0 0 0 1244413.4513454437 8667.4658024311066 0 8667.4658024311066 -575728.23241610825 0 0 0 0 1517385.4409484863 -578957.52848154306 0 -578957.52848154306 676303.5044772625 0 0 0 0 -211464.23557090759 -167264.64679401182 0 -167264.64679401182 80622.704793617129 0 0 0 0 324929.11738190241 -152846.04172163084 0 -152846.04172163084 84914.116000786569 0 0 0 0 118332.6735458374 470966.80412873626 0 470966.80412873626 -385050.30301046371 0 0 0 0 3464674.3644542694 -528355.1869648397 0 -528355.1869648397 16097061.932906508 0 0 0 0 -7949059.2509475946 3542607.2695499845 0 3542607.2695499845 14702084.046771705 0 0 0 0 -7374053.9873694181 -689317.11348529905 0 -689317.11348529905 153936.81781077385 0 0 0 0 -7995903.6127948761 -2394403.6450419575 0 -2394403.6450419575 17873185.154159367 0 0 0 0 -1545911.6967353821 5586761.5108265579 0 5586761.5108265579 11240258.694253266 0 0 0 0 -12621695.730512619 -287155.07803875208 0 -287155.07803875208 8126284.2402309477 0 0 0 0 -25436354.891830683 39680422.876487553 0 39680422.876487553 28861934.307600617 0 0 0 0 -7108164.0616998672 2834180.1205541641 0 2834180.1205541641 -44595592.433303654 0 0 0 0 -39971286.212877274 -2998278.7677432597 0 -2998278.7677432597 20624254.472653747 0 0 0 0 12157645.02913475 6241140.46482113 0 6241140.46482113 19102718.138634361 0 0 0 0 24233.57080527721 20414.970711838221 0 20414.970711838221 -827.08116334292572 0 0 0 0 7446321.5734616518 46401347.139570497 0 46401347.139570497 24608174.320498466 0 0 0 0 -14367100.42945528 2086857.6262663454 0 2086857.6262663454 45416487.89981091 0 0 0 0 -1864.6550709595904 -17833.360243220755 0 -17833.360243220755 17491.734010909884 0 0 0 0 -344744.54402923584 -1419332.3970193267 0 -1419332.3970193267 1565004.7992559671 0 0 0 0 189590.01123380894 -67984.401502103079 0 -67984.401502103079 83663.496051642142 0 0 0 0 10362.187607421627 -13907.706560838036 0 -13907.706560838036 1407.7452161005058 0 0 0 0 -686214.15329742432 2020734.0129552484 0 2020734.0129552484 6945776.0329890251 0 0 0 0 2391328.3987746239 1068536.6962367371 0 1068536.6962367371 826381.49204349518 0 0 0 0 3763.4454555157572 -9745.8629680655431 0 -9745.8629680655431 867.22984714370614 0 0 0 0 118110.55829323921 40334.597724112595 0 40334.597724112595 11315.141124938455 0 0 0 0 194626.21252605878 32551.792935610865 0 32551.792935610865 -27101.723109840121 0 0 0 0 254006.7269821167 67298.476261436939 0 67298.476261436939 -256937.4561907053 0 0 0 0 1035810.5180459023 2018073.6327909008 0 2018073.6327909008 -739215.67832809687 0 0 0 0 301707.90811538696 586759.17192149162 0 586759.17192149162 152739.56990228593 0 0 0 0 921866.02210044861 -434313.69697424769 0 -434313.69697424769 -302543.73771950603 0 0 0 0 -1207365.7600421906 1695551.899861753 0 1695551.899861753 2923442.4146845341 0 0 0 0 4039476.2207527161 5624228.2886074781 0 5624228.2886074781 -5939119.9124418497 0 0 0 0 -3051190.8959369659 4392298.5580275953 0 4392298.5580275953 -6107886.3753966689 0 0 0 0 293139.34365272522 -108253.16497051716 0 -108253.16497051716 272492.33127139509 0 0 0 0 -1799279.9825034142 -1119232.7071420588 0 -1119232.7071420588 65677.055949985981 0 0 0 0 -6194671.1784477234 2475895.6317501068 0 2475895.6317501068 -847047.73065311462 0 0 0 0 7215.1149186571129 15312.628343105782 0 15312.628343105782 -15281.414550036425 0 0 0 0 19659782.556268692 -5693170.4567520618 0 -5693170.4567520618 -28396487.35319379 0 0 0 0 26265116.334987164 16521320.06372346 0 16521320.06372346 -7071635.0362091064 0 0 0 0 -4203268.0144691467 10086321.365568638 0 10086321.365568638 -8348492.7276026607 0 0 0 0 13148547.531872749 5509882.6458272934 0 5509882.6458272934 -9822493.9135685861 0 0 0 0 2577598.4560928345 2950659.194238916 0 2950659.194238916 2918474.8749443293 0 0 0 0 2842177.3621845245 8965147.3107452393 0 8965147.3107452393 3873464.4556097984 0 0 0 0 3466755.5785999298 9589802.9906414747 0 9589802.9906414747 -8181531.6362989247 0 0 0 0 3089819.5805609226 3394025.2979645282 0 3394025.2979645282 1259362.730887711 0 0 0 0 2270355.8020372391 348536.83863911033 0 348536.83863911033 -350000.48732858896 0 0 0 0 271071.79808451375 -130827.30078635504 0 -130827.30078635504 -318500.0754585829 0 0 0 0 -1037072.9208908081 14750829.164115451 0 14750829.164115451 -13303407.316849768 0 0 0 0 -11461332.188481808 13509721.078820769 0 13509721.078820769 -11925135.918139398 0 0 0 0 4294699.5464482307 15033548.458032446 0 15033548.458032446 -23038254.873824298 0 0 0 0 -25791582.210443497 11693384.907345414 0 11693384.907345414 -5772914.5763173848 0 0 0 0 3651551.658703804 -2331576.5162682086 0 -2331576.5162682086 -2144572.0348725319 0 0 0 0 82093.448060301831 -31281.045126652345 0 -31281.045126652345 -109586.49496250323 0 0 0 0 -39325702.845284462 36878785.063103966 0 36878785.063103966 -15860668.549095154 0 0 0 0 63619460.2584095 10124550.419571906 0 10124550.419571906 -4581100.9266189486 0 0 0 0 2664506.3621526957 3621931.6801383793 0 3621931.6801383793 3180194.8398298025 0 0 0 0 18818149.278953552 17649853.565521754 0 17649853.565521754 -12996540.633662459 0 0 0 0 -1540582.7110196948 9633210.6204477735 0 9633210.6204477735 -13325008.762414612 0 0 0 0 17148683.914763451 -2251174.7841088325 0 -2251174.7841088325 -5961625.548300337 0 0 0 0 41906394.090597153 -3676220.3941547349 0 -3676220.3941547349 -20372430.884633839 0 0 0 0 1678350.9540581703 -39635817.952260196 0 -39635817.952260196 -2210139.5414750874 0 0 0 0 313726867.31986022 -95001478.056506753 0 -95001478.056506753 -16693941.916582875 0 0 0 0 -35165917.459589005 -17317226.635071676 0 -17317226.635071676 1779477.7271276116 0 0 0 0 158227.26474174671 -12254.251292251982 0 -12254.251292251982 42616.896861701178 0 0 0 0 173432790.80823469 -60693481.328180954 0 -60693481.328180954 -20784963.931080759 0 0 0 0 240635291.40873528 -106561516.44182557 0 -106561516.44182557 7177511.5598933361 0 0 0 0 170548248.76545238 -19640279.848610073 0 -19640279.848610073 -15830505.223472297 0 0 0 0 82608716.908891678 -54605471.392305166 0 -54605471.392305166 -494898.78080919757 0 0 0 0 176607460.8355875 -33423923.277869821 0 -33423923.277869821 -15803288.822624447 0 0 0 0 184885248.05230808 -19359034.220362246 0 -19359034.220362246 -16261835.993160367 0 0 0 0 244581778.46637058 -46509450.722858988 0 -46509450.722858988 -30239266.917871058 0 0 0 0 199147642.75199318 -30044557.289531231 0 -30044557.289531231 38679606.208551705 0 0 0 0 267337628.43343377 -9401354.9932343811 0 -9401354.9932343811 -18521508.0850963 0 0 0 0 257431077.51329422 -44050093.837719731 0 -44050093.837719731 1951171.4963254929 0 0 0 0 87956136.378454208 7002271.5994511247 0 7002271.5994511247 19999810.5409832 0 0 0 0 187892073.21047211 4827049.1466144919 0 4827049.1466144919 -8753258.6696321368 0 0 0 0 26327164.126260757 13222857.694087327 0 13222857.694087327 27180333.195336819 0 0 0 0 86108233.320132017 -1239346.886152871 0 -1239346.886152871 6812343.4943736792 0 0 0 0 26441887.644911766 -364934.24492961168 0 -364934.24492961168 21898947.182860047 0 0 0 0 28112959.377285004 7783134.6506965458 0 7783134.6506965458 -1026949.0627357364 0 0 0 0 -736131.72895431519 1781935.5609814227 0 1781935.5609814227 24468132.488297701 0 0 0 0 8578647.6825408936 -8014311.7398322523 0 -8014311.7398322523 20708856.401438698 0 0 0 0 4813947.3287782669 -12412474.330975056 0 -12412474.330975056 -1216219.7536381483 0 0 0 0 7571925.8989162445 7226742.5436083376 0 7226742.5436083376 -5938002.5067688823 0 0 0 0 35489795.507343292 -22006505.758269906 0 -22006505.758269906 23296044.227754373 0 0 0 0 120324905.62090969 38004536.118982196 0 38004536.118982196 -31135426.204373062 0 0 0 0 50409032.082206368 -17418224.585502461 0 -17418224.585502461 37933347.60112524 0 0 0 0 48256095.171525002 1937149.6088308692 0 1937149.6088308692 408518.43730185926 0 0 0 0 523664.94493645988 -262537.35342469998 0 -262537.35342469998 138446.94547143939 0 0 0 0 49533.45437350776 -133896.57573330472 0 -133896.57573330472 -8926.3358228501456 0 0 0 0 547568.46420824528 -235542.95114233877 0 -235542.95114233877 -4997.9753893507877 0 0 0 0 379772.44813847542 -250259.46065344987 0 -250259.46065344987 -490.07018907030738 0 0 0 0 405328.5021648407 -178097.4550595897 0 -178097.4550595897 12140.926706094664 0 0 0 0 535521.03858137131 -243926.79323064463 0 -243926.79323064463 118.39877453858085 0 0 0 0 300036888.8263855 -75199655.476565033 0 -75199655.476565033 -24852028.826028407 0 0 0 0 241260466.98051548 -79575303.597282946 0 -79575303.597282946 147773.71480826533 0 0 0 0 342765462.81901312 -36203264.295038126 0 -36203264.295038126 -29689030.973966897 0 0 0 0 343577799.49486637 56718523.609508932 0 56718523.609508932 -13266918.704808682 0 0 0 0 444363.33540155459 -75511.609731226694 0 -75511.609731226694 -67533.153903227576 0 0 0 0 201719515.54338455 55407470.155823559 0 55407470.155823559 -10740154.645125866 0 0 0 0 293152931.52237511 -42271412.220505059 0 -42271412.220505059 -22414566.798484087 0 0 0 0 245418343.58804512 1181891.8170851693 0 1181891.8170851693 -3122554.1730527878 0 0 0 0 295502067.40996832 -7286077.4759984808 0 -7286077.4759984808 -4612325.769659996 0 0 0 0 302443362.17211628 -65239211.651848465 0 -65239211.651848465 -13345637.657949805 0 0 0 0 376897845.26909828 -19864997.783397645 0 -19864997.783397645 -40084430.527102977 0 0 0 0 225145772.94293976 -41971152.678434819 0 -41971152.678434819 3221495.6867728531 0 0 0 0 181998122.03581715 -44306982.589861155 0 -44306982.589861155 34447830.702251434 0 0 0 0 231896269.27244949 -10384067.085660458 0 -10384067.085660458 -8238273.6090826727 0 0 0 0 328523055.88493729 -86108521.375665188 0 -86108521.375665188 43673024.924989939 0 0 0 0 275495821.41305542 -10796640.670448482 0 -10796640.670448482 21141530.933448672 0 0 0 0 695444634.23072815 -28482246.361249685 0 -28482246.361249685 16015880.797955036 0 0 0 0 295691899.0862112 -60159074.97877413 0 -60159074.97877413 133966025.40163755 0 0 0 0 182129646.44591808 -105485180.26043659 0 -105485180.26043659 61841530.995652676 0 0 0 0 41560697.364578247 -263790232.88630486 0 -263790232.88630486 112264974.79631656 0 0 0 0 180044488.25616837 -89272707.585262656 0 -89272707.585262656 -35528588.415386677 0 0 0 0 179995.82742275298 -31975.560837047175 0 -31975.560837047175 -31943.353735324345 0 0 0 0 -102000301.59503746 145485758.77136219 0 145485758.77136219 -154712039.60364723 0 0 0 0 6869154.9580307007 -263096786.27125216 0 -263096786.27125216 112278055.96785632 0 0 0 0 324548849.76212388 505439.71523830481 0 505439.71523830481 21569660.830052972 0 0 0 0 -5308560.977897644 29018002.288547158 0 29018002.288547158 -76132918.300199956 0 0 0 0 627587.26424576528 -550558.60128447297 0 -550558.60128447297 231206.62978606942 0 0 0 0 -53392496.476212502 79009084.752634108 0 79009084.752634108 -59485596.008693054 0 0 0 0 45769473.399101257 -26004448.51367116 0 -26004448.51367116 -21034349.800057173 0 0 0 0 1673551.6386766434 -657774.3608289687 0 -657774.3608289687 -771372.74596799258 0 0 0 0 289177.47200467729 67978.120107369497 0 67978.120107369497 -299855.06131473329 0 0 0 0 125286.06177001842 -90947.261770392302 0 -90947.261770392302 -16650.098385552643 0 0 0 0 312309238.36036396 -31137878.893156677 0 -31137878.893156677 -36322708.81578061 0 0 0 0 215638181.11954403 2039821.7785530866 0 2039821.7785530866 20658026.59558028 0 0 0 0 219863697.67392159 1126347.8416477144 0 1126347.8416477144 17786306.392761737 0 0 0 0 3912919.6322078705 -355016.23277034046 0 -355016.23277034046 -706764.40413845959 0 0 0 0 510470.59451961517 -575514.57019026135 0 -575514.57019026135 320620.70459107915 0 0 0 0 1247782.9953017235 -1700471.6458945021 0 -1700471.6458945021 3354.1601712226175 0 0 0 0 246780.243561476 -166147.105358114 0 -166147.105358114 -34740.0096316981 0 0 0 0 320220069.90805435 -86815208.49536325 0 -86815208.49536325 -434989.53177022818 0 0 0 0 269267.76254708879 15502.166187555064 0 15502.166187555064 -107941.35736942006 0 0 0 0 160851751.50567532 -49047538.038424045 0 -49047538.038424045 23697086.745906577 0 0 0 0 75960892.289773941 -70821417.074997649 0 -70821417.074997649 91653603.859964103 0 0 0 0 314000874.60176086 -88973200.387825415 0 -88973200.387825415 5406740.8386325669 0 0 0 0 599288.49523133878 -86812.943425619509 0 -86812.943425619509 -46176.434243659525 0 0 0 0 196909111.12955952 1900368.703675207 0 1900368.703675207 -125978.77284657146 0 0 0 0 -1240743.9057064056 -1106490.2668660027 0 -1106490.2668660027 746683.26769795921 0 0 0 0 1147946.5352271795 -811786.83598503459 0 -811786.83598503459 -118048.97492031567 0 0 0 0 605.70546722412109 -1663335.805918355 0 -1663335.805918355 -2706.4652027789762 0 0 0 0 567510.50657457113 -1100918.5630298583 0 -1100918.5630298583 -781419.48795351293 0 0 0 0 -565490.98149871826 -440625.27017534943 0 -440625.27017534943 398543.02529773116 0 0 0 0 314609652.52113914 113155783.68279167 0 113155783.68279167 35642594.466385603 0 0 0 0 130275254.14686966 -120953272.95702694 0 -120953272.95702694 60548735.206004202 0 0 0 0 371440.72026748955 -13350.789619490504 0 -13350.789619490504 -175775.29196608602 0 0 0 0 210683301.09254169 59671334.386852704 0 59671334.386852704 11521103.734182693 0 0 0 0 906112.67950429302 -549656.95895437826 0 -549656.95895437826 96463.917800088529 0 0 0 0 499089.34050615539 134218.80745423213 0 134218.80745423213 -502332.62219158083 0 0 0 0 4609008.9928417206 -2050973.4868935943 0 -2050973.4868935943 -406407.12205225229 0 0 0 0 -56652037.572108269 36025469.296755672 0 36025469.296755672 -8315831.9420694113 0 0 0 0 -10547019.722843528 -15852510.778218985 0 -15852510.778218985 -12970022.870856762 0 0 0 0 314961478.03433037 25592323.035123821 0 25592323.035123821 -23009063.975420333 0 0 0 0 228305685.11692047 -18214084.122508317 0 -18214084.122508317 -32323511.023864001 0 0 0 0 264628361.18231392 -3237274.3762782291 0 -3237274.3762782291 -43765755.000822768 0 0 0 0 242271007.63189125 -1602493.4343550056 0 -1602493.4343550056 -33123419.794362888 0 0 0 0 315061534.88641214 -45925546.434356727 0 -45925546.434356727 -74360568.742398649 0 0 0 0 206142516.5394001 -27500676.082186267 0 -27500676.082186267 -21791090.573399466 0 0 0 0 251213058.19519091 -33995657.493140206 0 -33995657.493140206 -53543339.777428925 0 0 0 0 69761499.833164215 109260986.50806206 0 109260986.50806206 -144639168.92982644 0 0 0 0 82037459.367547035 5735656.4584281743 0 5735656.4584281743 -66581582.010022394 0 0 0 0 452162.21609584242 156176.2559843706 0 156176.2559843706 -196501.51090574844 0 0 0 0 -5601264.613576889 19798713.742777228 0 19798713.742777228 -130401012.74310756 0 0 0 0 57158481.696582794 -60625611.429408506 0 -60625611.429408506 -63534380.252515599 0 0 0 0 151139.63420018242 117607.90896166349 0 117607.90896166349 -182489.08879829344 0 0 0 0 -57264668.349072695 48799662.441742659 0 48799662.441742659 -33162412.635082245 0 0 0 0 239831.15853225347 68671.602739272639 0 68671.602739272639 -132446.23367442854 0 0 0 0 184788735.73367119 -99597264.344421804 0 -99597264.344421804 39100628.818472385 0 0 0 0 146257907.2106514 -103700068.61033705 0 -103700068.61033705 39537184.766201869 0 0 0 0 433455948.37253094 -196809407.11683998 0 -196809407.11683998 23122526.02137804 0 0 0 0 388826870.57623672 7454235.3008303046 0 7454235.3008303046 21475606.212677717 0 0 0 0 230376234.90497971 -93513403.124970317 0 -93513403.124970317 8019196.8327065734 0 0 0 0 225843979.53082275 -96963847.132541314 0 -96963847.132541314 8010319.1276283795 0 0 0 0 283519441.37889385 -46902251.725354478 0 -46902251.725354478 -37827306.949479699 0 0 0 0 226836721.11931992 -53990096.277480237 0 -53990096.277480237 -44740193.207305729 0 0 0 0 236837869.59951401 -63533590.400828801 0 -63533590.400828801 -43750026.712499559 0 0 0 0 67630732.741127491 -34510824.197170466 0 -34510824.197170466 7059012.7163515091 0 0 0 0 205934687.56558132 -58916588.950185105 0 -58916588.950185105 -29558907.731952667 0 0 0 0 188974234.63272476 -77670507.900498196 0 -77670507.900498196 -28033100.53338195 0 0 0 0 175894820.15980148 -33078661.047174677 0 -33078661.047174677 -66175349.610576689 0 0 0 0 129552300.27451801 -54421579.215655565 0 -54421579.215655565 -34550049.715812698 0 0 0 0 201682019.22944093 -37389351.956078656 0 -37389351.956078656 -38975536.403160878 0 0 0 0 214937149.12454033 -81338660.738481104 0 -81338660.738481104 -38265524.750353992 0 0 0 0 261143957.36431837 -61676642.243151918 0 -61676642.243151918 -34712440.731120825 0 0 0 0 207032405.95277405 -50913083.316330925 0 -50913083.316330925 4187379.9205378932 0 0 0 0 202100076.70432091 -66589587.79321143 0 -66589587.79321143 -21641757.241892058 0 0 0 0 145137055.21826839 9999652.1260863952 0 9999652.1260863952 17649902.298906751 0 0 0 0 126968408.27061081 -12275238.419715229 0 -12275238.419715229 -9585692.4457285628 0 0 0 0 314304526.63970184 79926271.707920387 0 79926271.707920387 -23078936.777715091 0 0 0 0 139822676.13795948 142355919.33314401 0 142355919.33314401 -33710095.663966969 0 0 0 0 347187.14860325353 89008.693615566706 0 89008.693615566706 -172006.51357515159 0 0 0 0 -39383878.454465866 148016513.99303332 0 148016513.99303332 -14424702.172922097 0 0 0 0 314584592.52676582 -90960883.275647908 0 -90960883.275647908 5585891.2187683787 0 0 0 0 -40894435.25254631 -29471661.812669273 0 -29471661.812669273 -11087635.939881571 0 0 0 0 138144413.42718315 -34361994.096068799 0 -34361994.096068799 -76607846.817013443 0 0 0 0 50271481.768519402 21686264.270672537 0 21686264.270672537 -16218724.573172368 0 0 0 0 234559.35895757843 -48824.382940805517 0 -48824.382940805517 41229.455436922028 0 0 0 0 1062236.6523048878 -5207.7600326836109 0 -5207.7600326836109 2387192.4453904033 0 0 0 0 1391849.0971870422 121166.07839027047 0 121166.07839027047 431654.56031537056 0 0 0 0 133481.37216663361 -827888.25451548398 0 -827888.25451548398 109669.41602361947 0 0 0 0 -78457.15569844842 494471.80309350695 0 494471.80309350695 1425964.0462197363 0 0 0 0 1246288.2536945343 285637.70682516694 0 285637.70682516694 -1239408.3110159039 0 0 0 0 -2801615.181055069 -630353.067745924 0 -630353.067745924 1542471.7929985225 0 0 0 0 -612858.22385597229 -1764686.8377764151 0 -1764686.8377764151 -1048379.6887607872 0 0 0 0 1193911.0798454285 220678.72851592302 0 220678.72851592302 442819.72942298651 0 0 0 0 708953.86659622192 590017.4090217948 0 590017.4090217948 200351.77305173874 0 0 0 0 846109.73923873901 190043.4084149003 0 190043.4084149003 705758.71717357635 0 0 0 0 70964.04296941217 95086.639167571906 0 95086.639167571906 -17269.33782627646 0 0 0 0 2873757.2696194649 2655652.1966179125 0 2655652.1966179125 588494.6567594409 0 0 0 0 2416091.7959034443 914152.4776010979 0 914152.4776010979 -1421841.1990554333 0 0 0 0 -8653004.1610031128 2919809.4904622138 0 2919809.4904622138 2940883.9899731427 0 0 0 0 13637.492468818557 30211.923581413925 0 30211.923581413925 -6820.8623811065336 0 0 0 0 241575.56890773773 34293.149782955647 0 34293.149782955647 496203.40127936006 0 0 0 0 1168920.3197593689 -355443.02471764386 0 -355443.02471764386 769902.37335205078 0 0 0 0 780363.94485855103 -40709.67068451643 0 -40709.67068451643 716680.16696858406 0 0 0 0 885190.53963088989 -98120.35565328598 0 -98120.35565328598 747085.49778491259 0 0 0 0 643039.13074493408 86975.420514047146 0 86975.420514047146 839016.76790946722 0 0 0 0 241678.89366149902 202042.36544176936 0 202042.36544176936 870741.04762650281 0 0 0 0 405613.73989677429 -183421.09124264121 0 -183421.09124264121 986754.72727131844 0 0 0 0 640080.91371154785 -287731.95331692696 0 -287731.95331692696 906705.06961452961 0 0 0 0 679228.46046733856 1077877.1404437721 0 1077877.1404437721 -1779885.657540381 0 0 0 0 643091.97702598572 818370.72063018382 0 818370.72063018382 4562.9390064179897 0 0 0 0 1190764.0294179916 736797.50787031651 0 736797.50787031651 -1442204.9754576683 0 0 0 0 39487.151562220883 -26746.925403845962 0 -26746.925403845962 -21451.988495708036 0 0 0 0 155472.37840642408 -69297.444386341143 0 -69297.444386341143 50965.979283658831 0 0 0 0 221786.05285544693 1640101.1087415861 0 1640101.1087415861 -2078285.4423557818 0 0 0 0 -3669618.279876709 4974692.3592151552 0 4974692.3592151552 -2672957.953191936 0 0 0 0 -1344885.22534132 1122641.0600323975 0 1122641.0600323975 1079649.4139946699 0 0 0 0 -4912866.8424263 -372578.71027617157 0 -372578.71027617157 5854013.6642215252 0 0 0 0 -4129569.7974872589 1194274.4201745391 0 1194274.4201745391 1112016.1985268593 0 0 0 0 204620.22608417924 -132990.37018061429 0 -132990.37018061429 18759.346374908913 0 0 0 0 -502768.38676834106 -270452.22551158071 0 -270452.22551158071 150144.59767605364 0 0 0 0 -113741.76336693764 125140.34839964658 0 125140.34839964658 339131.61475154757 0 0 0 0 46502.285161018372 -204144.57848925889 0 -204144.57848925889 -251884.26531006396 0 0 0 0 58871.153214889579 -60504.746905631851 0 -60504.746905631851 45079.696031893844 0 0 0 0 -432886.52359104156 -228875.98770334199 0 -228875.98770334199 396552.5758471787 0 0 0 0 -560528.39195537567 -505800.63278509676 0 -505800.63278509676 197657.79707211256 0 0 0 0 -53429.273089408875 -445726.63552863896 0 -445726.63552863896 -108596.79570882767 0 0 0 0 -22586.169829368591 -487180.56093898404 0 -487180.56093898404 -352489.29880972399 0 0 0 0 -50457.103486061096 28935.191103299818 0 28935.191103299818 282281.80004906969 0 0 0 0 -839736.44595241547 -159763.62340914202 0 -159763.62340914202 425940.58806988271 0 0 0 0 22752290.274892807 11304109.034589961 0 11304109.034589961 -8892079.3046489209 0 0 0 0 57653454.044815063 -21405663.137627468 0 -21405663.137627468 -7406823.0029280186 0 0 0 0 4721998.5843276978 13469308.670767218 0 13469308.670767218 4062594.5265795588 0 0 0 0 -17570678.211524963 616165.59793657064 0 616165.59793657064 16806779.306773186 0 0 0 0 24183.888352533337 29368.426055015065 0 29368.426055015065 60525.208202326743 0 0 0 0 41462094.425055504 184888.49886045605 0 184888.49886045605 -2514383.9058359861 0 0 0 0 48403605.736034393 -12281187.952640571 0 -12281187.952640571 2288346.6890462637 0 0 0 0 67455353.957448959 5529453.5000846609 0 5529453.5000846609 -18587506.374034815 0 0 0 0 15711177.240357399 16628224.559154518 0 16628224.559154518 4912918.2382812481 0 0 0 0 30882181.947095871 9805738.30275709 0 9805738.30275709 -7913293.7062257174 0 0 0 0 48525.099739074707 -571840.35732991993 0 -571840.35732991993 546309.21747764945 0 0 0 0 -557651.85947823524 -165191.11832048523 0 -165191.11832048523 518053.81807434186 0 0 0 0 -6516.1255667391233 -1939.536414496135 0 -1939.536414496135 486.14409826626252 0 0 0 0 98120.688880245201 -76543.536043673754 0 -76543.536043673754 61047.571617914808 0 0 0 0 878215.27434062958 -169280.72628226783 0 -169280.72628226783 -576856.51665578038 0 0 0 0 40696.453756107832 -28105.347513139714 0 -28105.347513139714 17303.536990899913 0 0 0 0 3984954.225481987 1154945.7401106772 0 1154945.7401106772 13172644.069504211 0 0 0 0 14511355.471750259 -13871870.845312979 0 -13871870.845312979 32030232.632217705 0 0 0 0 -532420.40725803375 36042.07123094704 0 36042.07123094704 -609665.69225417078 0 0 0 0 -3521177.0862152576 -3201666.2842793278 0 -3201666.2842793278 -3478763.4737461507 0 0 0 0 82668.068484912626 -15262.716671441682 0 -15262.716671441682 -8163.6794612976955 0 0 0 0 5315785.2314834595 8954997.8158912808 0 8954997.8158912808 4631513.0508807003 0 0 0 0 -2677457.1310415268 -6059666.0425842702 0 -6059666.0425842702 -4890609.5910622478 0 0 0 0 10588495.778841019 7312072.9213131852 0 7312072.9213131852 5139077.1902344581 0 0 0 0 11387629.510306358 7979797.2192153856 0 7979797.2192153856 -129933.01185028907 0 0 0 0 8793642.4084444046 3645796.0525141843 0 3645796.0525141843 -1218160.2064833939 0 0 0 0 209230.32392470026 -25710.103572086431 0 -25710.103572086431 32206.453836693981 0 0 0 0 12789663.477968693 5711294.7350051384 0 5711294.7350051384 -2562685.9066023678 0 0 0 0 14376923.392066002 8506858.2295396551 0 8506858.2295396551 -90382.918276034296 0 0 0 0 17147938.435430527 7199819.4806329831 0 7199819.4806329831 -2592363.5990414321 0 0 0 0 11997436.890748978 6079507.5355544239 0 6079507.5355544239 506734.90094643831 0 0 0 0 12674581.408735275 7348604.9695694149 0 7348604.9695694149 201350.01763534546 0 0 0 0 13798586.084873199 5118780.0008331239 0 5118780.0008331239 -1583100.7466883585 0 0 0 0 14595480.254124165 7289344.8017548583 0 7289344.8017548583 -1602057.3902597446 0 0 0 0 -1077889.5883960724 -652577.44428274035 0 -652577.44428274035 1061065.5884908885 0 0 0 0 12183663.260087013 431207.77842175961 0 431207.77842175961 103124.3674056977 0 0 0 0 18737977.826622009 -7133164.7614756599 0 -7133164.7614756599 -22674681.740985677 0 0 0 0 16.51494890358299 1382.3295536967926 0 1382.3295536967926 3259.9656907132362 0 0 0 0 20909709.861104012 7837622.5123037379 0 7837622.5123037379 -5413303.4988661613 0 0 0 0 25311687.575748444 2835767.7924243528 0 2835767.7924243528 -9841669.0878300592 0 0 0 0 16786393.893947601 6063167.9589219391 0 6063167.9589219391 -6144026.6275952384 0 0 0 0 17348292.756053925 657644.3371566385 0 657644.3371566385 -9706549.7991180867 0 0 0 0 14084266.97555542 -142662.40124048293 0 -142662.40124048293 -5550324.7055068314 0 0 0 0 18851010.465955734 4158282.5991797782 0 4158282.5991797782 -5438838.4811171293 0 0 0 0 12117962.189487457 1272587.1530609876 0 1272587.1530609876 -1999424.7630045414 0 0 0 0 14458436.11171627 2285014.3931736713 0 2285014.3931736713 -3289020.8684563041 0 0 0 0 13838744.407531738 3209606.7634069175 0 3209606.7634069175 -1737570.1022388935 0 0 0 0 12748801.67232132 2679539.8381620049 0 2679539.8381620049 1005012.8382696807 0 0 0 0 59737.65197806654 -89451.316193808336 0 -89451.316193808336 68108.865809196868 0 0 0 0 4022306.1997804642 1359266.114989996 0 1359266.114989996 -1755966.206982553 0 0 0 0 -928042.04443740845 4834663.3296646178 0 4834663.3296646178 -2654406.6083570123 0 0 0 0 -3881633.9433193207 -4254155.938775599 0 -4254155.938775599 1680653.2640770227 0 0 0 0 -7804478.089805603 2937381.6238157302 0 2937381.6238157302 -92006.776205003262 0 0 0 0 4531542.4516572952 -306542.29617010057 0 -306542.29617010057 -906796.83868336678 0 0 0 0 -1525880.924580574 -128480.21291386336 0 -128480.21291386336 423556.26195573807 0 0 0 0 12643503.775327682 578074.05204248428 0 578074.05204248428 2113234.2289593816 0 0 0 0 23644.245266298298 -44318.171141234227 0 -44318.171141234227 15494.894798704947 0 0 0 0 2228287.4659357071 3548831.2001831606 0 3548831.2001831606 5738555.079577148 0 0 0 0 10277922.241983414 2432275.5896908343 0 2432275.5896908343 990931.72962837107 0 0 0 0 10630618.939305544 4050082.2873844653 0 4050082.2873844653 5315828.936938405 0 0 0 0 6235864.4684314728 9357231.2235860229 0 9357231.2235860229 -10062349.293691576 0 0 0 0 6284723.2068147659 -3181261.2806384414 0 -3181261.2806384414 6542366.1175673008 0 0 0 0 -6305158.2751159668 5711599.9507416487 0 5711599.9507416487 301333.51356819272 0 0 0 0 4373240.06199646 7383788.8811724186 0 7383788.8811724186 419138.97464615107 0 0 0 0 3368000.784072876 -7180530.8000310659 0 -7180530.8000310659 -5822772.3093994856 0 0 0 0 12321894.47665596 -6268860.6803720891 0 -6268860.6803720891 -5819104.7117714882 0 0 0 0 -891067.92436218262 -5588570.6673742235 0 -5588570.6673742235 6978639.7070769668 0 0 0 0 -1614891.4565982819 -3232283.6690334082 0 -3232283.6690334082 -679123.80682754517 0 0 0 0 -1925352.3423614502 -2277180.8688589931 0 -2277180.8688589931 -1650660.0482419729 0 0 0 0 -3138598.7823829651 -2636886.7940692902 0 -2636886.7940692902 3484636.5337496996 0 0 0 0 -1484833.7354278564 344293.45566672087 0 344293.45566672087 4736846.6003580093 0 0 0 0 24952210.028342247 21968385.129194185 0 21968385.129194185 8229752.7428783178 0 0 0 0 11821123.911449432 9819638.6381823123 0 9819638.6381823123 1399816.0453820229 0 0 0 0 -5180501.2793445587 -3263351.0480046868 0 -3263351.0480046868 -1020223.2976614237 0 0 0 0 5736745.7381424904 8886837.0350511074 0 8886837.0350511074 8892821.5957464576 0 0 0 0 5802124.3801956177 14824419.6649988 0 14824419.6649988 18824070.37735647 0 0 0 0 22538417.341535568 -14338674.714648932 0 -14338674.714648932 9535131.3370877802 0 0 0 0 63509.608641108498 25443.135302892653 0 25443.135302892653 985.26408177393023 0 0 0 0 38440835.487203598 -4141198.553888768 0 -4141198.553888768 -3720705.3170711398 0 0 0 0 21526293.072024316 1060223.2394725666 0 1060223.2394725666 -3325412.1295919418 0 0 0 0 21527071.15681076 -7345645.9036110938 0 -7345645.9036110938 -1798329.9190398455 0 0 0 0 204364.65859968308 15677.226455727476 0 15677.226455727476 -42977.423108543415 0 0 0 0 3987916.8583297729 -5964465.5725800097 0 -5964465.5725800097 6291033.4996162355 0 0 0 0 3116707.2650030851 524118.98073795997 0 524118.98073795997 -1397711.5538706779 0 0 0 0 1092937.4029083252 -3808131.3809223771 0 -3808131.3809223771 1284817.0376138091 0 0 0 0 4287541.5576171875 -4772040.1508715749 0 -4772040.1508715749 410825.07617080212 0 0 0 0 3142236.2348136902 -1597533.0034647733 0 -1597533.0034647733 271243.02549958229 0 0 0 0 5419966.4459187984 -1983356.1790503748 0 -1983356.1790503748 -863964.99268639088 0 0 0 0 5255574.4958884716 -1247557.8854544312 0 -1247557.8854544312 -643133.50485599041 0 0 0 0 9688181.173617363 -2198333.8591628671 0 -2198333.8591628671 -1613931.0845617056 0 0 0 0 10971938.267490864 -4756899.7830544412 0 -4756899.7830544412 -1902251.8183594942 0 0 0 0 17408905.596905708 -1092454.2486578822 0 -1092454.2486578822 -3473271.3942978978 0 0 0 0 16422534.394867897 -119795.75239004195 0 -119795.75239004195 -3583787.6577208042 0 0 0 0 3376126.393415451 -996855.3693202436 0 -996855.3693202436 -10240125.947286844 0 0 0 0 -293738.54814147949 -12775.724217385054 0 -12775.724217385054 -960170.56902125478 0 0 0 0 411924.67665467225 -156969.51725550368 0 -156969.51725550368 -202054.88003969158 0 0 0 0 65747.935516357422 -486719.16389223933 0 -486719.16389223933 -313282.11128363013 0 0 0 0 -35655.164812626317 -755846.55773983535 0 -755846.55773983535 -352929.77552735561 0 0 0 0 829844.76614664495 116677.05822506733 0 116677.05822506733 -129721.7511183326 0 0 0 0 127691.85225486755 -337103.84024243802 0 -337103.84024243802 -341479.18277722597 0 0 0 0 284211.10000305623 -517091.82548457221 0 -517091.82548457221 -381253.8896152674 0 0 0 0 249835.72870908957 -107921.91994825681 0 -107921.91994825681 -103926.53249138566 0 0 0 0 -1343901.5240210295 -1959713.6235948708 0 -1959713.6235948708 -1973898.0722506046 0 0 0 0 -1324680.5416030884 -2418500.3745629787 0 -2418500.3745629787 -1864100.2391049862 0 0 0 0 -3415855.2124938965 -714852.80809730291 0 -714852.80809730291 860318.23432683945 0 0 0 0 2187319.2456283569 -106901.79710918665 0 -106901.79710918665 -1867864.9069492221 0 0 0 0 -1143102.944442749 464936.86422395706 0 464936.86422395706 -1147178.4555747509 0 0 0 0 47758.846026342362 -120417.78438668943 0 -120417.78438668943 -95686.941540725937 0 0 0 0 -2343468.8861961365 -1486258.5496008992 0 -1486258.5496008992 1502069.0753184557 0 0 0 0 -2021059.4620704651 819128.61284124851 0 819128.61284124851 360069.38490712643 0 0 0 0 -63463.023822784424 -616223.28260236979 0 -616223.28260236979 396593.01910084486 0 0 0 0 -17155.806602478027 -531575.58850741386 0 -531575.58850741386 103596.94645324349 0 0 0 0 1320439.7055549622 730270.7873404026 0 730270.7873404026 -863556.47960499674 0 0 0 0 -1667621.9448714256 -548314.82738961279 0 -548314.82738961279 1112047.6828900576 0 0 0 0 -1590309.9914398193 -648453.37810340524 0 -648453.37810340524 -326250.95318615437 0 0 0 0 -182586.15113582881 -70985.91285329219 0 -70985.91285329219 -141802.95829244502 0 0 0 0 -1484894.6661195755 -363610.47441545129 0 -363610.47441545129 115449.37186183408 0 0 0 0 2348605.0920162201 854433.7420643568 0 854433.7420643568 91441.005944162607 0 0 0 0 1163060.4643649142 -267427.38793290127 0 -267427.38793290127 -475237.8225226166 0 0 0 0 -1222961.3917798996 -909027.08441513777 0 -909027.08441513777 -422859.13022637367 0 0 0 0 1927336.9900331497 399106.24618759751 0 399106.24618759751 -188198.2719540596 0 0 0 0 934731.81987774186 59054.378332350054 0 59054.378332350054 -365261.68389407999 0 0 0 0 236728.67784881592 -199487.59051579237 0 -199487.59051579237 -595095.0712158829 0 0 0 0 1228801.8608026505 602355.27397346497 0 602355.27397346497 154300.10194924474 0 0 0 0 1282146.2993836319 226373.02686934522 0 226373.02686934522 -25402.579394750996 0 0 0 0 693828.6286315918 419639.77172106504 0 419639.77172106504 -282653.55081486702 0 0 0 0 745207.34582233429 309218.34874239564 0 309218.34874239564 -368877.85527992249 0 0 0 0 1445343.7975505977 689454.05103931786 0 689454.05103931786 171471.85569048394 0 0 0 0 1346933.856227298 82340.074070226867 0 82340.074070226867 -528251.68132150453 0 0 0 0 242460.09195149224 224628.06789159542 0 224628.06789159542 -142280.73675011011 0 0 0 0 159842.9321971368 153939.09916262759 0 153939.09916262759 -197714.89942222164 0 0 0 0 -4016.3789978027344 354785.15329182148 0 354785.15329182148 -776747.60586266965 0 0 0 0 12128.432633399963 372978.00141510367 0 372978.00141510367 -776342.03026640415 0 0 0 0 1081304.5263513839 49927.151782021858 0 49927.151782021858 -609138.44932952884 0 0 0 0 727580.82529847696 42455.16000679275 0 42455.16000679275 -228643.65312572033 0 0 0 0 457058.15101194382 154726.0520984754 0 154726.0520984754 -223169.8083191514 0 0 0 0 1699732.4316596985 632931.08586587012 0 632931.08586587012 -175983.98002499342 0 0 0 0 994047.86447344022 383971.56704779062 0 383971.56704779062 -79466.669560418683 0 0 0 0 439264.82757377625 299042.08496978134 0 299042.08496978134 -287868.01620203815 0 0 0 0 1659550.3172874451 435541.8377340138 0 435541.8377340138 -177380.11924099922 0 0 0 0 323759.19398997538 -201561.64790167147 0 -201561.64790167147 -374671.49245662685 0 0 0 0 231111.96242523193 -213891.72033064812 0 -213891.72033064812 -598397.52629427239 0 0 0 0 393289.17839050293 -127619.79093277454 0 -127619.79093277454 -330475.08963561058 0 0 0 0 551875.45672607422 -6083.9683518819511 0 -6083.9683518819511 -237443.54202929884 0 0 0 0 -33418.766693115234 -121819.64891260862 0 -121819.64891260862 -90536.281729772687 0 0 0 0 474260.95713306684 147177.54383552447 0 147177.54383552447 -15617.688310498605 0 0 0 0 347274.3469813969 -162797.48724938929 0 -162797.48724938929 -109189.03552111879 0 0 0 0 189239.68020141358 31685.517197960988 0 31685.517197960988 -11558.483383877639 0 0 0 0 424458.80930203013 -76117.233544074465 0 -76117.233544074465 -75946.385156938835 0 0 0 0 -2127332.0911102295 -1835849.096845746 0 -1835849.096845746 -1761573.1857743263 0 0 0 0 -2757426.1652173996 -2391468.8434006423 0 -2391468.8434006423 79739.66036939621 0 0 0 0 -3514073.6067047119 -1281630.8261444569 0 -1281630.8261444569 -1023111.4678483009 0 0 0 0 458882.92623306811 97183.810760561377 0 97183.810760561377 -17331.567296257825 0 0 0 0 389531.24606323242 54229.687354177237 0 54229.687354177237 -119891.22149515152 0 0 0 0 434431.96474689152 49969.823268825654 0 49969.823268825654 -83571.238428705023 0 0 0 0 391270.07585144043 52164.468729555607 0 52164.468729555607 -123800.7118319869 0 0 0 0 472234.76694980916 193710.43088539364 0 193710.43088539364 -37115.941652933892 0 0 0 0 270424.96245193481 134126.41196884215 0 134126.41196884215 40793.594733834267 0 0 0 0 491779.56706913421 112744.07283440046 0 112744.07283440046 -21873.900122700434 0 0 0 0 684832.62374614645 262019.21856742585 0 262019.21856742585 -54235.929966570839 0 0 0 0 462691.72986221313 168547.25995349884 0 168547.25995349884 -198445.98427546024 0 0 0 0 1053271.4679260254 979216.45893983543 0 979216.45893983543 250756.69468444586 0 0 0 0 1197858.7637367249 565753.71703501046 0 565753.71703501046 12666.407665729523 0 0 0 0 1703161.1767654419 734359.3379765451 0 734359.3379765451 59461.858839988708 0 0 0 0 1788773.3066329956 791949.71862319112 0 791949.71862319112 806.21347397565842 0 0 0 0 1471050.2777633667 1090810.3683683276 0 1090810.3683683276 273046.6179267019 0 0 0 0 968611.66590929031 394517.76318827271 0 394517.76318827271 169420.60813158751 0 0 0 0 265019.10323964711 182586.84888945939 0 182586.84888945939 -69110.966846757801 0 0 0 0 1879904.8488311768 1079305.2000310421 0 1079305.2000310421 178918.42371082306 0 0 0 0 1020444.1304750443 509154.57351046801 0 509154.57351046801 -27413.606152832508 0 0 0 0 409228.78524985956 -13659.183112203144 0 -13659.183112203144 26320.238026382838 0 0 0 0 1065961.2042770386 -156663.58437862992 0 -156663.58437862992 -281773.48939335346 0 0 0 0 128032.96519821184 -590.26756556145847 0 -590.26756556145847 -51069.841939759033 0 0 0 0 -5685640.0444641113 641356.83623987436 0 641356.83623987436 1514159.823725462 0 0 0 0 -4151123.3434295654 -1145682.4723286629 0 -1145682.4723286629 763607.36966942251 0 0 0 0 91938.424466719385 -170470.7966441093 0 -170470.7966441093 -101736.5151594629 0 0 0 0 344423.05756632891 221990.20043340046 0 221990.20043340046 -70284.887743046274 0 0 0 0 312331.28141212463 -6254.2340119034052 0 -6254.2340119034052 -52730.907581567764 0 0 0 0 1596616.7159481049 996538.12118662894 0 996538.12118662894 186025.98067954183 0 0 0 0 179907.82953548431 876925.7885081321 0 876925.7885081321 234009.16060601175 0 0 0 0 1615894.449410677 1023702.2064156402 0 1023702.2064156402 -986637.96336117387 0 0 0 0 1567187.3999137878 805816.23026657104 0 805816.23026657104 659181.71891133953 0 0 0 0 1913959.634062767 631078.32905812562 0 631078.32905812562 272179.63841992617 0 0 0 0 1829013.4258804321 873384.87724688649 0 873384.87724688649 102392.11064112186 0 0 0 0 2061647.2788000107 786330.78289972246 0 786330.78289972246 129822.91308659315 0 0 0 0 1773706.340587616 820317.45671960711 0 820317.45671960711 224603.05131702125 0 0 0 0 1796741.3000679016 625482.67633932829 0 625482.67633932829 -131387.45387314446 0 0 0 0 1910956.4514293671 751718.70504665375 0 751718.70504665375 -135269.77996522188 0 0 0 0 1797958.4393672943 615086.08964125812 0 615086.08964125812 -159320.18366467953 0 0 0 0 1800494.9117927551 618237.35451424122 0 618237.35451424122 -161186.03716158867 0 0 0 0 1822047.7074456215 556576.59269126505 0 556576.59269126505 -365575.14684283733 0 0 0 0 1831144.6729717255 626879.4162003994 0 626879.4162003994 -172872.20723509789 0 0 0 0 1802630.6528205872 592113.91386917233 0 592113.91386917233 -203789.923140347 0 0 0 0 1618699.9593238831 447957.47065281868 0 447957.47065281868 -169166.07263636589 0 0 0 0 195557.01437987946 238841.62716420367 0 238841.62716420367 50322.954765645278 0 0 0 0 1437607.6491336823 391984.60574108362 0 391984.60574108362 -185852.0365088284 0 0 0 0 -2377358.6355400085 10416417.12640851 0 10416417.12640851 6392473.3292082306 0 0 0 0 1471973.9426212311 305722.42949052528 0 305722.42949052528 -407037.2769651413 0 0 0 0 1541091.7492332458 562183.43724960089 0 562183.43724960089 39800.606317520142 0 0 0 0 1786629.7031083107 839140.58312039822 0 839140.58312039822 -396048.06792324781 0 0 0 0 1742277.8205699921 459648.50464516878 0 459648.50464516878 -479832.09278047085 0 0 0 0 5520208.2006721497 2781114.8117794096 0 2781114.8117794096 555535.25092177838 0 0 0 0 98822.439414024353 -10191670.812508795 0 -10191670.812508795 9938147.7754364759 0 0 0 0 1634474.7624015808 6661105.2630327009 0 6661105.2630327009 -2740740.5100326128 0 0 0 0 1596313.3152236938 650407.63442453742 0 650407.63442453742 136446.18474113941 0 0 0 0 15382309.84376049 5452462.7485203091 0 5452462.7485203091 -22633161.96553044 0 0 0 0 1892053.5077953339 3145794.7904778309 0 3145794.7904778309 -1709226.9793653786 0 0 0 0 3961755.3944911957 4132111.6107750451 0 4132111.6107750451 -3540189.1772145107 0 0 0 0 3707539.4462738037 1994376.4735422507 0 1994376.4735422507 -1038017.052409023 0 0 0 0 6299310.0147476196 3495062.0207764618 0 3495062.0207764618 -3438236.9729296416 0 0 0 0 3243051.2845125198 3100768.1843660641 0 3100768.1843660641 -2791343.7618421614 0 0 0 0 10054136.231921196 7388760.7376675121 0 7388760.7376675121 -892338.40808974952 0 0 0 0 655988.11237585824 439371.54825237533 0 439371.54825237533 4559.1584999603219 0 0 0 0 1917003.2634563446 788088.73074278235 0 788088.73074278235 20986.348132610321 0 0 0 0 1668291.9769492149 584539.23988093901 0 584539.23988093901 -147905.14173650742 0 0 0 0 1791279.0553665161 551347.34132504463 0 551347.34132504463 -179292.65217381716 0 0 0 0 1717269.7149772644 769499.26572608948 0 769499.26572608948 110341.89050984383 0 0 0 0 1867717.1818275452 674204.15596705675 0 674204.15596705675 -96680.153230845928 0 0 0 0 1753808.6954421997 551434.91296476126 0 551434.91296476126 -163118.48671197891 0 0 0 0 1802759.8736784458 647346.3608488068 0 647346.3608488068 -68565.199319839478 0 0 0 0 1762712.8559951782 592258.67147442698 0 592258.67147442698 -54872.268625915051 0 0 0 0 1708402.6297264099 583610.68337991834 0 583610.68337991834 70270.64444231987 0 0 0 0 2029791.098482132 638507.39025777578 0 638507.39025777578 -17910.393442124128 0 0 0 0 1828338.0450668335 699910.40411520004 0 699910.40411520004 -28640.145134925842 0 0 0 0 1867977.6646614075 662077.67524501681 0 662077.67524501681 -135948.84391768277 0 0 0 0 1953876.2337589264 381128.15631774068 0 381128.15631774068 223638.32163983583 0 0 0 0 -46807.203105926514 399641.76194226742 0 399641.76194226742 -1040838.77536726 0 0 0 0 781074.43369650282 387771.32786422339 0 387771.32786422339 -277306.35281445249 0 0 0 0 136756.05192665383 180051.09925750492 0 180051.09925750492 -237861.94661519007 0 0 0 0 384772.18193817139 262878.27699303627 0 262878.27699303627 -381324.08388334513 0 0 0 0 5557324.7154769897 3733303.0718289241 0 3733303.0718289241 6573568.1670516133 0 0 0 0 5100753.0826225281 4651577.5013284683 0 4651577.5013284683 4766838.2097590417 0 0 0 0 7368204.8313598633 979290.23732732981 0 979290.23732732981 7820724.2809368409 0 0 0 0 -47408.913386051543 187413.24938930402 0 187413.24938930402 58913.376751431024 0 0 0 0 5695720.7361679077 4296173.967095226 0 4296173.967095226 1974193.3204545677 0 0 0 0 1176538.8849715274 192978.04863027722 0 192978.04863027722 -442779.62394117768 0 0 0 0 591719.11319351196 42900.835126757622 0 42900.835126757622 -188162.85258537531 0 0 0 0 716613.17143630981 183197.29491439462 0 183197.29491439462 -232673.2770152092 0 0 0 0 6365960.6113586426 893528.08945870399 0 893528.08945870399 -460608.83190153539 0 0 0 0 1337272.4162407136 795123.19607868628 0 795123.19607868628 207260.61009427183 0 0 0 0 991209.23077015346 119525.72546939668 0 119525.72546939668 -291300.00596404594 0 0 0 0 2248468.4606208801 1876226.3796242774 0 1876226.3796242774 -116109.9991029501 0 0 0 0 319640.65382469026 106121.0766123794 0 106121.0766123794 7046.2297606546672 0 0 0 0 3136132.9213809967 -1109.5015943199396 0 -1109.5015943199396 965802.95748531818 0 0 0 0 2128860.0519714355 800702.43269711733 0 800702.43269711733 745903.0548287034 0 0 0 0 2466787.736907959 926525.97751823068 0 926525.97751823068 669487.8359516561 0 0 0 0 7092758.0337257385 -574828.27753768861 0 -574828.27753768861 -1042051.4256560132 0 0 0 0 4332941.7044382095 1485768.6109316312 0 1485768.6109316312 -2577740.2484618276 0 0 0 0 3768208.6356601715 605006.1505824551 0 605006.1505824551 -85976.988169789314 0 0 0 0 2240457.3583581448 1502127.1461038035 0 1502127.1461038035 782490.18249392509 0 0 0 0 2117775.8568878174 1576133.3605925441 0 1576133.3605925441 1063394.6153188944 0 0 0 0 3069069.2901153564 1376214.204079181 0 1376214.204079181 -934972.09155305475 0 0 0 0 2238806.1824711561 1569065.346928556 0 1569065.346928556 247228.53360688686 0 0 0 0 2405919.0421600342 1195769.3561652005 0 1195769.3561652005 649643.78896009922 0 0 0 0 2072308.8927307129 1238046.3881615996 0 1238046.3881615996 883984.02490913868 0 0 0 0 2018986.1437225342 1452904.8129092455 0 1452904.8129092455 1156825.8610877991 0 0 0 0 1794511.0740280151 1380787.8558756113 0 1380787.8558756113 1281374.8586893678 0 0 0 0 1743672.8378753662 921188.15204632282 0 921188.15204632282 1186919.672734499 0 0 0 0 2208229.3779754639 952720.47274197638 0 952720.47274197638 1026286.3504000902 0 0 0 0 1554689.4559850693 415199.49538186193 0 415199.49538186193 101532.08327746391 0 0 0 0 1314239.5264053345 890576.43619757891 0 890576.43619757891 1209733.3132314384 0 0 0 0 1488737.2430801392 1240292.693867743 0 1240292.693867743 1216846.671448648 0 0 0 0 1380612.9417182561 650580.04246459901 0 650580.04246459901 -313589.1723027741 0 0 0 0 1777600.4964675903 1496858.0773231685 0 1496858.0773231685 1419478.4624798894 0 0 0 0 -161894.79490741994 356712.65439081291 0 356712.65439081291 199463.22013887097 0 0 0 0 7006793.8127975464 5379599.4483872354 0 5379599.4483872354 3265385.3581160903 0 0 0 0 5117517.8712081909 -1796824.2821864784 0 -1796824.2821864784 1952853.8299016356 0 0 0 0 2288651.0696735382 267028.43481341749 0 267028.43481341749 973360.47661051154 0 0 0 0 11184728.906814098 3010295.5838906961 0 3010295.5838906961 -4768082.8880150244 0 0 0 0 247593.79608014878 170472.68945668964 0 170472.68945668964 48564.611485446912 0 0 0 0 -5837490.6583108902 -7409698.7884542765 0 -7409698.7884542765 706575.75502611045 0 0 0 0 6291533.0058887005 2941753.3964419649 0 2941753.3964419649 3541421.1779640689 0 0 0 0 7346742.8863055408 5478309.048805044 0 5478309.048805044 -6352166.1220335886 0 0 0 0 -370757.9334487915 10617943.686975192 0 10617943.686975192 -5615378.238899 0 0 0 0 2822382.3125343323 8704308.6386967059 0 8704308.6386967059 -7314630.390513964 0 0 0 0 -14824344.918633461 8198393.2850504071 0 8198393.2850504071 4863868.6999070868 0 0 0 0 -6885992.608215332 2050070.9691228047 0 2050070.9691228047 -2564216.8132759202 0 0 0 0 -1060039.3868865967 19838991.687523752 0 19838991.687523752 952192.09530441463 0 0 0 0 -7964463.4201982617 21799458.433011688 0 21799458.433011688 13814203.275062114 0 0 0 0 -752088.07120037079 13863854.233730689 0 13863854.233730689 12176154.488088623 0 0 0 0 -1174372.8097219467 11267674.896631893 0 11267674.896631893 6191860.4000323117 0 0 0 0 7600522.8445904255 13100834.302390777 0 13100834.302390777 6531367.2580817491 0 0 0 0 1508643.4471311569 5425331.2493423335 0 5425331.2493423335 19288819.294201985 0 0 0 0 334965.32682347298 9872861.2689220123 0 9872861.2689220123 5837347.7276741788 0 0 0 0 13400266.607171059 5019654.1038346216 0 5019654.1038346216 6816867.5768362433 0 0 0 0 8446529.3544464111 -1644254.0649549067 0 -1644254.0649549067 10848762.457573026 0 0 0 0 23128772.992888451 34928.467040207237 0 34928.467040207237 1121186.7919624299 0 0 0 0 8747319.4375038147 2488091.492136538 0 2488091.492136538 1324015.536200121 0 0 0 0 -8602468.5048999786 11672867.206131093 0 11672867.206131093 -1850101.7287821174 0 0 0 0 -21979129.232004166 -949449.51119171083 0 -949449.51119171083 7595503.0275394619 0 0 0 0 35381.741343068425 76074.169219011907 0 76074.169219011907 26373.003255060219 0 0 0 0 227723.57083074749 4166063.6455971319 0 4166063.6455971319 -9277629.7046934664 0 0 0 0 -2242878.7645500898 4394704.0702460902 0 4394704.0702460902 6001213.3224219158 0 0 0 0 -10419755.046186447 2038137.0220795646 0 2038137.0220795646 6447327.6632677102 0 0 0 0 -11473263.254072189 3982942.5993102752 0 3982942.5993102752 10136191.310665905 0 0 0 0 1106565.6815648079 -2916816.2366045201 0 -2916816.2366045201 14892345.138536002 0 0 0 0 10048215.540379524 -17493185.099250022 0 -17493185.099250022 20556176.920156542 0 0 0 0 -5742733.574213028 -253897.46294006892 0 -253897.46294006892 21713044.137040593 0 0 0 0 -6563930.0791549683 6107587.0096974745 0 6107587.0096974745 -646939.87334546819 0 0 0 0 -6278786.2374038696 -4536277.763913149 0 -4536277.763913149 16675871.002467901 0 0 0 0 4151799.2710523605 4135842.1993863676 0 4135842.1993863676 -16151108.604908701 0 0 0 0 -2047589.8642530441 -15695548.367712989 0 -15695548.367712989 28529370.070522353 0 0 0 0 7707693.2837808132 8632507.5214999858 0 8632507.5214999858 19272364.434016168 0 0 0 0 -12788619.650854111 1597862.8682601368 0 1597862.8682601368 16860695.677486543 0 0 0 0 40516508.155348778 -31415915.725570589 0 -31415915.725570589 -2597829.1053841929 0 0 0 0 123783.42014155071 49588.688668125309 0 49588.688668125309 -34050.136128048223 0 0 0 0 -10436995.312103271 260483.95153550804 0 260483.95153550804 2452835.3580195606 0 0 0 0 50044762.603288651 12466894.201861862 0 12466894.201861862 4197721.3740902878 0 0 0 0 6380497.0494668484 11254352.991708409 0 11254352.991708409 33655364.196970776 0 0 0 0 34053650.401153088 -1028607.3154280856 0 -1028607.3154280856 9280959.5104036182 0 0 0 0 19804551.797634125 -8101309.6165575935 0 -8101309.6165575935 24591019.572011426 0 0 0 0 26328910.428256035 -7039467.6723861843 0 -7039467.6723861843 11179808.791158572 0 0 0 0 29433111.32221365 -5692428.999300275 0 -5692428.999300275 9514024.766356796 0 0 0 0 29546843.689743042 3949539.3219702169 0 3949539.3219702169 19784286.268647254 0 0 0 0 13762489.851372719 -6158165.6572635397 0 -6158165.6572635397 18678804.165185347 0 0 0 0 23794561.88726902 -15727933.043485254 0 -15727933.043485254 25509626.203136906 0 0 0 0 33586685.893342972 -12450609.314611822 0 -12450609.314611822 18015127.593268968 0 0 0 0 40372293.677759171 -26122465.666064158 0 -26122465.666064158 21492228.155768491 0 0 0 0 18716914.659516811 -21941245.796335459 0 -21941245.796335459 21405603.342308447 0 0 0 0 50369769.10425663 -21339889.695912942 0 -21339889.695912942 17074892.666776955 0 0 0 0 40387554.435318947 -22479537.605774865 0 -22479537.605774865 20961535.387398332 0 0 0 0 31019087.746895313 -14247298.819268771 0 -14247298.819268771 18116106.419334382 0 0 0 0 33842318.04178524 -15596804.253980711 0 -15596804.253980711 16910387.556891888 0 0 0 0 36263021.431435585 -15890119.039898857 0 -15890119.039898857 11038979.445556236 0 0 0 0 29496176.697490215 -6427239.6079721525 0 -6427239.6079721525 5866427.1567721367 0 0 0 0 32825465.912097931 -15916723.365705207 0 -15916723.365705207 10981594.313248754 0 0 0 0 50062965.01237464 -10002016.420652702 0 -10002016.420652702 10361327.728298008 0 0 0 0 37457379.124175072 -29094032.666302204 0 -29094032.666302204 25014895.926881671 0 0 0 0 48016854.8379457 -29157664.560363401 0 -29157664.560363401 17566095.903216422 0 0 0 0 39189599.415342331 -23823727.393571585 0 -23823727.393571585 14777893.68095912 0 0 0 0 40727472.115240097 -20492350.32023026 0 -20492350.32023026 21966271.172157258 0 0 0 0 23725979.261335373 -19728400.97249499 0 -19728400.97249499 22561048.513124019 0 0 0 0 51895967.536502838 -2043006.3112363517 0 -2043006.3112363517 7622033.7727777734 0 0 0 0 -8672445.9737930298 3800811.6468443722 0 3800811.6468443722 8156744.3409081995 0 0 0 0 130813.49533700943 -9372083.4532719329 0 -9372083.4532719329 -5635641.6473541856 0 0 0 0 -14455153.107784271 9958178.39980115 0 9958178.39980115 3445239.9104147702 0 0 0 0 9806733.9857759476 1156446.7392970696 0 1156446.7392970696 4482624.22866714 0 0 0 0 20999774.807554245 -11010978.885165125 0 -11010978.885165125 5308585.3491281793 0 0 0 0 16694512.203357697 -8881542.0537936985 0 -8881542.0537936985 3085682.5192939565 0 0 0 0 26973252.597628593 -16473920.450448558 0 -16473920.450448558 14809899.342226014 0 0 0 0 23824681.46603775 -2236933.6584033966 0 -2236933.6584033966 8042846.2794115245 0 0 0 0 30165698.064954758 -9890041.7104694694 0 -9890041.7104694694 28314263.48920396 0 0 0 0 17979873.075492859 -16527034.072247207 0 -16527034.072247207 15720804.757185355 0 0 0 0 18995079.669474125 -3695570.4567419812 0 -3695570.4567419812 4723571.2171662152 0 0 0 0 7751099.4085407257 -7171537.5175037384 0 -7171537.5175037384 4208189.1423999667 0 0 0 0 3399406.1946076155 2716060.3784493851 0 2716060.3784493851 -2085163.5926966667 0 0 0 0 2304637.7849187851 -6408791.780163154 0 -6408791.780163154 14021740.900770009 0 0 0 0 -9907577.8719968796 4767706.1162396222 0 4767706.1162396222 4054704.6784119606 0 0 0 0 -6740469.5514583588 -5194330.3311315179 0 -5194330.3311315179 7647398.6692242771 0 0 0 0 338184.45357322693 -5764078.2703538239 0 -5764078.2703538239 5326666.5089693069 0 0 0 0 -2887354.7292480469 509478.76427282393 0 509478.76427282393 4674504.5150765181 0 0 0 0 -1368985.187333703 -9679130.3927761856 0 -9679130.3927761856 -1844391.5952907205 0 0 0 0 -2338034.3875789642 -2218133.1460281909 0 -2218133.1460281909 4473302.2030336559 0 0 0 0 11945296.290019989 84796.617037862539 0 84796.617037862539 654593.25965379179 0 0 0 0 10453510.668754101 -4426720.3124232367 0 -4426720.3124232367 3247923.378323704 0 0 0 0 25069661.873455048 -14376717.875239924 0 -14376717.875239924 5410130.0853486955 0 0 0 0 37906539.076210976 -18951852.379717752 0 -18951852.379717752 311182.581018731 0 0 0 0 38294257.244480729 -21063258.983585011 0 -21063258.983585011 4910959.3109544218 0 0 0 0 47645858.556848526 -21580431.305804536 0 -21580431.305804536 -3633732.006124597 0 0 0 0 27906483.620490551 -13189016.923841022 0 -13189016.923841022 -2332338.0670574456 0 0 0 0 48553832.448280334 -25807919.285643067 0 -25807919.285643067 3184450.7689564712 0 0 0 0 41686847.779987335 -21502948.979763135 0 -21502948.979763135 6596129.9874062687 0 0 0 0 35201051.008561134 -3523556.8900185376 0 -3523556.8900185376 18289095.297828618 0 0 0 0 42708252.253260612 -26019889.038128555 0 -26019889.038128555 12702244.068247445 0 0 0 0 30129281.809689522 -28773132.282262899 0 -28773132.282262899 17946674.817885805 0 0 0 0 -1461719.4644441605 -1473599.4912387244 0 -1473599.4912387244 19559939.424349185 0 0 0 0 3932651.6541662216 -70388.266227087937 0 -70388.266227087937 -303791.07389133051 0 0 0 0 43674466.532482266 1801015.1283107027 0 1801015.1283107027 -8502474.3843217343 0 0 0 0 50427.706214903854 -45001.346048489446 0 -45001.346048489446 36123.445074097486 0 0 0 0 60667269.633928299 -22106863.003235906 0 -22106863.003235906 12993430.959347919 0 0 0 0 43995173.090553284 -8898544.2203370333 0 -8898544.2203370333 10085405.465436608 0 0 0 0 32589327.990457535 9215581.6893310696 0 9215581.6893310696 -9060934.9506795704 0 0 0 0 137029.3776991684 -135345.42766447319 0 -135345.42766447319 77872.834530148801 0 0 0 0 4418905.7070837021 -30478445.945188031 0 -30478445.945188031 -9214746.8163304906 0 0 0 0 32269705.970952988 6986227.0729871094 0 6986227.0729871094 -8612883.5641856119 0 0 0 0 65141.096723164432 -64166.261266653426 0 -64166.261266653426 43100.879562716582 0 0 0 0 86975637.170557022 -3703876.8361792192 0 -3703876.8361792192 -6571477.5951708257 0 0 0 0 -25213905.65070343 -25339514.200390741 0 -25339514.200390741 24948281.531116828 0 0 0 0 67300134.7166605 -41821497.037922025 0 -41821497.037922025 19592786.087176956 0 0 0 0 54808668.170668602 -24313387.059267253 0 -24313387.059267253 -2458900.2445018478 0 0 0 0 39609286.895388365 -14605847.876250666 0 -14605847.876250666 -8555134.2445028424 0 0 0 0 32062291.453531265 -6458540.469209902 0 -6458540.469209902 4452455.212953344 0 0 0 0 24893929.167514801 -4336720.9116935916 0 -4336720.9116935916 4789311.5929029286 0 0 0 0 24795391.372200966 -8293225.2278319336 0 -8293225.2278319336 2871397.1586457267 0 0 0 0 7015851.0871119499 -16728605.637421591 0 -16728605.637421591 -7497228.1627869755 0 0 0 0 6235093.5997800827 8291349.6651400924 0 8291349.6651400924 -11661667.917121407 0 0 0 0 103600740.29712105 -3352692.2498281002 0 -3352692.2498281002 -18200128.385099538 0 0 0 0 79608.633626047522 -71050.388302553911 0 -71050.388302553911 31539.983051832503 0 0 0 0 -16728062.664031982 -36279918.659729928 0 -36279918.659729928 16770674.005997956 0 0 0 0 36291967.807127953 14834139.951869778 0 14834139.951869778 -5144165.2500970364 0 0 0 0 85558494.920986176 -91737.463995724916 0 -91737.463995724916 -17776051.731123745 0 0 0 0 22358730.584662437 8676308.4280048162 0 8676308.4280048162 3720655.0494768284 0 0 0 0 68708.403088751249 -72885.573534442228 0 -72885.573534442228 -1870.0702150268717 0 0 0 0 50460494.648292542 -39222441.98487445 0 -39222441.98487445 15909622.791468009 0 0 0 0 72675953.013846397 -54534979.605031267 0 -54534979.605031267 -739344.89760051668 0 0 0 0 60531274.516750336 -40359168.093226865 0 -40359168.093226865 -11525889.23369924 0 0 0 0 54143066.641161919 -14702301.654180905 0 -14702301.654180905 14701094.650236078 0 0 0 0 217193.60970115662 -21613580.1986669 0 -21613580.1986669 21623448.133942261 0 0 0 0 32468008.499364853 -22961682.995349932 0 -22961682.995349932 15739166.911674781 0 0 0 0 28997587.94335556 -10935963.495203407 0 -10935963.495203407 7119382.2313626278 0 0 0 0 24795798.023340225 -6784127.3462061919 0 -6784127.3462061919 9088065.7982514054 0 0 0 0 21278573.003664017 -2748857.0190477259 0 -2748857.0190477259 4657914.6679820046 0 0 0 0 28745292.835419655 -4901908.1684837677 0 -4901908.1684837677 5160585.0498902202 0 0 0 0 31187874.400051832 -9829181.7843229268 0 -9829181.7843229268 2366121.0620100647 0 0 0 0 33443435.35410738 -9470829.7788689286 0 -9470829.7788689286 2421989.557729736 0 0 0 0 31950643.405571938 -11535275.615330504 0 -11535275.615330504 -6287.0166384781742 0 0 0 0 30890271.445997238 -12139494.716564577 0 -12139494.716564577 2784190.4872078402 0 0 0 0 27068827.186997414 -14252264.727265503 0 -14252264.727265503 2068319.6194617972 0 0 0 0 10313119.354017258 -6190444.9523768444 0 -6190444.9523768444 -3030.674075746565 0 0 0 0 32111034.744610548 -3722507.3121062638 0 -3722507.3121062638 -12343867.389681593 0 0 0 0 43724374.55607605 -15636918.401276879 0 -15636918.401276879 -4670363.872198578 0 0 0 0 36834293.385733604 -12321257.676075464 0 -12321257.676075464 2898020.351082474 0 0 0 0 28732518.472196579 -13791801.819765752 0 -13791801.819765752 2842976.2488660631 0 0 0 0 34999539.916624069 -11257632.561937399 0 -11257632.561937399 3038008.9910109923 0 0 0 0 15367001.646776199 -15864109.348346036 0 -15864109.348346036 7250597.3609735295 0 0 0 0 27953784.338071823 -19479245.389419422 0 -19479245.389419422 7451663.4057993889 0 0 0 0 5417510.4570436478 -14611256.366064195 0 -14611256.366064195 13740277.330144305 0 0 0 0 52497190.107944965 -8995185.5588051528 0 -8995185.5588051528 2435585.9557237662 0 0 0 0 33294269.626330376 -8756838.9482500739 0 -8756838.9482500739 5224697.4849943817 0 0 0 0 30341767.430303574 -7465443.4596741125 0 -7465443.4596741125 6380383.0184555501 0 0 0 0 28199103.282489777 -4875193.3530411012 0 -4875193.3530411012 4525407.7813804355 0 0 0 0 45627470.253395081 -10365921.875948688 0 -10365921.875948688 -758704.00003576279 0 0 0 0 16638.855546614097 -10644.096535843331 0 -10644.096535843331 530.85758885512041 0 0 0 0 35978149.295684814 -6691393.7681063991 0 -6691393.7681063991 944202.57497527637 0 0 0 0 32358093.886422396 -6776603.0509642083 0 -6776603.0509642083 643632.14854186773 0 0 0 0 41637884.217312813 -7180067.1089885114 0 -7180067.1089885114 48787.492325167361 0 0 0 0 34866621.430831909 -10281957.346907115 0 -10281957.346907115 6572.0574039005469 0 0 0 0 33781.752288774995 -20678.159332899377 0 -20678.159332899377 948.70902927023963 0 0 0 0 23984904.024826646 -8460959.0344136618 0 -8460959.0344136618 698130.2687635012 0 0 0 0 26936199.086924553 -9634577.0942350719 0 -9634577.0942350719 -5816.9749499349073 0 0 0 0 27010312.292192459 -11666215.341452267 0 -11666215.341452267 583171.03459436074 0 0 0 0 20276875.010534286 -9301275.8865252342 0 -9301275.8865252342 3145.2349917762476 0 0 0 0 25739262.628189087 -13020336.860641323 0 -13020336.860641323 732430.29614201188 0 0 0 0 18466827.436462402 -12091079.382682493 0 -12091079.382682493 2212007.9008179065 0 0 0 0 11137643.268903732 -8669644.5302686542 0 -8669644.5302686542 2977633.4957497064 0 0 0 0 13773581.803022385 -8143722.8309545135 0 -8143722.8309545135 1214.7183052844593 0 0 0 0 11087801.783256531 -6934263.9280396681 0 -6934263.9280396681 1883908.145265569 0 0 0 0 11094798.633804321 -9671697.9124340061 0 -9671697.9124340061 4838546.2741462328 0 0 0 0 20809.152013281011 2428.1126542361453 0 2428.1126542361453 8477.2288343306282 0 0 0 0 10250987.655882835 -6580330.0200168183 0 -6580330.0200168183 2104.151825280358 0 0 0 0 11208254.706025124 -5384759.8297237745 0 -5384759.8297237745 1486264.1754856613 0 0 0 0 16530.014740145649 10226.732314460445 0 10226.732314460445 24570.717909226398 0 0 0 0 1372452.1551609039 -2687426.1596844979 0 -2687426.1596844979 2032502.8506780267 0 0 0 0 5805210.5301895142 -1433197.917440136 0 -1433197.917440136 -293503.38907983899 0 0 0 0 1255744.2149391174 1074001.6352080908 0 1074001.6352080908 582627.72489508893 0 0 0 0 6351094.6344223022 -8766181.5568393674 0 -8766181.5568393674 9974770.5922914129 0 0 0 0 14532950.247824073 -10942356.749861363 0 -10942356.749861363 4926385.2222154811 0 0 0 0 6897336.4793481827 -5041880.7314629424 0 -5041880.7314629424 2773758.8956883624 0 0 0 0 6056056.1175297201 -6437315.3559516715 0 -6437315.3559516715 5616597.3420631886 0 0 0 0 1812585.8579006195 -1642634.2094803844 0 -1642634.2094803844 4137518.2138040909 0 0 0 0 5809370.5340374112 -4583176.9342500782 0 -4583176.9342500782 4968285.2735076621 0 0 0 0 5203889.4398174286 -5305026.6256493796 0 -5305026.6256493796 4122770.6462049764 0 0 0 0 -769903.44692230225 -2668951.5264803171 0 -2668951.5264803171 4000700.9844214004 0 0 0 0 -3120684.1083498001 -258593.08757881448 0 -258593.08757881448 1641345.9303252511 0 0 0 0 9801.8298019934446 4583.4774195286445 0 4583.4774195286445 -12773.169564011465 0 0 0 0 371449.58692550659 -2170427.6053600106 0 -2170427.6053600106 -1192595.1598610394 0 0 0 0 -286698.16230773926 -2662929.7451573759 0 -2662929.7451573759 -77282.695119217038 0 0 0 0 2346979.0246090889 -206296.93570434954 0 -206296.93570434954 -684418.58578996547 0 0 0 0 458799.32994651794 -195377.89583125152 0 -195377.89583125152 -398656.03152766544 0 0 0 0 966609.09501647949 -812788.62305359403 0 -812788.62305359403 -943290.17629238218 0 0 0 0 3087966.6700592041 -1401783.4283250123 0 -1401783.4283250123 1381222.5899538137 0 0 0 0 1081996.1645450592 713205.47363032773 0 713205.47363032773 841403.00558815082 0 0 0 0 -975082.40529727936 -9812.1977743599564 0 -9812.1977743599564 1056278.8634667713 0 0 0 0 11566.08832862007 20908.060430273414 0 20908.060430273414 37008.487097162171 0 0 0 0 723579.8832154274 768930.30446314113 0 768930.30446314113 -67308.305427581072 0 0 0 0 1059575.8449811935 301656.38909653504 0 301656.38909653504 -293130.61209609546 0 0 0 0 641765.25421333313 211549.17305545206 0 211549.17305545206 -407547.70381991006 0 0 0 0 432827.19527244568 304135.66110959603 0 304135.66110959603 -279804.94121542992 0 0 0 0 177048.2291431427 551857.36149292905 0 551857.36149292905 -70222.307525906712 0 0 0 0 485674.73272371292 411859.32616125711 0 411859.32616125711 -115760.52682363195 0 0 0 0 310320.83465671539 -50396.555614127545 0 -50396.555614127545 -14204.852645665407 0 0 0 0 -217045.5500793457 -329636.29220561241 0 -329636.29220561241 -483025.12372606155 0 0 0 0 234055.40360355377 91015.545263984095 0 91015.545263984095 -262386.9432651964 0 0 0 0 -89037.083702087402 -642129.26972678723 0 -642129.26972678723 -697220.53816021048 0 0 0 0 -3585.2773650791496 -49324.726802032674 0 -49324.726802032674 46425.449094881929 0 0 0 0 -212752.92410850525 -83620.486256182194 0 -83620.486256182194 -11632.061109147966 0 0 0 0 131047.25874386728 -70361.173283864744 0 -70361.173283864744 -49139.343239629889 0 0 0 0 -8649241.0584068298 -2552772.2204095572 0 -2552772.2204095572 2245264.485165868 0 0 0 0 -5118230.5857229233 749378.97769618034 0 749378.97769618034 1465273.6846829355 0 0 0 0 -3364653.3501873016 -625073.45519413054 0 -625073.45519413054 -1792467.4878726006 0 0 0 0 118544.52899984969 -99279.126969376113 0 -99279.126969376113 35140.403101029806 0 0 0 0 -117419.35330963135 -128345.62193843722 0 -128345.62193843722 -74921.154091835022 0 0 0 0 -1485131.8057518005 -2088279.1017949423 0 -2088279.1017949423 -491837.85591059551 0 0 0 0 1515969.2638549805 475153.89004389942 0 475153.89004389942 -102494.34434747696 0 0 0 0 56437.25440278044 -14195.750131770503 0 -14195.750131770503 -62210.29256089939 0 0 0 0 143236.39674949646 -758709.89654288441 0 -758709.89654288441 -1041524.611479003 0 0 0 0 104828.25033901352 -119416.07645064895 0 -119416.07645064895 103299.16314578817 0 0 0 0 2286459.4791326523 -664034.31494060159 0 -664034.31494060159 -2538004.6434271038 0 0 0 0 -7673.1487443735823 -79326.120702578453 0 -79326.120702578453 91561.169554797612 0 0 0 0 40511.566233816557 -27855.551265425514 0 -27855.551265425514 -32108.568908088382 0 0 0 0 -197204.01340389252 -248473.66779967141 0 -248473.66779967141 -716979.78210023697 0 0 0 0 -1310979.0152213573 -1047854.2779389537 0 -1047854.2779389537 -617709.9504522495 0 0 0 0 442191.15284538269 -634323.95721196057 0 -634323.95721196057 -903955.0146910781 0 0 0 0 16256041.674175262 -949862.75503191352 0 -949862.75503191352 1821607.344060868 0 0 0 0 17608861.129810333 -2638188.6263292879 0 -2638188.6263292879 -1194852.3665292859 0 0 0 0 81502.350368581712 95955.329430830665 0 95955.329430830665 123228.4263924331 0 0 0 0 -3304773.2039222717 -1476272.3354628384 0 -1476272.3354628384 -4192443.2735260725 0 0 0 0 3288498.647485733 -2753089.0167229474 0 -2753089.0167229474 -6455496.2957589924 0 0 0 0 2496095.042265892 -1931014.5046434253 0 -1931014.5046434253 -5921287.5554814339 0 0 0 0 2340590.4839458466 -2297926.6736644506 0 -2297926.6736644506 -4858371.658398509 0 0 0 0 -1285054.2665100098 -2998265.6237882078 0 -2998265.6237882078 -4473746.8604902923 0 0 0 0 6401083.5978050232 -457880.77890568972 0 -457880.77890568972 -15810010.377294302 0 0 0 0 -3332077.5597873926 2480013.5867920415 0 2480013.5867920415 -7836817.8442527652 0 0 0 0 986795.58762741089 -5580590.32733953 0 -5580590.32733953 -5166531.1654707789 0 0 0 0 -954403.89255714417 -3278143.8044762909 0 -3278143.8044762909 -7189978.2619961798 0 0 0 0 16582150.786277294 -4885652.9730454702 0 -4885652.9730454702 8574614.377084434 0 0 0 0 35668685.262588501 -13561034.261692286 0 -13561034.261692286 -17608037.922635898 0 0 0 0 39590532.844459534 -20968228.425963312 0 -20968228.425963312 10501102.813025951 0 0 0 0 27295699.694953918 -16515463.628552318 0 -16515463.628552318 16329817.061549537 0 0 0 0 22992468.56401825 -11704126.111160219 0 -11704126.111160219 15726738.090299234 0 0 0 0 25537530.814128876 -4676675.0418382883 0 -4676675.0418382883 5649734.7418190837 0 0 0 0 36339195.501358032 -12570877.672002256 0 -12570877.672002256 9327297.1509257555 0 0 0 0 32365291.535612106 -4051707.2561580911 0 -4051707.2561580911 800014.3208258152 0 0 0 0 23819990.880712509 7074908.1151098907 0 7074908.1151098907 498000.87125837803 0 0 0 0 32389426.760166168 -2887045.4944327325 0 -2887045.4944327325 3082005.2298576236 0 0 0 0 26319153.597366333 1948773.2334698141 0 1948773.2334698141 638099.81387557834 0 0 0 0 21815242.421340942 583680.16952729225 0 583680.16952729225 1184780.0395563841 0 0 0 0 21076352.441169739 -196635.33868721128 0 -196635.33868721128 683660.22137594223 0 0 0 0 25169964.681521416 -4759966.5591682568 0 -4759966.5591682568 5769901.123285234 0 0 0 0 -21748.558173193538 -15987.688551856671 0 -15987.688551856671 1725.0942063176803 0 0 0 0 11076169.526175499 4257639.7105027512 0 4257639.7105027512 4002575.0803582668 0 0 0 0 922048.62669086456 190286.63722185139 0 190286.63722185139 -203996.16216056119 0 0 0 0 22592.343647356611 26305.271058314014 0 26305.271058314014 68141.307527967292 0 0 0 0 16658749.185811043 877794.12829745561 0 877794.12829745561 1803738.9203373045 0 0 0 0 22254612.718269348 2530849.5055911094 0 2530849.5055911094 -1553667.5822680146 0 0 0 0 18861584.028429031 3967456.9491333291 0 3967456.9491333291 -426543.79259292781 0 0 0 0 -13016.32621337357 -6277.3339224983938 0 -6277.3339224983938 12419.211609262646 0 0 0 0 4961785.6994094849 1492212.0874845833 0 1492212.0874845833 564144.3278324604 0 0 0 0 9638.6686901398934 28644.231937848963 0 28644.231937848963 45797.734783379594 0 0 0 0 20102459.243062973 4005076.097930409 0 4005076.097930409 -1428378.0223378837 0 0 0 0 19434952.516021729 3301915.2691665515 0 3301915.2691665515 305671.51894973218 0 0 0 0 21969561.74423027 -372210.7349608019 0 -372210.7349608019 -139570.12634208798 0 0 0 0 21721645.092021942 2668269.9015901238 0 2668269.9015901238 -1061849.459000349 0 0 0 0 20819566.102212906 2387216.8262798116 0 2387216.8262798116 9494.6317757070065 0 0 0 0 19236036.462036133 2774184.705246821 0 2774184.705246821 -1045529.7299842034 0 0 0 0 16385714.946979523 492681.96572671831 0 492681.96572671831 -26517.842157237232 0 0 0 0 19621934.956908226 2403304.7860585675 0 2403304.7860585675 -927581.81052723527 0 0 0 0 16389405.702190399 690562.65804762393 0 690562.65804762393 -669088.119872774 0 0 0 0 18250486.982528687 3448422.670465555 0 3448422.670465555 697564.0130276233 0 0 0 0 15235311.678714752 1526139.1215473786 0 1526139.1215473786 -547872.65609812737 0 0 0 0 26242450.196904182 3852902.3281358816 0 3852902.3281358816 -988995.37114731967 0 0 0 0 -2758.6145098165725 2912.8708244916052 0 2912.8708244916052 3919.2664047239414 0 0 0 0 8574164.6215820312 -4937414.5323553234 0 -4937414.5323553234 -169822.78455558419 0 0 0 0 21029171.443552017 1483416.4655993953 0 1483416.4655993953 358730.64171303227 0 0 0 0 19446322.332202911 1310862.6620096266 0 1310862.6620096266 -297386.74102365598 0 0 0 0 17480522.027785301 2175173.0991537226 0 2175173.0991537226 -131376.29145877808 0 0 0 0 14252745.757544518 7755428.2541103046 0 7755428.2541103046 1716428.9563439786 0 0 0 0 17094812.952903748 2610435.4251710288 0 2610435.4251710288 2090223.4915148397 0 0 0 0 19544215.040513992 5309960.8878204897 0 5309960.8878204897 2428682.9673738107 0 0 0 0 17774152.959545135 1687818.5189514356 0 1687818.5189514356 -708502.19189096242 0 0 0 0 12615873.05622673 -1096408.4181828797 0 -1096408.4181828797 -272608.24255783856 0 0 0 0 15768427.477547169 966027.06851806585 0 966027.06851806585 -1070204.1801770031 0 0 0 0 15434348.439544678 1335979.4512202516 0 1335979.4512202516 1391733.0664339736 0 0 0 0 11642162.145709991 65788.747774031013 0 65788.747774031013 311572.05738812871 0 0 0 0 11567121.827066422 -1299979.7908068486 0 -1299979.7908068486 -992264.01197042968 0 0 0 0 6151898.9261455536 301183.25326584652 0 301183.25326584652 407391.95968703926 0 0 0 0 8544571.4678630829 -1695871.2793843448 0 -1695871.2793843448 102458.81480067968 0 0 0 0 10350520.288175583 633239.46524488553 0 633239.46524488553 -329095.02537838742 0 0 0 0 4118420.961270988 -438301.56110707344 0 -438301.56110707344 1595077.836282447 0 0 0 0 9570596.4318313599 -4025909.8030810691 0 -4025909.8030810691 -259336.55076367967 0 0 0 0 15954474.399879456 3807654.8360239267 0 3807654.8360239267 -6541091.9372139573 0 0 0 0 118997.69654422952 133317.60759720067 0 133317.60759720067 137154.30170289759 0 0 0 0 23788203.116681099 15269114.120864138 0 15269114.120864138 3545260.681417346 0 0 0 0 4175293.9005995393 1087170.2229122189 0 1087170.2229122189 285431.8156016469 0 0 0 0 13033667.02967453 21064715.20553863 0 21064715.20553863 46399045.329273224 0 0 0 0 3823080.2982807159 -2597957.0422136588 0 -2597957.0422136588 -314778.51054542698 0 0 0 0 5441651.4199447632 -1149968.8989326954 0 -1149968.8989326954 -1855726.6694208868 0 0 0 0 3963358.3501853943 -1836827.2827035971 0 -1836827.2827035971 391057.49779040401 0 0 0 0 447410.78512334824 1458176.252260237 0 1458176.252260237 471591.00731007382 0 0 0 0 7485577.4059076309 733141.28155723307 0 733141.28155723307 -264909.95573283359 0 0 0 0 8843629.7525281906 -1611342.107031289 0 -1611342.107031289 -741029.69841995742 0 0 0 0 4477621.9762864113 1119646.972828018 0 1119646.972828018 437059.12601526268 0 0 0 0 3068035.4801545143 -1299067.8252338646 0 -1299067.8252338646 -866726.08045412414 0 0 0 0 14386598.906124115 973281.48075887747 0 973281.48075887747 59720.23947880941 0 0 0 0 16684186.151491165 2317280.5362622123 0 2317280.5362622123 146657.08641156927 0 0 0 0 14873777.327096939 595426.98520746827 0 595426.98520746827 -192370.69937496353 0 0 0 0 14452888.637876511 -416715.35848796461 0 -416715.35848796461 -1083814.0919682486 0 0 0 0 14760324.015871525 933185.13219807809 0 933185.13219807809 -1193849.8124557808 0 0 0 0 10394895.370117188 1225664.3051406816 0 1225664.3051406816 76955.10344341211 0 0 0 0 17959394.499352574 2015666.1337901675 0 2015666.1337901675 -1151095.3936410658 0 0 0 0 13428799.195374489 1856621.6716526963 0 1856621.6716526963 357390.65995125985 0 0 0 0 12684238.434296608 -41421.590366242919 0 -41421.590366242919 -1039838.0034443764 0 0 0 0 11902749.235198796 1385826.5968452864 0 1385826.5968452864 -4152.3871387041027 0 0 0 0 15596708.837909222 600120.31940708205 0 600120.31940708205 -664200.39782363642 0 0 0 0 11902646.674858093 1386132.7129135965 0 1386132.7129135965 3595.5512857109397 0 0 0 0 7601461.3851976395 254726.03783566269 0 254726.03783566269 830301.4018149476 0 0 0 0 6940555.7571058273 -1324140.4808421296 0 -1324140.4808421296 -788655.17709176487 0 0 0 0 3210858.4976625443 1488909.9386719691 0 1488909.9386719691 2259.9508055596671 0 0 0 0 1365058.9997739792 -787284.69907458243 0 -787284.69907458243 -281119.1951017743 0 0 0 0 75369.270113887731 30386.901188312564 0 30386.901188312564 -13683.339239647787 0 0 0 0 -1212311.0734677315 1349213.8894238076 0 1349213.8894238076 -108.99710981574208 0 0 0 0 47939739.951766968 -10644540.776003238 0 -10644540.776003238 -2816143.1881612614 0 0 0 0 21753535.009555817 15630546.61599461 0 15630546.61599461 35688.191514420156 0 0 0 0 -8932610.8617515564 16655367.998754177 0 16655367.998754177 -21944.846019175493 0 0 0 0 5388655.5956172943 2026221.9469012357 0 2026221.9469012357 1846975.2418976799 0 0 0 0 4462571.3873147964 13325829.285000432 0 13325829.285000432 2347288.2877149954 0 0 0 0 -6808509.1470165253 6301986.7592882738 0 6301986.7592882738 4607671.3660470843 0 0 0 0 11993003.897583008 -2847556.1623726189 0 -2847556.1623726189 7361461.0300525129 0 0 0 0 18339577.989774704 3540422.9332971871 0 3540422.9332971871 -1814367.5147865564 0 0 0 0 4017215.2376079559 7473062.1144483685 0 7473062.1144483685 56851.699666462839 0 0 0 0 3770844.3752536774 3462512.7944891006 0 3462512.7944891006 2424299.7753273845 0 0 0 0 -2814415.7661380768 6622402.4884774536 0 6622402.4884774536 204414.64401897788 0 0 0 0 3972893.1032646 7818957.8805792863 0 7818957.8805792863 29667.730026856065 0 0 0 0 3769081.0438461304 5656377.9639953971 0 5656377.9639953971 -4023805.0630674362 0 0 0 0 -2766731.4058456421 3535108.2075279653 0 3535108.2075279653 -4108349.5814763615 0 0 0 0 11011892.113854885 360056.8646505326 0 360056.8646505326 -4995565.9800103903 0 0 0 0 503424.55832672119 3231665.1506994665 0 3231665.1506994665 -3983496.2937706858 0 0 0 0 4449857.2244782448 -3782781.3876871765 0 -3782781.3876871765 6621558.1634899229 0 0 0 0 130312.85404912475 124028.50387601275 0 124028.50387601275 84430.236973882347 0 0 0 0 14036023.228815079 3096785.9410528541 0 3096785.9410528541 -4593314.1547392607 0 0 0 0 17898519.616392136 -6027292.5345588624 0 -6027292.5345588624 -13829287.082857072 0 0 0 0 -485148.78629970551 1684108.32762066 0 1684108.32762066 119892.16070306883 0 0 0 0 103166.0350590162 73740.798430807889 0 73740.798430807889 22472.804274605238 0 0 0 0 24010375.145349503 -7531811.3571996726 0 -7531811.3571996726 1088604.67368415 0 0 0 0 1082735.0329685211 685573.48345086584 0 685573.48345086584 309181.82304398483 0 0 0 0 1573907.8857746124 190378.22448731144 0 190378.22448731144 363592.60662639141 0 0 0 0 196706.56212835945 82782.399903725367 0 82782.399903725367 27968.173023159852 0 0 0 0 129544.27768524492 10051.14938608557 0 10051.14938608557 -417.99356088055856 0 0 0 0 -1453646.491828382 424846.58055654378 0 424846.58055654378 703361.9735301265 0 0 0 0 3676086.8959350586 1743280.8786375227 0 1743280.8786375227 -4778.0586799079838 0 0 0 0 838412.98492336273 -281626.9832622807 0 -281626.9832622807 72878.710575039499 0 0 0 0 941242.7841835022 1311039.5658184215 0 1311039.5658184215 214957.2938770504 0 0 0 0 921668.86744689941 1108440.5528557766 0 1108440.5528557766 103.63389231335958 0 0 0 0 65538.337095144903 64645.71924367873 0 64645.71924367873 6097.9987287470394 0 0 0 0 2925717.4473819733 836477.88420776522 0 836477.88420776522 -664942.16986497608 0 0 0 0 -30975848.168838978 148298.06590809301 0 148298.06590809301 7991371.1652771235 0 0 0 0 -5162202.0050563812 3672060.3677320406 0 3672060.3677320406 -2406345.7098107263 0 0 0 0 -7220925.7699728012 4681582.0648280829 0 4681582.0648280829 2161516.3906766623 0 0 0 0 -3424712.701967001 5058191.5040864646 0 5058191.5040864646 98965.37313567102 0 0 0 0 2073880.9092330933 1349137.0696079582 0 1349137.0696079582 -1920794.8347473219 0 0 0 0 711710.0714931488 847328.42132217437 0 847328.42132217437 260140.32792297564 0 0 0 0 274849.83908632002 154046.33565670671 0 154046.33565670671 -75512.390643064675 0 0 0 0 120768.96676216368 102819.95303561399 0 102819.95303561399 -34654.638371844478 0 0 0 0 2415415.6377248764 1074819.2182972399 0 1074819.2182972399 -448045.09563254938 0 0 0 0 1285299.902130127 -379177.17377227638 0 -379177.17377227638 -93037.561607208103 0 0 0 0 2279491.2832506001 297335.26581296296 0 297335.26581296296 -123001.47377779894 0 0 0 0 193139.00135819474 30830.16128805466 0 30830.16128805466 -2387.4867418199656 0 0 0 0 -550639.54507064819 598301.031912609 0 598301.031912609 652886.27934884094 0 0 0 0 353863.14118214708 120853.83157578157 0 120853.83157578157 -11087.47598035491 0 0 0 0 1177322.4915628433 411848.53349651862 0 411848.53349651862 -457521.82153681293 0 0 0 0 871550.45839691162 194644.96067573316 0 194644.96067573316 -48892.183729759417 0 0 0 0 1696124.7463893481 253018.42521552014 0 253018.42521552014 -156793.50310334563 0 0 0 0 1691932.9846725464 705964.45868165791 0 705964.45868165791 -114952.67641422153 0 0 0 0 1342048.1859652996 228998.73359044269 0 228998.73359044269 -94213.8008454144 0 0 0 0 1444054.6109876633 606287.58232152835 0 606287.58232152835 -129792.69886344671 0 0 0 0 889207.48067033198 449637.2057784457 0 449637.2057784457 -20880.400299422981 0 0 0 0 202268.13657783996 306791.93298389099 0 306791.93298389099 25661.739186794963 0 0 0 0 317059.86462664604 29207.044045345858 0 29207.044045345858 -10906.875675976276 0 0 0 0 1290919.4471578598 583403.72725626826 0 583403.72725626826 -85476.773878954351 0 0 0 0 353202.11654767138 352399.19007374765 0 352399.19007374765 -4778.5740114742075 0 0 0 0 342253.20296471147 291884.96991189895 0 291884.96991189895 -32250.988847674511 0 0 0 0 3829625.7541313171 851923.59459751844 0 851923.59459751844 76652.74960142374 0 0 0 0 3910100.6011238098 925602.2578291893 0 925602.2578291893 -225660.51354181767 0 0 0 0 2573932.6888208389 8430.9641797989607 0 8430.9641797989607 12438.109783649445 0 0 0 0 1687683.2608680725 -341973.83877044916 0 -341973.83877044916 75116.948665782809 0 0 0 0 2636453.8503398895 -152947.12385250628 0 -152947.12385250628 428732.10501110554 0 0 0 0 3813060.7567596436 -280185.61789405346 0 -280185.61789405346 424407.25659298897 0 0 0 0 4384071.9744777679 -887766.73578108847 0 -887766.73578108847 1026378.5205552578 0 0 0 0 7070153.561964035 -490172.27081635594 0 -490172.27081635594 946864.84727799892 0 0 0 0 3262926.031042099 3515303.1939642876 0 3515303.1939642876 -1618545.1120321155 0 0 0 0 1330650.8064308167 444740.98515971005 0 444740.98515971005 -58919.549576118588 0 0 0 0 -24389.264517512172 22087.349467833294 0 22087.349467833294 17631.206895481999 0 0 0 0 6990957.187210083 3692262.1278096437 0 3692262.1278096437 -337347.24658107758 0 0 0 0 2373391.1991477013 373605.73338835686 0 373605.73338835686 1468008.0085695982 0 0 0 0 2846288.4576683044 -132127.58497899771 0 -132127.58497899771 1942422.2499474883 0 0 0 0 1911679.3542785645 -330036.60564345121 0 -330036.60564345121 370408.03314268589 0 0 0 0 844987.23494911194 -572546.924215734 0 -572546.924215734 576437.30147609115 0 0 0 0 452206.69085502625 5530509.128048867 0 5530509.128048867 -7954451.5831978321 0 0 0 0 7250.7121349712834 -38784.237772536871 0 -38784.237772536871 -13405.853037692232 0 0 0 0 2397551.4530198574 264979.28559539467 0 264979.28559539467 772229.22125434875 0 0 0 0 883998.81897735596 -766203.2575429678 0 -766203.2575429678 609763.97854493558 0 0 0 0 1599316.3300056458 -368186.98809887469 0 -368186.98809887469 112716.05943894386 0 0 0 0 1670842.6229057312 -628376.50315076113 0 -628376.50315076113 514357.63554923236 0 0 0 0 914523.78442764282 -516683.55484622717 0 -516683.55484622717 246976.90575096011 0 0 0 0 634754.45808696747 -410528.98164232075 0 -410528.98164232075 276169.33727306128 0 0 0 0 958858.21488714218 -700735.42693348229 0 -700735.42693348229 -522069.23975074291 0 0 0 0 -40943.867849826813 -1244937.5268601328 0 -1244937.5268601328 -349640.81703841686 0 0 0 0 1178137.9521574378 -11816.426846691873 0 -11816.426846691873 28459.428865432739 0 0 0 0 -275989.68256568909 -318637.68982896209 0 -318637.68982896209 60412.304555058479 0 0 0 0 1183540.9745826721 -655591.14575207233 0 -655591.14575207233 -468069.30551576614 0 0 0 0 328338.03753852844 562411.39988434315 0 562411.39988434315 -559747.03248047829 0 0 0 0 1004195.9060249329 569784.81941658258 0 569784.81941658258 -1064443.9413259029 0 0 0 0 2757240.4893913269 2172391.8580807596 0 2172391.8580807596 1476291.9813522696 0 0 0 0 2309513.8605988026 2000056.7202640697 0 2000056.7202640697 1468547.9124647379 0 0 0 0 1704575.2933998108 1878471.1273841858 0 1878471.1273841858 1378070.2658571005 0 0 0 0 2339472.1683177948 2499576.1621674644 0 2499576.1621674644 1772130.5038248301 0 0 0 0 41527.262722086161 24941.827227389673 0 24941.827227389673 -21309.847019149718 0 0 0 0 2545091.7036442757 2621465.8259097114 0 2621465.8259097114 1743539.2091185451 0 0 0 0 1516172.6445198059 -1303474.5778664947 0 -1303474.5778664947 3451462.0113680065 0 0 0 0 1900107.4361953735 -271461.17788386345 0 -271461.17788386345 -636401.6897598505 0 0 0 0 1745250.3926200867 59176.31915640831 0 59176.31915640831 -1276876.6918532252 0 0 0 0 666090.94968095329 7104.2638248994481 0 7104.2638248994481 -54223.085062408121 0 0 0 0 1788393.2297706604 -443872.91324734688 0 -443872.91324734688 -919308.52017921209 0 0 0 0 517440.11539459229 818022.93345868587 0 818022.93345868587 439804.07005703449 0 0 0 0 129984.67555045523 78708.076241129776 0 78708.076241129776 -66068.648068830429 0 0 0 0 1603595.1481437683 -531469.56737756729 0 -531469.56737756729 -336082.18324011564 0 0 0 0 1818595.6069440842 49357.185021340847 0 49357.185021340847 225552.1233394146 0 0 0 0 2039822.3120689392 -196434.98346084356 0 -196434.98346084356 -796119.55048578978 0 0 0 0 2182725.4944877625 514758.46165990829 0 514758.46165990829 -586331.18169819936 0 0 0 0 1904407.7212085724 15948.744981408119 0 15948.744981408119 -923079.00699579716 0 0 0 0 1931382.7984905243 139350.57198116183 0 139350.57198116183 -495037.23400175571 0 0 0 0 964777.59654426575 5333.315751940012 0 5333.315751940012 -461803.86359703541 0 0 0 0 2440164.707113266 -219247.31230378151 0 -219247.31230378151 -430129.06262505054 0 0 0 0 2559298.1321392059 241635.01983815432 0 241635.01983815432 -468182.07994681597 0 0 0 0 2538822.6730155945 723099.14623120427 0 723099.14623120427 -24611.679257720709 0 0 0 0 1300081.0941295624 148917.91470788419 0 148917.91470788419 -89921.356063485146 0 0 0 0 403751.44706843118 245589.23216784047 0 245589.23216784047 -43633.471276859898 0 0 0 0 3090539.0697212219 667339.2749067843 0 667339.2749067843 -558409.62347555161 0 0 0 0 170313.16495334846 367958.5235780552 0 367958.5235780552 -60723.807381782972 0 0 0 0 1386935.2558779716 800598.41322285682 0 800598.41322285682 67617.037395000458 0 0 0 0 336921.53839308757 332591.22987186583 0 332591.22987186583 -115534.19180003773 0 0 0 0 821564.06336402893 219793.55759955943 0 219793.55759955943 22037.027047365904 0 0 0 0 1937411.4656257629 -72546.873589813709 0 -72546.873589813709 -455073.27090537548 0 0 0 0 892982.66500473022 1070104.6095468998 0 1070104.6095468998 329660.71893405914 0 0 0 0 2923814.9107017517 361589.5051798597 0 361589.5051798597 -213383.70486536622 0 0 0 0 1518808.0930404663 495744.07254429162 0 495744.07254429162 733884.57023224235 0 0 0 0 2285644.9886684418 1162625.052870959 0 1162625.052870959 48713.240104466677 0 0 0 0 2009729.765789032 675298.84756964445 0 675298.84756964445 -113439.54227498174 0 0 0 0 1903371.9608588219 464677.35009527951 0 464677.35009527951 -223205.56984528899 0 0 0 0 1791224.2492542267 3000017.9604571164 0 3000017.9604571164 7704317.1653342843 0 0 0 0 1040308.6904811859 2712844.9056482911 0 2712844.9056482911 7899104.1860045195 0 0 0 0 1888394.5319519043 4095900.4299850762 0 4095900.4299850762 5382723.094391346 0 0 0 0 1817419.0089950562 4709073.4951527715 0 4709073.4951527715 5836300.9510118365 0 0 0 0 1746736.5993025303 5084476.5828039609 0 5084476.5828039609 11136609.78726244 0 0 0 0 4816545.6478404999 8233689.8613661528 0 8233689.8613661528 4679088.7965754569 0 0 0 0 777417.92655944824 10188946.296801537 0 10188946.296801537 32228545.469995677 0 0 0 0 7151563.7113609314 13341479.155668169 0 13341479.155668169 15323599.925850723 0 0 0 0 1552014.0854377747 2416828.239862442 0 2416828.239862442 14559944.471254449 0 0 0 0 1811255.3371963501 2196529.7481802702 0 2196529.7481802702 8739206.2499982715 0 0 0 0 13525973.450103521 -4215866.9276741482 0 -4215866.9276741482 -18516322.878615439 0 0 0 0 52996.438054510392 -9542.9746015647252 0 -9542.9746015647252 -6289.0712308954826 0 0 0 0 -13141019.010146141 -42630583.667082131 0 -42630583.667082131 16185030.102266788 0 0 0 0 12966334.346250534 -6083855.813282907 0 -6083855.813282907 -12771766.083073884 0 0 0 0 162792.71311738528 -26605.942281966854 0 -26605.942281966854 -24888.801228671589 0 0 0 0 -1345306.5285072327 3775928.5015748143 0 3775928.5015748143 -9408357.8733791113 0 0 0 0 135607.46812438965 -5120958.1468347609 0 -5120958.1468347609 -9436094.1816827357 0 0 0 0 -3455009.7515602112 -4990006.2653099597 0 -4990006.2653099597 -24497018.679265082 0 0 0 0 7540.1697833100334 6512.8782506273128 0 6512.8782506273128 -8606.8655482777831 0 0 0 0 3995215.0457501411 5291076.5291767865 0 5291076.5291767865 -13582296.747742355 0 0 0 0 4977508.2645564079 4624825.1513274685 0 4624825.1513274685 -17073242.811088949 0 0 0 0 12115.204929398373 -120172.86838332086 0 -120172.86838332086 -39195.227413695393 0 0 0 0 5324682.7300319672 1256319.1821006835 0 1256319.1821006835 -14869639.77596736 0 0 0 0 -330342.47401618958 -144394.03736034036 0 -144394.03736034036 458857.00422145426 0 0 0 0 598002.69483184814 -623191.38780263066 0 -623191.38780263066 -909676.48084157705 0 0 0 0 -396692.72602653503 -374535.02518837154 0 -374535.02518837154 -106020.34666579962 0 0 0 0 258427.72898185998 -18803.882376974449 0 -18803.882376974449 9305.7817680200678 0 0 0 0 1319277.5520782471 2602362.1417245045 0 2602362.1417245045 4891763.0486101508 0 0 0 0 2118812.5017585754 3800468.3206960857 0 3800468.3206960857 4286716.5457798392 0 0 0 0 2755391.2301597595 2645845.7484186888 0 2645845.7484186888 3027608.3858735561 0 0 0 0 3365094.5794773102 3755768.184356004 0 3755768.184356004 1441980.3476994336 0 0 0 0 307648.06628799438 -1419835.4093340039 0 -1419835.4093340039 -717957.12018227577 0 0 0 0 2306237.3887023926 3765074.281437993 0 3765074.281437993 1522450.356727615 0 0 0 0 2849299.9018640518 3143616.1049870104 0 3143616.1049870104 2201404.26941064 0 0 0 0 365834.41399305407 -48168.258345142473 0 -48168.258345142473 37190.428660132777 0 0 0 0 3207517.4140357971 2845662.0428112596 0 2845662.0428112596 1151900.6398283541 0 0 0 0 2399726.4999961853 2368473.8174958229 0 2368473.8174958229 2159918.9426744524 0 0 0 0 2974473.7840690613 2034038.2772130072 0 2034038.2772130072 124873.48700225353 0 0 0 0 2935345.7420387268 2343140.8135611415 0 2343140.8135611415 838383.9706517756 0 0 0 0 3103464.9685554504 2312155.440366894 0 2312155.440366894 377654.65641693771 0 0 0 0 3849092.3840084076 2593016.6422636211 0 2593016.6422636211 -483577.20133265853 0 0 0 0 3532382.4297237396 1332853.374353826 0 1332853.374353826 -2436260.7687488347 0 0 0 0 5021128.7492408752 3787637.9760527015 0 3787637.9760527015 -807293.2674484551 0 0 0 0 3311301.949988246 3253044.8402793501 0 3253044.8402793501 1139985.1526060104 0 0 0 0 4324820.6559581757 5467496.8504731059 0 5467496.8504731059 2611313.6434885561 0 0 0 0 4324403.4547954649 5544560.1195509601 0 5544560.1195509601 2824638.3504647613 0 0 0 0 9360781.3709411621 6688467.5899530649 0 6688467.5899530649 -359261.8270599544 0 0 0 0 10757638.126241684 1111054.9463322163 0 1111054.9463322163 -6009378.9069511294 0 0 0 0 6808163.1383590698 1009329.0798926055 0 1009329.0798926055 -4256394.5276293606 0 0 0 0 1477607.4570789337 -901639.97804602981 0 -901639.97804602981 -3456787.1886968017 0 0 0 0 4348686.9352750778 2274821.846584484 0 2274821.846584484 -2498128.2971158028 0 0 0 0 2303983.2446064949 -1701952.8756061047 0 -1701952.8756061047 -4648158.2744356394 0 0 0 0 482895.21444892883 -775671.03357975185 0 -775671.03357975185 -2823272.810915947 0 0 0 0 2529041.0899190903 -1287894.2971180975 0 -1287894.2971180975 -4474433.9691109955 0 0 0 0 2979160.6678218842 344651.1078927964 0 344651.1078927964 -2811187.9980144948 0 0 0 0 3089068.9983844757 1096047.1476099789 0 1096047.1476099789 -1844567.2187965959 0 0 0 0 1215656.6194829941 -766339.24064059556 0 -766339.24064059556 -2083380.3808457851 0 0 0 0 546615.3375210762 -284128.27889850736 0 -284128.27889850736 -1335583.547291249 0 0 0 0 -549660.90950298309 -2395404.6139177904 0 -2395404.6139177904 -2880845.1463310453 0 0 0 0 823133.69828128815 -778535.39948722348 0 -778535.39948722348 -1529683.485301597 0 0 0 0 781692.52857232094 -472361.18997032288 0 -472361.18997032288 -900721.76116630435 0 0 0 0 2240470.4965248108 151486.66903480887 0 151486.66903480887 -1581303.3077746704 0 0 0 0 5181462.6965847015 -1934435.5650496483 0 -1934435.5650496483 -2989927.4908853173 0 0 0 0 6217349.2237262726 -7015347.8635908961 0 -7015347.8635908961 -7188512.3945039511 0 0 0 0 348344.25769768748 9446.8311231154948 0 9446.8311231154948 122694.89011509701 0 0 0 0 2061957.4964981079 262784.3261856921 0 262784.3261856921 -216464.92438267847 0 0 0 0 2068748.4664115906 263334.68216063827 0 263334.68216063827 -486313.21512946114 0 0 0 0 1491294.2609386444 173791.78959337249 0 173791.78959337249 -558795.62381644547 0 0 0 0 1542670.196688652 53137.948667779565 0 53137.948667779565 -499148.3999722749 0 0 0 0 2588633.5516357422 692267.26135878265 0 692267.26135878265 -1024724.0141181722 0 0 0 0 2335648.4132080078 235798.42387729883 0 235798.42387729883 -1193254.299744755 0 0 0 0 2242152.2640626431 530360.10295978002 0 530360.10295978002 -589552.3258446455 0 0 0 0 2709092.6683959961 937677.78998817503 0 937677.78998817503 -748503.30917312205 0 0 0 0 2530592.5534920692 862456.62515467033 0 862456.62515467033 -742073.57580122352 0 0 0 0 3029934.3689575195 1561085.0983073413 0 1561085.0983073413 -572773.12520429492 0 0 0 0 2864060.0332012177 1150501.3275638521 0 1150501.3275638521 -1024097.0474358797 0 0 0 0 2931038.2072143555 1264648.1195127666 0 1264648.1195127666 -928760.3198300153 0 0 0 0 3044961.1359462738 1158277.2384210229 0 1158277.2384210229 -1525209.1972110309 0 0 0 0 2174248.6784410477 264055.12143095583 0 264055.12143095583 -1405790.0151373148 0 0 0 0 3177209.6169605255 1346417.9965240955 0 1346417.9965240955 -1373879.9873650819 0 0 0 0 2795624.2893204689 1229884.2875495963 0 1229884.2875495963 -1135087.1187654734 0 0 0 0 3451861.1739044189 1856505.1061230153 0 1856505.1061230153 -820920.33474361897 0 0 0 0 2928331.9671726227 1611209.9205047488 0 1611209.9205047488 -597272.41828143597 0 0 0 0 3043099.5385818481 2015743.4374768883 0 2015743.4374768883 129709.63682377338 0 0 0 0 2734985.2281074524 1793162.2712245882 0 1793162.2712245882 182310.05209380388 0 0 0 0 2867534.5105230808 1883724.5645471625 0 1883724.5645471625 99407.475917577744 0 0 0 0 2626702.7063999176 1557818.6523301154 0 1557818.6523301154 -303132.9485964179 0 0 0 0 2570814.5253543854 1627085.3638864756 0 1627085.3638864756 179602.92261052132 0 0 0 0 2069207.4285640717 1543182.0576649904 0 1543182.0576649904 245551.13788408041 0 0 0 0 2638334.697924614 2072242.8250791505 0 2072242.8250791505 736159.98217689991 0 0 0 0 1452409.490737915 1540683.7661965489 0 1540683.7661965489 1003775.6112868786 0 0 0 0 2155389.4574203491 1062987.0381450579 0 1062987.0381450579 292834.88497009128 0 0 0 0 1654301.2978391647 948589.40951865539 0 948589.40951865539 227771.85890388489 0 0 0 0 618260.22843933105 393282.32290303707 0 393282.32290303707 27245.624148011208 0 0 0 0 2279906.2541713715 1044261.6188526712 0 1044261.6188526712 -68886.077799811959 0 0 0 0 2494472.6186323166 1391138.3256504089 0 1391138.3256504089 -73487.094100594521 0 0 0 0 2637513.7387943268 1263464.0245353878 0 1263464.0245353878 -436581.53479316831 0 0 0 0 2773056.6662945747 1410335.1797289699 0 1410335.1797289699 -284081.46934360266 0 0 0 0 5045305.928894043 3156282.565512985 0 3156282.565512985 2605547.3975249231 0 0 0 0 2170533.0788755417 1386794.0790230334 0 1386794.0790230334 1938075.7469702065 0 0 0 0 -2475226.0583381653 3659563.6290741637 0 3659563.6290741637 -2703999.3281986713 0 0 0 0 915052.18334531784 249323.73732673377 0 249323.73732673377 -160608.96160528064 0 0 0 0 238651.65933686867 205729.88504705578 0 205729.88504705578 -18936.324430363369 0 0 0 0 1037280.0655963835 23551.681021431228 0 23551.681021431228 -261883.26808954871 0 0 0 0 1225863.7528148219 208761.26146734389 0 208761.26146734389 -354275.7474807172 0 0 0 0 32470007.207519531 30146333.664308384 0 30146333.664308384 -266487.83427488804 0 0 0 0 267556.12169718742 -12115897.889030021 0 -12115897.889030021 3494643.7425373197 0 0 0 0 533408.38683177566 448983.69315816136 0 448983.69315816136 -40797.174582958221 0 0 0 0 -4996110.600982666 -567006.0106908232 0 -567006.0106908232 20652926.540820479 0 0 0 0 673240.4044418335 -2970894.5909534693 0 -2970894.5909534693 -5960818.8545564413 0 0 0 0 11895047.682714462 6361284.6053284407 0 6361284.6053284407 -351110.33362820745 0 0 0 0 222778.88658649568 43410.893849684391 0 43410.893849684391 6603.3313622237183 0 0 0 0 2206210.4547376633 -15341781.672775678 0 -15341781.672775678 -13335603.002704233 0 0 0 0 154574.0043908013 63614.840783907101 0 63614.840783907101 -82858.724370159791 0 0 0 0 -814740.6962146759 1180749.4981664121 0 1180749.4981664121 495292.23399683833 0 0 0 0 -5380700.2013177872 -7432762.4189634845 0 -7432762.4189634845 3574321.1892180443 0 0 0 0 7372347.3363032937 976300.09549794067 0 976300.09549794067 136987.86691969633 0 0 0 0 18953009.521425247 19053971.243384391 0 19053971.243384391 15521221.507317156 0 0 0 0 2971615.2109126598 -495365.38308525865 0 -495365.38308525865 -339049.07108026743 0 0 0 0 89159.566592117772 16722.97485122073 0 16722.97485122073 -8540.2762102367196 0 0 0 0 10332663.551307678 8061030.0388780534 0 8061030.0388780534 1618131.8209815621 0 0 0 0 3069382.7391448766 5308458.7992172409 0 5308458.7992172409 4043807.9825214148 0 0 0 0 13077607.23431778 1614173.8398542106 0 1614173.8398542106 -6069826.6440192759 0 0 0 0 7358611.6482276917 943859.16915854812 0 943859.16915854812 -3282213.4501125216 0 0 0 0 54862117.373497009 2656637.5731636882 0 2656637.5731636882 -12995085.963408113 0 0 0 0 48467277.329151869 -47400989.258055493 0 -47400989.258055493 -20927947.677804232 0 0 0 0 -320003.03970909119 -36965545.204101861 0 -36965545.204101861 -909404.21367537975 0 0 0 0 559272.89844896784 431609.20305437595 0 431609.20305437595 71844.427549329368 0 0 0 0 -22439855.31761837 -7823166.147622481 0 -7823166.147622481 7079227.2266867459 0 0 0 0 -4834810.2598228455 9687616.9536731318 0 9687616.9536731318 -5926107.023835361 0 0 0 0 4451902.2353115082 -88451.467600747943 0 -88451.467600747943 -4755799.5777951479 0 0 0 0 7111040.1326580048 3556632.865527764 0 3556632.865527764 -3553235.4550536573 0 0 0 0 9239992.7047567368 3770008.3397910297 0 3770008.3397910297 -5234281.7935673594 0 0 0 0 13144637.430046082 -2508994.3986610472 0 -2508994.3986610472 -6639374.7111374103 0 0 0 0 2766508.1733493805 826636.98670765385 0 826636.98670765385 -581232.89902994782 0 0 0 0 2705402.1713352203 955150.66849063337 0 955150.66849063337 -296266.73898767307 0 0 0 0 2702226.6642827988 673002.43274913356 0 673002.43274913356 24560.71016866155 0 0 0 0 3608101.4114990234 924189.61085442081 0 924189.61085442081 -341875.75851663575 0 0 0 0 2566115.3033208847 871424.25074857846 0 871424.25074857846 -230653.97923077643 0 0 0 0 2376010.8987011909 521579.90654465696 0 521579.90654465696 174839.74754883349 0 0 0 0 2292425.4094071388 240199.49621021887 0 240199.49621021887 -418156.90704795718 0 0 0 0 3223862.8612318039 652917.12668996677 0 652917.12668996677 -264122.50346950162 0 0 0 0 1957911.5346327741 455626.71655412717 0 455626.71655412717 -297805.92279859784 0 0 0 0 6031077.3385715485 -2021551.6713538468 0 -2021551.6713538468 -2549448.1773120612 0 0 0 0 1695110.3416748047 4346436.3652881309 0 4346436.3652881309 4260493.919970423 0 0 0 0 6580696.5480666161 -2894383.3660676517 0 -2894383.3660676517 1914276.1159383655 0 0 0 0 94258.172154789791 387880.9033513313 0 387880.9033513313 -46390.326746356819 0 0 0 0 4811099.0034828186 -9546245.6520634517 0 -9546245.6520634517 7738010.4928874224 0 0 0 0 1029542.4009930172 404051.03699647821 0 404051.03699647821 47416.110915873251 0 0 0 0 10662149.236958265 6319555.5403612647 0 6319555.5403612647 -11366013.927395731 0 0 0 0 -3745115.521797955 -364840.35164175299 0 -364840.35164175299 1814629.0820648372 0 0 0 0 5822990.0368776321 -2134715.1113090329 0 -2134715.1113090329 -5104028.0731168166 0 0 0 0 6976635.3792529106 4527583.0792692956 0 4527583.0792692956 -1544278.479334496 0 0 0 0 1533120.754108429 419843.78305869177 0 419843.78305869177 -1938310.8748881449 0 0 0 0 1893581.1708147526 476880.51781194285 0 476880.51781194285 -482689.47706240416 0 0 0 0 3026256.7413282394 2008079.408586584 0 2008079.408586584 -2938461.8005367219 0 0 0 0 2780405.4103703499 612124.93058758974 0 612124.93058758974 -458501.93838506192 0 0 0 0 1949869.1073293006 343542.4535229883 0 343542.4535229883 -203350.00776550735 0 0 0 0 1953795.5759911537 676027.92285311222 0 676027.92285311222 -16505.963163111359 0 0 0 0 1911603.5275294781 390418.52361196466 0 390418.52361196466 -71765.105723500252 0 0 0 0 -1402367.1374058723 1612761.174571678 0 1612761.174571678 1085166.3644506633 0 0 0 0 552994.83850315213 413226.23519204976 0 413226.23519204976 1418348.7347293794 0 0 0 0 1509518.5436010361 943475.02040471882 0 943475.02040471882 589464.02873536944 0 0 0 0 4316448.7085762024 -822558.43360923231 0 -822558.43360923231 234850.39501127601 0 0 0 0 7228765.0610160828 -1575823.3015125096 0 -1575823.3015125096 -377264.13830600679 0 0 0 0 39107.583144776348 -25683.198017484974 0 -25683.198017484974 1717.0470200029959 0 0 0 0 -26363.773006439209 -1097889.8261971772 0 -1097889.8261971772 2719324.3018044829 0 0 0 0 54402.304685990559 -27074.095890599303 0 -27074.095890599303 18949.727036472163 0 0 0 0 2119045.6962089539 -1264898.3491457403 0 -1264898.3491457403 1278892.0588057041 0 0 0 0 1403944.2229086009 244199.03883432224 0 244199.03883432224 -161377.26548490452 0 0 0 0 -929763.39971160889 1279953.4641469419 0 1279953.4641469419 1259319.4703786075 0 0 0 0 2541152.9249916077 2575355.4545263946 0 2575355.4545263946 -479271.91328619421 0 0 0 0 3234228.0189590454 1516998.7710762024 0 1516998.7710762024 -459302.06072242651 0 0 0 0 6703326.7229700089 248802.54280533642 0 248802.54280533642 -398104.64103707671 0 0 0 0 2914833.3119087219 708153.29423767328 0 708153.29423767328 -959827.08570411801 0 0 0 0 1673906.2527332306 -128472.94026762992 0 -128472.94026762992 -216733.72456881404 0 0 0 0 713427.21952819824 73647.196247570217 0 73647.196247570217 271500.62810471654 0 0 0 0 2908906.9212493896 671765.43292286992 0 671765.43292286992 160960.58388608694 0 0 0 0 1414161.36283181 -130065.08276834222 0 -130065.08276834222 -193341.3798607091 0 0 0 0 3302797.7981719971 21266.60429418087 0 21266.60429418087 -465095.55104207993 0 0 0 0 539484.95382881165 -91421.741289526224 0 -91421.741289526224 -48095.169333219528 0 0 0 0 573801.82495925482 -337113.70172961173 0 -337113.70172961173 -22474.817191907503 0 0 0 0 -209316.60980848083 294182.63414886314 0 294182.63414886314 11592.717505245193 0 0 0 0 1637784.9631440183 401603.62513863947 0 401603.62513863947 48416.960270311683 0 0 0 0 -2699390.8500671387 2872538.1697988808 0 2872538.1697988808 817860.09923900664 0 0 0 0 434961.22739914246 929086.94941473845 0 929086.94941473845 254622.1101954435 0 0 0 0 -3357482.6812505722 760913.0564121902 0 760913.0564121902 466124.89622036368 0 0 0 0 598460.33715916984 895691.88369711884 0 895691.88369711884 -50766.02886967946 0 0 0 0 -2758349.309887886 2175744.1870494932 0 2175744.1870494932 2916109.5226522684 0 0 0 0 -4503025.025762558 -1373386.2047537863 0 -1373386.2047537863 503274.65840426087 0 0 0 0 -45594.986753463745 2784110.545851171 0 2784110.545851171 931148.05940833688 0 0 0 0 -2252719.6325330734 2206461.2902356535 0 2206461.2902356535 1166982.1476320624 0 0 0 0 7748119.6753740311 3591791.7434433252 0 3591791.7434433252 -301824.22754442692 0 0 0 0 -164150.48962914944 5105674.2506284099 0 5105674.2506284099 3208599.3900309801 0 0 0 0 17173160.411538124 647727.54881949723 0 647727.54881949723 -3645976.0464730859 0 0 0 0 11103725.505520821 7474432.5503589511 0 7474432.5503589511 849426.95255467296 0 0 0 0 7521528.6749505997 5572068.7512050271 0 5572068.7512050271 2297815.1754805148 0 0 0 0 27485124.757699251 18229120.468743905 0 18229120.468743905 7776197.2054091692 0 0 0 0 7323618.3335523605 6875962.6886020154 0 6875962.6886020154 2987779.6386831701 0 0 0 0 -4628619.674495697 7042347.9572482407 0 7042347.9572482407 10089877.233078837 0 0 0 0 -12499667.444271088 -997135.96203947067 0 -997135.96203947067 8049864.7865840197 0 0 0 0 4355461.4954099655 3556720.1084034741 0 3556720.1084034741 -2110456.0616636574 0 0 0 0 4763665.6177425385 -1527679.1904666722 0 -1527679.1904666722 25332893.735707089 0 0 0 0 38290425.232133389 -2484739.079838071 0 -2484739.079838071 -1816176.1520521045 0 0 0 0 9758167.5088539124 2909143.3103132248 0 2909143.3103132248 -377696.36933612823 0 0 0 0 12742537.68145752 -2345418.6475871503 0 -2345418.6475871503 -7516170.2403994948 0 0 0 0 -9157226.6290512085 -9271594.2210005 0 -9271594.2210005 6290685.1296784282 0 0 0 0 1405018.9316864014 -96365.935709028272 0 -96365.935709028272 -465658.90057281801 0 0 0 0 -12204579.161042213 -3892262.6196208894 0 -3892262.6196208894 -848446.64868611097 0 0 0 0 632450.75954799075 134151.01726838923 0 134151.01726838923 218138.95069076424 0 0 0 0 1411348.069108963 121719.9098339763 0 121719.9098339763 -256842.37958853878 0 0 0 0 2103676.5206460953 1294289.0919115543 0 1294289.0919115543 -1522784.9310286641 0 0 0 0 1525475.9633150501 267927.20676074759 0 267927.20676074759 -195884.98791130312 0 0 0 0 268477.48209424224 655219.36628775625 0 655219.36628775625 229689.72372682602 0 0 0 0 1967918.3419342041 406294.17828718107 0 406294.17828718107 -167221.76592843793 0 0 0 0 -5606903.4674873352 -3088171.7558186054 0 -3088171.7558186054 1730512.6829690635 0 0 0 0 -8188533.6881804466 -8573890.8926265091 0 -8573890.8926265091 -8239509.7262414098 0 0 0 0 53387.681993017904 149682.29761364678 0 149682.29761364678 30024.198420215122 0 0 0 0 -3821146.3589477539 8666071.731522575 0 8666071.731522575 7922707.8946713209 0 0 0 0 12726875.249058723 3359059.0927115902 0 3359059.0927115902 -15558651.781045556 0 0 0 0 -3091935.9505462646 -5130404.2100615948 0 -5130404.2100615948 29194226.409338534 0 0 0 0 -5520102.7621459961 -1716770.3925797939 0 -1716770.3925797939 14786375.229293674 0 0 0 0 5438618.4469413757 -8133075.7050658241 0 -8133075.7050658241 -14392868.490384534 0 0 0 0 -5242152.7523412704 -12102694.004235923 0 -12102694.004235923 1925122.244404234 0 0 0 0 5947031.1373109818 5290058.6908369362 0 5290058.6908369362 527576.88265675306 0 0 0 0 403085.99551186804 -24623.634425584867 0 -24623.634425584867 -42842.075775765494 0 0 0 0 15160918.211080551 2429809.455031842 0 2429809.455031842 -2968037.9000178128 0 0 0 0 120208.81965941424 -7626.189754998486 0 -7626.189754998486 -8008.4425265765349 0 0 0 0 -4415272.9624061584 10503431.630195543 0 10503431.630195543 -16030721.268240765 0 0 0 0 -29710292.363283157 20812816.183775336 0 20812816.183775336 29855584.140557542 0 0 0 0 7096047.9719166756 -8624069.5743942708 0 -8624069.5743942708 -1558822.0297745466 0 0 0 0 -636125.40126037598 -8527260.2318811901 0 -8527260.2318811901 -27643.333333890885 0 0 0 0 338914.38744676183 -50532.576312556164 0 -50532.576312556164 -199399.35245936329 0 0 0 0 21394958.818766594 -29446009.954173788 0 -29446009.954173788 -11511700.91974023 0 0 0 0 30309044.762273788 25086023.074708536 0 25086023.074708536 -14464022.326804072 0 0 0 0 1797675.0877215872 -458252.66620111186 0 -458252.66620111186 -143342.53721222922 0 0 0 0 -7898844.1100540161 3362927.9154410176 0 3362927.9154410176 23713887.120531708 0 0 0 0 28520413.556399345 11939010.306257367 0 11939010.306257367 3588433.8000755161 0 0 0 0 -9197742.0590982437 4350660.0035557896 0 4350660.0035557896 2098058.1659662426 0 0 0 0 18624476.096250534 -19486549.751350895 0 -19486549.751350895 4358235.5893396139 0 0 0 0 20910261.254258633 -13296390.267038431 0 -13296390.267038431 -25633551.197171226 0 0 0 0 435745.19554567337 -3349175.1431995332 0 -3349175.1431995332 -1772519.3208229542 0 0 0 0 1827570.0673694611 6148117.7776387073 0 6148117.7776387073 -11243054.973658249 0 0 0 0 2378195.7185331676 -792559.26067801611 0 -792559.26067801611 -13405.505847409513 0 0 0 0 1657095.4235897064 -3835968.2454480529 0 -3835968.2454480529 -2621675.1598491073 0 0 0 0 1764623.5583183765 -3291745.463218689 0 -3291745.463218689 -4911238.4281365871 0 0 0 0 2518165.3558844244 -622418.13051782933 0 -622418.13051782933 -9261.3144957661279 0 0 0 0 -411212.04647374153 -6647907.1391295493 0 -6647907.1391295493 -8752126.5947493315 0 0 0 0 6701544.7325167656 10663733.053511977 0 10663733.053511977 -3684772.8484134674 0 0 0 0 -6959291.6043360233 371571.61011065543 0 371571.61011065543 -1134585.6582022905 0 0 0 0 2510025.4991319301 -562455.7647991596 0 -562455.7647991596 -45728.094840274527 0 0 0 0 7283361.609664917 3137991.5238240957 0 3137991.5238240957 -2604507.0691307336 0 0 0 0 7300891.1517541409 3342456.9028562605 0 3342456.9028562605 -4219318.9377890825 0 0 0 0 21645998.067056417 -912341.70387911797 0 -912341.70387911797 -6254978.9994837046 0 0 0 0 13466272.123260021 6218941.114762187 0 6218941.114762187 -5957377.0069329739 0 0 0 0 14494941.15387696 -275976.35740523785 0 -275976.35740523785 -2935609.0012798309 0 0 0 0 16594991.628863573 -6217543.3579385877 0 -6217543.3579385877 -1048040.3072734475 0 0 0 0 21281370.717971087 3988823.7205123305 0 3988823.7205123305 -6923275.3703252971 0 0 0 0 1135895.0962860584 1561617.4587184191 0 1561617.4587184191 267038.30851221085 0 0 0 0 1058663.7015027106 2534141.8774735406 0 2534141.8774735406 93737.643252134323 0 0 0 0 -20783.758552015992 112644.12901586358 0 112644.12901586358 -30818.149730910722 0 0 0 0 -6344770.5745375156 12602652.690683544 0 12602652.690683544 -8083218.8898050189 0 0 0 0 -6623284.2215944529 -5857974.5294661522 0 -5857974.5294661522 12820719.342999101 0 0 0 0 -334020.52825069427 1932264.0898447037 0 1932264.0898447037 848555.73127895594 0 0 0 0 -21058617.235766888 8380218.3163093328 0 8380218.3163093328 15116083.091764644 0 0 0 0 34545871.901556969 -20371854.987220883 0 -20371854.987220883 -20389565.471000135 0 0 0 0 1502532.1373147964 521396.29180963337 0 521396.29180963337 -154414.93873639405 0 0 0 0 1454375.6972978935 291058.94232211472 0 291058.94232211472 -311986.20069410297 0 0 0 0 2213754.7097711563 547852.05515134335 0 547852.05515134335 26881.986023709178 0 0 0 0 -1843867.2575221062 2809050.0455262661 0 2809050.0455262661 1010571.3197937012 0 0 0 0 1433537.31479952 585026.09165926895 0 585026.09165926895 -62296.66309686366 0 0 0 0 -374151.78524398804 3378719.8692204952 0 3378719.8692204952 625674.98651863635 0 0 0 0 -1704073.7489316463 2962890.5698264241 0 2962890.5698264241 967364.97605228424 0 0 0 0 2580748.3685190678 740838.7123183012 0 740838.7123183012 -5613839.6610388756 0 0 0 0 2350613.8094807863 351554.79536396265 0 351554.79536396265 -219870.9899828434 0 0 0 0 261525.9315890962 636645.61006314075 0 636645.61006314075 -349756.84012908541 0 0 0 0 1825309.2286176682 6814.5320189297199 0 6814.5320189297199 66089.233826257288 0 0 0 0 -1110209.2242980003 2700617.0527282953 0 2700617.0527282953 576012.87028494477 0 0 0 0 -1411631.8392138481 2541939.4955862761 0 2541939.4955862761 376719.18451714516 0 0 0 0 -347713.31116294861 2213956.8086442947 0 2213956.8086442947 724967.06738090515 0 0 0 0 -613228.3336558342 3067902.2475101948 0 3067902.2475101948 678504.22094237804 0 0 0 0 -966840.54830729961 3053581.0812002122 0 3053581.0812002122 194630.69972443581 0 0 0 0 1983279.3200817979 492189.17509180622 0 492189.17509180622 -291250.29158230487 0 0 0 0 1571544.0589914839 1206540.591858604 0 1206540.591858604 -430143.83204727405 0 0 0 0 1590428.4401302421 455683.41491294676 0 455683.41491294676 -118162.31915570394 0 0 0 0 1485820.9251656532 1584961.0408194065 0 1584961.0408194065 408149.68066999316 0 0 0 0 2530645.8081030846 850981.74443933368 0 850981.74443933368 -234480.24327230453 0 0 0 0 1519272.0535063744 997800.98689346761 0 997800.98689346761 118405.23523539305 0 0 0 0 204012.64923081012 76790.600562965265 0 76790.600562965265 -29109.902995137789 0 0 0 0 2061625.3047609329 453252.84906706214 0 453252.84906706214 75001.796812385321 0 0 0 0 54856.755532760173 150304.13282774159 0 150304.13282774159 -31276.140088069926 0 0 0 0 -2399831.8611199856 -857383.54638639465 0 -857383.54638639465 -2183337.5324581861 0 0 0 0 1101161.1164653134 105492.63552756177 0 105492.63552756177 -247666.46235327385 0 0 0 0 -1220937.268371582 -22555.084576487541 0 -22555.084576487541 -737633.70565724373 0 0 0 0 599032.67594146729 -596591.5651319474 0 -596591.5651319474 -1405694.8785677627 0 0 0 0 4545391.6455078125 -3277329.5725776553 0 -3277329.5725776553 -1710970.2550960779 0 0 0 0 -103908.40078833699 -730095.08052136865 0 -730095.08052136865 -416736.9724368453 0 0 0 0 2914009.5493602753 659229.03390665352 0 659229.03390665352 -1272480.1663385034 0 0 0 0 682312.78758625686 -96592.983601643122 0 -96592.983601643122 -667274.30526229739 0 0 0 0 820911.03831404855 98920.52014982095 0 98920.52014982095 -166798.49283842853 0 0 0 0 4484516.0198526382 3174053.466337204 0 3174053.466337204 -5080642.9761438668 0 0 0 0 -2466561.3493266106 -4560071.7056418955 0 -4560071.7056418955 3280728.5623500943 0 0 0 0 2643996.3897792101 3280001.3427766562 0 3280001.3427766562 -12535635.509090781 0 0 0 0 2426650.156936402 -306565.83972511778 0 -306565.83972511778 -243908.87138568112 0 0 0 0 3170696.21434021 -3381698.255589962 0 -3381698.255589962 -5128983.6971532553 0 0 0 0 2949325.0190162659 1156362.1764784455 0 1156362.1764784455 483913.54773831367 0 0 0 0 -664484.37781143188 -5221827.5897349119 0 -5221827.5897349119 -1048252.5973749161 0 0 0 0 737222.94946092181 -24792.122701258166 0 -24792.122701258166 -109943.24960030407 0 0 0 0 2235843.1115074158 -819869.80932413042 0 -819869.80932413042 -4266795.468300879 0 0 0 0 -2343342.6118659973 -1625183.7413403988 0 -1625183.7413403988 5629188.627846688 0 0 0 0 -66889.537601470947 111331.65671879798 0 111331.65671879798 -1733040.3304847777 0 0 0 0 501085.87303233147 -1152614.5680049574 0 -1152614.5680049574 -329037.76647271216 0 0 0 0 1951700.4925804138 -1651266.7702610418 0 -1651266.7702610418 -3132752.3537914827 0 0 0 0 2577625.8522481918 3756168.7488549873 0 3756168.7488549873 95480.311422362924 0 0 0 0 1162977.3092455864 -1256538.3664475195 0 -1256538.3664475195 2924996.7030442655 0 0 0 0 7003464.4979836941 -89340.05621321639 0 -89340.05621321639 -466566.16270785034 0 0 0 0 241065.16814136505 161314.25801628828 0 161314.25801628828 788291.80290660821 0 0 0 0 531900.15568637848 -1632513.5238010846 0 -1632513.5238010846 763049.87017528713 0 0 0 0 6090384.4679536819 -67437.459361627698 0 -67437.459361627698 -1137710.9848650396 0 0 0 0 3485461.456662178 2550310.2541816086 0 2550310.2541816086 1356702.5139370263 0 0 0 0 51016.497501584701 90224.16034851165 0 90224.16034851165 -37190.045921109784 0 0 0 0 94665.813900947571 857209.57565265894 0 857209.57565265894 337281.67564958334 0 0 0 0 529037.54529762268 -89113.347324162722 0 -89113.347324162722 67249.413829661906 0 0 0 0 -287697.30826854706 195355.2673420161 0 195355.2673420161 234658.03172642738 0 0 0 0 -53792.016990719363 8221.6407212612685 0 8221.6407212612685 27137.856217675057 0 0 0 0 165999.34957659245 -383628.38851270638 0 -383628.38851270638 183340.75491466746 0 0 0 0 256997.12370491028 -415743.98981252313 0 -415743.98981252313 -98686.577056564391 0 0 0 0 259585.91713142395 -178075.85348320007 0 -178075.85348320007 -146424.91813209653 0 0 0 0 12232.655864715576 324679.21926814318 0 324679.21926814318 117395.3314704299 0 0 0 0 139330.83946990967 -98780.357909485698 0 -98780.357909485698 593504.81089304388 0 0 0 0 131299.4458214771 221627.34708759646 0 221627.34708759646 -93042.643129228993 0 0 0 0 672432.76753124432 55205.003522590268 0 55205.003522590268 -93194.56227792264 0 0 0 0 -253943.71892333031 98587.091529849917 0 98587.091529849917 -122620.0301861763 0 0 0 0 1308455.9029808044 -4709029.5680031776 0 -4709029.5680031776 4645463.0683365166 0 0 0 0 291322.7893560417 110594.81280127203 0 110594.81280127203 -54549.770335598587 0 0 0 0 -10852.88142862916 74515.986092454754 0 74515.986092454754 -9950.1877360343933 0 0 0 0 172201.34965848783 148020.25365825882 0 148020.25365825882 70279.415517715417 0 0 0 0 549005.97356472048 -32108.347196820192 0 -32108.347196820192 -58610.385631507772 0 0 0 0 69503.914859383367 427280.86751074251 0 427280.86751074251 -60105.465259725301 0 0 0 0 2078149.9130306244 163152.86087170243 0 163152.86087170243 -9580735.9213767052 0 0 0 0 530790.82589387894 460960.22541666031 0 460960.22541666031 -37089.103669524193 0 0 0 0 735781.13521766663 -10390758.593020171 0 -10390758.593020171 664022.83117204905 0 0 0 0 69646.376416804647 1228.3229380599223 0 1228.3229380599223 -28160.970072428026 0 0 0 0 36794987.24066925 -19441198.262368321 0 -19441198.262368321 -30507830.138493299 0 0 0 0 -19205639.040792465 38228186.300425351 0 38228186.300425351 45037712.51081562 0 0 0 0 9097917.4774971008 -9358789.9941434562 0 -9358789.9941434562 -2168841.1734285057 0 0 0 0 512742.63190746307 -4076553.4322814047 0 -4076553.4322814047 -1162545.5082070231 0 0 0 0 1455104.0355873108 -475357.92656877637 0 -475357.92656877637 227263.62648466229 0 0 0 0 587164.11103819683 132301.78143127216 0 132301.78143127216 156159.81236506044 0 0 0 0 1227564.3895023614 -223747.31539101223 0 -223747.31539101223 758107.82239061594 0 0 0 0 2659469.8732032776 -886662.57038404047 0 -886662.57038404047 234627.1619231035 0 0 0 0 4865511.1957044601 279971.62640587986 0 279971.62640587986 -121633.97487431765 0 0 0 0 2693856.0411567688 -264709.65833202004 0 -264709.65833202004 363334.14060457051 0 0 0 0 7369164.6297168732 -340541.31880074739 0 -340541.31880074739 -235964.13031566143 0 0 0 0 398213.5680308342 813484.47700671852 0 813484.47700671852 604933.07397207618 0 0 0 0 2523149.5044293404 -362191.22906967252 0 -362191.22906967252 -881622.56367915869 0 0 0 0 2963325.761619091 246618.49450409412 0 246618.49450409412 -205523.6026673615 0 0 0 0 2192392.7741088867 706323.19459721446 0 706323.19459721446 -186509.5958486516 0 0 0 0 -7779263.6349182129 1535559.2512083352 0 1535559.2512083352 17495608.943490177 0 0 0 0 11847601.707725525 -6549856.0492023751 0 -6549856.0492023751 -7213794.0190742463 0 0 0 0 6616501.342754364 3550153.580040887 0 3550153.580040887 -10296018.072246075 0 0 0 0 35057.984096268192 -22813.754833153915 0 -22813.754833153915 6885.6549808946365 0 0 0 0 -8329391.6246671677 -4571991.7804996893 0 -4571991.7804996893 7291614.3149329126 0 0 0 0 -6429902.9884757996 -6809422.9459103048 0 -6809422.9459103048 6635161.5813241834 0 0 0 0 763099.26530075073 11496073.227841977 0 11496073.227841977 5416533.424321048 0 0 0 0 6476254.2772407532 6284109.044451341 0 6284109.044451341 -10705360.55421333 0 0 0 0 10117525.360837936 11053527.319555134 0 11053527.319555134 -5722796.7600494027 0 0 0 0 -6004163.9363117218 -3987190.2314248495 0 -3987190.2314248495 -5130556.6950135566 0 0 0 0 1175900.3646654179 -791075.42016323749 0 -791075.42016323749 -189608.18575925354 0 0 0 0 -2817733.1583433151 6684465.576129701 0 6684465.576129701 -57267.240865975618 0 0 0 0 531658.37067604065 -690729.349188908 0 -690729.349188908 3674743.2878918257 0 0 0 0 1381648.7839934991 -818440.83350243489 0 -818440.83350243489 -125458.27943349416 0 0 0 0 1395230.986536026 -12929251.665203918 0 -12929251.665203918 5660543.2727974262 0 0 0 0 8784161.7838490009 7006672.3499938492 0 7006672.3499938492 -413963.67163515091 0 0 0 0 -167818.10604820959 -205434.16452799528 0 -205434.16452799528 130678.34071447609 0 0 0 0 3125345.5430071354 2038975.3393067939 0 2038975.3393067939 -3673253.1347460784 0 0 0 0 4588976.6068077087 610048.26782004163 0 610048.26782004163 -2830556.5694736959 0 0 0 0 685725.89771461487 -2271726.4195907405 0 -2271726.4195907405 333951.09653431177 0 0 0 0 5991353.0444431305 2990631.8968998371 0 2990631.8968998371 -539014.76310288161 0 0 0 0 6691840.2055529356 3925502.2874157126 0 3925502.2874157126 295654.80102473497 0 0 0 0 1047241.7969235484 172600.06059208699 0 172600.06059208699 -241474.45771412985 0 0 0 0 -206333.83549785614 -9052746.5243570171 0 -9052746.5243570171 1184023.4732472971 0 0 0 0 5972504.2746486664 3446649.0959715173 0 3446649.0959715173 -2585229.9464238137 0 0 0 0 1779495.8261612915 -595914.6081823773 0 -595914.6081823773 -148407.40393569 0 0 0 0 3140440.4886169434 -4639481.4273498803 0 -4639481.4273498803 -5191476.7767612226 0 0 0 0 248089.29872510117 51491.443559120409 0 51491.443559120409 -14050.588089837627 0 0 0 0 -1539895.0181474686 2291377.3207035027 0 2291377.3207035027 -3446065.1130183339 0 0 0 0 35365.702145040967 -21251.929397480562 0 -21251.929397480562 3884.1521702799218 0 0 0 0 -7577793.9163856506 -5087637.4688319545 0 -5087637.4688319545 955128.85819873214 0 0 0 0 13867997.4274683 1579926.0329887569 0 1579926.0329887569 -11890131.205319449 0 0 0 0 18020097.647047043 243230.48372533917 0 243230.48372533917 -11641318.543968752 0 0 0 0 -8168563.0369224548 -3882794.5431277603 0 -3882794.5431277603 -2217695.624455899 0 0 0 0 14823176.955436707 -11358393.956492633 0 -11358393.956492633 193416.4314378798 0 0 0 0 10401473.256237507 -4469399.4050906077 0 -4469399.4050906077 93839.958438694477 0 0 0 0 66058.38526098337 -45379.804233239032 0 -45379.804233239032 14025.083059304256 0 0 0 0 -342196.96473693848 -18200966.245938346 0 -18200966.245938346 -3834024.0298698545 0 0 0 0 317336.58458447456 -18586948.26254385 0 -18586948.26254385 910153.80517808348 0 0 0 0 -4723686.5171661377 1335699.6440144926 0 1335699.6440144926 24433465.883152425 0 0 0 0 222677.59890937805 4241235.8802629709 0 4241235.8802629709 -6469197.0378501117 0 0 0 0 -13554.089427963831 -31658.660997984465 0 -31658.660997984465 629.02323175987112 0 0 0 0 3985140.8401966095 -11715505.893175393 0 -11715505.893175393 -14863097.818460375 0 0 0 0 1595606.615582943 -13415240.70319806 0 -13415240.70319806 12444452.583428323 0 0 0 0 13423039.789452553 -3507742.3938739598 0 -3507742.3938739598 1613942.9210239947 0 0 0 0 17028681.318065643 12969486.137696683 0 12969486.137696683 2261822.8276486993 0 0 0 0 10131500.306674004 17722996.618897893 0 17722996.618897893 29174882.871181369 0 0 0 0 -4188232.7177362442 -980616.96906977892 0 -980616.96906977892 17617463.574842453 0 0 0 0 57111.730541229248 308687.96449169517 0 308687.96449169517 2550574.0785147324 0 0 0 0 -5851222.5637569427 338697.57555370033 0 338697.57555370033 2812853.3255012631 0 0 0 0 -4804255.7208795547 2748123.5491297394 0 2748123.5491297394 5281971.7008126378 0 0 0 0 -11135940.057649612 1384362.1402309239 0 1384362.1402309239 7247368.0336310565 0 0 0 0 -94437.850589031354 -125315.88267802657 0 -125315.88267802657 32175.119366767991 0 0 0 0 -5204023.0224666595 -5112823.9073536545 0 -5112823.9073536545 7250353.3044122756 0 0 0 0 11940233.670509338 -10148713.918224156 0 -10148713.918224156 -12310061.907841206 0 0 0 0 -11671621.319168448 -5920161.4180159234 0 -5920161.4180159234 3586560.0474376678 0 0 0 0 -8513326.0822486877 11397720.067934304 0 11397720.067934304 4361556.8002049029 0 0 0 0 1650573.9438648224 -1984116.7673777491 0 -1984116.7673777491 -7096520.7993427413 0 0 0 0 -409076.56063029915 -344658.32316089701 0 -344658.32316089701 204508.12538300839 0 0 0 0 -1362392.5188369751 351368.53863966465 0 351368.53863966465 -1153921.7537204921 0 0 0 0 10340216.990783691 1962574.1266092956 0 1962574.1266092956 -6859615.4584285915 0 0 0 0 9306955.7748932838 6839356.52143218 0 6839356.52143218 140029.55730968714 0 0 0 0 -2060871.4389801025 -7228874.9776506126 0 -7228874.9776506126 6594967.0854163785 0 0 0 0 10403880.29139185 3291420.6491173618 0 3291420.6491173618 -5235886.939422667 0 0 0 0 -2511502.0799465179 -4806708.4149968326 0 -4806708.4149968326 -3964216.1578835845 0 0 0 0 -1390573.9174957275 -1014251.6275404692 0 -1014251.6275404692 -230950.97367452248 0 0 0 0 -6544081.806388855 -4675219.465963006 0 -4675219.465963006 -226437.87520223856 0 0 0 0 -11649167.95479393 1799695.2168833315 0 1799695.2168833315 4344580.4501638412 0 0 0 0 1537620.0848636627 542956.77000302076 0 542956.77000302076 -177423.87197965384 0 0 0 0 -1533069.7395486832 -288794.53606548905 0 -288794.53606548905 1774593.9882693291 0 0 0 0 218391.48893737793 -1375297.1729331762 0 -1375297.1729331762 2012634.6555366516 0 0 0 0 -1159898.7043018341 -1269147.1833347455 0 -1269147.1833347455 33025.013511896133 0 0 0 0 -1648610.548532486 -1413766.0423124433 0 -1413766.0423124433 643717.30393052101 0 0 0 0 -1974462.0849590302 -1101781.7492788434 0 -1101781.7492788434 375965.29160499573 0 0 0 0 1904.1832261173986 12348.768350013997 0 12348.768350013997 32417.285734429519 0 0 0 0 2167757.9825706482 -1263375.5955353528 0 -1263375.5955353528 744242.65144354105 0 0 0 0 6064817.6454124451 7459857.8710079789 0 7459857.8710079789 -1484028.4969386458 0 0 0 0 -1283897.6324157715 -3745390.4716528058 0 -3745390.4716528058 3662499.782640921 0 0 0 0 2503199.4823465347 -945973.60989892483 0 -945973.60989892483 179367.29370194674 0 0 0 0 -89372.812799453735 142995.70214742422 0 142995.70214742422 384856.70663097501 0 0 0 0 9180.5794633480255 29136.460196657106 0 29136.460196657106 97394.551294364443 0 0 0 0 137804.11717677116 1252.6438665688038 0 1252.6438665688038 -14105.317489206791 0 0 0 0 -18560.482251079753 40138.470814988483 0 40138.470814988483 41849.410212894232 0 0 0 0 547001.01409721375 693439.6897239238 0 693439.6897239238 810307.82162694633 0 0 0 0 -614812.1071306169 -178926.16043303651 0 -178926.16043303651 772607.4944640696 0 0 0 0 -1143891.5423717499 -154806.7946317941 0 -154806.7946317941 1162619.0253914967 0 0 0 0 -595522.83761024475 489942.59471841156 0 489942.59471841156 2260912.1520125251 0 0 0 0 -349185.25496482849 105766.10085815191 0 105766.10085815191 873282.86906850338 0 0 0 0 10247.820515250787 -6622.9048901074566 0 -6622.9048901074566 94892.384226048162 0 0 0 0 -134844.22999858856 -148463.24596583855 0 -148463.24596583855 121469.07119580785 0 0 0 0 87143.760606765747 124987.15064741671 0 124987.15064741671 149617.08434012532 0 0 0 0 171432.96078395844 123829.63761413842 0 123829.63761413842 214061.28539842367 0 0 0 0 569573.97436904907 67019.789328753948 0 67019.789328753948 130034.20077940822 0 0 0 0 33910488.598438263 36627127.994304985 0 36627127.994304985 25229492.610290263 0 0 0 0 21796.270717640407 8697.4476106935181 0 8697.4476106935181 9743.5670810081938 0 0 0 0 35767860.244903803 33631689.050723732 0 33631689.050723732 16703841.203213468 0 0 0 0 35916979.36158371 29384197.202179812 0 29384197.202179812 17865735.076908916 0 0 0 0 -234499.66506195068 627542.21314620972 0 627542.21314620972 -1036382.7860969901 0 0 0 0 353946.82642126083 -366831.98741988093 0 -366831.98741988093 -136183.7449555397 0 0 0 0 -1470269.5492172241 2345981.2268253416 0 2345981.2268253416 -1217615.7631853521 0 0 0 0 -6098.6817789692432 12924.280738430098 0 12924.280738430098 12251.775628315343 0 0 0 0 -1284635.5735530853 1275885.6150765717 0 1275885.6150765717 404246.31007438898 0 0 0 0 2032918.8465013504 -172230.62691067159 0 -172230.62691067159 -92496.336689338088 0 0 0 0 2212336.2903862 307129.49461239576 0 307129.49461239576 -200747.43540008366 0 0 0 0 2985758.4281511307 -327686.33089672774 0 -327686.33089672774 -193938.74718266726 0 0 0 0 2518142.5780906677 189075.90178178251 0 189075.90178178251 -78177.359809458256 0 0 0 0 1518286.2225694656 -559024.77426883578 0 -559024.77426883578 422217.70577797294 0 0 0 0 2004194.846036911 -226268.34674271941 0 -226268.34674271941 -147306.02721242607 0 0 0 0 2000198.7702760696 -204734.75491832197 0 -204734.75491832197 -226456.23655331135 0 0 0 0 2298377.7903442383 -500991.44813174009 0 -500991.44813174009 -106027.85237644613 0 0 0 0 560955.3520450592 -217729.27570928633 0 -217729.27570928633 116348.9066696018 0 0 0 0 580131.97102256864 65711.080795057118 0 65711.080795057118 -6004.0383235856279 0 0 0 0 2267001.282075882 90271.061950534582 0 90271.061950534582 -229673.1215736866 0 0 0 0 -84765.452264664695 -68240.565805586521 0 -68240.565805586521 54571.590247582753 0 0 0 0 1611599.274166584 -446096.04800202698 0 -446096.04800202698 26079.383446872234 0 0 0 0 950274.77622739412 240777.15290647396 0 240777.15290647396 111912.40676624817 0 0 0 0 1313949.7724313736 -62652.172957001254 0 -62652.172957001254 53937.737047255039 0 0 0 0 -8371964.4762496948 -3657129.396712333 0 -3657129.396712333 3865454.2426707149 0 0 0 0 1044706.7648304589 -675601.90190068935 0 -675601.90190068935 -235517.41803489518 0 0 0 0 -3344406.8008041382 648492.71795460582 0 648492.71795460582 -3236195.27317122 0 0 0 0 -3232465.8191490173 205619.46486020088 0 205619.46486020088 -3320768.6842730939 0 0 0 0 -2792378.3943214417 528976.2994312048 0 528976.2994312048 -3259456.5840120912 0 0 0 0 -1662702.2722396851 -417473.50942776352 0 -417473.50942776352 -3108085.1857212782 0 0 0 0 328345.7001953125 -102846.25245891511 0 -102846.25245891511 -184801.4334807694 0 0 0 0 -442963.20292663574 -1360915.7737588882 0 -1360915.7737588882 -2520827.7633488476 0 0 0 0 -442963.20291900635 -1360915.7737634182 0 -1360915.7737634182 -2520827.7633498833 0 0 0 0 -442963.20291137695 -1360915.7737621665 0 -1360915.7737621665 -2520827.763354063 0 0 0 0 629169.80754280556 -671387.90634358861 0 -671387.90634358861 -165952.39952258949 0 0 0 0 -318619.23519134521 -924982.69043812156 0 -924982.69043812156 -204223.55306708813 0 0 0 0 488168.78975847829 -352617.60920268297 0 -352617.60920268297 -143890.52505694819 0 0 0 0 -1263968.462146759 -1224226.6908590794 0 -1224226.6908590794 194124.78237231076 0 0 0 0 -298928.45448684692 -813646.33610081673 0 -813646.33610081673 -1141654.3211352825 0 0 0 0 -1546539.7240228653 -2015996.4867577553 0 -2015996.4867577553 -1210849.1097004414 0 0 0 0 -487502.99841308594 -334299.73394731246 0 -334299.73394731246 243403.93093761802 0 0 0 0 -418086.89751243591 -555587.64749379829 0 -555587.64749379829 445565.73140737414 0 0 0 0 -949519.97892189026 -983290.122941643 0 -983290.122941643 126159.9131440185 0 0 0 0 5533.5816969871521 -237162.57207546316 0 -237162.57207546316 -10684.455846759491 0 0 0 0 -111939.01817321777 -230104.98452852026 0 -230104.98452852026 269709.04581957695 0 0 0 0 97839.333571434021 -389875.18864633422 0 -389875.18864633422 -38688.708696209826 0 0 0 0 1459124.667714119 -730733.51812511683 0 -730733.51812511683 -17615.885841876268 0 0 0 0 729067.35563502414 -237575.11766992323 0 -237575.11766992323 -1317.1565252939763 0 0 0 0 329587.50834035873 -426135.62173147127 0 -426135.62173147127 -33846.021616816521 0 0 0 0 55722.728497505188 -989282.42730681598 0 -989282.42730681598 -249607.41460040584 0 0 0 0 1508936.5024309158 94027.747377105057 0 94027.747377105057 -67684.912123084068 0 0 0 0 1262306.2092542648 -150099.04415109754 0 -150099.04415109754 164545.57890933752 0 0 0 0 1680623.9470653534 -383581.00061964989 0 -383581.00061964989 290850.15923643112 0 0 0 0 1876552.8178472519 -66372.714010559022 0 -66372.714010559022 -26297.361778855324 0 0 0 0 1659285.464966774 137526.91425794363 0 137526.91425794363 -157533.99940504134 0 0 0 0 1708567.6044921875 107899.32575881481 0 107899.32575881481 -145296.88365767896 0 0 0 0 1700744.7706212997 264643.18027465045 0 264643.18027465045 -166438.63328172266 0 0 0 0 751784.30061149597 353854.46112516895 0 353854.46112516895 76971.107488095062 0 0 0 0 410718.54299219698 99292.381755351555 0 99292.381755351555 -26947.963356081786 0 0 0 0 708276.69435453415 -662066.10117083963 0 -662066.10117083963 -699732.32857939415 0 0 0 0 1641366.0705718994 125033.61695924401 0 125033.61695924401 -66524.071629092097 0 0 0 0 735254.8468515873 775780.85065431427 0 775780.85065431427 -239229.62432993948 0 0 0 0 1078338.576638883 284422.82833407912 0 284422.82833407912 -120470.4494072574 0 0 0 0 308084.94456911087 -272818.43722703075 0 -272818.43722703075 -92895.524502042681 0 0 0 0 801239.07639678661 -185494.11969139706 0 -185494.11969139706 -65568.926277888779 0 0 0 0 436738.5736375628 -140527.39991782652 0 -140527.39991782652 -35026.582457710712 0 0 0 0 800640.82010746002 137009.1237595533 0 137009.1237595533 -243249.83999833185 0 0 0 0 160571.64359664917 -240933.88634687755 0 -240933.88634687755 -97753.632909714244 0 0 0 0 162423.4557030201 -228292.58005753357 0 -228292.58005753357 -11516.596054651076 0 0 0 0 83078.683890464716 -36772.796299053356 0 -36772.796299053356 86159.792155721312 0 0 0 0 165688.13201332092 -58531.773972161114 0 -58531.773972161114 -39852.722691651434 0 0 0 0 47105.633224010468 -14612.809976229444 0 -14612.809976229444 35850.530841752887 0 0 0 0 36956.64528465271 -315.243940718472 0 -315.243940718472 43643.296101815999 0 0 0 0 189403.18471516296 -57240.476251479937 0 -57240.476251479937 9612.9163784789016 0 0 0 0 16671.31863694638 -15670.112946293782 0 -15670.112946293782 -13517.063947951119 0 0 0 0 -500447.79064273834 873745.03906593262 0 873745.03906593262 3988344.1536556501 0 0 0 0 1687583.3645763397 864179.97538921866 0 864179.97538921866 -5490048.610791713 0 0 0 0 5885893.2545776367 1107719.96363228 0 1107719.96363228 2437732.7885723189 0 0 0 0 12125902.24222374 5114051.4466793109 0 5114051.4466793109 8350.0130213397551 0 0 0 0 1455403.9876356125 2415229.1763042989 0 2415229.1763042989 7353728.1026668157 0 0 0 0 1433825.8931541443 8712664.2027149089 0 8712664.2027149089 15346767.386123391 0 0 0 0 2084566.4789056778 3547433.7190645784 0 3547433.7190645784 1262973.6050259012 0 0 0 0 1299463.5552034378 -2566407.7157596964 0 -2566407.7157596964 883100.52306038025 0 0 0 0 429500.52723407745 372352.37228109548 0 372352.37228109548 94037.922269281815 0 0 0 0 1150395.9989528656 -131182.61302936263 0 -131182.61302936263 -919241.39471599273 0 0 0 0 80949.346592103131 36807.185760322725 0 36807.185760322725 -7071.840695141691 0 0 0 0 65246.792920128442 17701.386892875191 0 17701.386892875191 -29690.422871647184 0 0 0 0 965837.09327316284 366675.20190751832 0 366675.20190751832 -410296.83663424337 0 0 0 0 368180.59683227539 -3930.616826228681 0 -3930.616826228681 1054289.7567952075 0 0 0 0 1749482.4154720306 777842.95132687781 0 777842.95132687781 -200012.36974426592 0 0 0 0 1847305.4440822601 2237636.9037240855 0 2237636.9037240855 754010.07196129439 0 0 0 0 -266683.99179172516 544499.21442154935 0 544499.21442154935 3733.0345025267757 0 0 0 0 34055.188636657782 21382.911796113709 0 21382.911796113709 11276.887579085796 0 0 0 0 2955855.9711017609 -1732673.7156685535 0 -1732673.7156685535 -305.48965102988086 0 0 0 0 -934269.71925354004 -844511.17887843959 0 -844511.17887843959 358648.12252314202 0 0 0 0 2201849.6861054897 -359089.87704614911 0 -359089.87704614911 -996561.09425130673 0 0 0 0 33145632.426777124 19810423.027966928 0 19810423.027966928 6299887.0941422284 0 0 0 0 32951666.220497131 21761483.1633288 0 21761483.1633288 6694387.4968952611 0 0 0 0 37374500.892239094 25966975.773957074 0 25966975.773957074 10261636.859117672 0 0 0 0 34478628.810416222 25708882.195800662 0 25708882.195800662 10714421.472588629 0 0 0 0 38199795.816859722 23908316.800501216 0 23908316.800501216 3295947.6847073138 0 0 0 0 28029990.049255371 25881736.826229572 0 25881736.826229572 25703912.191414602 0 0 0 0 23344942.556620121 16475755.508941809 0 16475755.508941809 10962822.237804003 0 0 0 0 62063.901288866065 19534.188042561989 0 19534.188042561989 25651.906846665006 0 0 0 0 -9704.9876155853271 30629.441468317062 0 30629.441468317062 85610.767320886254 0 0 0 0 50995.76239602454 56889.023828274105 0 56889.023828274105 92361.603274577399 0 0 0 0 79494.344943499193 25915.754979266087 0 25915.754979266087 45940.487745516562 0 0 0 0 37350.667593552265 37680.746108324267 0 37680.746108324267 72797.952640644275 0 0 0 0 241532.96332359314 138185.20438777842 0 138185.20438777842 -810666.56605540961 0 0 0 0 19777254.826464176 11314003.87575509 0 11314003.87575509 6692095.3169083744 0 0 0 0 29198249.550374985 19324540.506291106 0 19324540.506291106 10920356.908257816 0 0 0 0 34251599.799749374 20091571.18640722 0 20091571.18640722 6348054.5655684341 0 0 0 0 33210212.872418404 19383112.926852617 0 19383112.926852617 9194820.642749846 0 0 0 0 34447616.379236221 15753262.160585282 0 15753262.160585282 7795248.2507188972 0 0 0 0 46374195.91680336 21911851.891297355 0 21911851.891297355 7298817.2017135061 0 0 0 0 -2793564.3190536499 789099.0906191729 0 789099.0906191729 5624492.7030948866 0 0 0 0 13573.244721238036 12214.003192463424 0 12214.003192463424 25305.974921707821 0 0 0 0 1289258.4487745762 2364264.8991070902 0 2364264.8991070902 -1917997.96687009 0 0 0 0 37913689.906059265 15567383.779259112 0 15567383.779259112 4700935.9660173655 0 0 0 0 35319554.719230652 20085566.41016604 0 20085566.41016604 14566869.433848457 0 0 0 0 30071292.814968109 15972464.968696279 0 15972464.968696279 4646032.3048980534 0 0 0 0 29933304.073395461 10850544.663749557 0 10850544.663749557 10140464.245588114 0 0 0 0 37011599.192831039 13181386.775019689 0 13181386.775019689 8343.5003859020926 0 0 0 0 35665861.469555855 16564595.076493464 0 16564595.076493464 5825838.2166913673 0 0 0 0 37835635.919493675 18979380.238821723 0 18979380.238821723 -12222.819503817434 0 0 0 0 36263091.465754032 17951479.482150521 0 17951479.482150521 4991385.2005711868 0 0 0 0 36758859.452928543 22204628.918718636 0 22204628.918718636 5974283.5655127801 0 0 0 0 34482590.516382217 20384872.013892677 0 20384872.013892677 5001283.7470147833 0 0 0 0 38103468.89464426 21150985.219641894 0 21150985.219641894 2565737.9283066317 0 0 0 0 38581625.412479401 20459862.650812045 0 20459862.650812045 2866483.6325858906 0 0 0 0 39202033.908218384 20572560.719648451 0 20572560.719648451 63835.65762185619 0 0 0 0 39640756.990627289 21792068.526596099 0 21792068.526596099 3021709.0365108252 0 0 0 0 37408103.855455399 19443337.181351721 0 19443337.181351721 2671880.3653711146 0 0 0 0 39893039.443293571 22773860.024638165 0 22773860.024638165 4017827.4119565487 0 0 0 0 40027267.61326313 20661075.386713415 0 20661075.386713415 -1329643.1605082601 0 0 0 0 43188381.131433487 25333874.527347889 0 25333874.527347889 2231450.3952071518 0 0 0 0 41692352.372696877 30371809.914235808 0 30371809.914235808 9384205.0729682446 0 0 0 0 41436221.904297829 27707208.619655401 0 27707208.619655401 188724.41394801438 0 0 0 0 30713659.749252319 12555466.879479557 0 12555466.879479557 -7059377.032975141 0 0 0 0 5608037.7049172893 -4157812.5804095496 0 -4157812.5804095496 -14085590.418333799 0 0 0 0 41566493.711349726 18056670.680203762 0 18056670.680203762 -9607374.1102511883 0 0 0 0 53436988.192586899 27367445.829060107 0 27367445.829060107 -5688844.0972211733 0 0 0 0 36706544.222668409 16518664.538102921 0 16518664.538102921 -3427397.7829287201 0 0 0 0 32840221.721248627 17708972.023075823 0 17708972.023075823 -2257203.3353126645 0 0 0 0 27141147.482409477 5846507.3023672849 0 5846507.3023672849 -8921117.1232140362 0 0 0 0 5500878.8944301605 6492239.9313996434 0 6492239.9313996434 1933539.1580548026 0 0 0 0 24920.641248749569 13254.817617044318 0 13254.817617044318 5605.2301287788141 0 0 0 0 4560131.0696802139 3026039.9604065265 0 3026039.9604065265 11891.672595035014 0 0 0 0 17624510.404982239 6899696.6183398962 0 6899696.6183398962 767654.63506421447 0 0 0 0 17120985.765348434 15094291.190682188 0 15094291.190682188 7894001.5952669755 0 0 0 0 34754041.136350632 29801900.361456342 0 29801900.361456342 19648070.522072278 0 0 0 0 29093.2462780606 19805.606179060182 0 19805.606179060182 9128.8546276442212 0 0 0 0 9009907.9011745453 8300907.5938366372 0 8300907.5938366372 6262922.3221214218 0 0 0 0 10185637.699169159 9426103.55974048 0 9426103.55974048 -2423.7485458913261 0 0 0 0 10913911.725172043 5322260.6453135964 0 5322260.6453135964 6524093.6923003756 0 0 0 0 4654601.3653783798 3403512.6041665557 0 3403512.6041665557 -5415094.5398396067 0 0 0 0 -2231638.418844223 13270408.828879515 0 13270408.828879515 -2260807.5203782655 0 0 0 0 -7194992.7961673737 17098170.144610528 0 17098170.144610528 -13139725.457390457 0 0 0 0 -5675620.5136108398 13353819.608937491 0 13353819.608937491 33278724.399727225 0 0 0 0 13172841.007480621 22001967.552195136 0 22001967.552195136 -23255041.401997078 0 0 0 0 21813.574750874192 23008.905793908983 0 23008.905793908983 4019.9781437897091 0 0 0 0 1819711.4594078064 21001087.018528968 0 21001087.018528968 -5996043.7860891446 0 0 0 0 4443979.4925613403 21077480.004103258 0 21077480.004103258 9291117.1089386642 0 0 0 0 13934196.796634674 29857387.705367655 0 29857387.705367655 6740096.8758741915 0 0 0 0 2856849.6731128693 11967525.887715653 0 11967525.887715653 -2322163.8979471177 0 0 0 0 10364059.940425873 13252650.735006563 0 13252650.735006563 -15055708.437895954 0 0 0 0 287302.79283618927 3506119.6447159983 0 3506119.6447159983 3051011.2153250575 0 0 0 0 4827431.0490112305 -955722.19848588109 0 -955722.19848588109 -9524295.6291303784 0 0 0 0 6623295.5505657196 -564328.76271679997 0 -564328.76271679997 -15261391.608213797 0 0 0 0 7044.3454710030928 4550.041094820248 0 4550.041094820248 4512.0449721256737 0 0 0 0 1239465.1883583069 4520640.424258858 0 4520640.424258858 -7948832.3194881529 0 0 0 0 16512956.678972244 10166120.428754143 0 10166120.428754143 6711321.4887496233 0 0 0 0 14799548.132968903 25182703.152152941 0 25182703.152152941 12042790.468942842 0 0 0 0 29614698.45552063 16777710.397651523 0 16777710.397651523 -7402474.2807238102 0 0 0 0 13411428.611557007 14994278.759223372 0 14994278.759223372 2488142.2685215175 0 0 0 0 10231818.455413818 9283353.5803218186 0 9283353.5803218186 -15540553.488522697 0 0 0 0 12608161.864822388 8232108.0874558091 0 8232108.0874558091 -8195043.8443553913 0 0 0 0 13498987.084837437 15937645.278755795 0 15937645.278755795 -7755590.3522027731 0 0 0 0 4064743.3420529366 7894691.6296638642 0 7894691.6296638642 -4059823.705358386 0 0 0 0 3994921.7090768814 8147758.8784411289 0 8147758.8784411289 -4312670.5105184913 0 0 0 0 18660681.502037048 19158296.623028755 0 19158296.623028755 -4531870.0753490925 0 0 0 0 7491798.6842269897 15486793.465787023 0 15486793.465787023 -2278675.1185363978 0 0 0 0 11234216.073348999 12780616.66507481 0 12780616.66507481 -5883794.0843884349 0 0 0 0 13997316.439060211 16525623.313107893 0 16525623.313107893 -5644553.2623847723 0 0 0 0 4372209.7008628845 17922327.924203336 0 17922327.924203336 -5416246.5977604836 0 0 0 0 3332654.085723877 10063859.245168656 0 10063859.245168656 -5247302.8974158131 0 0 0 0 3261660.444814682 11677954.784755774 0 11677954.784755774 -10548363.629164696 0 0 0 0 -3034795.8831272125 7572593.9766972512 0 7572593.9766972512 -4054447.5972933173 0 0 0 0 1510554.1684989929 2245862.4867358468 0 2245862.4867358468 -13920750.66957438 0 0 0 0 1177564.5341429114 2189982.4017228344 0 2189982.4017228344 -2375313.344279319 0 0 0 0 5483724.7699737549 7630004.4510991722 0 7630004.4510991722 -6696994.7873693332 0 0 0 0 -1763302.2114458084 18769279.486545794 0 18769279.486545794 -44352091.146080822 0 0 0 0 -14270590.036302567 14649869.810424522 0 14649869.810424522 -10002239.401059989 0 0 0 0 -3028718.6970748901 9486608.1361805797 0 9486608.1361805797 -10891139.572550144 0 0 0 0 1944859.3973441124 19852269.257614367 0 19852269.257614367 -17474445.409698904 0 0 0 0 -194477.09244346619 1887669.8846234679 0 1887669.8846234679 3979645.0962429941 0 0 0 0 -73517.978479873389 32992.526705975644 0 32992.526705975644 -8669.7930440674172 0 0 0 0 6300706.0385222435 -779220.21687279642 0 -779220.21687279642 -64304076.318037212 0 0 0 0 -635903.59130430222 3495701.2380711213 0 3495701.2380711213 -24653946.738849819 0 0 0 0 2642007.8867474198 15395357.924373329 0 15395357.924373329 -15176241.249117926 0 0 0 0 -11515326.876338959 13192567.186409838 0 13192567.186409838 -10501200.566307448 0 0 0 0 2060485.3741912842 9308824.3591969311 0 9308824.3591969311 -28518638.860796064 0 0 0 0 861655.03645133972 5984371.4832255766 0 5984371.4832255766 -22249856.979658462 0 0 0 0 -164808.07575056516 216496.23669215129 0 216496.23669215129 -70965.938425529879 0 0 0 0 1869252.7181186676 651316.45524426922 0 651316.45524426922 25678.626266971231 0 0 0 0 110512.20287205512 63610.357943979558 0 63610.357943979558 -56010.390710758315 0 0 0 0 -4292637.7853713036 8695011.0030417964 0 8695011.0030417964 -17978421.797148608 0 0 0 0 260773.36405658722 -125516.51923999377 0 -125516.51923999377 119047.55115740001 0 0 0 0 79956.391132475808 9132.5811541920993 0 9132.5811541920993 -52777.713824867329 0 0 0 0 403678.15973043442 -470223.11672762036 0 -470223.11672762036 -185090.74105522037 0 0 0 0 211408.76352405548 434433.14647957683 0 434433.14647957683 -1167743.6775257587 0 0 0 0 289402.9811270237 -108300.44451965578 0 -108300.44451965578 -549670.84813140333 0 0 0 0 670304.84029006399 43629.507175832521 0 43629.507175832521 -272919.67258245009 0 0 0 0 288218.00485801697 2033546.2141826749 0 2033546.2141826749 -53378.285392656922 0 0 0 0 1052486.0971025899 404227.01902826154 0 404227.01902826154 -253461.13899160543 0 0 0 0 27488477.801821709 51695789.141052306 0 51695789.141052306 53914709.610674322 0 0 0 0 432098.80725479126 -458881.75492039323 0 -458881.75492039323 -839985.66565831006 0 0 0 0 11969592.47203207 36697768.083954275 0 36697768.083954275 59240872.876834273 0 0 0 0 74672.088915420696 11021.167159966892 0 11021.167159966892 -51814.976861920324 0 0 0 0 -6919481.8768119812 32530945.665422916 0 32530945.665422916 131661588.47533131 0 0 0 0 824171.36156320572 3717693.5566839613 0 3717693.5566839613 -1559873.1329174638 0 0 0 0 2334633.032585144 394661.5587028265 0 394661.5587028265 -3514622.7130547762 0 0 0 0 823156.88817138597 -19591.126962376758 0 -19591.126962376758 -163473.11825490277 0 0 0 0 25629865.559569359 33543645.952331662 0 33543645.952331662 87410610.269634753 0 0 0 0 22187788.40435791 52152867.979505062 0 52152867.979505062 127726346.77414703 0 0 0 0 21878234.319753647 68433367.603504419 0 68433367.603504419 114568150.37218618 0 0 0 0 45527581.868763447 51945515.219857648 0 51945515.219857648 76271214.296326041 0 0 0 0 1154512.8761638403 2783289.0299336854 0 2783289.0299336854 -12253020.353843868 0 0 0 0 44058092.089699745 104720692.8463944 0 104720692.8463944 197692440.32244602 0 0 0 0 270676.72608603723 13104.331445928547 0 13104.331445928547 -34552.050654989493 0 0 0 0 59011676.386399269 615588.47725176066 0 615588.47725176066 70926823.466765702 0 0 0 0 37057781.311248779 -14429778.29083696 0 -14429778.29083696 29002295.451168746 0 0 0 0 124613996.91186237 61723625.632170171 0 61723625.632170171 52053265.744842768 0 0 0 0 28873252.713588715 49487992.912965119 0 49487992.912965119 70501379.001776293 0 0 0 0 24077224.339935303 21115194.986847252 0 21115194.986847252 60263773.310234621 0 0 0 0 16964039.259354591 -2556632.3439880908 0 -2556632.3439880908 30016139.859794199 0 0 0 0 10169826.231340408 2979595.7898434103 0 2979595.7898434103 25586365.137301654 0 0 0 0 20175494.188179016 30227316.895103157 0 30227316.895103157 42363640.210058555 0 0 0 0 31728634.971683502 44235775.819478393 0 44235775.819478393 89177075.770230204 0 0 0 0 30591426.938586473 33314897.993789107 0 33314897.993789107 28829944.968700647 0 0 0 0 32001671.407064438 32365062.134894684 0 32365062.134894684 16972430.697099574 0 0 0 0 32465341.387013435 40651009.356491506 0 40651009.356491506 33295605.22672867 0 0 0 0 53267691.471014977 44731048.933768928 0 44731048.933768928 1214858.571739763 0 0 0 0 44742691.522745132 31354375.033718422 0 31354375.033718422 4073035.923403874 0 0 0 0 46406491.459879875 10047945.34319023 0 10047945.34319023 -17156770.891245425 0 0 0 0 -4130809.2443590164 -18884445.060501724 0 -18884445.060501724 -23423308.585184425 0 0 0 0 41755903.187643051 14895698.690726086 0 14895698.690726086 -8183034.5528153777 0 0 0 0 41866553.207513809 9633565.6089797467 0 9633565.6089797467 -15997638.288321579 0 0 0 0 78739862.717393875 10574243.766900763 0 10574243.766900763 -44040160.976490825 0 0 0 0 70518019.098400116 73824294.748481169 0 73824294.748481169 41854329.401448995 0 0 0 0 99832950.699905396 45885678.66111324 0 45885678.66111324 -29781367.273170084 0 0 0 0 71317663.798184872 6351417.9794846904 0 6351417.9794846904 -30030.254563587237 0 0 0 0 314883153.64955449 -8817677.0770669542 0 -8817677.0770669542 44109812.479479283 0 0 0 0 327050813.44044638 -79424750.778962418 0 -79424750.778962418 -21461236.95321947 0 0 0 0 169095411.85879049 -192033753.74244145 0 -192033753.74244145 43243077.099415585 0 0 0 0 370033735.21650648 67672192.58525902 0 67672192.58525902 -16609730.261158051 0 0 0 0 -32989336.03140831 41506671.885081343 0 41506671.885081343 -17337281.157159477 0 0 0 0 296499.34061867744 63207.421957034152 0 63207.421957034152 -14996.733993787073 0 0 0 0 5838760.0019407272 1338724.9373472682 0 1338724.9373472682 3302786.1975766942 0 0 0 0 591304.99071580824 205557.5486898548 0 205557.5486898548 8404.6004436643379 0 0 0 0 47402803.416093826 22656956.292697072 0 22656956.292697072 -70034579.059328631 0 0 0 0 175571060.65997899 26391134.201287817 0 26391134.201287817 -148826126.12462863 0 0 0 0 26901591.525074005 -28064320.928151172 0 -28064320.928151172 -13109641.357360885 0 0 0 0 15333384.499872208 168514111.74746826 0 168514111.74746826 21610327.07902994 0 0 0 0 289738.40757932141 143615.80011967826 0 143615.80011967826 36836.532388078405 0 0 0 0 77971974.279075623 182377122.17087027 0 182377122.17087027 -81803507.945920706 0 0 0 0 209488643.08720398 -35798650.457122371 0 -35798650.457122371 -32535138.44343257 0 0 0 0 195922560.33452797 91329699.947972208 0 91329699.947972208 -10368746.076993816 0 0 0 0 62920122.254262924 99076499.320025623 0 99076499.320025623 39995373.466041356 0 0 0 0 89059258.356506348 -43611796.42455779 0 -43611796.42455779 24021874.755680028 0 0 0 0 62197627.797948837 35131718.316183165 0 35131718.316183165 -29504511.38610433 0 0 0 0 127780321.46947002 53858194.416520491 0 53858194.416520491 -38518072.642846279 0 0 0 0 152751945.55128098 23598941.609931532 0 23598941.609931532 -14482432.244656891 0 0 0 0 93934440.859380722 -27868237.599074002 0 -27868237.599074002 -31236881.564630534 0 0 0 0 77060265.665027142 50576915.843523778 0 50576915.843523778 5866255.3561432678 0 0 0 0 75346571.13158989 4570215.7974278079 0 4570215.7974278079 753781.7534295636 0 0 0 0 80138943.869846344 3170494.9326347793 0 3170494.9326347793 -9219182.2956558876 0 0 0 0 12088092.161706924 5853430.6704889955 0 5853430.6704889955 23838.081402796019 0 0 0 0 46999.865862101316 29455.964878757601 0 29455.964878757601 257.67361659960443 0 0 0 0 -16434125.49119091 19150113.799747609 0 19150113.799747609 -12891188.374110565 0 0 0 0 -25207000.784869194 16156101.55585387 0 16156101.55585387 -7196638.4456607699 0 0 0 0 67740.624390634708 54617.3333263651 0 54617.3333263651 7203.0677252369787 0 0 0 0 83677526.10093689 25577880.894637272 0 25577880.894637272 -50850532.493778735 0 0 0 0 -24987367.173325539 1869246.8626128472 0 1869246.8626128472 -20652427.132626913 0 0 0 0 13427.356489140075 12474.103791535366 0 12474.103791535366 -612.52785926552315 0 0 0 0 -17514759.61800766 -10377205.641628042 0 -10377205.641628042 2742027.8952829093 0 0 0 0 63306074.605500221 23282390.353017598 0 23282390.353017598 16685198.039156944 0 0 0 0 -15367399.860468864 20448802.473533981 0 20448802.473533981 -7527772.9436281547 0 0 0 0 -17812700.922139168 12548197.434073094 0 12548197.434073094 -7464431.400139302 0 0 0 0 7486709.6624574661 -2367950.3909365498 0 -2367950.3909365498 -1141358.3880442232 0 0 0 0 47427.139133131597 37975.087571478914 0 37975.087571478914 -10400.234316469847 0 0 0 0 4530678.5986557007 3345594.3758434877 0 3345594.3758434877 -2718375.4674790874 0 0 0 0 -866240.20511341095 203159.9819415845 0 203159.9819415845 -605196.74782237411 0 0 0 0 4026207.0474824905 6260333.4531209469 0 6260333.4531209469 -3318371.7470811903 0 0 0 0 3726683.3958714008 70768.659193578176 0 70768.659193578176 -4057496.3101551533 0 0 0 0 1565495.224521637 1255425.2924252376 0 1255425.2924252376 -728244.07797598839 0 0 0 0 3811064.4889717102 625584.70414362103 0 625584.70414362103 -987799.60147432005 0 0 0 0 4453711.5210723877 7968134.4217796326 0 7968134.4217796326 20638867.754095554 0 0 0 0 1335372.5724906921 -1928023.0661448836 0 -1928023.0661448836 -1772990.2970196903 0 0 0 0 1407183.3148329407 205823.79742289078 0 205823.79742289078 -338596.97727772675 0 0 0 0 658266.81765460968 -511637.9179122746 0 -511637.9179122746 -747339.83154164255 0 0 0 0 838568.66348168347 237372.68076963769 0 237372.68076963769 -212782.73287796212 0 0 0 0 10249142.330680847 -6337234.6298925579 0 -6337234.6298925579 -5004143.6427009255 0 0 0 0 402335.35856866837 230775.94855920947 0 230775.94855920947 -339987.00369178131 0 0 0 0 2854950.8611621857 2153155.4395684451 0 2153155.4395684451 -7302670.146426551 0 0 0 0 -674096.85131263733 -1172230.9123429656 0 -1172230.9123429656 4393496.5383382291 0 0 0 0 2012934.8617715836 4520372.9281711206 0 4520372.9281711206 5626347.0706306398 0 0 0 0 20152.328391689807 -8791.1755297712516 0 -8791.1755297712516 -8868.0696485163608 0 0 0 0 728145.41650737729 89826.778287963942 0 89826.778287963942 -627510.56009369739 0 0 0 0 -1350654.8797855377 -3806145.6090655103 0 -3806145.6090655103 13341863.415076643 0 0 0 0 -9609499.0616550446 -8128854.2954886407 0 -8128854.2954886407 -4154782.0461902022 0 0 0 0 988997.52102479304 421306.77978415648 0 421306.77978415648 -191976.59463429806 0 0 0 0 -29388666.177031517 -4140629.9021824151 0 -4140629.9021824151 20281278.225514844 0 0 0 0 34703479.037862778 22902253.789977103 0 22902253.789977103 -12991995.775807917 0 0 0 0 13357823.231659889 -19089909.375853658 0 -19089909.375853658 48836517.73059696 0 0 0 0 1174985.5155698373 679105.19723684178 0 679105.19723684178 -12927.522905441234 0 0 0 0 4170470.7111387253 -1363423.158911407 0 -1363423.158911407 -27138441.255105495 0 0 0 0 17250651.026266098 -17825154.984844685 0 -17825154.984844685 -18416350.092114568 0 0 0 0 -13036541.895633698 -6144354.9446675628 0 -6144354.9446675628 56467730.866358519 0 0 0 0 17835694.31632632 69882683.613452092 0 69882683.613452092 104196677.26112288 0 0 0 0 -6555018.2939863205 -16654275.549384028 0 -16654275.549384028 10611621.063675106 0 0 0 0 22058424.753486633 21150246.314113855 0 21150246.314113855 -5752761.3215714172 0 0 0 0 -22587358.600477457 -9486519.4561758526 0 -9486519.4561758526 44387579.976396456 0 0 0 0 208139.66654033726 -35021.144960639998 0 -35021.144960639998 -193447.48920547997 0 0 0 0 55912291.153486252 53447965.846147656 0 53447965.846147656 16863929.524749696 0 0 0 0 67039994.153703213 102858194.8741242 0 102858194.8741242 47760532.844216399 0 0 0 0 205271317.17394257 85462833.744698927 0 85462833.744698927 -9870290.9926030487 0 0 0 0 49626285.367671967 70750012.753534615 0 70750012.753534615 -9106140.7245048583 0 0 0 0 78408078.758979797 100370187.34445801 0 100370187.34445801 43523250.669938713 0 0 0 0 265375301.70600128 36299525.811099477 0 36299525.811099477 26034165.16608265 0 0 0 0 276389106.71189117 30670789.573533326 0 30670789.573533326 -6054207.2440718189 0 0 0 0 257352055.69550133 3482106.129434526 0 3482106.129434526 13387799.498199746 0 0 0 0 388772431.48578644 -94101598.117291659 0 -94101598.117291659 136526074.36166623 0 0 0 0 254325129.11091995 25549877.592592031 0 25549877.592592031 80030198.150846332 0 0 0 0 297617636.74177361 -49409693.563186631 0 -49409693.563186631 304688356.69511646 0 0 0 0 73245161.276117325 104930916.38344911 0 104930916.38344911 107536994.28124216 0 0 0 0 299103684.66850924 119239730.59270041 0 119239730.59270041 73267728.404160678 0 0 0 0 47049710.257959366 86271034.89929755 0 86271034.89929755 132200969.82675773 0 0 0 0 120807586.96291542 -109968769.32536617 0 -109968769.32536617 50683417.936452329 0 0 0 0 301576963.04980087 -170275924.17055112 0 -170275924.17055112 69094331.605612159 0 0 0 0 451883.02945284266 262921.86359233246 0 262921.86359233246 65264.012846389669 0 0 0 0 307945678.06970215 -41129259.721584558 0 -41129259.721584558 -19874484.513239443 0 0 0 0 153882854.85736656 -47033611.699611336 0 -47033611.699611336 -6542397.3652705401 0 0 0 0 153538037.0438633 -40609984.124232903 0 -40609984.124232903 -13743624.47470054 0 0 0 0 288163106.55221939 6167254.5352021679 0 6167254.5352021679 -28656811.994397298 0 0 0 0 295170612.32654119 -5887746.6013660058 0 -5887746.6013660058 -55936027.203190744 0 0 0 0 256637.35932061612 32556.422795071732 0 32556.422795071732 184668.83751858925 0 0 0 0 447354413.49676514 -41921933.40821825 0 -41921933.40821825 -59818894.246849954 0 0 0 0 123293.55162987666 -733.85896399989724 0 -733.85896399989724 123702.06600283264 0 0 0 0 265627209.03116429 15076640.879881581 0 15076640.879881581 28450485.589293685 0 0 0 0 272997253.05863094 -14519030.125478188 0 -14519030.125478188 17714739.614386085 0 0 0 0 232939783.01660722 -74627115.967679352 0 -74627115.967679352 127778960.50581494 0 0 0 0 314965513.7627306 1841337.0637379889 0 1841337.0637379889 -12665931.131908644 0 0 0 0 281615652.17957973 18780530.560291141 0 18780530.560291141 -11163757.209591176 0 0 0 0 281944019.24721336 1971652.1945599401 0 1971652.1945599401 -11677487.621980656 0 0 0 0 280691435.83845234 4461359.34977083 0 4461359.34977083 -775973.06453496357 0 0 0 0 302475038.24271297 -13432155.6854135 0 -13432155.6854135 -2637150.1701812474 0 0 0 0 284761887.36134243 2529310.9838744365 0 2529310.9838744365 -226500.10646840441 0 0 0 0 269307192.8124485 -5407964.835209881 0 -5407964.835209881 -6252380.7085114568 0 0 0 0 212452767.89834881 -21898074.519689526 0 -21898074.519689526 6870529.0358401872 0 0 0 0 255099694.62665796 -6259718.3762317002 0 -6259718.3762317002 8094147.7362504192 0 0 0 0 254695.94157162902 30963.01562577812 0 30963.01562577812 75381.661122835721 0 0 0 0 156130338.24089909 -14201166.740951169 0 -14201166.740951169 24243200.408524215 0 0 0 0 114006.98951800377 54281.818412416615 0 54281.818412416615 14600.283886663907 0 0 0 0 137462437.79005146 -47497971.179352805 0 -47497971.179352805 -1707018.2381297946 0 0 0 0 177828539.31997204 -36216269.122402579 0 -36216269.122402579 -7996479.0484429896 0 0 0 0 146972881.75665855 -4790281.2753241323 0 -4790281.2753241323 15676685.857060738 0 0 0 0 126989325.01799297 -5306634.8477550298 0 -5306634.8477550298 12238988.29031986 0 0 0 0 191200326.08475828 -2102465.3848836981 0 -2102465.3848836981 9455212.7202908918 0 0 0 0 162998071.68223667 -23553413.80372411 0 -23553413.80372411 -16678721.895604849 0 0 0 0 188815.00194123638 64818.052549540065 0 64818.052549540065 54017.199242106246 0 0 0 0 120306.39384038921 11415.222301688045 0 11415.222301688045 14614.30237402596 0 0 0 0 249932787.64600372 -9568780.4906527363 0 -9568780.4906527363 -13092092.762861263 0 0 0 0 221944682.13435698 8107841.3378064027 0 8107841.3378064027 -11808114.639925659 0 0 0 0 252133779.12487364 14682020.163554877 0 14682020.163554877 13760026.226141421 0 0 0 0 213752926.21040535 -27865132.817316983 0 -27865132.817316983 -15612462.307620378 0 0 0 0 190738717.98773956 -10909375.232397541 0 -10909375.232397541 17456854.859019309 0 0 0 0 149489319.92033958 -22314140.379690632 0 -22314140.379690632 17830425.298626579 0 0 0 0 100078922.9127264 22983187.80718264 0 22983187.80718264 61243578.218235508 0 0 0 0 103670402.33479548 26465613.680169754 0 26465613.680169754 47958974.849354893 0 0 0 0 176284358.06983948 53433349.021402687 0 53433349.021402687 53021784.27356562 0 0 0 0 36877338.492985249 46569016.552461699 0 46569016.552461699 88694581.63176316 0 0 0 0 34964805.861379623 47100270.444614559 0 47100270.444614559 119949966.22034714 0 0 0 0 13061710.872933507 64429554.534527831 0 64429554.534527831 106338501.3393507 0 0 0 0 64786219.487553596 3514408.602746591 0 3514408.602746591 92813408.092520684 0 0 0 0 18202310.969453812 -19576715.406642243 0 -19576715.406642243 43467674.724743605 0 0 0 0 30210358.62512207 46991992.515791155 0 46991992.515791155 39310965.897732034 0 0 0 0 60621216.145654678 -1299709.0105687603 0 -1299709.0105687603 -17771546.898743134 0 0 0 0 124244163.86224747 -15730930.718595296 0 -15730930.718595296 -26828672.864748485 0 0 0 0 55166558.944723129 10090675.145930812 0 10090675.145930812 -4547219.4575664327 0 0 0 0 133904968.11548996 -34029376.942822814 0 -34029376.942822814 -3351703.9661279023 0 0 0 0 83305984.835601807 11772062.51770075 0 11772062.51770075 -8173878.2955927849 0 0 0 0 50932661.39058876 -42664005.442105934 0 -42664005.442105934 21609500.857735634 0 0 0 0 235084.29087357456 239261.04758339596 0 239261.04758339596 -92775.787452259741 0 0 0 0 4530709.4671401978 -19423376.818647645 0 -19423376.818647645 36468800.756419867 0 0 0 0 -12277549.676203966 -10071204.418115832 0 -10071204.418115832 21034660.979088008 0 0 0 0 295698.40791083133 76334.803034771699 0 76334.803034771699 -205494.73337449081 0 0 0 0 13580419.536279202 15748181.117964409 0 15748181.117964409 6177049.2666327357 0 0 0 0 20760832.2253685 5323011.4445082545 0 5323011.4445082545 21174242.221369382 0 0 0 0 51034718.667013168 44526982.571594521 0 44526982.571594521 31180864.951844946 0 0 0 0 27186275.38228631 29975878.571157187 0 29975878.571157187 35483697.60943757 0 0 0 0 23923479.781375885 4961241.5301604271 0 4961241.5301604271 -14107112.153562605 0 0 0 0 925143.15044290386 398320.22369651118 0 398320.22369651118 -316845.7387851266 0 0 0 0 9773658.1811828613 -9951903.2851594687 0 -9951903.2851594687 -14751641.756084699 0 0 0 0 4235406.3838129044 15997283.313782275 0 15997283.313782275 21731101.787096202 0 0 0 0 20244783.288505554 19809386.782041937 0 19809386.782041937 10253940.303827286 0 0 0 0 9488814.6942024231 27006248.765437186 0 27006248.765437186 18348691.237582564 0 0 0 0 -7450620.9324855804 7096776.1201164424 0 7096776.1201164424 10257774.725586534 0 0 0 0 -9707721.287399292 20257336.40692687 0 20257336.40692687 -23958279.001424789 0 0 0 0 49943.806605642661 -40533.618897670414 0 -40533.618897670414 -52981.471007257293 0 0 0 0 18424472.396373749 21219530.446530402 0 21219530.446530402 13520948.025881335 0 0 0 0 13261152.749011993 30651290.532811046 0 30651290.532811046 23450639.820780396 0 0 0 0 21647792.491378784 30294935.163179755 0 30294935.163179755 15449520.802015007 0 0 0 0 23567265.612451553 27479233.087588966 0 27479233.087588966 19579370.283303916 0 0 0 0 18179156.339944839 26278429.068983287 0 26278429.068983287 26528924.270515293 0 0 0 0 24523266.712980509 40462666.933792859 0 40462666.933792859 35838081.583511889 0 0 0 0 29493347.823589325 18493515.170911625 0 18493515.170911625 18023674.333574232 0 0 0 0 23005038.682537079 32994440.476820111 0 32994440.476820111 45892446.066881374 0 0 0 0 43267183.307192802 39107259.355780736 0 39107259.355780736 47527841.891446523 0 0 0 0 26512630.850698471 36112635.144656211 0 36112635.144656211 82899785.952532545 0 0 0 0 55576747.125329018 90159227.4748514 0 90159227.4748514 104043799.30937275 0 0 0 0 102255718.51635933 50265348.825530797 0 50265348.825530797 30209383.906598911 0 0 0 0 42185953.286875248 32766820.370180041 0 32766820.370180041 50917294.319935799 0 0 0 0 50309508.350046158 21202810.732313484 0 21202810.732313484 18565298.143217474 0 0 0 0 147488044.54122353 6362055.4621792436 0 6362055.4621792436 43739422.707001239 0 0 0 0 15114250.170879364 76777804.238766223 0 76777804.238766223 159206456.86809647 0 0 0 0 187437.78708745772 129376.40265691746 0 129376.40265691746 -118800.52836840536 0 0 0 0 -15210217.229185104 -11074089.980060786 0 -11074089.980060786 57195924.101884693 0 0 0 0 -11001891.644016266 58565456.463040203 0 58565456.463040203 149122234.42771858 0 0 0 0 355894.35258635879 11643.795274342352 0 11643.795274342352 -7432.451724520346 0 0 0 0 -43307605.430203438 1618114.349570632 0 1618114.349570632 24945675.679566115 0 0 0 0 100974936.37834072 -17843836.811323613 0 -17843836.811323613 18469135.789673239 0 0 0 0 81109867.55702877 112601407.63184822 0 112601407.63184822 91397360.752945751 0 0 0 0 57970190.5666008 69785768.249643952 0 69785768.249643952 21244478.924310207 0 0 0 0 744191.86803647876 -261899.3274224223 0 -261899.3274224223 24440.686248908663 0 0 0 0 -13212836.477291107 -9379971.4442106932 0 -9379971.4442106932 25511437.280737877 0 0 0 0 55157754.376019001 -17233967.311911926 0 -17233967.311911926 -87551778.617641062 0 0 0 0 2665391.8022887707 -11293841.202861115 0 -11293841.202861115 1565598.8200029135 0 0 0 0 9905420.3195751905 29550415.312318016 0 29550415.312318016 -7699921.8290482759 0 0 0 0 24084921.877245903 39460099.398764759 0 39460099.398764759 58497131.143252611 0 0 0 0 88666882.260516167 1102634.7802695036 0 1102634.7802695036 -4172475.4311108738 0 0 0 0 36263597.412665844 -13473723.355456412 0 -13473723.355456412 -78648848.052504539 0 0 0 0 23096644.874196529 -35772179.185026586 0 -35772179.185026586 60963003.932463408 0 0 0 0 -33286410.019730091 -28166903.216752425 0 -28166903.216752425 60549794.564104855 0 0 0 0 205105656.03944778 -56502984.206484139 0 -56502984.206484139 4142163.3742365837 0 0 0 0 155695744.54157257 35660706.321718276 0 35660706.321718276 -15340560.446867228 0 0 0 0 376154.54811288929 -107819.64584388031 0 -107819.64584388031 3474.5539550438698 0 0 0 0 38481888.629114151 -90487409.169979483 0 -90487409.169979483 36761166.599313259 0 0 0 0 199603469.39178276 -9843668.9328655601 0 -9843668.9328655601 24441630.354065061 0 0 0 0 158811474.80343342 31638869.149039209 0 31638869.149039209 -328142.18315446377 0 0 0 0 161313171.51166534 9862308.5308263898 0 9862308.5308263898 81708446.86648792 0 0 0 0 132420094.64500237 46249323.260040566 0 46249323.260040566 100328173.00359401 0 0 0 0 181629282.51407242 84306358.172659993 0 84306358.172659993 96222922.594717681 0 0 0 0 121181622.58307266 71122206.314795494 0 71122206.314795494 48684784.555393457 0 0 0 0 127515724.69149208 26069811.697078928 0 26069811.697078928 68853072.86171329 0 0 0 0 76263311.1391716 88819607.505018756 0 88819607.505018756 4427125.8598159999 0 0 0 0 -21477757.75216198 64762888.073817044 0 64762888.073817044 76024608.098916382 0 0 0 0 70065044.24180603 53709011.778327033 0 53709011.778327033 54898675.301985741 0 0 0 0 36415571.658220291 78347463.699545532 0 78347463.699545532 80326134.848337963 0 0 0 0 24535590.668028831 67969644.148040667 0 67969644.148040667 107327605.58883995 0 0 0 0 76700366.774775505 53138142.318331599 0 53138142.318331599 89568922.781288743 0 0 0 0 112101958.14099026 71585762.445014402 0 71585762.445014402 65022862.78630814 0 0 0 0 119258944.53670883 49810579.557540476 0 49810579.557540476 71087580.317369029 0 0 0 0 181030504.91870168 81698120.466244563 0 81698120.466244563 60120583.054014981 0 0 0 0 68097290.045896888 66356673.878900945 0 66356673.878900945 92188638.808512568 0 0 0 0 147574973.20555019 -4422704.36563012 0 -4422704.36563012 50260498.913982823 0 0 0 0 99998.94022352749 12261.715698049171 0 12261.715698049171 38768.531705686008 0 0 0 0 252307621.25755501 39487340.492145792 0 39487340.492145792 16946415.231445879 0 0 0 0 199671302.59432459 27111527.972579442 0 27111527.972579442 64187260.986244112 0 0 0 0 180656786.26170796 69006334.142903686 0 69006334.142903686 89391295.696710974 0 0 0 0 222751219.95931196 5004211.8557303986 0 5004211.8557303986 16506643.858978728 0 0 0 0 193986787.06597137 15162870.492253117 0 15162870.492253117 59109825.995051347 0 0 0 0 204799117.67911983 68002571.752835453 0 68002571.752835453 53014404.084221877 0 0 0 0 214926164.03429604 40982110.776257604 0 40982110.776257604 76342851.968565643 0 0 0 0 206719393.84049797 23385919.521194875 0 23385919.521194875 56553847.350535542 0 0 0 0 206300155.96141815 57613604.28872709 0 57613604.28872709 124706773.132329 0 0 0 0 212324897.18546534 38202875.666515902 0 38202875.666515902 68444001.508474857 0 0 0 0 251542519.21742249 -17807879.596670836 0 -17807879.596670836 128108824.2582418 0 0 0 0 293957850.92374802 38143015.611234158 0 38143015.611234158 78765310.130805254 0 0 0 0 80564.666752547026 -31110.604781028815 0 -31110.604781028815 199272.25346030053 0 0 0 0 187945939.64502108 -115851122.19446659 0 -115851122.19446659 123439345.62336266 0 0 0 0 219160812.16313696 84735568.910069898 0 84735568.910069898 66093013.927021205 0 0 0 0 119896089.06140637 -51579164.607011497 0 -51579164.607011497 84669275.85848856 0 0 0 0 184621813.60000134 78807241.617605865 0 78807241.617605865 -75669681.078312099 0 0 0 0 136538674.13414764 46200147.088926114 0 46200147.088926114 10320065.874057487 0 0 0 0 220653713.74256229 75282947.832524493 0 75282947.832524493 16541088.220233146 0 0 0 0 210017414.54503679 73959279.732491463 0 73959279.732491463 55119567.605236433 0 0 0 0 221249423.71211833 96877523.360104293 0 96877523.360104293 4575263.5150359841 0 0 0 0 225811275.88106728 78397452.226767898 0 78397452.226767898 6714717.4977460708 0 0 0 0 315002727.16059858 36142577.209283695 0 36142577.209283695 -9617931.5307071675 0 0 0 0 268639202.19069386 72988091.717394158 0 72988091.717394158 15831414.592383407 0 0 0 0 232118497.0696609 25968059.475463513 0 25968059.475463513 37894533.633466549 0 0 0 0 -7240523.1000022888 6511388.7927143425 0 6511388.7927143425 -5183553.8420428038 0 0 0 0 102825.27166278102 233740.8463061864 0 233740.8463061864 -72210.087201888906 0 0 0 0 2121879.8780112881 -114773.81611794961 0 -114773.81611794961 -356413.95825516118 0 0 0 0 14541397.023967743 1090486.8346225172 0 1090486.8346225172 -4676155.3753482997 0 0 0 0 37181.598165512085 7233088.5956693888 0 7233088.5956693888 -16779937.378494471 0 0 0 0 -7938827.3098802567 15508730.692094594 0 15508730.692094594 -6804914.6415822208 0 0 0 0 -7964260.6860678196 10350614.929436222 0 10350614.929436222 10134674.844980478 0 0 0 0 -7920010.5286941528 9293650.0201456696 0 9293650.0201456696 1643771.457080245 0 0 0 0 -343655.76165914536 3658956.8040326834 0 3658956.8040326834 -6876988.5185604692 0 0 0 0 866800.46129159362 724497.83899607789 0 724497.83899607789 -261626.41774646204 0 0 0 0 625563.0932226181 2379889.8078874424 0 2379889.8078874424 134820.94206145406 0 0 0 0 -102283.07947158813 4576624.1686907858 0 4576624.1686907858 22217.564474135637 0 0 0 0 5076631.2112865448 2752981.2203623392 0 2752981.2203623392 -7057802.8078196198 0 0 0 0 -900676.42326545715 3737366.1531722993 0 3737366.1531722993 3489290.0863671005 0 0 0 0 944723.93800735474 1566621.5023901314 0 1566621.5023901314 3082080.3620657325 0 0 0 0 2572153.3288002014 1715450.0446410254 0 1715450.0446410254 1113124.5557579696 0 0 0 0 69014.358204841614 3177677.7711461857 0 3177677.7711461857 1285300.9834869802 0 0 0 0 -4038.5769901275635 3218347.8254673034 0 3218347.8254673034 1762827.7975265682 0 0 0 0 14254757.929450035 1753779.7355833873 0 1753779.7355833873 -8683090.6495534629 0 0 0 0 7069891.8799610138 7826684.1932009384 0 7826684.1932009384 4548976.3886077106 0 0 0 0 4658152.3032341003 -3129538.0896688253 0 -3129538.0896688253 10035931.743412435 0 0 0 0 19391114.802993774 -6551534.1414707601 0 -6551534.1414707601 -4143211.5525949895 0 0 0 0 12399871.615131378 722239.50027708709 0 722239.50027708709 -11562181.056786299 0 0 0 0 16381962.559165955 -1043350.6683916748 0 -1043350.6683916748 -11591677.280036265 0 0 0 0 -1635518.6451721191 5945232.2527799606 0 5945232.2527799606 -3214608.140316844 0 0 0 0 -2738844.7879734039 605912.1546317786 0 605912.1546317786 652940.34060761333 0 0 0 0 2166101.641708374 2286440.6621935517 0 2286440.6621935517 282157.28533248603 0 0 0 0 2040301.3917655945 1663393.6411890835 0 1663393.6411890835 1189612.7025416791 0 0 0 0 11457918.655056 -1092861.681490019 0 -1092861.681490019 -5542497.6614029706 0 0 0 0 13856196.439336777 3323360.1373086423 0 3323360.1373086423 -18814980.826878786 0 0 0 0 6387843.510933876 4100988.5338190254 0 4100988.5338190254 -9405342.6956789196 0 0 0 0 6158834.7571680546 5942366.1501072459 0 5942366.1501072459 -8759473.1257484555 0 0 0 0 -4559442.9761734009 14870268.630704761 0 14870268.630704761 -16016989.579696923 0 0 0 0 17887796.506263733 2482076.3367361873 0 2482076.3367361873 -31951853.316055685 0 0 0 0 16490839.409852982 -3967270.6805261057 0 -3967270.6805261057 -15363650.148992717 0 0 0 0 8666861.082862854 14797841.12873558 0 14797841.12873558 -48017893.413105071 0 0 0 0 17108698.451444626 -1091963.2040852234 0 -1091963.2040852234 -13064288.062946409 0 0 0 0 16734849.207025528 -3011531.6605286151 0 -3011531.6605286151 -13805182.061569691 0 0 0 0 17686587.492706299 -5397961.2289284915 0 -5397961.2289284915 -10644442.891519494 0 0 0 0 10048624.245183945 -14994593.596621811 0 -14994593.596621811 20300383.88546944 0 0 0 0 9901826.3951759338 -10846745.699001819 0 -10846745.699001819 1002912.1070022285 0 0 0 0 18424690.164682388 -18271934.337535731 0 -18271934.337535731 -5775290.825117141 0 0 0 0 10169318.076011181 1027810.9808926918 0 1027810.9808926918 20412405.340962946 0 0 0 0 -101609.94374352694 43343740.486087963 0 43343740.486087963 8535770.182241112 0 0 0 0 -4637348.4205513 -33404310.13720689 0 -33404310.13720689 -23903347.357217818 0 0 0 0 324514.07468665007 43024.261389262974 0 43024.261389262974 -122542.07172378812 0 0 0 0 -18629160.25825119 21029719.292031743 0 21029719.292031743 -20288426.998453438 0 0 0 0 -18035945.423908234 -13245586.387303457 0 -13245586.387303457 -10817598.481221005 0 0 0 0 26421487.52666682 28132132.076865219 0 28132132.076865219 20746554.155206308 0 0 0 0 21380848.501339912 -6557531.8203992844 0 -6557531.8203992844 -49549184.120562315 0 0 0 0 34605429.623613358 14185411.474594131 0 14185411.474594131 30725247.3299537 0 0 0 0 60213786.572809219 59920769.158280686 0 59920769.158280686 19363160.71564199 0 0 0 0 26431053.39665699 45942592.210910797 0 45942592.210910797 76289302.995070443 0 0 0 0 30539330.595042586 68635553.830207899 0 68635553.830207899 36018212.092233658 0 0 0 0 183058.60170116834 152749.72397448891 0 152749.72397448891 -153265.01000161865 0 0 0 0 9720630.4397392273 66096001.216603033 0 66096001.216603033 88007882.458430544 0 0 0 0 37751666.219058037 27756436.413886204 0 27756436.413886204 -3349071.1084685177 0 0 0 0 8027068.8194746971 3825169.8657903895 0 3825169.8657903895 -3767763.7357435673 0 0 0 0 40687891.197012901 46137100.222174153 0 46137100.222174153 30754164.832386196 0 0 0 0 17318972.23828125 34924203.396158874 0 34924203.396158874 57841952.298112065 0 0 0 0 24371199.803144455 41790062.439996205 0 41790062.439996205 35952444.505423903 0 0 0 0 10767548.441376686 21248258.320745736 0 21248258.320745736 29357777.541084111 0 0 0 0 22738492.311124802 36560591.643364936 0 36560591.643364936 36866488.186079547 0 0 0 0 24067425.950055122 40670606.753073335 0 40670606.753073335 35902164.011744738 0 0 0 0 21642967.26412344 37061488.420203254 0 37061488.420203254 44470414.396498263 0 0 0 0 26691795.795728683 51596166.50251618 0 51596166.50251618 54751515.50987573 0 0 0 0 22956910.838918686 40137847.728849173 0 40137847.728849173 59499998.197305292 0 0 0 0 327738.35387338046 249863.5484307583 0 249863.5484307583 -240305.01738847955 0 0 0 0 32999284.147384644 53914481.098459095 0 53914481.098459095 54424232.348097086 0 0 0 0 27181544.188434601 48720745.236348838 0 48720745.236348838 60604851.678869605 0 0 0 0 34356416.838366508 26504997.86673557 0 26504997.86673557 66229651.070780113 0 0 0 0 33047996.403323174 38793925.610348046 0 38793925.610348046 52535393.439784706 0 0 0 0 1091516.6465103971 -44440.544151090464 0 -44440.544151090464 -61949.717434415419 0 0 0 0 -10747788.796992302 -29709194.670911252 0 -29709194.670911252 -9091141.8922822475 0 0 0 0 1719042.4682165189 -115989.50630108599 0 -115989.50630108599 -165681.88032294519 0 0 0 0 26906277.289725304 2368307.3584439456 0 2368307.3584439456 -8409129.4061045647 0 0 0 0 -2208305.9321594238 41822282.958274096 0 41822282.958274096 60312057.733040303 0 0 0 0 -26832491.965723991 -39998716.654313534 0 -39998716.654313534 23323852.107470125 0 0 0 0 72031523.766367912 -1982474.4209220409 0 -1982474.4209220409 -62599154.56472975 0 0 0 0 -12005675.948462009 17106216.303679794 0 17106216.303679794 35267295.506020427 0 0 0 0 3520459.3410806656 -22387508.56293568 0 -22387508.56293568 32354763.76336813 0 0 0 0 54062425.904830694 -10123841.144121438 0 -10123841.144121438 -5127728.8836203814 0 0 0 0 38909760.536035061 29674794.648685195 0 29674794.648685195 4902974.68504107 0 0 0 0 197379.57491977653 -93867.11127295706 0 -93867.11127295706 30525.614009243014 0 0 0 0 22873459.626257896 14266194.599335015 0 14266194.599335015 -4472291.6775196791 0 0 0 0 2088067.6790885925 2731905.6147625446 0 2731905.6147625446 -8245560.525578469 0 0 0 0 29049295.866121292 752189.71113798022 0 752189.71113798022 -25751124.780705035 0 0 0 0 -2323344.9802463055 -58028193.83447431 0 -58028193.83447431 -34580259.19517833 0 0 0 0 470059.2640953064 1617066.3765089959 0 1617066.3765089959 -411999.76147162914 0 0 0 0 -18348280.787236214 -15625853.489609167 0 -15625853.489609167 1046801.0612792224 0 0 0 0 -23344693.759252548 -11319112.533522412 0 -11319112.533522412 34677279.790530339 0 0 0 0 7155824.5913891792 10196006.7676799 0 10196006.7676799 -1590889.9044479132 0 0 0 0 12217832.068695068 15319074.322057486 0 15319074.322057486 -1865853.338138938 0 0 0 0 14830534.887900352 5519827.1164189577 0 5519827.1164189577 -42500045.664368391 0 0 0 0 573806.86347984336 -239020.95711417421 0 -239020.95711417421 43612.57306499999 0 0 0 0 12636401.756441116 14398207.286983132 0 14398207.286983132 -5760521.5741462708 0 0 0 0 13018266.037735939 12879350.552096888 0 12879350.552096888 -165799.21542859077 0 0 0 0 4414644.594877243 16078735.286114872 0 16078735.286114872 17287687.24952668 0 0 0 0 771750.73262433754 -246095.16086519597 0 -246095.16086519597 64061.308772397941 0 0 0 0 7621215.3017678261 10711734.200783849 0 10711734.200783849 18873525.02974683 0 0 0 0 6370907.2803912163 20458371.221039206 0 20458371.221039206 4796887.2422168851 0 0 0 0 56466.077128198463 57017.057849094621 0 57017.057849094621 -13473.340773529024 0 0 0 0 85040.100880622864 82323.414486467838 0 82323.414486467838 4115601.6249640286 0 0 0 0 6627264.0243759155 10823967.523623109 0 10823967.523623109 2537064.1743656993 0 0 0 0 11739050.999886036 -2502757.524209477 0 -2502757.524209477 -3196511.0301131606 0 0 0 0 7580874.7068114281 -4931716.9185420275 0 -4931716.9185420275 -7445098.0953805149 0 0 0 0 1262062.8074075421 -331555.51779500482 0 -331555.51779500482 34756.708151104322 0 0 0 0 1188858.5732698441 -798707.88106292486 0 -798707.88106292486 -1201782.3457514644 0 0 0 0 4347294.0389785767 -745310.55084526539 0 -745310.55084526539 -8286713.8624398112 0 0 0 0 1715442.6367886299 -381556.61119207996 0 -381556.61119207996 -30584.457618120854 0 0 0 0 1442282.1893680096 198083.76184248924 0 198083.76184248924 -2566210.3341730833 0 0 0 0 1309779.8063588142 -224358.36931687593 0 -224358.36931687593 -505572.87507891655 0 0 0 0 1264001.8115515709 -201058.61232851446 0 -201058.61232851446 -148785.08331048489 0 0 0 0 532283.82120418549 -42150.799898564816 0 -42150.799898564816 217865.60467636585 0 0 0 0 1177828.1778898239 -8397.1560331285 0 -8397.1560331285 -116933.38929235935 0 0 0 0 1262091.4964675903 113169.88576799631 0 113169.88576799631 -34357.074960947037 0 0 0 0 -244677.60198426247 -1153479.1892950386 0 -1153479.1892950386 777189.03020727634 0 0 0 0 522152.73821735382 506873.78257483244 0 506873.78257483244 1745711.5614255071 0 0 0 0 142507.80516787246 183800.34321616223 0 183800.34321616223 -28577.664434903447 0 0 0 0 4321856.1705218852 -22081317.131564967 0 -22081317.131564967 -16569640.519152701 0 0 0 0 -7568895.6066231728 -5357860.2189957649 0 -5357860.2189957649 -4951511.9817852378 0 0 0 0 1061123.9534597397 414814.34479767084 0 414814.34479767084 578487.17077130079 0 0 0 0 338311.7042371342 506020.62360350916 0 506020.62360350916 -148352.38701987427 0 0 0 0 1422376.1709651947 344391.92396652699 0 344391.92396652699 19259.702963590622 0 0 0 0 -7097438.4761614799 101880.15048128366 0 101880.15048128366 2679886.408551693 0 0 0 0 -10908648.136291504 1983592.183172524 0 1983592.183172524 5263484.1984954178 0 0 0 0 -10907234.367726326 3294950.8239161223 0 3294950.8239161223 14594578.156363249 0 0 0 0 -10172662.312726021 -4753749.4769362062 0 -4753749.4769362062 7036167.625056386 0 0 0 0 -9049635.6818342209 -3459355.8177236319 0 -3459355.8177236319 4717973.8121227622 0 0 0 0 6283309.0220088959 -731348.90044716746 0 -731348.90044716746 -9424355.4665102884 0 0 0 0 1749312.6787384488 -29080.736797369551 0 -29080.736797369551 -370722.53032600676 0 0 0 0 5517390.394466877 -1069336.5284209363 0 -1069336.5284209363 188356.17936401814 0 0 0 0 429832.17505218717 -77123.606072838418 0 -77123.606072838418 1745.2197986179817 0 0 0 0 -1441341.8034229279 6105821.7399932183 0 6105821.7399932183 -5310767.7159017995 0 0 0 0 999986.1379710905 724626.28466844885 0 724626.28466844885 -264045.75982295041 0 0 0 0 5494779.4405574799 -441968.16216151789 0 -441968.16216151789 -3445246.8118016925 0 0 0 0 1851405.3647212822 -221029.33952151146 0 -221029.33952151146 -63260.995015165332 0 0 0 0 2036944.8384620948 -507543.63971517514 0 -507543.63971517514 -401602.55564331484 0 0 0 0 1481395.8277964592 215765.27958196402 0 215765.27958196402 -159437.56496787071 0 0 0 0 3293750.6242227554 380380.82644432783 0 380380.82644432783 -276864.27810835838 0 0 0 0 1453463.6963644028 -16371.169952630997 0 -16371.169952630997 -81730.078965783119 0 0 0 0 224904.09977588034 -2882.4618013666477 0 -2882.4618013666477 -6919.2937215181882 0 0 0 0 83209.109069752041 1853.6635693295393 0 1853.6635693295393 -63397.582099639869 0 0 0 0 1492599.9380301172 139896.23093783646 0 139896.23093783646 -404243.76411712077 0 0 0 0 997559.02215576172 227640.51610463858 0 227640.51610463858 -442760.17003422976 0 0 0 0 -9757673.77358675 -3202340.0372907408 0 -3202340.0372907408 1494952.5550021976 0 0 0 0 2825329.6601379416 -478015.77146046795 0 -478015.77146046795 -306440.22833550285 0 0 0 0 -1418450.7115001678 2717331.587810427 0 2717331.587810427 549805.56099343207 0 0 0 0 2785496.1911468506 -286123.55181515217 0 -286123.55181515217 -1147248.8121173382 0 0 0 0 697536.27742767334 -539286.82207746804 0 -539286.82207746804 169355.22556960583 0 0 0 0 2199386.3385487325 -290224.25267305283 0 -290224.25267305283 -212031.25213308071 0 0 0 0 2864698.2875747681 -265856.38380849361 0 -265856.38380849361 1181413.2205123901 0 0 0 0 1412985.5835914612 33862.155647575855 0 33862.155647575855 -487696.23665308952 0 0 0 0 3326725.8319892883 -1308992.4504270554 0 -1308992.4504270554 -1773461.1522343159 0 0 0 0 2589284.4798793793 1123170.1082046628 0 1123170.1082046628 -2754621.1292745769 0 0 0 0 1380755.833092879 -176392.85231735476 0 -176392.85231735476 -330601.81798172742 0 0 0 0 2784214.7723288536 652549.9736379981 0 652549.9736379981 -1898894.9907166958 0 0 0 0 -533426.25002479553 -3749289.47545591 0 -3749289.47545591 -1885867.7128694654 0 0 0 0 2144342.5348324776 1393616.452006042 0 1393616.452006042 -1429128.4826157987 0 0 0 0 3532435.582909584 1832137.2485850304 0 1832137.2485850304 -4477214.0860929489 0 0 0 0 1260266.7037372589 1224173.5374923348 0 1224173.5374923348 -1140258.4759445488 0 0 0 0 992782.02716350555 4771630.9060284048 0 4771630.9060284048 -12491192.014006406 0 0 0 0 -156367.13068979979 -16820848.973598674 0 -16820848.973598674 -19522074.01555866 0 0 0 0 1450355.5742022991 -10494087.282860257 0 -10494087.282860257 5226138.293697007 0 0 0 0 4508404.6836194992 -8485795.2166195214 0 -8485795.2166195214 -4110328.6842135787 0 0 0 0 1135049.4869532585 -8691482.8681404367 0 -8691482.8681404367 7045032.8210347444 0 0 0 0 -27015464.254110575 -17918313.202232443 0 -17918313.202232443 14687778.527579322 0 0 0 0 1490848.8971529007 -4770608.5006153435 0 -4770608.5006153435 13225363.402659133 0 0 0 0 14574754.570292473 -4185225.1974905729 0 -4185225.1974905729 5202967.9643853009 0 0 0 0 1894174.2696094513 -9721303.0399423167 0 -9721303.0399423167 7304044.307455752 0 0 0 0 4954409.0938916206 -5197883.0776093751 0 -5197883.0776093751 12711310.381484434 0 0 0 0 7998818.5880177021 -8008192.6397744417 0 -8008192.6397744417 4548258.9674298763 0 0 0 0 5325349.0293955803 -4426243.5436829031 0 -4426243.5436829031 6070614.188216351 0 0 0 0 15498162.702524245 -13995126.080077363 0 -13995126.080077363 8829135.1504654288 0 0 0 0 7574490.4945471287 -2602508.0638028085 0 -2602508.0638028085 908674.12236702442 0 0 0 0 5275154.9253839254 -6858365.4604988173 0 -6858365.4604988173 10804620.144302368 0 0 0 0 4869234.1560573578 -1766109.1585887074 0 -1766109.1585887074 3595330.0488362238 0 0 0 0 5676266.0312924385 -768693.22652280331 0 -768693.22652280331 -1405434.8494620323 0 0 0 0 3869910.9326319695 1518259.6647614837 0 1518259.6647614837 -2515106.3199548721 0 0 0 0 2155498.1458317935 1555144.662870869 0 1555144.662870869 -720384.39512884617 0 0 0 0 2240998.9852856398 -719764.03980872035 0 -719764.03980872035 1907505.7306425571 0 0 0 0 2765337.4288620949 2476266.2326042652 0 2476266.2326042652 -3660298.6399671435 0 0 0 0 442839.56711733341 -3831515.6165744364 0 -3831515.6165744364 2620147.0635492802 0 0 0 0 -327682.47997188568 -1655586.898955822 0 -1655586.898955822 8327484.6159340739 0 0 0 0 4710790.0674232244 -13650912.080016471 0 -13650912.080016471 18765087.606261849 0 0 0 0 20761758.678492546 -18773215.441863209 0 -18773215.441863209 13561983.420527771 0 0 0 0 8184020.7249717712 -3855222.2143163085 0 -3855222.2143163085 2222608.11841093 0 0 0 0 -105577.11714076996 -14403766.687942505 0 -14403766.687942505 27616327.566243529 0 0 0 0 8033904.4312019348 -15517725.776809365 0 -15517725.776809365 16729363.44789128 0 0 0 0 27040217.163003564 -28559773.564147137 0 -28559773.564147137 7888085.0017428398 0 0 0 0 24965406.837328434 -31792254.482312255 0 -31792254.482312255 29967377.901314311 0 0 0 0 10495566.224574089 -23794639.514409594 0 -23794639.514409594 32593248.595120847 0 0 0 0 30285221.284357548 -49639412.976148486 0 -49639412.976148486 41910022.860586062 0 0 0 0 11859978.077553272 -14059985.827189282 0 -14059985.827189282 -38053288.182727545 0 0 0 0 136684.7654976123 -117115.74155594001 0 -117115.74155594001 -150922.79305833275 0 0 0 0 17813142.374027252 3316153.9058703855 0 3316153.9058703855 -45715490.220432758 0 0 0 0 12307706.722497106 -19157111.953092821 0 -19157111.953092821 18563205.454675257 0 0 0 0 13160230.107650757 -11140446.629629537 0 -11140446.629629537 6134755.0657772124 0 0 0 0 21104989.627269268 -27382337.49669832 0 -27382337.49669832 5782779.8050397355 0 0 0 0 24806386.780688763 -18076727.565224841 0 -18076727.565224841 -4026914.4311794341 0 0 0 0 24684038.228462696 -8952113.2839801908 0 -8952113.2839801908 11336837.741076529 0 0 0 0 6555753.6246232986 -24401041.486045778 0 -24401041.486045778 48006039.271742076 0 0 0 0 49199913.371004105 3179609.2008394599 0 3179609.2008394599 11513391.070036381 0 0 0 0 455583.26808941457 46944.11290457967 0 46944.11290457967 -55703.863406445598 0 0 0 0 64548032.617695808 28859462.329005525 0 28859462.329005525 -44693098.465884745 0 0 0 0 11140495.347186685 -30109446.459083728 0 -30109446.459083728 11714374.984712124 0 0 0 0 -13246049.959019661 1789188.51799196 0 1789188.51799196 9324285.4988387674 0 0 0 0 22162746.213786602 33802042.597662389 0 33802042.597662389 -18117447.934619486 0 0 0 0 541516.91018420318 15361.014007564547 0 15361.014007564547 -49380.511885807107 0 0 0 0 20467792.383966923 -7572289.569162406 0 -7572289.569162406 -68292405.848606735 0 0 0 0 -48942483.39198494 -7331406.8573476374 0 -7331406.8573476374 57707009.811039105 0 0 0 0 179312.13371998584 -44978.236551127251 0 -44978.236551127251 -24476.093557940556 0 0 0 0 25394202.676325798 -36630376.519016199 0 -36630376.519016199 -12078307.172244221 0 0 0 0 2047544.4655323029 -15612252.416699111 0 -15612252.416699111 -15316841.840639591 0 0 0 0 385905.68560616206 55694.599569503305 0 55694.599569503305 -36327.9305786474 0 0 0 0 5723020.4702577591 -2137026.7514201999 0 -2137026.7514201999 -25363680.874022394 0 0 0 0 -1672841.4328577518 -9705963.5980881155 0 -9705963.5980881155 5742923.5463490486 0 0 0 0 287197.6564347744 -17920913.142983884 0 -17920913.142983884 3799199.6795496941 0 0 0 0 -2761988.9389634132 -560294.48539471626 0 -560294.48539471626 16186581.131346136 0 0 0 0 35177.722851146245 -53674.425475539989 0 -53674.425475539989 47614.075849059969 0 0 0 0 31544196.384703875 3449574.9169307351 0 3449574.9169307351 -1331694.7454856038 0 0 0 0 914169.96335037053 -1651843.9193004798 0 -1651843.9193004798 455422.91854608059 0 0 0 0 -1680266.7458739281 -3437351.5794171095 0 -3437351.5794171095 3109430.2525711954 0 0 0 0 -216542.07468032837 -2254583.6978788376 0 -2254583.6978788376 136239.86477649212 0 0 0 0 -11503379.884207964 28108139.278828733 0 28108139.278828733 14179029.694471419 0 0 0 0 215432.00398321939 681.27952778985491 0 681.27952778985491 -35947.088422960602 0 0 0 0 -6976424.5372495651 -546052.09780222178 0 -546052.09780222178 12069796.555965662 0 0 0 0 29087117.654231548 23790871.367436111 0 23790871.367436111 -38052938.339465261 0 0 0 0 13594749.757243395 13078066.382867113 0 13078066.382867113 -11870836.298417151 0 0 0 0 29576133.639805317 -5867349.7500404119 0 -5867349.7500404119 5533273.5125138164 0 0 0 0 18204157.793692589 24212714.685162008 0 24212714.685162008 13379028.989068806 0 0 0 0 35095277.514787197 -40723685.221664965 0 -40723685.221664965 -22166795.063189328 0 0 0 0 38336891.585394919 22585230.7732592 0 22585230.7732592 -18697660.414299726 0 0 0 0 -14129553.023611069 20581516.576160282 0 20581516.576160282 32592398.293334603 0 0 0 0 -22086334.593213081 -35947083.601038218 0 -35947083.601038218 36645316.38955605 0 0 0 0 -26137975.03800869 -18278225.683477163 0 -18278225.683477163 -3894623.4917647839 0 0 0 0 -63036635.270373344 -62113322.670424044 0 -62113322.670424044 -6674103.4056139626 0 0 0 0 12032983.28579545 19633105.436981291 0 19633105.436981291 32331621.085364044 0 0 0 0 -55980206.717421055 -77373598.373569846 0 -77373598.373569846 -26090187.391137004 0 0 0 0 -10653.386955458671 -41407.022026672377 0 -41407.022026672377 102581.39311952482 0 0 0 0 176519.31639815401 15888.053096635878 0 15888.053096635878 -110197.32794937218 0 0 0 0 1723415.2259812355 37017590.033103347 0 37017590.033103347 -6622921.297704041 0 0 0 0 75684867.929164171 29052313.423260301 0 29052313.423260301 -6048550.0408189297 0 0 0 0 67604034.916936636 32208876.575209945 0 32208876.575209945 6328549.3295998275 0 0 0 0 -36071.979657406453 -18413.244978863397 0 -18413.244978863397 105028.55082181498 0 0 0 0 -76427942.969047308 -29123598.573840141 0 -29123598.573840141 9571366.7006723881 0 0 0 0 -23393822.958137989 -39776287.810007811 0 -39776287.810007811 -52965273.662180543 0 0 0 0 -29717224.619334221 -35446348.888661653 0 -35446348.888661653 6293746.4930828512 0 0 0 0 2994028.8465266228 -15654920.152622133 0 -15654920.152622133 12008528.231029451 0 0 0 0 18380392.230012894 -4914586.4063266665 0 -4914586.4063266665 11865806.788056076 0 0 0 0 -3860513.4744903445 -7658860.8009706568 0 -7658860.8009706568 12722096.671076328 0 0 0 0 -664251.28782939911 -15175923.031790983 0 -15175923.031790983 12691029.192290589 0 0 0 0 -6125845.3328576088 -14342435.89607814 0 -14342435.89607814 14660270.497230858 0 0 0 0 -3845721.5199284554 378383.1048977375 0 378383.1048977375 11786696.22515884 0 0 0 0 20993013.679151535 -19400626.586807281 0 -19400626.586807281 21611199.176917896 0 0 0 0 21979325.488062859 -8269612.1065926254 0 -8269612.1065926254 10304014.029668748 0 0 0 0 49480140.963775024 7421770.5333196074 0 7421770.5333196074 11608782.659311831 0 0 0 0 48542488.547054291 -35649866.15100345 0 -35649866.15100345 4628256.2338906229 0 0 0 0 314577765.58047158 182820387.66221923 0 182820387.66221923 -13331366.356526865 0 0 0 0 408040.58870808873 206872.35751687648 0 206872.35751687648 89905.572415849776 0 0 0 0 123340869.48972225 -116757491.2764031 0 -116757491.2764031 98228698.963983759 0 0 0 0 70841056.342966065 96163495.738575041 0 96163495.738575041 22937747.791596979 0 0 0 0 68623519.815656662 218009016.5123184 0 218009016.5123184 282568584.77161449 0 0 0 0 220713341.56887341 90584303.896248609 0 90584303.896248609 -3640257.0314878188 0 0 0 0 214471392.65518761 118144899.80541235 0 118144899.80541235 -866924.44656936266 0 0 0 0 -30476385.185408592 53171952.3708774 0 53171952.3708774 62502513.442713775 0 0 0 0 54254.155797939748 4916.1491148527712 0 4916.1491148527712 131237.52484699574 0 0 0 0 169424348.71971655 101415555.9839599 0 101415555.9839599 8712876.7432279401 0 0 0 0 56530699.688351154 61023332.326468885 0 61023332.326468885 11341238.745806336 0 0 0 0 97829.026149877114 14309.455139234429 0 14309.455139234429 350225.27519481455 0 0 0 0 99654526.467587471 29207695.86943078 0 29207695.86943078 26875741.63372159 0 0 0 0 89618177.915995359 25059825.634365767 0 25059825.634365767 28326487.073431611 0 0 0 0 46788665.305306435 27779455.788214594 0 27779455.788214594 34605983.499453932 0 0 0 0 9317895.8980865479 20399517.878627002 0 20399517.878627002 28157546.239870071 0 0 0 0 25371795.888252258 45477729.16614151 0 45477729.16614151 -27404419.709203362 0 0 0 0 50691570.234769821 22156925.808216453 0 22156925.808216453 -6404662.6388664246 0 0 0 0 51534556.263549194 69865174.359094039 0 69865174.359094039 -12335214.821916938 0 0 0 0 -8862116.96717453 86783763.478446126 0 86783763.478446126 92125055.787013233 0 0 0 0 174723229.6221683 119793466.66681027 0 119793466.66681027 8784609.4148411751 0 0 0 0 35127572.246581078 91635078.636387944 0 91635078.636387944 37502525.401794493 0 0 0 0 1168769.3290153039 265330.55606111267 0 265330.55606111267 -12694.160347833953 0 0 0 0 39592590.299119949 -18517524.616225511 0 -18517524.616225511 -14798609.256480709 0 0 0 0 -23772631.753435135 -6331936.7495050281 0 -6331936.7495050281 28912678.732550025 0 0 0 0 -35686191.417593002 -50536364.56388516 0 -50536364.56388516 39840916.934822425 0 0 0 0 -37674734.590385213 26230980.307928186 0 26230980.307928186 11865575.782537326 0 0 0 0 33504626.107769012 22246077.739152074 0 22246077.739152074 -128413634.42061177 0 0 0 0 1573096.9499221847 213491.51802522904 0 213491.51802522904 -178203.41617857452 0 0 0 0 3966609.6241545677 18622268.89532923 0 18622268.89532923 -20863235.730510093 0 0 0 0 -24816317.504520416 39665391.857164741 0 39665391.857164741 -99185853.095174521 0 0 0 0 -26015842.240066528 -5914145.087439537 0 -5914145.087439537 -140974230.16479325 0 0 0 0 10938731.901088715 40295888.481059611 0 40295888.481059611 -99466333.731781483 0 0 0 0 25680933.518072128 17218973.911040604 0 17218973.911040604 -79842992.385046363 0 0 0 0 -13003484.299510956 15426760.409316599 0 15426760.409316599 -36754609.203207493 0 0 0 0 -37604727.722478867 19898989.464042366 0 19898989.464042366 -72185040.954210281 0 0 0 0 25398957.345035553 38857115.956512213 0 38857115.956512213 -2015953.6969720125 0 0 0 0 22474106.291122437 -18406246.142114937 0 -18406246.142114937 -104414265.38285255 0 0 0 0 16778537.264928818 16734193.755213901 0 16734193.755213901 -119414994.08649293 0 0 0 0 917337.93291878188 512159.21799319785 0 512159.21799319785 18061.552968125481 0 0 0 0 11504081.700004578 9326785.9711049497 0 9326785.9711049497 -75202661.272966743 0 0 0 0 8917753.9141941071 -9841567.6132231951 0 -9841567.6132231951 -68755239.70467332 0 0 0 0 11574483.881029129 4339382.6101053953 0 4339382.6101053953 -74696391.538488448 0 0 0 0 -17592675.050333023 6592022.8997797966 0 6592022.8997797966 -35826750.052376628 0 0 0 0 -9209028.4661445618 36066733.187320769 0 36066733.187320769 -64515031.282073975 0 0 0 0 -19873521.302882195 -14095100.968475893 0 -14095100.968475893 -64743185.071510553 0 0 0 0 -17019404.521308899 7046363.5795483589 0 7046363.5795483589 -87106553.932062089 0 0 0 0 -13273729.713582993 -12119359.476624131 0 -12119359.476624131 -80084506.90613693 0 0 0 0 -8021121.8681430817 9829821.5951718092 0 9829821.5951718092 -113359866.69351679 0 0 0 0 -36543542.013076782 36352241.364640236 0 36352241.364640236 -83581341.690889716 0 0 0 0 -77802875.110931396 -1930470.6847398281 0 -1930470.6847398281 -108942580.48604727 0 0 0 0 -40636294.510665894 -22601042.860519648 0 -22601042.860519648 -123280230.52459526 0 0 0 0 -34399998.870857239 47200990.001834154 0 47200990.001834154 -162270676.14207149 0 0 0 0 -43028757.742237091 -22570725.035971642 0 -22570725.035971642 -203553974.39325762 0 0 0 0 -50676606.823883057 -16159609.805487633 0 -16159609.805487633 -119096174.9252311 0 0 0 0 72563.164079263341 11169.871618196601 0 11169.871618196601 -58468.557352726406 0 0 0 0 -39201535.288490295 68270958.353292942 0 68270958.353292942 -252829987.94276655 0 0 0 0 12945260.338010788 -4957560.5926568508 0 -4957560.5926568508 -112405606.57543546 0 0 0 0 3456670.0668735504 30920067.955004856 0 30920067.955004856 -101944201.52689686 0 0 0 0 18990447.858192444 9511725.3916962743 0 9511725.3916962743 -97924821.392854795 0 0 0 0 -21803437.879753113 -5673417.9236892313 0 -5673417.9236892313 -64293606.851010829 0 0 0 0 -14392964.353792191 27914393.368512467 0 27914393.368512467 -81907342.674540833 0 0 0 0 -5027133.5259327888 -5666356.9464293122 0 -5666356.9464293122 -23202722.52830708 0 0 0 0 -3159176.6022109985 10345464.328859955 0 10345464.328859955 -35375919.174150705 0 0 0 0 -5299175.4836063385 11539698.828028381 0 11539698.828028381 -65209106.053605437 0 0 0 0 19378533.376594543 10097743.695909619 0 10097743.695909619 -66548026.165678099 0 0 0 0 29179239.259263158 12954566.155837625 0 12954566.155837625 -36428817.770142615 0 0 0 0 22969781.185427368 -24083811.515081778 0 -24083811.515081778 -22780107.912728488 0 0 0 0 -4787074.7678747177 10080805.431836784 0 10080805.431836784 15106737.756284475 0 0 0 0 33023135.199225426 6576898.0855398774 0 6576898.0855398774 14613283.379489347 0 0 0 0 -6611100.9480333328 35287631.001854688 0 35287631.001854688 15211494.652071357 0 0 0 0 12938051.717477798 10293504.124625146 0 10293504.124625146 -38950783.458424956 0 0 0 0 28405018.042841911 54166049.468682855 0 54166049.468682855 30394283.411373314 0 0 0 0 50819132.740879357 5371751.0700037666 0 5371751.0700037666 53923257.513089657 0 0 0 0 60068506.489768982 -10896897.791760147 0 -10896897.791760147 -9609461.4952622056 0 0 0 0 43731571.395027161 -13453570.183526695 0 -13453570.183526695 38208841.455917656 0 0 0 0 18379499.161670685 25464940.322961599 0 25464940.322961599 43357741.642453998 0 0 0 0 58642266.684216499 43667956.712598115 0 43667956.712598115 18100702.088174731 0 0 0 0 46228984.575336456 -37576945.359796107 0 -37576945.359796107 37558999.503883719 0 0 0 0 120524.04939988768 -77949.110310061602 0 -77949.110310061602 -102665.62340454967 0 0 0 0 13616182.962733269 -40054381.669492424 0 -40054381.669492424 125290431.57838869 0 0 0 0 252463.36938717822 -109825.87291809589 0 -109825.87291809589 46456.433186956623 0 0 0 0 4586228.4351416826 -33003296.173393488 0 -33003296.173393488 100756866.0222519 0 0 0 0 37612774.849257469 -63462027.730876029 0 -63462027.730876029 38069890.095902622 0 0 0 0 11347050.761087418 -38836859.490631044 0 -38836859.490631044 20392297.796086401 0 0 0 0 226032.62234794116 -175363.94203044404 0 -175363.94203044404 -224294.33226368125 0 0 0 0 -6202819.805390358 -3610834.2196026444 0 -3610834.2196026444 28579797.523117594 0 0 0 0 25943496.876619816 -1534629.2373833582 0 -1534629.2373833582 -23181972.467953563 0 0 0 0 1293476.2343530655 -10566138.345830083 0 -10566138.345830083 -26444713.803611577 0 0 0 0 2163376.847618103 10422900.41627413 0 10422900.41627413 -55003638.647400439 0 0 0 0 12298524.256012917 -3021204.0153614841 0 -3021204.0153614841 -73963158.01644215 0 0 0 0 -2592752.2766113281 -14111783.306929991 0 -14111783.306929991 -79620564.781215265 0 0 0 0 3872471.3165969849 4977339.0479652807 0 4977339.0479652807 -12916016.663335711 0 0 0 0 -1077698.013007164 -16964946.381965801 0 -16964946.381965801 -38859157.887732647 0 0 0 0 -3260723.0249700546 22255374.144531004 0 22255374.144531004 -68181500.261721596 0 0 0 0 142915.01409284305 13250.608388794673 0 13250.608388794673 -15454.618801535835 0 0 0 0 -20937451.589169979 -5320336.8623438776 0 -5320336.8623438776 2930372.0047563314 0 0 0 0 23106672.92073822 -18654750.272224903 0 -18654750.272224903 9127660.7090085745 0 0 0 0 18822291.629025459 8219361.7547961846 0 8219361.7547961846 -99330883.042986438 0 0 0 0 853386.49252063222 177441.57665433339 0 177441.57665433339 -45935.03299384682 0 0 0 0 88329053.854152679 14955156.643882632 0 14955156.643882632 1864030.3266749829 0 0 0 0 58499245.600083351 -1488284.2726307511 0 -1488284.2726307511 -9488092.5559272766 0 0 0 0 28747462.489723682 62645818.805183798 0 62645818.805183798 19093615.981583834 0 0 0 0 13146056.67578125 4111601.4098416567 0 4111601.4098416567 -8151393.2489915192 0 0 0 0 6020067.4874718189 880296.98354715109 0 880296.98354715109 -5155474.1232303381 0 0 0 0 19962246.010494471 -6124184.9243520796 0 -6124184.9243520796 -7268703.3816366196 0 0 0 0 3957722.3360967636 -9554726.4240412116 0 -9554726.4240412116 5363362.4972158372 0 0 0 0 -479502.63613319397 -1402197.026838541 0 -1402197.026838541 -6406050.5592164993 0 0 0 0 768312.4851307869 -11058176.205624104 0 -11058176.205624104 -5505422.3830829859 0 0 0 0 5588439.7796125412 -6456224.2069337964 0 -6456224.2069337964 -1948815.7485471964 0 0 0 0 1471013.9235167503 -3437499.1917911768 0 -3437499.1917911768 -2259645.2421227545 0 0 0 0 6010716.2361869812 -5512676.3748018742 0 -5512676.3748018742 -7222057.4451216385 0 0 0 0 3440412.1406180859 -1733492.6074419022 0 -1733492.6074419022 -1262267.9065141678 0 0 0 0 914087.75657749176 -1664763.1787251234 0 -1664763.1787251234 -463574.27290034294 0 0 0 0 2452084.0390319824 860338.81154954433 0 860338.81154954433 -4851658.758881554 0 0 0 0 1120439.8344284296 175315.61939995934 0 175315.61939995934 -731537.65595244057 0 0 0 0 442713.72168228729 82301.723944589845 0 82301.723944589845 -549506.48236684792 0 0 0 0 9280329.4951982498 -923062.9445400238 0 -923062.9445400238 -4958219.6910454035 0 0 0 0 1099982.6723620892 345891.12390936818 0 345891.12390936818 -1937318.2555461796 0 0 0 0 673703.66167199612 -270446.48151179124 0 -270446.48151179124 -1646635.6986502521 0 0 0 0 491725.3550798893 -177468.2443321608 0 -177468.2443321608 -262233.46174473129 0 0 0 0 1073932.3962755203 -347928.621971488 0 -347928.621971488 -363291.33816882502 0 0 0 0 425993.77663185238 -12996.223859495018 0 -12996.223859495018 -223200.4420068429 0 0 0 0 -6428084.6720676422 -3705539.2409871975 0 -3705539.2409871975 1281707.4087500572 0 0 0 0 -3795715.880033493 3032512.5492562717 0 3032512.5492562717 -1094834.2605383266 0 0 0 0 -322762.01427030563 19921344.68385148 0 19921344.68385148 1495906.8249884844 0 0 0 0 479559.86027348775 157653.81088313053 0 157653.81088313053 -443488.67125616735 0 0 0 0 -6077641.3052330017 4941983.016656816 0 4941983.016656816 -1881373.2530833483 0 0 0 0 129155.79786638031 -2906.5807186923921 0 -2906.5807186923921 -119717.45649111108 0 0 0 0 -32971632.061551094 -13011026.506623328 0 -13011026.506623328 -6206929.8182740211 0 0 0 0 -35553884.520772934 -6410161.1055516601 0 -6410161.1055516601 945423.09790760279 0 0 0 0 -34806699.987466812 9533608.8824691772 0 9533608.8824691772 5864077.9306844771 0 0 0 0 11827539.039548874 32164364.752130568 0 32164364.752130568 5441766.8179463148 0 0 0 0 -26179620.325317383 35273266.56415987 0 35273266.56415987 39342474.692778826 0 0 0 0 -54313737.924465179 6003402.9895216227 0 6003402.9895216227 27793824.616118371 0 0 0 0 937267.27330020012 100085.67744441004 0 100085.67744441004 -370646.67432077084 0 0 0 0 703454.28770065308 68588.854205787182 0 68588.854205787182 -1359973.7299963832 0 0 0 0 -6838284.266289711 3542542.8012808431 0 3542542.8012808431 495269.14766832767 0 0 0 0 -6306744.1997882128 463631.33792158705 0 463631.33792158705 -3626838.9459421337 0 0 0 0 -943710.71829605103 3416179.0271645319 0 3416179.0271645319 6175849.3652564669 0 0 0 0 11196417.935133934 -2171680.7459022459 0 -2171680.7459022459 7224520.4950415231 0 0 0 0 11046553.921422958 -699220.5978315752 0 -699220.5978315752 2156513.4398463182 0 0 0 0 -2140105.1571760178 -557365.4567230083 0 -557365.4567230083 3232912.235979503 0 0 0 0 -4466408.8005514145 4048859.6249260092 0 4048859.6249260092 2618515.8908999283 0 0 0 0 -2757337.2996063232 -742136.86447360925 0 -742136.86447360925 -8085863.4145738706 0 0 0 0 5541672.4894657135 5263485.4264897518 0 5263485.4264897518 -17075251.831762005 0 0 0 0 -272698.15272808075 3111679.5326870522 0 3111679.5326870522 -5735660.5975092053 0 0 0 0 -5317849.98279953 10703581.194018692 0 10703581.194018692 2765667.8882685304 0 0 0 0 11213507.905673981 -1904966.4867686043 0 -1904966.4867686043 3215762.6442088298 0 0 0 0 95116508.220677376 -39265417.502284236 0 -39265417.502284236 -3699109.8657702161 0 0 0 0 19151475.303171158 -5628127.5063996799 0 -5628127.5063996799 12921251.94776246 0 0 0 0 75202516.335575104 33818974.442064293 0 33818974.442064293 -24878.852200020105 0 0 0 0 29700081.863215446 -179820.39368764599 0 -179820.39368764599 1533945.7394630199 0 0 0 0 25088972.199644089 -1433710.7110396959 0 -1433710.7110396959 3310565.6870491896 0 0 0 0 20319240.597644806 5336398.0282378383 0 5336398.0282378383 4897361.1165693309 0 0 0 0 56920090.459637642 1237736.1680992749 0 1237736.1680992749 -2597425.3331333864 0 0 0 0 29754147.58546257 7809206.4399937568 0 7809206.4399937568 3914931.0527395513 0 0 0 0 22698592.203384638 6107194.9118120745 0 6107194.9118120745 -1297017.507392602 0 0 0 0 11714969.57004261 2800667.5356421834 0 2800667.5356421834 3720746.1931602843 0 0 0 0 -2987136.0521860123 2632170.5914036054 0 2632170.5914036054 4142146.7703933157 0 0 0 0 11671621.809048973 -183542.87635229749 0 -183542.87635229749 1226964.3212672025 0 0 0 0 -972394.12681674957 1154412.0361563815 0 1154412.0361563815 5007783.4194532093 0 0 0 0 -215350.27843618393 -6975127.7923513791 0 -6975127.7923513791 -2718226.0211933027 0 0 0 0 147623.00615680264 106.61403069726657 0 106.61403069726657 -37887.525710319569 0 0 0 0 -120580.2209944725 -4041853.6946051745 0 -4041853.6946051745 -13933441.021151181 0 0 0 0 -262677.17111635208 -294945.07560550235 0 -294945.07560550235 -1591513.833585619 0 0 0 0 40259.590841928963 -767.52082763588987 0 -767.52082763588987 -5582.7707742732291 0 0 0 0 4352309.4912514687 -995747.94569094479 0 -995747.94569094479 -5447765.8801153917 0 0 0 0 9939897.3593773842 -3002171.8757783845 0 -3002171.8757783845 -5243221.7951503769 0 0 0 0 2267917.4199032784 3409248.1340979398 0 3409248.1340979398 9848226.305723764 0 0 0 0 50680928.93132019 2915815.8678933126 0 2915815.8678933126 3616409.9531838098 0 0 0 0 12424988.062326849 16690757.802267831 0 16690757.802267831 3382939.6102127787 0 0 0 0 -9505712.9088907242 -3970756.030405812 0 -3970756.030405812 -5761038.1868270636 0 0 0 0 -18227887.894469738 74335270.136386469 0 74335270.136386469 6420658.4949024944 0 0 0 0 302215.67695837771 60630.801948344801 0 60630.801948344801 -19299.246043166771 0 0 0 0 81617926.674169779 85073741.84751673 0 85073741.84751673 1368998.9285902246 0 0 0 0 312690564.0414691 -31628672.024644773 0 -31628672.024644773 -36078114.052074075 0 0 0 0 27780681.475949287 -19016498.214489538 0 -19016498.214489538 -36422907.248970121 0 0 0 0 314469547.50546312 29711910.607163869 0 29711910.607163869 -72182755.620140076 0 0 0 0 178645.97682665731 -32609.793820102117 0 -32609.793820102117 -16714.620728729868 0 0 0 0 16252412.539896965 23435172.346405521 0 23435172.346405521 8442833.1422942579 0 0 0 0 22216671.374336548 15591249.073065981 0 15591249.073065981 17535112.303247422 0 0 0 0 88429.383552014828 -54144.476747234119 0 -54144.476747234119 46671.678137995172 0 0 0 0 42772977.649194121 29597579.430615552 0 29597579.430615552 9370965.0998693295 0 0 0 0 -19989493.81948328 -62053287.681678236 0 -62053287.681678236 -35173023.707328498 0 0 0 0 -25444340.859083772 -38589990.044323169 0 -38589990.044323169 78067194.349272251 0 0 0 0 314646097.19242907 -60073328.255847245 0 -60073328.255847245 -34723281.064601667 0 0 0 0 137862116.01147079 30497296.625576384 0 30497296.625576384 -64594405.648349985 0 0 0 0 -57702294.29589653 13000585.389978573 0 13000585.389978573 21759550.238776457 0 0 0 0 305497.13981857558 40315.084470834088 0 40315.084470834088 52131.743295448665 0 0 0 0 -49928393.570883751 14794913.977970302 0 14794913.977970302 -34068556.194045842 0 0 0 0 60949970.919267178 -19866518.271727383 0 -19866518.271727383 -9248124.4478660896 0 0 0 0 42922040.656475067 -22321169.80442296 0 -22321169.80442296 -9558271.5338273086 0 0 0 0 21577.298166727764 42182.445134345384 0 42182.445134345384 82416.499363291427 0 0 0 0 43211178.163303137 -22441239.968733914 0 -22441239.968733914 -9541625.2275076509 0 0 0 0 24756630.320059538 -30227946.720140152 0 -30227946.720140152 20371781.71821082 0 0 0 0 22579779.323922396 31919088.144530408 0 31919088.144530408 -1749016.5225623567 0 0 0 0 45896.05785073631 37059.394428248401 0 37059.394428248401 72618.240261307859 0 0 0 0 313481669.33502126 73544114.202456638 0 73544114.202456638 -29921567.296503548 0 0 0 0 79960981.853424788 -49627252.233905025 0 -49627252.233905025 11117313.70861233 0 0 0 0 314294959.48000997 52476444.386877313 0 52476444.386877313 -18276825.8133431 0 0 0 0 314760195.99684101 -90575721.227928236 0 -90575721.227928236 17636550.277897999 0 0 0 0 77115790.29150027 14887984.928597497 0 14887984.928597497 -7984471.0197074022 0 0 0 0 456158.71013365034 195972.2798190281 0 195972.2798190281 30163.900315828359 0 0 0 0 -10906485.227624569 6981758.8170416327 0 6981758.8170416327 -17849803.656022947 0 0 0 0 -10314427.561788082 36508065.343748719 0 36508065.343748719 -43216650.457942136 0 0 0 0 7122940.4400968552 4066230.9737560023 0 4066230.9737560023 -39322839.584820911 0 0 0 0 -1685673.6425766945 10175192.908697393 0 10175192.908697393 -17641453.845584687 0 0 0 0 -2426743.787555933 14622191.749234885 0 14622191.749234885 -27353805.451090679 0 0 0 0 442922.20373612014 181902.15921515791 0 181902.15921515791 -6599.9760846678 0 0 0 0 -1370851.5320174694 -7191326.4704420902 0 -7191326.4704420902 5511957.0382572636 0 0 0 0 -832167.59582948685 12365226.920006365 0 12365226.920006365 -2062496.1047659814 0 0 0 0 49588084.502759218 -13185283.626052201 0 -13185283.626052201 651837.78847187757 0 0 0 0 6956258.188836813 6143074.7305992693 0 6143074.7305992693 5280742.2237220407 0 0 0 0 55640629.183433056 17016784.452615023 0 17016784.452615023 5332045.4111629725 0 0 0 0 -930597.12883329391 -2208315.5787665248 0 -2208315.5787665248 1773363.4902573787 0 0 0 0 -6257300.6189279556 1034238.8826718405 0 1034238.8826718405 4669027.1576059461 0 0 0 0 1249151.6406710148 4563056.5294510797 0 4563056.5294510797 -16008302.628889382 0 0 0 0 410063.87206563784 99920.678554692247 0 99920.678554692247 -86550.788519280643 0 0 0 0 -750729.28123855591 6721168.2861583084 0 6721168.2861583084 -10822081.519717276 0 0 0 0 -3826926.6083760262 7525173.6278657876 0 7525173.6278657876 -16617950.53820036 0 0 0 0 4893.3536038880702 8465.0217822176637 0 8465.0217822176637 -40588.102805299874 0 0 0 0 -2806516.2272161543 12707338.327058397 0 12707338.327058397 -31895076.653601643 0 0 0 0 -546305.16306364536 4373843.056003958 0 4373843.056003958 5583910.6458426174 0 0 0 0 1275560.6068265438 1031432.4100589226 0 1031432.4100589226 -3356300.0158566325 0 0 0 0 1283377.0107890964 1173192.9611979292 0 1173192.9611979292 -792304.68960466608 0 0 0 0 7436.4289654188324 37793.988039739881 0 37793.988039739881 -127135.12087394673 0 0 0 0 407525.8028345108 1086006.8070749179 0 1086006.8070749179 229653.18284699391 0 0 0 0 379458.39496159554 11316390.689623395 0 11316390.689623395 -22445463.098259829 0 0 0 0 65794.488866329193 337689.38014409598 0 337689.38014409598 -753026.26137705706 0 0 0 0 -10536426.710104465 5124890.3452776745 0 5124890.3452776745 -2962527.5035106596 0 0 0 0 11642.785666513024 112918.11877487616 0 112918.11877487616 -257955.09619912878 0 0 0 0 -60021.327148675919 369201.98858316988 0 369201.98858316988 -749950.5140137889 0 0 0 0 87089.03856754303 395446.04341379367 0 395446.04341379367 -759965.6640104698 0 0 0 0 895445.12550926208 -1053907.5920746922 0 -1053907.5920746922 -194210.98759627342 0 0 0 0 57675.631890058517 320633.59309673577 0 320633.59309673577 -772828.76874547731 0 0 0 0 433353.98975939467 -30285.300025130739 0 -30285.300025130739 -626431.38362280303 0 0 0 0 894721.67361527681 -1064798.3093912825 0 -1064798.3093912825 273281.10682880878 0 0 0 0 -1741547.6591145992 795870.3027973175 0 795870.3027973175 -78515.843319773674 0 0 0 0 5477298.960647583 -4841666.2314155996 0 -4841666.2314155996 36543552.524859965 0 0 0 0 452924.08886783267 43456.805938902893 0 43456.805938902893 -603477.24696559715 0 0 0 0 7827742.5277067423 -4682676.3962002397 0 -4682676.3962002397 -20383471.014547557 0 0 0 0 117930.71445041941 -28621.691730641178 0 -28621.691730641178 -146960.68061493195 0 0 0 0 3827552.9050370157 11182053.316817448 0 11182053.316817448 -16295264.444905192 0 0 0 0 -19443912.171152294 -7953125.249815884 0 -7953125.249815884 -16002025.499003351 0 0 0 0 -4574395.3206012025 -9716124.4292201754 0 -9716124.4292201754 -18778186.386138618 0 0 0 0 -490412.22932875156 14457574.94623548 0 14457574.94623548 -41904656.537353337 0 0 0 0 -24176598.022807121 22159907.89286837 0 22159907.89286837 -21677940.406864427 0 0 0 0 -3649867.6507398263 18584636.741989594 0 18584636.741989594 -22454596.617162496 0 0 0 0 -146728.18220353127 12094838.353440661 0 12094838.353440661 -23596215.421938866 0 0 0 0 2965536.5997004509 4905946.3797720522 0 4905946.3797720522 -24008864.753766224 0 0 0 0 -2076584.7623928785 7439112.7659762762 0 7439112.7659762762 -22351563.462597042 0 0 0 0 1328202.4306588173 -8602982.753476277 0 -8602982.753476277 -16288883.944894634 0 0 0 0 100614.48837333592 49495.325523626991 0 49495.325523626991 -58225.372868401872 0 0 0 0 -17899378.536615133 18791963.178643554 0 18791963.178643554 -8432543.6669791043 0 0 0 0 3052014.0632281303 -1700211.4761883616 0 -1700211.4761883616 -34048895.458699629 0 0 0 0 -2116054.3326449394 -8115287.6387272477 0 -8115287.6387272477 6019683.3310473561 0 0 0 0 621644.44851160049 -1085506.430252105 0 -1085506.430252105 -3279660.8658589125 0 0 0 0 2311019.900247097 -4154854.4861372113 0 -4154854.4861372113 -7827168.9464029074 0 0 0 0 389276.36441850662 2314689.8990099803 0 2314689.8990099803 196200.06481160223 0 0 0 0 1063405.7937736511 12847.802377909422 0 12847.802377909422 -563416.09261256456 0 0 0 0 428808.87147949217 112504.65729783149 0 112504.65729783149 -249645.51758289704 0 0 0 0 926320.03516404936 293737.34303351014 0 293737.34303351014 -376902.97536798456 0 0 0 0 933018.62155842781 -238555.69280956686 0 -238555.69280956686 -211589.563339293 0 0 0 0 -1586469.3310450315 3053209.6259162501 0 3053209.6259162501 8799342.9666560888 0 0 0 0 -1722990.1007766724 1888721.9045399129 0 1888721.9045399129 -334628.7273914963 0 0 0 0 1363352.1022587419 -105650.24522894621 0 -105650.24522894621 -973083.88044005632 0 0 0 0 1313017.5394392014 -6723.5019787549973 0 -6723.5019787549973 -986193.81771743298 0 0 0 0 832805.34956611984 -248324.205837908 0 -248324.205837908 -409057.25839047506 0 0 0 0 2459326.7941065133 19586555.131825067 0 19586555.131825067 -10788379.952083386 0 0 0 0 25974468.063181996 -15353875.518510807 0 -15353875.518510807 -9294071.844464168 0 0 0 0 -6130236.0707293749 -343201.54560856172 0 -343201.54560856172 352708.5487732297 0 0 0 0 845905.93785971403 302010.31988374889 0 302010.31988374889 -670527.98952209949 0 0 0 0 666977.81437635422 119993.12856288254 0 119993.12856288254 -217795.74439191818 0 0 0 0 998547.34415844525 -133493.40628638852 0 -133493.40628638852 -371258.37928661803 0 0 0 0 6258596.3008586168 4326597.0446557635 0 4326597.0446557635 -14838336.894414734 0 0 0 0 -2949423.6999613345 -11784330.882070258 0 -11784330.882070258 11900638.146515049 0 0 0 0 12947629.239206195 -22404726.783291955 0 -22404726.783291955 8177804.563906407 0 0 0 0 924134.27774797624 378973.68845269567 0 378973.68845269567 19080.928537213244 0 0 0 0 10608377.170045733 -9973010.688676741 0 -9973010.688676741 5234190.3258169852 0 0 0 0 28862827.192004621 -13225334.910727903 0 -13225334.910727903 5813566.9516238458 0 0 0 0 273373.0043813333 -8530.3932041447551 0 -8530.3932041447551 -95561.437198691128 0 0 0 0 1191368.681106627 53011.85070913285 0 53011.85070913285 -1379166.8370745182 0 0 0 0 964624.58718824387 467270.0373890996 0 467270.0373890996 -1727707.5481124818 0 0 0 0 1007945.9649658377 109735.52111248823 0 109735.52111248823 -334013.2447116609 0 0 0 0 988620.54181453586 -11101.952452892438 0 -11101.952452892438 -547899.21775910258 0 0 0 0 1352061.2824840546 449691.03504280746 0 449691.03504280746 -998750.99547758698 0 0 0 0 -801206.68475818634 -3080119.3566160575 0 -3080119.3566160575 -2961366.739188686 0 0 0 0 559480.84675854445 -9711.3620568104088 0 -9711.3620568104088 -306399.91235903854 0 0 0 0 1293639.0013432503 -1351196.5297809988 0 -1351196.5297809988 -480883.42117238045 0 0 0 0 1305103.8195130005 -1534964.5789337992 0 -1534964.5789337992 -3644687.7961815298 0 0 0 0 -3810388.5756316185 -4610982.6785261929 0 -4610982.6785261929 4545950.6193396058 0 0 0 0 -7356635.3591799736 -13385240.993232086 0 -13385240.993232086 -9172718.8794264793 0 0 0 0 -32292182.40014267 14782843.393453851 0 14782843.393453851 22152309.727188766 0 0 0 0 7579071.563155748 -2179334.2351377131 0 -2179334.2351377131 40889540.725745738 0 0 0 0 801179.48929362476 331136.74608499091 0 331136.74608499091 93576.750755819274 0 0 0 0 960450.63724040985 102112.27887588739 0 102112.27887588739 -14118976.450043775 0 0 0 0 4789993.132828474 -15765257.24508075 0 -15765257.24508075 19618672.453713637 0 0 0 0 11114227.736478239 -13597406.378431607 0 -13597406.378431607 13378849.488028547 0 0 0 0 5641637.349906683 -21651308.418475557 0 -21651308.418475557 9164129.6161964498 0 0 0 0 -784484.96953114867 -14966076.061554849 0 -14966076.061554849 13275273.823060034 0 0 0 0 557847.5722075752 124975.30584573263 0 124975.30584573263 -13096.912308955601 0 0 0 0 12319599.418397263 238939.85585710686 0 238939.85585710686 -42860803.925441571 0 0 0 0 21843320.518242776 -33602817.31060832 0 -33602817.31060832 14084674.73714437 0 0 0 0 59572723.334323049 86715278.07019724 0 86715278.07019724 5878168.893332243 0 0 0 0 315077565.38623643 -87601948.933769077 0 -87601948.933769077 -48138469.058448814 0 0 0 0 232338264.09799552 -128686832.26521796 0 -128686832.26521796 25910342.556643836 0 0 0 0 290275.65334810282 45749.552350828955 0 45749.552350828955 -7397.1153184546074 0 0 0 0 430384677.1632998 2628445.4330999637 0 2628445.4330999637 16809708.345452357 0 0 0 0 315053141.59350646 19419927.245579064 0 19419927.245579064 72783151.563360631 0 0 0 0 313621319.57274204 4997693.7004642785 0 4997693.7004642785 -33308533.521381605 0 0 0 0 92888390.236226678 -17383658.909687601 0 -17383658.909687601 -6863570.3804501165 0 0 0 0 92391621.115903378 -20447687.913415357 0 -20447687.913415357 10188229.857488424 0 0 0 0 90500898.034543514 49238354.893171519 0 49238354.893171519 -27088432.871178746 0 0 0 0 628262.05684855278 238400.07090626252 0 238400.07090626252 111698.45822547146 0 0 0 0 314456972.51924396 -135418520.63933802 0 -135418520.63933802 34829522.836397693 0 0 0 0 2000679.5967388153 -552431.95076417923 0 -552431.95076417923 2386233.2536180317 0 0 0 0 5821229.9149494171 704731.90546178818 0 704731.90546178818 411470.98842644691 0 0 0 0 2091507.3786180243 2089154.5015686452 0 2089154.5015686452 277182.70829391479 0 0 0 0 82328.461434045807 180071.06052456878 0 180071.06052456878 -351402.74663909234 0 0 0 0 -1013469.0844817162 -200656.1811491251 0 -200656.1811491251 576552.24779370427 0 0 0 0 1268661.8886511326 -1252089.3384649754 0 -1252089.3384649754 -5848179.4686861038 0 0 0 0 4130791.3367938995 -222393.50780105591 0 -222393.50780105591 -9232757.7739576101 0 0 0 0 1001706.0701694489 2054937.5962469578 0 2054937.5962469578 1314231.3972685337 0 0 0 0 3312962.8495154381 3984501.0611360073 0 3984501.0611360073 -5038934.8415095806 0 0 0 0 13329.811206080252 -99487.434205694823 0 -99487.434205694823 2855.7985153343761 0 0 0 0 1242299.6261450052 -9308373.0163498968 0 -9308373.0163498968 4869170.6757822037 0 0 0 0 31537458.210703254 -6556372.2456578016 0 -6556372.2456578016 -8586175.6162750721 0 0 0 0 21551454.595790863 -12635683.107230783 0 -12635683.107230783 204745.01281529665 0 0 0 0 19573361.936486602 6073008.6345269978 0 6073008.6345269978 -2025739.0260100365 0 0 0 0 31361594.443687916 -4225755.3877204657 0 -4225755.3877204657 -8748032.2709804177 0 0 0 0 48376030.776800334 -17566981.635804817 0 -17566981.635804817 1331124.5535138845 0 0 0 0 16888968.375415325 -10397288.946291029 0 -10397288.946291029 -181830.1376786232 0 0 0 0 53187565.32234332 10784285.957967512 0 10784285.957967512 -1368017.6501744986 0 0 0 0 -27061745.934489727 -4924055.8543647975 0 -4924055.8543647975 -23556566.929818392 0 0 0 0 -36742137.590631723 -45737928.06847617 0 -45737928.06847617 -39126648.818271995 0 0 0 0 38491.782355120988 23951.604573773569 0 23951.604573773569 -88584.226053275517 0 0 0 0 13016079.268087983 -528335.89587053657 0 -528335.89587053657 392993.07845008373 0 0 0 0 -26537963.746704519 3111485.9548987895 0 3111485.9548987895 -5195117.1527194977 0 0 0 0 13527142.682737827 -5687508.5398534536 0 -5687508.5398534536 -29133392.190065175 0 0 0 0 16032900.701784849 6885812.1627953649 0 6885812.1627953649 -7115752.1281961203 0 0 0 0 54879485.688104868 8717602.433961004 0 8717602.433961004 -13444416.187189579 0 0 0 0 -12189069.097625732 -14077908.295776546 0 -14077908.295776546 41338643.461400747 0 0 0 0 -601692.45192432404 -14819198.873341739 0 -14819198.873341739 -27882500.025181234 0 0 0 0 318303.33895426057 -212677.06682518148 0 -212677.06682518148 -101004.34643425996 0 0 0 0 4951621.2764825821 -665337.38249325752 0 -665337.38249325752 -356084.11980104446 0 0 0 0 5083089.9996995926 -847244.59088402987 0 -847244.59088402987 -824188.71941226721 0 0 0 0 5263168.9171085358 -1002307.0380804539 0 -1002307.0380804539 -750016.78488743305 0 0 0 0 29822940.199360967 -20440295.667855948 0 -20440295.667855948 8746605.0442270041 0 0 0 0 115166.73979259655 38344.618319931789 0 38344.618319931789 -49845.121660061181 0 0 0 0 343413.94863331388 29121.989253533859 0 29121.989253533859 -202388.34769316507 0 0 0 0 4791876.5346765518 -1168714.1954154968 0 -1168714.1954154968 -506515.96924197674 0 0 0 0 4178444.9674320221 893838.72918230295 0 893838.72918230295 -568978.19300934672 0 0 0 0 55911.812045110506 -217501.32764334593 0 -217501.32764334593 -345119.02031306131 0 0 0 0 10093457.878028393 15397175.927386463 0 15397175.927386463 20066715.240656093 0 0 0 0 16120756.315903664 6111753.9413163066 0 6111753.9413163066 3169000.075959295 0 0 0 0 -54051.200767040253 3442131.0246520936 0 3442131.0246520936 5995702.531416893 0 0 0 0 18739247.145783901 -6971727.5138109326 0 -6971727.5138109326 -9833952.3833411932 0 0 0 0 29851009.906371832 606235.3513148725 0 606235.3513148725 -19683134.270472288 0 0 0 0 12646716.183755159 -14192076.451165825 0 -14192076.451165825 -18590395.526042581 0 0 0 0 19200284.155160904 -13446896.849018872 0 -13446896.849018872 -34261157.993052244 0 0 0 0 -11971.6627889683 -82797.849511151784 0 -82797.849511151784 -104352.58484164494 0 0 0 0 -4814962.3058342934 22218922.298458457 0 22218922.298458457 -26440649.978655644 0 0 0 0 -15170065.732333541 42415014.558366418 0 42415014.558366418 -43202561.454641104 0 0 0 0 -52169444.635458946 -41714132.666078329 0 -41714132.666078329 -1332885.4780585766 0 0 0 0 87173290.352157116 1552940.7722223997 0 1552940.7722223997 -15910942.349738598 0 0 0 0 14700602.420871735 -8540114.8565224409 0 -8540114.8565224409 -13837610.463036142 0 0 0 0 233445.06533288956 -25111616.996722937 0 -25111616.996722937 -29858423.87405467 0 0 0 0 17287787.853928566 -6233749.3521142006 0 -6233749.3521142006 -35161016.571037173 0 0 0 0 172969.7660238375 435029.90213612351 0 435029.90213612351 -664111.29400390538 0 0 0 0 28547301.996473789 -7994307.1931768656 0 -7994307.1931768656 -31568343.838329613 0 0 0 0 385256.03001686535 -123627.58286487008 0 -123627.58286487008 -322131.74838053598 0 0 0 0 2362361.5967450142 821598.82964539528 0 821598.82964539528 -519875.14383590221 0 0 0 0 1503310.9816040993 1346970.5131124258 0 1346970.5131124258 -2692569.4525258541 0 0 0 0 234042.97129022842 260571.97220172524 0 260571.97220172524 -437735.00524478266 0 0 0 0 14393474.84073019 -3164226.8143354207 0 -3164226.8143354207 -24679227.894052923 0 0 0 0 14274921.73959589 956342.40999987721 0 956342.40999987721 -18070906.205291688 0 0 0 0 175751.5515100956 -67589.92587441206 0 -67589.92587441206 -376810.24634313583 0 0 0 0 -326063.29485344887 -5928.4162763357162 0 -5928.4162763357162 -628384.15927910805 0 0 0 0 126505.29176571523 75539.172471297905 0 75539.172471297905 -432860.24501155876 0 0 0 0 243516.38560390472 657642.46187782288 0 657642.46187782288 -1173822.342249155 0 0 0 0 341148.1343205485 202221.14201166283 0 202221.14201166283 -405035.91352432373 0 0 0 0 857514.47381925583 754505.40661334991 0 754505.40661334991 -923713.42702376842 0 0 0 0 2212564.5830776691 -1275149.8403929472 0 -1275149.8403929472 -917325.36412668228 0 0 0 0 27718613.637639999 6245338.3818052113 0 6245338.3818052113 -62563923.020873725 0 0 0 0 20412576.456093788 -4816497.635835886 0 -4816497.635835886 -9770970.125790596 0 0 0 0 -8199336.6308786869 10702224.01916261 0 10702224.01916261 -13863618.225669384 0 0 0 0 -8891660.5084533691 15241289.41718784 0 15241289.41718784 35466690.963325053 0 0 0 0 -8402991.5444078445 28967265.969621599 0 28967265.969621599 -12454459.142427325 0 0 0 0 -24471097.234760284 -40687139.334127188 0 -40687139.334127188 -13245157.943755314 0 0 0 0 54861529.140787125 3867528.0711547136 0 3867528.0711547136 -18871482.023718238 0 0 0 0 9200259.4803037643 -11200532.040746868 0 -11200532.040746868 78070614.734131098 0 0 0 0 32319.131435756804 -4528.8323393261526 0 -4528.8323393261526 -47118.605574066809 0 0 0 0 654202.1543674469 -41196991.208647966 0 -41196991.208647966 -13247912.024023181 0 0 0 0 -93534687.947246552 16798552.461163521 0 16798552.461163521 -19912473.033313394 0 0 0 0 20768336.495810509 9365832.7895486355 0 9365832.7895486355 -97290133.93349576 0 0 0 0 21394716.510987282 2066968.199459672 0 2066968.199459672 -26889288.267250061 0 0 0 0 4972700.733684063 13457746.693841696 0 13457746.693841696 34954039.299397141 0 0 0 0 148437.013394129 -373710.74451288523 0 -373710.74451288523 -623623.51612299099 0 0 0 0 -332283.5902299881 -478993.61044543982 0 -478993.61044543982 -1242283.9640712738 0 0 0 0 -348454.32123851776 -1095723.7449922562 0 -1095723.7449922562 -1143214.584899202 0 0 0 0 1104752.4219255447 -27479.543932378292 0 -27479.543932378292 -3075757.9484245777 0 0 0 0 798511.80899659975 436864.84455700219 0 436864.84455700219 -1002279.524222229 0 0 0 0 -343025.69951438904 -1256763.9816601872 0 -1256763.9816601872 -336673.15892934799 0 0 0 0 -334225.10203182697 -436569.5889069885 0 -436569.5889069885 -531338.23669195175 0 0 0 0 9907331.5968804359 2762110.6931789517 0 2762110.6931789517 -3766386.4076194465 0 0 0 0 1008787.7666163445 -1689090.7270188928 0 -1689090.7270188928 166006.92213594913 0 0 0 0 35489.799595604884 -20223.584040330374 0 -20223.584040330374 -189457.12202758493 0 0 0 0 6788260.9800577164 -2808266.9647102952 0 -2808266.9647102952 -1876686.6344412565 0 0 0 0 1787501.0903511047 -12133.666013538837 0 -12133.666013538837 -3308869.0162398815 0 0 0 0 1311604.3741322113 361900.70479765977 0 361900.70479765977 -552695.52883369254 0 0 0 0 2336997.2600650787 2088394.5707995296 0 2088394.5707995296 -3152250.9876117706 0 0 0 0 4852439.2483482361 2443391.1070265174 0 2443391.1070265174 -3143621.3639939427 0 0 0 0 1328459.9537970722 -161177.40400409698 0 -161177.40400409698 -863276.42334353924 0 0 0 0 4556408.9602355957 -2173025.9366989732 0 -2173025.9366989732 -3834286.4107782394 0 0 0 0 1248366.5130462646 -540427.85725277662 0 -540427.85725277662 -2104271.8807417899 0 0 0 0 616080.31048748468 248940.34890483326 0 248940.34890483326 -715371.31657734746 0 0 0 0 556221.20859217644 482072.36311411858 0 482072.36311411858 -1091546.6281423569 0 0 0 0 1166632.6555741595 -72769.051204263 0 -72769.051204263 -652880.87817386608 0 0 0 0 257323.47539424896 -1999198.5496509075 0 -1999198.5496509075 -1725616.5814152956 0 0 0 0 156581.21445229137 120566.64747028332 0 120566.64747028332 -123852.11108368973 0 0 0 0 506199.95181250112 224130.3723237307 0 224130.3723237307 -675345.90468132286 0 0 0 0 614686.23407107592 253372.98825000226 0 253372.98825000226 -463685.18555903435 0 0 0 0 878044.91684281826 -47604.39093759656 0 -47604.39093759656 -545317.48365545273 0 0 0 0 1234437.1984928846 -44540.963126659393 0 -44540.963126659393 -826852.99172639847 0 0 0 0 480305.68877768517 -372476.20507705212 0 -372476.20507705212 -1699580.1180790663 0 0 0 0 1912603.1882017872 358593.45312672306 0 358593.45312672306 -833916.0108309139 0 0 0 0 53089.674712457927 46458.873209649639 0 46458.873209649639 -193796.46776644699 0 0 0 0 -207357.95322394371 991625.25939625502 0 991625.25939625502 -1254084.7664165497 0 0 0 0 -322636.03121423721 905749.97049796581 0 905749.97049796581 -981255.96513032913 0 0 0 0 37342.350887775421 528532.27928304672 0 528532.27928304672 -1091251.5931146145 0 0 0 0 320943.66739034653 765371.23968553543 0 765371.23968553543 -1064393.8684625626 0 0 0 0 231508.52986907959 643131.73263156414 0 643131.73263156414 -1110635.4540524483 0 0 0 0 379440.71615600586 517183.82496762276 0 517183.82496762276 -846873.39758419991 0 0 0 0 868547.60063648224 376974.6388708353 0 376974.6388708353 -1021147.3336205482 0 0 0 0 90308.029586076736 933307.25498521328 0 933307.25498521328 -977344.37222337723 0 0 0 0 -382738.40675413609 897514.44228905439 0 897514.44228905439 -607180.22631525993 0 0 0 0 -151944.71478414536 727352.9268862009 0 727352.9268862009 -974302.55116558075 0 0 0 0 -193463.4927854538 1434335.7008533478 0 1434335.7008533478 67450.233482956886 0 0 0 0 -506871.84739923477 648601.72018313408 0 648601.72018313408 -926943.429271698 0 0 0 0 6303260.5469083786 1500023.5518443584 0 1500023.5518443584 -1667351.5442256927 0 0 0 0 20033.241486710031 12116.583835228696 0 12116.583835228696 -60590.772870444693 0 0 0 0 3294648.8932609558 -3321804.8694764376 0 -3321804.8694764376 967234.21045529842 0 0 0 0 2369104.5672121048 -2002395.2014248371 0 -2002395.2014248371 -481974.64658737183 0 0 0 0 2549867.977243185 -1787774.2236017585 0 -1787774.2236017585 -1295829.8691329956 0 0 0 0 2682275.398447752 -1421718.3156863451 0 -1421718.3156863451 -1819705.869395256 0 0 0 0 1584592.7202843428 -576709.03122287989 0 -576709.03122287989 -1425567.9074282646 0 0 0 0 -2940155.2234177589 -114313.60472017527 0 -114313.60472017527 380446.031219244 0 0 0 0 143317.9532740335 -175246.6346091826 0 -175246.6346091826 -84045.297879143851 0 0 0 0 42752.110491480678 25183.695253230748 0 25183.695253230748 -120508.11172438459 0 0 0 0 -57999768.604906082 17404839.157196522 0 17404839.157196522 -5017279.5463957787 0 0 0 0 -327165.14619767666 -3550553.5507951975 0 -3550553.5507951975 718233.59408068657 0 0 0 0 5869939.1341772079 -1232665.1555316448 0 -1232665.1555316448 -1808504.7355929464 0 0 0 0 35334203.682978749 -3969193.3636568189 0 -3969193.3636568189 -5475728.0157446861 0 0 0 0 17520929.554247856 10180565.53931427 0 10180565.53931427 9974284.5954759121 0 0 0 0 -4517450.3741285801 15253277.863572478 0 15253277.863572478 1081718.1531977654 0 0 0 0 68547286.670908451 4211671.9738935232 0 4211671.9738935232 -35181927.126759768 0 0 0 0 15649623.935320258 -6127002.5222536922 0 -6127002.5222536922 -5196495.430835247 0 0 0 0 18156898.539696574 -3579209.5944708586 0 -3579209.5944708586 -4253574.079564333 0 0 0 0 23158119.902802706 -4890143.3584965467 0 -4890143.3584965467 -7213728.1926329136 0 0 0 0 15513498.143871963 -4804188.551189363 0 -4804188.551189363 -1546387.8503475189 0 0 0 0 -1188912.9543391466 2468925.3558821082 0 2468925.3558821082 2183594.9487936497 0 0 0 0 13726274.756351709 -658110.14749598503 0 -658110.14749598503 -5458611.9450037777 0 0 0 0 77530.780128482787 -2453.3228556335671 0 -2453.3228556335671 -320644.6987112374 0 0 0 0 1266315.3185560703 -2849513.0910304189 0 -2849513.0910304189 244471.94958758354 0 0 0 0 21038227.020354748 -7331852.568983078 0 -7331852.568983078 -1278027.570884164 0 0 0 0 20284142.352420568 -4677765.4865562916 0 -4677765.4865562916 -1270919.1945135593 0 0 0 0 26521428.072974443 -6009371.914700985 0 -6009371.914700985 -1905041.5597015619 0 0 0 0 29518794.927291632 -3864352.3918440342 0 -3864352.3918440342 -1246913.411178112 0 0 0 0 35278942.532726526 -2705092.7404425144 0 -2705092.7404425144 -2718452.059078455 0 0 0 0 27081356.291732654 43457.858989074826 0 43457.858989074826 -2775756.7125086784 0 0 0 0 24596640.386669874 -1390275.1951296329 0 -1390275.1951296329 -3593256.5699803829 0 0 0 0 21154607.707420349 -602496.70378708839 0 -602496.70378708839 -2699867.2411096096 0 0 0 0 22514469.472927332 -3321113.4088182449 0 -3321113.4088182449 -2979101.770689249 0 0 0 0 21663586.132178068 -5262430.292732358 0 -5262430.292732358 -3853420.1342995167 0 0 0 0 32552039.936411619 9336889.08218503 0 9336889.08218503 738317.75311660767 0 0 0 0 20464287.104254723 5076751.5353615284 0 5076751.5353615284 -545023.63564789295 0 0 0 0 25963713.761103213 3440408.6491323113 0 3440408.6491323113 -2121061.5719385147 0 0 0 0 16709056.90208137 6023990.7511022091 0 6023990.7511022091 -1160108.3744108677 0 0 0 0 20835054.071738943 6390449.8692773581 0 6390449.8692773581 -1352326.1323928833 0 0 0 0 18785622.434168339 6369633.8467717171 0 6369633.8467717171 -3619912.9491223097 0 0 0 0 18295455.094574094 6914906.4115661979 0 6914906.4115661979 -2454195.2392673492 0 0 0 0 17060617.542375445 3305769.4930608273 0 3305769.4930608273 -1846011.6430373192 0 0 0 0 20663790.603695273 37922.681542277336 0 37922.681542277336 -427620.45155239105 0 0 0 0 4531947.1263027191 -1960914.7093932629 0 -1960914.7093932629 968039.72551190853 0 0 0 0 32308772.697963595 5549834.12814188 0 5549834.12814188 -3572932.6232106686 0 0 0 0 13979151.232756495 14083706.779864132 0 14083706.779864132 -3096117.2859790325 0 0 0 0 24083157.874820352 -12996835.821148634 0 -12996835.821148634 2491061.4051780701 0 0 0 0 22812950.357388198 -6857367.0888838619 0 -6857367.0888838619 -1744698.9808130264 0 0 0 0 14511521.102368593 -149450.4425265789 0 -149450.4425265789 318836.19249975681 0 0 0 0 15236634.444103956 -7190441.0575128794 0 -7190441.0575128794 -1316027.3806294799 0 0 0 0 8388133.0789296627 -5437132.6917114258 0 -5437132.6917114258 8962616.8289605379 0 0 0 0 24207339.180243731 4079766.1623115242 0 4079766.1623115242 -1658326.8910536766 0 0 0 0 7366190.6614822149 -4509978.6491987109 0 -4509978.6491987109 -4116578.2996096611 0 0 0 0 -1614311.5773274899 12009352.445448995 0 12009352.445448995 -9995155.0856266022 0 0 0 0 12248921.623396397 1809816.9163849056 0 1809816.9163849056 -3201382.4817078114 0 0 0 0 1259834.3482348919 -3547442.7596728802 0 -3547442.7596728802 -5527601.0592807531 0 0 0 0 169002.42686526896 7749.5703055097547 0 7749.5703055097547 -115105.96916986129 0 0 0 0 -8954334.5667315722 18160748.67966333 0 18160748.67966333 -3271564.8062212467 0 0 0 0 37653926.424982786 -21155989.062762737 0 -21155989.062762737 7067556.9444786906 0 0 0 0 332677.03967782902 30440.418439107103 0 30440.418439107103 -207439.24231831986 0 0 0 0 14866180.266869545 -721730.24390646815 0 -721730.24390646815 -4063147.7851319313 0 0 0 0 27529580.448836088 -8619359.7190887928 0 -8619359.7190887928 -3727870.4164310694 0 0 0 0 16521960.464697361 -9955335.6486336589 0 -9955335.6486336589 1358166.6912949085 0 0 0 0 25031270.228187323 -10763311.240683079 0 -10763311.240683079 -2196547.3835197985 0 0 0 0 19042189.864493966 -1843363.5617120862 0 -1843363.5617120862 4673474.4927968979 0 0 0 0 10227515.487559795 -9689032.9814816713 0 -9689032.9814816713 -1231068.0145228058 0 0 0 0 5935079.4061523676 6038231.4822912216 0 6038231.4822912216 -16376320.008553624 0 0 0 0 342288.20143976388 37983.67265860716 0 37983.67265860716 -203918.22180982563 0 0 0 0 11924713.258912504 3838449.0782586634 0 3838449.0782586634 -8373807.3228164911 0 0 0 0 -133053.47029304504 -1405207.6090682745 0 -1405207.6090682745 2235341.368986845 0 0 0 0 -3394303.791636467 5895247.0729933977 0 5895247.0729933977 -588086.96476111934 0 0 0 0 -46689.307138312433 -88374.373882740518 0 -88374.373882740518 157286.50274922675 0 0 0 0 709384.5194633007 -1439261.1909656525 0 -1439261.1909656525 514228.12359857559 0 0 0 0 1786835.9946296215 637598.57268619537 0 637598.57268619537 322176.16345363855 0 0 0 0 1153398.0620400729 268076.43885950593 0 268076.43885950593 627127.66674644151 0 0 0 0 1908545.872253418 431091.8969039917 0 431091.8969039917 456939.84456920624 0 0 0 0 1760890.4672712162 908888.47645872319 0 908888.47645872319 118170.90676295757 0 0 0 0 1381723.7204318047 -333406.49526619911 0 -333406.49526619911 2138198.9491424561 0 0 0 0 1246824.5389677894 506531.00879569363 0 506531.00879569363 613167.13924759068 0 0 0 0 -14137.273955027631 39245.149168503645 0 39245.149168503645 49036.896205811296 0 0 0 0 -2745549.723747015 -144608.58934345841 0 -144608.58934345841 2540106.6178506613 0 0 0 0 1723477.0525985956 442848.8204395473 0 442848.8204395473 -13026.956927657127 0 0 0 0 332528.69910377264 -2283797.4789994955 0 -2283797.4789994955 -871441.17879593372 0 0 0 0 2779119.3422384262 1512383.2977899313 0 1512383.2977899313 425632.42015609145 0 0 0 0 494641.99992808909 394221.67178473331 0 394221.67178473331 140307.23272737663 0 0 0 0 284980.44309997163 379208.71352477378 0 379208.71352477378 323696.32021867763 0 0 0 0 4080681.989253521 2516843.6266867518 0 2516843.6266867518 -2222868.1144731641 0 0 0 0 5037279.994666338 -66675.288437783718 0 -66675.288437783718 1871087.9755305052 0 0 0 0 18587676.641488016 -361571.03634226322 0 -361571.03634226322 -1998174.061745882 0 0 0 0 14496463.791796088 -4515163.1482992172 0 -4515163.1482992172 -282800.29823920131 0 0 0 0 8788852.8235685825 3090169.9395613074 0 3090169.9395613074 -192264.31905090809 0 0 0 0 1577464.0844591856 -103277.7752020359 0 -103277.7752020359 5638521.8842400312 0 0 0 0 13818594.85764306 -904650.82404622436 0 -904650.82404622436 -277702.71249389648 0 0 0 0 40544550.792718172 -3047170.9522684813 0 -3047170.9522684813 -2512829.8085084707 0 0 0 0 15205824.461181819 6948990.5138150454 0 6948990.5138150454 10914145.651938677 0 0 0 0 2530802.8496287465 676656.92679464817 0 676656.92679464817 8437973.9379291534 0 0 0 0 2443778.8844796419 -1215613.3194578886 0 -1215613.3194578886 -3044300.9684630632 0 0 0 0 1530236.1290425062 -747264.90391254425 0 -747264.90391254425 -818563.64018133283 0 0 0 0 -7029145.9852284491 1931224.3387281299 0 1931224.3387281299 5460273.5906426907 0 0 0 0 1756072.9773490429 116042.0395770669 0 116042.0395770669 154621.10968208313 0 0 0 0 566683.48675401043 48528.411335192679 0 48528.411335192679 571175.84693635104 0 0 0 0 1768336.5806601346 37466.546352170408 0 37466.546352170408 -39835.608096957207 0 0 0 0 1400424.0782003403 -74888.435270547867 0 -74888.435270547867 93330.756544947624 0 0 0 0 17695.153833883611 47333.617400895018 0 47333.617400895018 -5337.4947977833217 0 0 0 0 561572.33860296011 -493012.89925771952 0 -493012.89925771952 466092.64441561699 0 0 0 0 949896.71206533443 -310849.27376135346 0 -310849.27376135346 293985.67520427704 0 0 0 0 -6342969.1407154202 -2182911.7515072823 0 -2182911.7515072823 5239886.4509031773 0 0 0 0 728826.31143019348 -261970.07537187671 0 -261970.07537187671 739906.97143251251 0 0 0 0 2191427.7739112973 -2619737.4333412647 0 -2619737.4333412647 3001227.3205442429 0 0 0 0 1540712.9433262348 -839513.14324131608 0 -839513.14324131608 -1037712.3638110161 0 0 0 0 1023106.6322435141 -5466797.104092598 0 -5466797.104092598 -727719.64691501856 0 0 0 0 -79806184.815995023 997033.19512955192 0 997033.19512955192 -88842353.353517532 0 0 0 0 123624.19722869666 -98149.208376399474 0 -98149.208376399474 -16423.893886664213 0 0 0 0 16518503.434055328 23897314.326600134 0 23897314.326600134 -79336466.219182789 0 0 0 0 -86396.28091167286 -46192182.042708367 0 -46192182.042708367 -39242146.753235459 0 0 0 0 541209.51073894813 -770301.63301471877 0 -770301.63301471877 855514.10045039363 0 0 0 0 -4258998.7690644264 6264291.3689012527 0 6264291.3689012527 -23021384.433156192 0 0 0 0 19709469.511988401 -7020833.6916708946 0 -7020833.6916708946 8562922.8557597697 0 0 0 0 11133113.359881997 453057.34641361237 0 453057.34641361237 2332254.5333921909 0 0 0 0 10165106.138750553 -3564524.4210221767 0 -3564524.4210221767 517956.37585425377 0 0 0 0 12592886.540490746 -3408514.7857341766 0 -3408514.7857341766 1153014.050173521 0 0 0 0 10149525.576763034 -241268.94286715984 0 -241268.94286715984 -483470.52590036392 0 0 0 0 21327522.275197506 3118914.3977998495 0 3118914.3977998495 -2919883.7463703156 0 0 0 0 14310775.599879026 2151733.398406744 0 2151733.398406744 -3021124.5663759708 0 0 0 0 10363220.432108104 3012330.2111597061 0 3012330.2111597061 -157288.86288571358 0 0 0 0 452913.48322498798 -509733.91448998451 0 -509733.91448998451 1788726.247381568 0 0 0 0 7877690.8714127243 200661.79693752527 0 200661.79693752527 -55552.319906949997 0 0 0 0 793683.42793412413 -1024299.9664277937 0 -1024299.9664277937 1202426.60966786 0 0 0 0 -95053064.369364738 -102019187.90970576 0 -102019187.90970576 -13312355.945292473 0 0 0 0 10969142.907826781 7020258.9467515945 0 7020258.9467515945 4706009.9348027706 0 0 0 0 153026907.34648228 18954263.765509367 0 18954263.765509367 -57039512.66628933 0 0 0 0 -7011629.1521735191 -29419106.545957625 0 -29419106.545957625 -68164565.47309494 0 0 0 0 -34080687.14708519 14267783.856480956 0 14267783.856480956 -66012344.083376527 0 0 0 0 48898693.830343962 8383785.048803091 0 8383785.048803091 -76572729.723721743 0 0 0 0 -50116518.800165176 -33333212.707797557 0 -33333212.707797557 -54810952.967931151 0 0 0 0 1300424.6687862661 -1145962.46325215 0 -1145962.46325215 1159409.6770804494 0 0 0 0 109450227.47953844 -91590340.839764833 0 -91590340.839764833 -115203741.23158148 0 0 0 0 25269917.732877731 -112115613.82999533 0 -112115613.82999533 -100137008.48021579 0 0 0 0 -88306181.448399216 -13042342.156865967 0 -13042342.156865967 62557469.683493257 0 0 0 0 1352061.5595579147 33487192.360721439 0 33487192.360721439 80756517.711333096 0 0 0 0 12873718.044554949 17347321.626582086 0 17347321.626582086 -2008556.1835324764 0 0 0 0 -23314253.014957905 11794074.980234087 0 11794074.980234087 -2253092.0028495789 0 0 0 0 33709982.393957019 47619237.124322802 0 47619237.124322802 -53099495.454356432 0 0 0 0 2548594.7424960136 19065811.867705762 0 19065811.867705762 -4922680.5480741858 0 0 0 0 4077851.9928810596 27316981.245204717 0 27316981.245204717 -49391092.223433971 0 0 0 0 -131969.37291502953 13546979.662919223 0 13546979.662919223 -16242889.713429928 0 0 0 0 -9762950.2794885635 19180432.339031577 0 19180432.339031577 -4653733.8502684832 0 0 0 0 -15985851.363780737 28159152.313514143 0 28159152.313514143 27603945.945008993 0 0 0 0 -6514220.0444245338 12276753.821270645 0 12276753.821270645 5604994.6890036762 0 0 0 0 2139903.9657230377 12211763.713517725 0 12211763.713517725 -8083347.6670974493 0 0 0 0 1206560.2534217834 10007378.574642539 0 10007378.574642539 -4510457.5853075981 0 0 0 0 8802037.8826072216 4178887.0326972306 0 4178887.0326972306 1575917.9049251676 0 0 0 0 7522323.9405667782 1728610.7762638927 0 1728610.7762638927 -3072177.3562387228 0 0 0 0 19410561.838179111 -5519954.3488334119 0 -5519954.3488334119 -1955916.9152121544 0 0 0 0 193588.02554952609 -60750.540666578687 0 -60750.540666578687 -21918.366235386173 0 0 0 0 -3023944.7734270096 11965385.009470701 0 11965385.009470701 -10541143.86195147 0 0 0 0 568992.89445590973 14807108.140708029 0 14807108.140708029 -8577739.8013516963 0 0 0 0 -1898883.8959608078 13195243.32623893 0 13195243.32623893 -4879231.7760494724 0 0 0 0 31831365.242393494 9669230.9909451604 0 9669230.9909451604 7199190.5375761986 0 0 0 0 -1581615.2647894621 5548963.1848107427 0 5548963.1848107427 -10090884.152826071 0 0 0 0 25839343.817752838 -26880450.753512621 0 -26880450.753512621 -14925256.75880006 0 0 0 0 939180.68037738686 364817.2738357886 0 364817.2738357886 -468556.11942439328 0 0 0 0 5280780.373591423 -2006662.5007707179 0 -2006662.5007707179 3455457.757448256 0 0 0 0 699141.36964683724 72851.912725823349 0 72851.912725823349 -247716.60385139042 0 0 0 0 11340652.398262978 4575415.2807089686 0 4575415.2807089686 2499724.6031366587 0 0 0 0 29932235.985136509 8760005.9915736318 0 8760005.9915736318 -4261395.5994795561 0 0 0 0 -4057866.2044532299 -6145392.4399708509 0 -6145392.4399708509 4196505.8786321878 0 0 0 0 10745266.386455595 -661995.68680640683 0 -661995.68680640683 -943849.31687045097 0 0 0 0 3489316.6497628689 2058864.4362048507 0 2058864.4362048507 -1500257.6323339939 0 0 0 0 707141.74824047834 -30941.166204226203 0 -30941.166204226203 -268998.32629704825 0 0 0 0 -2001181.3659379482 1229951.5560792312 0 1229951.5560792312 223383.12660348415 0 0 0 0 7697612.3358068466 -955236.22785890102 0 -955236.22785890102 -737755.81232517958 0 0 0 0 777242.16930622305 -217000.38083561254 0 -217000.38083561254 -199126.27109735779 0 0 0 0 1569899.6667847633 -1640457.3315933347 0 -1640457.3315933347 -2004499.2530562878 0 0 0 0 1087331.6225204468 1582481.8750543892 0 1582481.8750543892 52903.720265269279 0 0 0 0 581928.86456800625 -771843.28901319206 0 -771843.28901319206 114671.57892775536 0 0 0 0 1040234.721788793 -739073.04617151734 0 -739073.04617151734 464721.99920239474 0 0 0 0 4030346.0708827972 -3437072.2536276728 0 -3437072.2536276728 -350984.12279350311 0 0 0 0 6772760.266002655 -3175766.370008111 0 -3175766.370008111 -440679.52585475892 0 0 0 0 -4370677.96200037 26349678.852767795 0 26349678.852767795 -26807505.168603003 0 0 0 0 192307.31152324774 27474.005073327804 0 27474.005073327804 -70643.050078295346 0 0 0 0 -864360.29216015339 -6096438.2317574993 0 -6096438.2317574993 -641816.78779518604 0 0 0 0 13988799.662831306 23133204.740225673 0 23133204.740225673 -60574942.537669763 0 0 0 0 467158.69198799133 -10905513.863451421 0 -10905513.863451421 -25227369.909136593 0 0 0 0 966273.86599063873 -2903876.557875216 0 -2903876.557875216 -11367468.745913029 0 0 0 0 2405021.838830471 4633336.4097390771 0 4633336.4097390771 -23223134.800997734 0 0 0 0 -3947821.4440307617 -2452571.7523382902 0 -2452571.7523382902 -2064228.7845222354 0 0 0 0 725540.27442455292 -2484694.6348163635 0 -2484694.6348163635 -2789628.3945623636 0 0 0 0 17455322.688915968 3359428.5915499926 0 3359428.5915499926 2341131.3676127195 0 0 0 0 23306476.247913778 18272521.127857715 0 18272521.127857715 12391803.24924469 0 0 0 0 36689319.735405922 16416671.103434563 0 16416671.103434563 5169804.527358681 0 0 0 0 23069884.476586342 18822212.239734888 0 18822212.239734888 11810838.707271099 0 0 0 0 24041896.303923845 5228187.9985229969 0 5228187.9985229969 -1453005.5807592869 0 0 0 0 3182987.9990162849 -3602782.0752543211 0 -3602782.0752543211 -4894503.3336256742 0 0 0 0 2949570.4169696122 2614844.6497656479 0 2614844.6497656479 -2138340.8515901566 0 0 0 0 73082.512306762626 25175.868641105335 0 25175.868641105335 -57879.21009612846 0 0 0 0 18386138.051423788 19451826.398223639 0 19451826.398223639 13827136.849319696 0 0 0 0 31675944.208357811 28388987.96097438 0 28388987.96097438 19243324.187168241 0 0 0 0 -140388.32545900345 646995.38893795013 0 646995.38893795013 -3309727.775323987 0 0 0 0 -2270612.9442131519 1921970.3349143863 0 1921970.3349143863 -572136.50118803978 0 0 0 0 177676.60258808383 54876.519297028019 0 54876.519297028019 -154773.76657830627 0 0 0 0 406037.75435768196 248275.16580717138 0 248275.16580717138 -256636.5260911354 0 0 0 0 -332253.4757578373 3542211.6355339289 0 3542211.6355339289 433729.73589682579 0 0 0 0 -199355.05511140823 -1770045.7294671535 0 -1770045.7294671535 -45607.895025722682 0 0 0 0 -5222341.307785809 -199474.29692468792 0 -199474.29692468792 3075720.7192707062 0 0 0 0 140625.74237751961 269261.79932069778 0 269261.79932069778 -1790709.2937185764 0 0 0 0 5584436.6598732471 1351912.1522880197 0 1351912.1522880197 2622265.926473856 0 0 0 0 2673069.683866024 -3263887.7340728045 0 -3263887.7340728045 2917272.870780468 0 0 0 0 2857132.0444736481 2243117.0619686246 0 2243117.0619686246 2039745.5183115005 0 0 0 0 4981767.3729388714 -1139114.6700124741 0 -1139114.6700124741 6411218.609515667 0 0 0 0 14837145.627543211 51890.431977152824 0 51890.431977152824 881439.22451531887 0 0 0 0 13460517.380962849 4329019.5197688192 0 4329019.5197688192 17101322.177324772 0 0 0 0 17356568.928597927 12875760.343087316 0 12875760.343087316 7230052.5628420115 0 0 0 0 8450196.2138464451 -2332480.134406209 0 -2332480.134406209 -675788.15600764751 0 0 0 0 18103551.019051075 -410377.79574751854 0 -410377.79574751854 -2878699.9027398229 0 0 0 0 13696860.971722126 2752182.644329071 0 2752182.644329071 -1370049.1901962757 0 0 0 0 12371188.533693314 -8479038.2233383656 0 -8479038.2233383656 32378908.325242758 0 0 0 0 45987538.156740189 16757288.413015127 0 16757288.413015127 5231607.9243676066 0 0 0 0 61600579.736104488 27773217.286602974 0 27773217.286602974 -4363631.9649251699 0 0 0 0 21681152.754040003 25448204.29263103 0 25448204.29263103 38857171.523906231 0 0 0 0 8481188.456207037 1253657.3561683893 0 1253657.3561683893 340263.88172161579 0 0 0 0 197423.85754083644 -22376.846805562789 0 -22376.846805562789 -126766.55284413241 0 0 0 0 16218852.162082434 7160338.4396981597 0 7160338.4396981597 -366323.22315955162 0 0 0 0 10406694.161979198 5370341.5189765692 0 5370341.5189765692 3193949.4025802612 0 0 0 0 10601397.515294328 1159804.9920067117 0 1159804.9920067117 -2499749.0973398685 0 0 0 0 11227318.97701335 3955976.5951166749 0 3955976.5951166749 -89758.827057600021 0 0 0 0 8492795.7759366035 1722602.546697855 0 1722602.546697855 -2174890.2061629295 0 0 0 0 3896741.0393955708 1022728.5058957338 0 1022728.5058957338 -70897.211627483368 0 0 0 0 4180173.1995446384 -2381433.0598133728 0 -2381433.0598133728 -3523580.5811003447 0 0 0 0 2149453.9244961739 -4338883.5872045755 0 -4338883.5872045755 -3593926.5776801705 0 0 0 0 1805627.6479135398 -577188.2821357192 0 -577188.2821357192 -606820.17636378249 0 0 0 0 2401689.3694190979 862769.70752245188 0 862769.70752245188 -1053890.3159406185 0 0 0 0 2132904.7306002518 -612561.68137405324 0 -612561.68137405324 -798149.19563057437 0 0 0 0 -2240920.6847565174 -5135781.734347105 0 -5135781.734347105 -1038880.0708824396 0 0 0 0 5608895.246948123 379329.37270256877 0 379329.37270256877 -594103.78699058294 0 0 0 0 4709871.1344294548 1755187.1141907573 0 1755187.1141907573 83106.730610609055 0 0 0 0 3584163.9037842751 532916.41396889091 0 532916.41396889091 -628904.00378727913 0 0 0 0 4586791.0430140495 1975271.8575611413 0 1975271.8575611413 -301251.4820394516 0 0 0 0 6693954.4954851866 1613569.1181226224 0 1613569.1181226224 -1751908.0172104836 0 0 0 0 5917111.8833400905 3896518.7664425671 0 3896518.7664425671 2472024.7621245384 0 0 0 0 34283.586530557601 218715.33016958446 0 218715.33016958446 6336.4386906219333 0 0 0 0 8203410.585994482 4535976.2786796987 0 4535976.2786796987 1654554.3037434816 0 0 0 0 662381.73797173286 139626.68066266068 0 139626.68066266068 -37370.375219893001 0 0 0 0 8494300.3911141157 4445130.7812290788 0 4445130.7812290788 249380.08518493176 0 0 0 0 975501.04819250107 2420974.8319176435 0 2420974.8319176435 -3785344.1222928762 0 0 0 0 4130388.2870953083 2944508.0048173964 0 2944508.0048173964 5564516.4490253925 0 0 0 0 7792601.2769627571 1504263.011076659 0 1504263.011076659 -3510276.8597453833 0 0 0 0 5956073.9024467468 2563255.4363302588 0 2563255.4363302588 1272524.0263093114 0 0 0 0 1802780.0735399583 -500264.25591054925 0 -500264.25591054925 -598909.06399614678 0 0 0 0 4250859.6239001751 -1280032.5032513142 0 -1280032.5032513142 -2133557.8699607849 0 0 0 0 -1556039.5417868495 -5250549.2243172675 0 -5250549.2243172675 -1774692.8101266623 0 0 0 0 14676536.038958073 -1671305.7668095529 0 -1671305.7668095529 -4923959.3176729679 0 0 0 0 -3761701.8128519058 652846.61426436901 0 652846.61426436901 926498.04860377312 0 0 0 0 7532632.8402187824 2518939.0015865564 0 2518939.0015865564 -656593.93273387849 0 0 0 0 5122466.0369146466 1300786.7239402533 0 1300786.7239402533 -510709.58668279648 0 0 0 0 345240.82211363071 -27071.164897186391 0 -27071.164897186391 -38297.976376744744 0 0 0 0 1401033.3393366411 -176107.09137942642 0 -176107.09137942642 -1786635.069201827 0 0 0 0 1264068.4973863959 -667440.41546115279 0 -667440.41546115279 -161914.75573450327 0 0 0 0 938986.10576629639 373779.55634486675 0 373779.55634486675 -1927117.2089645863 0 0 0 0 1673392.4818899035 -826086.54357993603 0 -826086.54357993603 -1397053.8679555655 0 0 0 0 699614.80620479584 -307274.63498288393 0 -307274.63498288393 -152910.5596036315 0 0 0 0 1200833.365974261 -436941.40352244338 0 -436941.40352244338 -24169.379354073026 0 0 0 0 1266684.6646000911 -399286.37268314115 0 -399286.37268314115 90850.918479867687 0 0 0 0 1446111.6161549091 -951393.52495831251 0 -951393.52495831251 186506.25681076944 0 0 0 0 836044.99650707841 -422315.39597629011 0 -422315.39597629011 190958.54467010498 0 0 0 0 758675.79884302616 -157809.15897846222 0 -157809.15897846222 599961.25590157509 0 0 0 0 1744568.5908104046 -172676.07238285488 0 -172676.07238285488 -144603.38464583366 0 0 0 0 1064485.0263426346 -241374.33846322622 0 -241374.33846322622 29912.235178543371 0 0 0 0 645835.33960167272 -105535.16104016868 0 -105535.16104016868 93069.171502887562 0 0 0 0 1338951.7915724367 -159238.28535716608 0 -159238.28535716608 1143411.6007146835 0 0 0 0 390499.53823256493 59398.71686643362 0 59398.71686643362 12180.800570130348 0 0 0 0 -1633279.0309352875 -3030181.3163617849 0 -3030181.3163617849 736455.74778425694 0 0 0 0 2925176.4738726616 -667730.07381618023 0 -667730.07381618023 -1365160.8435795307 0 0 0 0 6489745.5301938057 -3686563.1449782252 0 -3686563.1449782252 -1326216.9618580267 0 0 0 0 1129427.4002607297 1337688.768556841 0 1337688.768556841 119818.90781108127 0 0 0 0 9188684.9479150772 835927.2921897471 0 835927.2921897471 -465411.17190939188 0 0 0 0 7183223.4349374771 1490606.7931782007 0 1490606.7931782007 1912756.2855079621 0 0 0 0 3595977.1530981064 926761.39706289768 0 926761.39706289768 407016.33321225643 0 0 0 0 7093321.8860940933 -383859.89741316438 0 -383859.89741316438 -1099264.8356563151 0 0 0 0 3461335.5875940323 -3125259.4598687291 0 -3125259.4598687291 -1047412.5563903078 0 0 0 0 1654575.5999219874 -319807.71252040291 0 -319807.71252040291 31483.796630538534 0 0 0 0 5028607.66146487 -227894.55905145407 0 -227894.55905145407 -354663.84535509348 0 0 0 0 185914.30467860401 785354.7915122658 0 785354.7915122658 -2906203.3783285618 0 0 0 0 -7872228.6448068619 -8139365.6689648628 0 -8139365.6689648628 4847828.9571881294 0 0 0 0 3206295.7751507759 -361907.7052847743 0 -361907.7052847743 -308579.39498054981 0 0 0 0 2537772.0377332368 -141651.29849106283 0 -141651.29849106283 -386433.10183089349 0 0 0 0 7484340.8279857635 1570066.9460617453 0 1570066.9460617453 -280696.03409194946 0 0 0 0 1344317.2647336249 1220804.4990348923 0 1220804.4990348923 82348.693120134179 0 0 0 0 1528983.3531079039 -823494.30983667006 0 -823494.30983667006 -328718.52747212752 0 0 0 0 1642126.0543937683 -1001569.2136244774 0 -1001569.2136244774 -542736.13420534134 0 0 0 0 3265932.5132592493 -1021870.7408822121 0 -1021870.7408822121 -545543.97360301868 0 0 0 0 1335363.1813592929 -151763.09956338536 0 -151763.09956338536 -246686.16703234229 0 0 0 0 3156140.2494688034 -373075.57973757386 0 -373075.57973757386 -402982.28036125004 0 0 0 0 2767983.2864866257 -527585.50429286063 0 -527585.50429286063 80416.814319193363 0 0 0 0 3207085.4680330753 -368448.71408517659 0 -368448.71408517659 -300029.16366311908 0 0 0 0 883484.7662583167 264389.00817282917 0 264389.00817282917 -67971.922656452691 0 0 0 0 3136529.1577301621 -353238.64461489022 0 -353238.64461489022 -28703.418587684631 0 0 0 0 1727613.8147616386 187601.01133663952 0 187601.01133663952 23185.461455523968 0 0 0 0 2122496.0458943844 -14063.199741631746 0 -14063.199741631746 -532724.13357907534 0 0 0 0 1690366.9127446108 232010.91323005443 0 232010.91323005443 -130098.56539115919 0 0 0 0 1527618.9706488252 290656.1029727459 0 290656.1029727459 -2972579.457444191 0 0 0 0 12201833.19621706 -3958458.3027555943 0 -3958458.3027555943 -1823719.4039791822 0 0 0 0 2242087.683298111 531715.29196286201 0 531715.29196286201 -297498.73005439341 0 0 0 0 1744793.0408572562 244340.87824302376 0 244340.87824302376 -104411.708811887 0 0 0 0 1820175.946460247 819535.69626531005 0 819535.69626531005 99183.86322927475 0 0 0 0 2658382.7063686848 591313.91528438032 0 591313.91528438032 23396.049377769232 0 0 0 0 5858666.6408648491 2351565.6053818315 0 2351565.6053818315 -805164.68780857325 0 0 0 0 181206.10570745368 378176.48710607679 0 378176.48710607679 120791.84825530715 0 0 0 0 2601905.1059885025 1114637.7696219385 0 1114637.7696219385 753332.47252249718 0 0 0 0 1108337.2785792351 370878.57106371224 0 370878.57106371224 55367.913444340229 0 0 0 0 596535.26857292652 587873.89073877037 0 587873.89073877037 106080.60395085812 0 0 0 0 9406022.625475049 -1679619.8776720017 0 -1679619.8776720017 -19026871.764849901 0 0 0 0 2116158.8345179558 5221956.6355437338 0 5221956.6355437338 1335915.4486741126 0 0 0 0 5632441.4337601662 3583096.255940944 0 3583096.255940944 2021430.9767926037 0 0 0 0 2877404.2145143151 51228.56847538054 0 51228.56847538054 -322066.49567693472 0 0 0 0 5213652.2878954411 85863.721144393086 0 85863.721144393086 -494989.88898852468 0 0 0 0 592242.14462845458 232413.10456415289 0 232413.10456415289 56004.102503994771 0 0 0 0 -1065946.727609396 -2611139.8052736074 0 -2611139.8052736074 -2114104.1677404344 0 0 0 0 4062521.7196135521 363123.07338523865 0 363123.07338523865 321519.6248934865 0 0 0 0 3552270.2515631914 -770145.06653621793 0 -770145.06653621793 -624447.67122167349 0 0 0 0 985531.02943017019 -228974.5834486988 0 -228974.5834486988 -311661.98184046964 0 0 0 0 4071224.3721735477 51052.699228174984 0 51052.699228174984 109092.32206705213 0 0 0 0 -11586811.328617752 48274011.047937103 0 48274011.047937103 67252888.372252941 0 0 0 0 4343457.9564557076 110508.00259271264 0 110508.00259271264 -310015.06449191272 0 0 0 0 4428434.2578620911 -199004.7140500173 0 -199004.7140500173 274011.68349856138 0 0 0 0 41534208.029556274 70200143.062415242 0 70200143.062415242 -39322896.321367443 0 0 0 0 3585689.6380393505 8784493.976971738 0 8784493.976971738 51834964.723608136 0 0 0 0 634659.30875282455 279274.34190649039 0 279274.34190649039 83739.028590696995 0 0 0 0 3547766.3838877678 -11724316.100323185 0 -11724316.100323185 5564329.0748693347 0 0 0 0 4752893.9212539196 479538.90165439248 0 479538.90165439248 -518114.17615341395 0 0 0 0 4434654.7199616432 348877.11455382407 0 348877.11455382407 378020.23350885138 0 0 0 0 4374775.6428345442 113240.09698073938 0 113240.09698073938 -536360.35023871064 0 0 0 0 4675524.2854008675 337971.16561222076 0 337971.16561222076 -499059.76168943383 0 0 0 0 -22888473.485756159 -21668600.717838526 0 -21668600.717838526 -4222825.0559473038 0 0 0 0 1406756.1074598581 -39240.705284332507 0 -39240.705284332507 -598992.90860245179 0 0 0 0 3995835.4044036865 14721.527713123709 0 14721.527713123709 -187603.23628164455 0 0 0 0 4857055.7676672935 -889373.13791540638 0 -889373.13791540638 592089.25216799974 0 0 0 0 9959101.4979658127 -21865791.318354517 0 -21865791.318354517 617537.56730389595 0 0 0 0 21501262.729506493 -25190839.938090682 0 -25190839.938090682 -10162458.419820443 0 0 0 0 4715205.8420145512 266076.4812681349 0 266076.4812681349 -997602.11161801219 0 0 0 0 5530764.3078308105 599866.43655683845 0 599866.43655683845 -652226.19794737548 0 0 0 0 4344898.427816391 -210119.52329803258 0 -210119.52329803258 -1004389.3066275297 0 0 0 0 8339139.9754338264 -101082.40679807961 0 -101082.40679807961 -3564428.6996127591 0 0 0 0 1499477.8433060646 -4926088.297157079 0 -4926088.297157079 4480018.2905282974 0 0 0 0 2643791.5076885223 451383.53301054239 0 451383.53301054239 -1201511.9574098438 0 0 0 0 20276689.362501383 -3394117.8218750022 0 -3394117.8218750022 -4642782.0316711068 0 0 0 0 6341049.274887085 14394360.140250012 0 14394360.140250012 -4653283.678591758 0 0 0 0 28983897.571759224 19170178.829370528 0 19170178.829370528 -13032367.409767151 0 0 0 0 33727089.347815037 -5547996.1811200827 0 -5547996.1811200827 -5555249.9659481049 0 0 0 0 61944.333856258309 512.47220094827935 0 512.47220094827935 23933.714186364086 0 0 0 0 2185881.8687896729 -2263417.0075071305 0 -2263417.0075071305 681840.87113700807 0 0 0 0 543691.03720638144 321450.65783210029 0 321450.65783210029 -213424.14959224255 0 0 0 0 441902.5144709684 813657.04889502237 0 813657.04889502237 -223833.37507230043 0 0 0 0 385186.3060259223 309542.47992799431 0 309542.47992799431 115068.85950261354 0 0 0 0 432903.04830839485 605844.38648409769 0 605844.38648409769 293746.76099181175 0 0 0 0 112994.88021363958 389551.85721881653 0 389551.85721881653 58157.687296757969 0 0 0 0 7500676.1315989494 -3357315.3073744625 0 -3357315.3073744625 3070601.6291114688 0 0 0 0 1606134.7361083031 6586167.9740003347 0 6586167.9740003347 28351837.378835678 0 0 0 0 -16792.628984590177 54788.955373155884 0 54788.955373155884 44929.320886659814 0 0 0 0 17703448.653238535 -3431684.8369616047 0 -3431684.8369616047 2461378.7383521795 0 0 0 0 901943.48792450235 -240194.21409535478 0 -240194.21409535478 -435898.99811519543 0 0 0 0 1793342.3273668289 -238340.56883525848 0 -238340.56883525848 2222696.9174417257 0 0 0 0 812339.64438623167 -130291.24185777886 0 -130291.24185777886 -451104.33326674701 0 0 0 0 6011870.453769207 -5311323.6241828203 0 -5311323.6241828203 -3692421.4295209795 0 0 0 0 2087431.4896138906 587958.6610878557 0 587958.6610878557 -2336393.3639883995 0 0 0 0 2093811.0395994943 -345442.76599244704 0 -345442.76599244704 -707397.37135782605 0 0 0 0 -7452516.988558054 -4710503.8583467007 0 -4710503.8583467007 2299538.5068820715 0 0 0 0 -9452358.6189875603 5386690.8262486458 0 5386690.8262486458 -3116491.916972816 0 0 0 0 -10214192.147878408 -12514683.970943809 0 -12514683.970943809 13408293.307032824 0 0 0 0 26050110.202561617 -8017062.371625185 0 -8017062.371625185 -435152.60670846701 0 0 0 0 1437486.2801017761 6961846.9317074418 0 6961846.9317074418 -6489573.559583962 0 0 0 0 33651274.165510654 7519358.0411108136 0 7519358.0411108136 -15824177.938331842 0 0 0 0 430014.83072648814 75141.929953776955 0 75141.929953776955 -72688.926726511359 0 0 0 0 -638943.72204256058 -9959892.6216806471 0 -9959892.6216806471 4067435.3542244434 0 0 0 0 -2048252.2577900887 -7298638.8086368442 0 -7298638.8086368442 1076872.3353272676 0 0 0 0 3055525.7389421463 -6010194.8966151476 0 -6010194.8966151476 661741.83260667324 0 0 0 0 26100383.593023062 13083745.592880249 0 13083745.592880249 3914465.9709897861 0 0 0 0 160114.29817825742 36197.08888543467 0 36197.08888543467 27915.776163442759 0 0 0 0 2038941.1694617271 -1667054.3868724108 0 -1667054.3868724108 -9762109.3893073797 0 0 0 0 9483497.6848120689 -10869490.970823407 0 -10869490.970823407 -7661380.5012693405 0 0 0 0 10541101.17602706 -14703842.559157878 0 -14703842.559157878 -1498140.6870003343 0 0 0 0 4152596.4454700947 -17166500.007837176 0 -17166500.007837176 9777306.1287716627 0 0 0 0 12941819.893399715 28696269.356347442 0 28696269.356347442 19207431.507158935 0 0 0 0 16181687.420585155 24364153.12270242 0 24364153.12270242 12323274.786005974 0 0 0 0 131501.30682982772 60329.117554517143 0 60329.117554517143 6555.3743630792305 0 0 0 0 81521442.799997568 -8326230.2263476253 0 -8326230.2263476253 -94839179.380442619 0 0 0 0 25989736.501105785 31772571.684156895 0 31772571.684156895 15257388.642965138 0 0 0 0 4452253.6188836098 -12639146.695184529 0 -12639146.695184529 10616072.315698028 0 0 0 0 -380387.28927850723 -3045447.7158856094 0 -3045447.7158856094 -8408664.5278205872 0 0 0 0 4585207.0471372604 19049777.448660433 0 19049777.448660433 15106046.768761516 0 0 0 0 30931079.641296148 -7639587.4815910459 0 -7639587.4815910459 -14023071.183757067 0 0 0 0 22396886.430827737 17551791.369227946 0 17551791.369227946 -1070334.7753043175 0 0 0 0 12644925.455964088 6692914.413264513 0 6692914.413264513 -13110089.08827734 0 0 0 0 9087717.3804561347 -11072372.238612117 0 -11072372.238612117 606244.60130620003 0 0 0 0 6198077.783914566 24209822.125973642 0 24209822.125973642 19312863.676942587 0 0 0 0 55000.706186768832 41343.473224196001 0 41343.473224196001 59775.898303923896 0 0 0 0 -1538224.2606506348 3053418.5454139709 0 3053418.5454139709 22022218.419536829 0 0 0 0 1336603.3588037491 -5647383.4435641766 0 -5647383.4435641766 17133848.591618538 0 0 0 0 1124051.8129229546 3783538.4081599116 0 3783538.4081599116 3147743.4909918308 0 0 0 0 3132854.4351949692 7178011.8289358616 0 7178011.8289358616 3211944.7966322899 0 0 0 0 2285942.7968657017 19298117.671758354 0 19298117.671758354 -4902745.9353971481 0 0 0 0 1786986.2155995369 11796884.136751473 0 11796884.136751473 -3069611.9845850468 0 0 0 0 -932883.70220375061 2087977.8945826292 0 2087977.8945826292 1993498.5064672828 0 0 0 0 129160.61242580414 4554968.4443918467 0 4554968.4443918467 -2236271.7798099518 0 0 0 0 3958579.8028941154 2753771.3381829262 0 2753771.3381829262 -14188655.14146769 0 0 0 0 -757749.78787755966 706409.69116985798 0 706409.69116985798 -5110585.1213959455 0 0 0 0 -291913.88014245033 1334918.79202649 0 1334918.79202649 2214827.8216598034 0 0 0 0 -1127377.4262943268 -544611.3527328372 0 -544611.3527328372 6001457.6359207928 0 0 0 0 3665342.5790528059 -1868199.098402679 0 -1868199.098402679 2547970.916844368 0 0 0 0 547439.51198005676 1117472.6472415924 0 1117472.6472415924 1634363.7694382071 0 0 0 0 1207585.1942927837 425819.17333596945 0 425819.17333596945 2206804.1601814032 0 0 0 0 4673954.7214298248 -8970546.407959938 0 -8970546.407959938 -3501009.3045951426 0 0 0 0 -227931.31977581978 3297697.5921703056 0 3297697.5921703056 -589714.26026666164 0 0 0 0 2483340.5293157101 8666141.5922328308 0 8666141.5922328308 -3942199.0398368239 0 0 0 0 -1008558.2921066284 2590030.7864568233 0 2590030.7864568233 2945934.2663112283 0 0 0 0 3839730.2343454873 938225.93747962674 0 938225.93747962674 -217982.81457251601 0 0 0 0 903405.69464024343 1085306.884952988 0 1085306.884952988 -78830.940611498692 0 0 0 0 7025408.1838288307 13258839.97412765 0 13258839.97412765 -18947128.873677611 0 0 0 0 -2857648.7767457962 15011129.125477314 0 15011129.125477314 -6403606.0031086206 0 0 0 0 3334537.4795923233 2584982.1914731562 0 2584982.1914731562 -4508312.8713664562 0 0 0 0 1540628.3748941352 1035962.7500799091 0 1035962.7500799091 140217.95718018842 0 0 0 0 1784172.9897274971 3042712.893136248 0 3042712.893136248 -1606986.5536026359 0 0 0 0 726283.26584243774 1117421.3497837298 0 1117421.3497837298 -217262.79600908421 0 0 0 0 2080894.9557390716 1674796.82284316 0 1674796.82284316 133994.33435190591 0 0 0 0 16480894.221108198 -705436.68838876486 0 -705436.68838876486 -36283998.630117059 0 0 0 0 390078.90839290619 1392156.6682783216 0 1392156.6682783216 -1246113.2376134396 0 0 0 0 2526825.131017054 470342.46399034793 0 470342.46399034793 -119136.5407767368 0 0 0 0 -6430992.5705575943 148824.56369876862 0 148824.56369876862 -14059746.722731054 0 0 0 0 2635116.3514204025 4232326.6913537979 0 4232326.6913537979 -17530715.594075382 0 0 0 0 599325.80100274645 1565054.4146853657 0 1565054.4146853657 276404.98816551792 0 0 0 0 250530.91467285156 710010.81417943537 0 710010.81417943537 -205001.50198462605 0 0 0 0 1217206.2467536926 998230.27555226348 0 998230.27555226348 -326527.28608505428 0 0 0 0 726974.92307968391 608092.36624190968 0 608092.36624190968 81792.15601573218 0 0 0 0 2007488.964527684 1074743.9424641274 0 1074743.9424641274 -153357.49176910319 0 0 0 0 4249493.5279746056 -8298225.6463698223 0 -8298225.6463698223 -14719854.911659002 0 0 0 0 843707.38992595673 774293.16034370288 0 774293.16034370288 28803.386440321803 0 0 0 0 713559.02558279037 614410.74523836374 0 614410.74523836374 182180.55007390678 0 0 0 0 1227327.0548233986 586858.79591003805 0 586858.79591003805 102449.2213717103 0 0 0 0 1032602.9922893774 1016810.7793595628 0 1016810.7793595628 152765.56136646797 0 0 0 0 864822.46787643433 3940050.6855636835 0 3940050.6855636835 -825548.301689744 0 0 0 0 1574936.7919721603 2243710.9243582189 0 2243710.9243582189 -208490.30886471272 0 0 0 0 1105883.6482758522 2459945.569673419 0 2459945.569673419 -1638850.235298574 0 0 0 0 -1698498.2550067902 4569464.2595911473 0 4569464.2595911473 14537.266334235668 0 0 0 0 3464082.4596292377 1587927.1920251958 0 1587927.1920251958 -519511.95126634836 0 0 0 0 3735188.9484519958 4126319.6894997954 0 4126319.6894997954 -845484.13139295578 0 0 0 0 3985418.2431735992 3838086.4255029261 0 3838086.4255029261 -98446.543250381947 0 0 0 0 9543098.0172977448 -62379.313086658716 0 -62379.313086658716 -2580451.1332487762 0 0 0 0 10535599.206307411 1769925.7925537527 0 1769925.7925537527 -1488777.5088099241 0 0 0 0 7308281.4713935852 699966.31883096695 0 699966.31883096695 -1022077.1930743009 0 0 0 0 5654416.4209747314 -2062145.6560968161 0 -2062145.6560968161 -812101.23894196749 0 0 0 0 1173735.3373078329 274494.26253136469 0 274494.26253136469 -285708.39983589144 0 0 0 0 1426328.6841303483 223466.2184909333 0 223466.2184909333 -131778.26736922507 0 0 0 0 1158181.4680557251 271277.34323467314 0 271277.34323467314 -243324.58056824654 0 0 0 0 2125812.4511327744 289682.45687973499 0 289682.45687973499 125115.62140715122 0 0 0 0 762724.00532521307 3653286.1566989385 0 3653286.1566989385 648074.22801089287 0 0 0 0 931982.32946917182 666803.64218360034 0 666803.64218360034 -138141.32725228826 0 0 0 0 3918529.0753598213 222439.99034196138 0 222439.99034196138 65178.202428512275 0 0 0 0 -111762.05259841215 235787.9167669249 0 235787.9167669249 84858.722129953268 0 0 0 0 1627438.9822569378 2779511.9592721118 0 2779511.9592721118 -1052144.2039079219 0 0 0 0 208778.80563429929 34072.208864641492 0 34072.208864641492 -77019.586932591032 0 0 0 0 1517003.6503964141 -1859688.3254526034 0 -1859688.3254526034 824443.98925745487 0 0 0 0 1722132.4936099052 -1218222.8650560305 0 -1218222.8650560305 1450031.0739988387 0 0 0 0 3737620.959107399 -2383218.9058892131 0 -2383218.9058892131 -2594252.1185157299 0 0 0 0 5470758.896573782 -558567.64014857262 0 -558567.64014857262 -393328.735395208 0 0 0 0 2036940.816433847 320669.59114435781 0 320669.59114435781 -411807.97676037252 0 0 0 0 460153.08180095325 -104344.75671472203 0 -104344.75671472203 -289098.53578403388 0 0 0 0 2193108.2551908493 1455540.7945769727 0 1455540.7945769727 2243256.1822129786 0 0 0 0 -3659193.5190205574 4452775.148252368 0 4452775.148252368 3546565.9309002161 0 0 0 0 1027848.7587164779 318545.71473476302 0 318545.71473476302 -41654.287234189804 0 0 0 0 1461888.4878842831 352349.41686100513 0 352349.41686100513 1655099.8083141148 0 0 0 0 1359687.5528268372 438856.58725656528 0 438856.58725656528 -137741.99014771177 0 0 0 0 4116716.1366126537 1265482.5819196776 0 1265482.5819196776 -1268629.1784486622 0 0 0 0 -743721.5594291687 1501436.1053398848 0 1501436.1053398848 1450066.6629705727 0 0 0 0 137323.57852725871 311388.48610007268 0 311388.48610007268 -78640.574866243696 0 0 0 0 1752662.9617531584 403373.28691674001 0 403373.28691674001 -49149.995645719653 0 0 0 0 1120563.6017460565 286459.42175161443 0 286459.42175161443 -50593.131491726308 0 0 0 0 1828321.2754211426 374845.48904336244 0 374845.48904336244 -127116.82646813989 0 0 0 0 1565778.4924736023 748476.07278624177 0 748476.07278624177 -209952.64613160491 0 0 0 0 1569364.215054512 209796.90354219824 0 209796.90354219824 -112845.98989791423 0 0 0 0 1286519.6556596756 346358.22913875058 0 346358.22913875058 84104.973575219512 0 0 0 0 1443601.7902021247 200460.94133330067 0 200460.94133330067 -143425.65032662055 0 0 0 0 1479084.91938591 445970.62566439062 0 445970.62566439062 26113.477381438017 0 0 0 0 1249800.1829543114 353682.91222418845 0 353682.91222418845 198491.63779981434 0 0 0 0 963363.99011636851 278765.79767496395 0 278765.79767496395 81274.537107201482 0 0 0 0 2461517.2784106433 353637.15157098463 0 353637.15157098463 -204145.7639144063 0 0 0 0 1221617.4604681856 338120.27294236189 0 338120.27294236189 116216.73305252756 0 0 0 0 1759099.2520446777 -46945.653629846871 0 -46945.653629846871 -61675.721138969064 0 0 0 0 2178638.4498817921 994848.48776674643 0 994848.48776674643 489521.70494914055 0 0 0 0 1421519.2091900217 20928.05527511402 0 20928.05527511402 -331501.1928748269 0 0 0 0 2491437.4194397628 511756.24947554944 0 511756.24947554944 -102186.28236892819 0 0 0 0 2112373.8258943558 472385.02608531713 0 472385.02608531713 22890.229809880257 0 0 0 0 1995533.630777359 549274.97814944386 0 549274.97814944386 -26048.267080545425 0 0 0 0 1900058.2013664246 370882.4811091423 0 370882.4811091423 105127.01282589883 0 0 0 0 1666516.0600240231 653202.46892736852 0 653202.46892736852 28976.72553229332 0 0 0 0 1897322.2673506737 463180.28374890983 0 463180.28374890983 -181414.21600940824 0 0 0 0 2502306.1278157234 -324356.88521747291 0 -324356.88521747291 -181335.89220481366 0 0 0 0 1755428.8240375519 604197.74483042955 0 604197.74483042955 55065.844130724669 0 0 0 0 1569944.2938360604 288723.4376999659 0 288723.4376999659 -8317.7773531711427 0 0 0 0 2355671.2706222534 29844.342016458511 0 29844.342016458511 111813.16478645802 0 0 0 0 1173279.2739584059 663913.9184500277 0 663913.9184500277 -306105.37386718532 0 0 0 0 -382951.47119687207 414014.09271960211 0 414014.09271960211 108512.00297921171 0 0 0 0 640621.08119034767 3538742.2220626175 0 3538742.2220626175 -1716879.1281901002 0 0 0 0 -2239701.0418481827 849366.86691296101 0 849366.86691296101 371363.31953652948 0 0 0 0 -56998.290975809097 2453371.3355237246 0 2453371.3355237246 319285.92286509275 0 0 0 0 154700.28222942352 1389329.5955458283 0 1389329.5955458283 -1881839.3341944218 0 0 0 0 -2474974.6466836929 649721.28068730235 0 649721.28068730235 -590528.87402063608 0 0 0 0 380598.49304232723 61219.87614977028 0 61219.87614977028 -24647.061921878892 0 0 0 0 1143227.4281181844 609145.17577623413 0 609145.17577623413 121508.05125765997 0 0 0 0 9042127.3461279869 -464102.81339360774 0 -464102.81339360774 344854.91184642911 0 0 0 0 -465127.54090499878 -668488.88852596283 0 -668488.88852596283 -832254.23517155647 0 0 0 0 -4877634.2280226946 2286041.779522419 0 2286041.779522419 1917535.492644012 0 0 0 0 -41352.609011904337 1068035.1569773902 0 1068035.1569773902 -44218.481244643917 0 0 0 0 506499.72636723472 635395.47266026225 0 635395.47266026225 -43964.872840545489 0 0 0 0 7491905.8818216324 -5509475.1176296473 0 -5509475.1176296473 -7750785.141409874 0 0 0 0 -1936073.4828009605 1820551.8736694008 0 1820551.8736694008 2244186.8601004891 0 0 0 0 1286371.27524212 -2441337.3994399179 0 -2441337.3994399179 661067.16138958931 0 0 0 0 514926.0417869091 10529532.29493694 0 10529532.29493694 12393087.071632028 0 0 0 0 1539832.2347109318 2161620.7881800532 0 2161620.7881800532 289079.80600446463 0 0 0 0 -2555613.4624180794 3498785.6563171744 0 3498785.6563171744 1834161.0940163732 0 0 0 0 -79497.66952085495 1119983.8885612935 0 1119983.8885612935 1532678.0387061946 0 0 0 0 536947.86662526429 1326153.9844383397 0 1326153.9844383397 -327912.25562281907 0 0 0 0 -122068.90317230229 66008.511437639943 0 66008.511437639943 21636.532235711333 0 0 0 0 2881631.4164514542 -964317.07764198631 0 -964317.07764198631 324316.05452720821 0 0 0 0 999196.34709401906 660102.26226679306 0 660102.26226679306 25639.33082598992 0 0 0 0 1602674.3553264141 4713657.5081077553 0 4713657.5081077553 8279677.9215865955 0 0 0 0 492003.30533401668 2189906.4178462368 0 2189906.4178462368 3115127.3482514322 0 0 0 0 875910.01785874367 1250187.7105732486 0 1250187.7105732486 1420445.3056760281 0 0 0 0 2243236.4306316376 3430742.1619885564 0 3430742.1619885564 2537528.9104489982 0 0 0 0 5231630.4901841432 3337587.2654150967 0 3337587.2654150967 -172508.58614981174 0 0 0 0 5055549.4703790545 4716074.8437195867 0 4716074.8437195867 -190505.88388979435 0 0 0 0 9903819.8405156136 5724838.821582973 0 5724838.821582973 -1324573.6159881353 0 0 0 0 2952740.5963506699 2331969.9715145826 0 2331969.9715145826 -611822.48196133971 0 0 0 0 6735477.9969382286 2586646.2523036599 0 2586646.2523036599 -1456988.7745689452 0 0 0 0 2622596.6816468239 2973165.1419680715 0 2973165.1419680715 -1209845.6076465249 0 0 0 0 6016.8092368841171 1574004.913219884 0 1574004.913219884 -302468.65488386154 0 0 0 0 7569159.7535130978 -2871234.2545555234 0 -2871234.2545555234 42141.834948167205 0 0 0 0 6574015.5510276556 3132649.0849441737 0 3132649.0849441737 -3277458.2612615824 0 0 0 0 10980222.976497889 2230781.7398792505 0 2230781.7398792505 -4629809.8581021428 0 0 0 0 11068514.563637495 2937836.2189154625 0 2937836.2189154625 -3667303.9151844978 0 0 0 0 10679143.535092771 4309280.4018305913 0 4309280.4018305913 -5076289.5558526516 0 0 0 0 9938710.0328989029 4527724.355479151 0 4527724.355479151 -4169631.3660247922 0 0 0 0 10581762.938906193 1706843.013813138 0 1706843.013813138 -7348510.164830029 0 0 0 0 2778816.0644750595 360362.53695937991 0 360362.53695937991 -4089542.8561653495 0 0 0 0 2973780.5713188574 -4433686.2537552323 0 -4433686.2537552323 -4047566.3137702942 0 0 0 0 27155770.961704731 4060326.9332594573 0 4060326.9332594573 -9470507.2248072177 0 0 0 0 14353117.004368067 4073882.4808426201 0 4073882.4808426201 -5903974.1530601978 0 0 0 0 11021757.546643138 -4367133.3526841402 0 -4367133.3526841402 -13235267.447781622 0 0 0 0 11028269.992941856 5098570.498688817 0 5098570.498688817 -3687641.6135868644 0 0 0 0 10876871.171785831 4735596.3271975964 0 4735596.3271975964 -4380259.4261491299 0 0 0 0 1743934.6283597946 -6330058.3496183753 0 -6330058.3496183753 -1705636.074506864 0 0 0 0 457814.43568074703 -4389933.2263915539 0 -4389933.2263915539 -2824117.3544935584 0 0 0 0 1934888.0234699249 -5932452.3459264636 0 -5932452.3459264636 -5342693.3634984791 0 0 0 0 -19610368.302305937 -14746872.300393492 0 -14746872.300393492 -4718745.9888362139 0 0 0 0 393147.77627917437 -9189.4312348165549 0 -9189.4312348165549 -135650.3033065683 0 0 0 0 -18238061.713040352 9796306.5225713775 0 9796306.5225713775 25006634.201207697 0 0 0 0 12856150.333478928 -15474937.735120267 0 -15474937.735120267 -21055208.873287141 0 0 0 0 36906967.814375877 99794.695731535554 0 99794.695731535554 -18437441.647374522 0 0 0 0 18511044.072678089 22220591.768002491 0 22220591.768002491 20446491.063744776 0 0 0 0 18015310.904021025 9129061.3292744905 0 9129061.3292744905 11241214.082017511 0 0 0 0 8638563.2921507359 8387881.2896806747 0 8387881.2896806747 3571575.4177420437 0 0 0 0 14170774.308600187 6875369.4825811386 0 6875369.4825811386 -3651436.4726973674 0 0 0 0 13179704.587273359 6182049.338760227 0 6182049.338760227 -2648591.1620378494 0 0 0 0 25789822.85857439 11675499.594678864 0 11675499.594678864 -844742.02323644608 0 0 0 0 25055546.901599169 13940396.50056212 0 13940396.50056212 10622074.860962851 0 0 0 0 34482472.74282217 -472200.80230642855 0 -472200.80230642855 9760198.0362483934 0 0 0 0 8687827.460293293 10762268.653368026 0 10762268.653368026 10182252.127085805 0 0 0 0 6249836.0332608223 6462274.835067749 0 6462274.835067749 3472254.3833618443 0 0 0 0 13681806.196572065 -26923377.111567378 0 -26923377.111567378 25930614.340761252 0 0 0 0 4524881.3934592605 8508046.6078482121 0 8508046.6078482121 18401282.280781146 0 0 0 0 159921.94274002977 -65669.89507405975 0 -65669.89507405975 -54305.414978370638 0 0 0 0 32445261.543571442 -45833268.721015923 0 -45833268.721015923 -46854516.083979994 0 0 0 0 16792182.085599422 -1782812.9321883917 0 -1782812.9321883917 -2334395.5840184391 0 0 0 0 161614.36827045213 185580.95950306905 0 185580.95950306905 -57124.152575190936 0 0 0 0 5403243.0999624729 -4386045.1467492133 0 -4386045.1467492133 9823912.9816343784 0 0 0 0 17542093.639280379 -3323090.9473138154 0 -3323090.9473138154 -870890.33544778824 0 0 0 0 6819849.62913692 -6074189.6174639165 0 -6074189.6174639165 1010441.7573698759 0 0 0 0 -2491525.9950950742 7265034.8668560497 0 7265034.8668560497 14961229.646474719 0 0 0 0 20726244.29176712 6369009.8006107509 0 6369009.8006107509 13126911.021550432 0 0 0 0 91094.279925025709 105892.24954906706 0 105892.24954906706 -22195.549958805481 0 0 0 0 32567224.314916968 8668050.9661523066 0 8668050.9661523066 3113543.4454151094 0 0 0 0 21798689.312546253 14470043.228114657 0 14470043.228114657 84254185.351827025 0 0 0 0 19302212.685304642 488476.31940701604 0 488476.31940701604 -1930058.4522795081 0 0 0 0 13837563.873155832 -4644701.8289343715 0 -4644701.8289343715 6795963.2184497714 0 0 0 0 8346205.1236846447 -7913505.9663212299 0 -7913505.9663212299 5383435.3278816938 0 0 0 0 10839948.508458972 3774462.5397385433 0 3774462.5397385433 13865931.120692372 0 0 0 0 13887335.977114916 -8156386.7246419191 0 -8156386.7246419191 22905542.597185969 0 0 0 0 36080520.642976522 -19565694.142089158 0 -19565694.142089158 12821859.212864518 0 0 0 0 14230187.880713463 -6484664.1691118777 0 -6484664.1691118777 5665427.6958017349 0 0 0 0 10976988.505456448 -11797180.766846195 0 -11797180.766846195 7611042.5077053308 0 0 0 0 7966265.9655075073 -3253535.0855411589 0 -3253535.0855411589 9841748.6740786433 0 0 0 0 7510193.8378799707 -15010225.551751595 0 -15010225.551751595 -1781978.1488604546 0 0 0 0 20445691.161371231 -7064893.0634405315 0 -7064893.0634405315 263175.07146561146 0 0 0 0 95158.694652951846 104260.10832031746 0 104260.10832031746 -56620.095816859743 0 0 0 0 18187556.16833365 -15045174.229055047 0 -15045174.229055047 1953940.8156150579 0 0 0 0 12787657.542116046 -5878609.7009445727 0 -5878609.7009445727 7087740.1403153539 0 0 0 0 12448728.568625808 110412.16901281476 0 110412.16901281476 2326487.1893450767 0 0 0 0 10496073.713352323 -2065971.0253233612 0 -2065971.0253233612 462166.14768534899 0 0 0 0 11210075.162580386 -1223125.4052309245 0 -1223125.4052309245 189714.35460865498 0 0 0 0 1102568.525474906 649024.12068408728 0 649024.12068408728 2422856.3237768412 0 0 0 0 1250092.1302150115 1516640.1070201583 0 1516640.1070201583 -29253.758877515793 0 0 0 0 -1149701.722417146 -1135460.753337115 0 -1135460.753337115 1664946.242837131 0 0 0 0 1134424.0898549557 476152.23691245914 0 476152.23691245914 384030.79232096672 0 0 0 0 339360.68614738248 467312.80970484193 0 467312.80970484193 94762.297641037876 0 0 0 0 1320593.4303344488 458152.99603042006 0 458152.99603042006 -53933.545330226421 0 0 0 0 -1759207.7527202666 1288099.7510473281 0 1288099.7510473281 798439.08041711152 0 0 0 0 503104.13657009182 115947.50704612536 0 115947.50704612536 -126168.82841835206 0 0 0 0 1921570.6736074686 2584148.1864395514 0 2584148.1864395514 -2369591.5482421219 0 0 0 0 1340963.3302259445 52324.216426193714 0 52324.216426193714 -147856.12574446201 0 0 0 0 1245554.91492033 131502.43266814947 0 131502.43266814947 139896.58563733101 0 0 0 0 1454829.2851902246 676117.77219766378 0 676117.77219766378 280629.5085849762 0 0 0 0 -7966.3707890020451 15479.277632523212 0 15479.277632523212 6339.6281907135271 0 0 0 0 607660.71194315609 251987.67716578208 0 251987.67716578208 -180426.95135572297 0 0 0 0 602249.57302749425 438691.72891674668 0 438691.72891674668 -153798.77146717499 0 0 0 0 990502.88020706177 370473.07070027292 0 370473.07070027292 -433625.20217970014 0 0 0 0 181135.17701303959 -30945.00361450389 0 -30945.00361450389 -598719.02327397838 0 0 0 0 -272346.01616287231 -9224.3979162275791 0 -9224.3979162275791 212995.65758017451 0 0 0 0 -401612.6938521862 367500.472929921 0 367500.472929921 1902929.216249425 0 0 0 0 1990197.3878924847 889766.21521286294 0 889766.21521286294 -783495.05908974446 0 0 0 0 392201.99119699467 -63218.67684508684 0 -63218.67684508684 -116015.51073565145 0 0 0 0 -1210865.4675088525 -2375922.9149537515 0 -2375922.9149537515 3593447.5169807673 0 0 0 0 9251854.2369461507 -915705.51180804335 0 -915705.51180804335 -3334526.8848840147 0 0 0 0 133662.5357336998 -595658.10273450613 0 -595658.10273450613 1230009.1629331224 0 0 0 0 
</DataArray>
<DataArray type="Float64" Name="cross_section_updated" format="ascii">
1 1 0.049987792123710233 1 1 1 1 0.049987751287830062 1 1 1 1 1 1 1 1 1 1 1 1 0.050025451826916444 1 1 1 1 0.050025484373020054 1 1 1 1 1 1 1 0.050069165058936334 1 1 1 1 1 1 1 1 0.050184946395787869 1 1 1 1 1 1 1 1 1 1 1 0.05023790856726109 0.050016162515303005 1 1 1 1 1 1 1 1 0.05012898240103688 1 1 1 1 1 1 1 1 1 1 1 1 1 1 1 1 1 1 1 1 1 1 0.050090928169268099 1 1 1 1 1 1 1 1 1 1 1 0.050164578484632093 1 1 1 0.050071105699330043 1 1 1 1 1 1 1 1 1 1 1 1 1 1 1 1 1 1 1 1 1 1 1 1 1 1 1 1 1 1 1 1 1 1 1 1 1 1 1 1 1 1 1 1 1 0.049990485418322281 1 0.049935697287386512 1 1 1 1 1 1 1 1 1 1 1 1 1 1 1 1 1 1 1 1 1 1 1 1 1 1 0.050444751168933891 1 1 0.050060445019265772 1 0.050053685994296257 1 1 1 1 1 1 1 1 1 1 1 1 1 1 0.0495535073747344 1 0.050318775257402609 1 1 1 1 1 1 1 0.050448581593023498 1 0.049800672976374576 1 1 1 1 1 1 0.049974589713842554 1 1 0.050460928547359826 1 1 1 1 1 1 0.05015570153960431 0.051223591597361416 1 1 0.049975439296702229 1 0.050827797852755589 1 0.050032744579205028 0.050555337706555292 1 1 1 0.050991494951742843 1 1 1 1 1 1 1 1 1 1 1 1 1 0.051204330197536771 1 1 1 1 1 1 1 0.051154538365753809 1 1 1 1 1 1 1 0.051032534329859075 1 1 1 1 0.0500701309933341 1 1 1 1 1 1 0.049977595787009013 1 1 1 0.050189082638269926 1 1 1 1 1 1 1 0.050266650318577348 1 1 1 1 1 1 0.04981088595425788 1 1 1 1 1 1 0.050377528318041008 1 1 1 1 1 1 1 0.049879169364019468 1 1 1 1 1 1 1 1 1 1 1 1 1 1 1 1 1 1 1 1 1 0.049628670729650763 0.049982768092743976 1 1 1 1 1 0.051910873666399536 1 1 1 1 1 1 1 0.050059171656119096 1 0.05184722341369577 1 1 1 0.050569443635139523 1 1 1 0.050158968739189701 1 0.049997800049123388 1 1 1 1 1 1 1 0.051435778947941956 1 1 1 1 1 1 1 0.050789790407477144 1 1 1 0.050001337590901855 1 1 1 1 1 1 1 1 1 1 1 1 1 1 1 1 1 1 1 1 1 1 1 1 1 1 1 1 1 1 1 1 0.051441322749087602 1 1 1 1 1 1 1 1 1 1 1 1 1 1 1 1 1 1 1 1 1 1 1 1 1 1 1 1 1 1 1 1 0.049877741424666812 1 1 1 1 1 1 1 1 1 1 1 1 1 1 1 1 1 1 1 1 0.050009918796915541 1 1 1 1 1 1 1 0.050123239125300895 1 1 1 1 1 0.050319217665908134 1 1 0.050029485660436183 1 0.05122854864346655 1 1 1 1 0.05151173638279348 1 1 0.051735702896660178 1 1 1 1 1 1 0.050020458548992446 1 1 1 1 1 1 1 1 1 1 1 1 1 1 1 1 1 1 1 0.051067338235756057 1 1 1 1 1 1 1 1 1 1 1 0.049874768976819972 0.051641948002324863 1 1 1 1 1 1 1 1 1 1 1 1 1 1 1 1 1 1 1 1 1 0.050139446070412236 1 0.050062337065949064 0.050469251055201253 1 1 0.050147663954145133 1 1 1 1 1 1 1 1 1 1 1 1 1 0.050836382530268703 1 1 1 1 1 1 1 0.05039806797994853 0.050403023767316639 1 1 1 1 1 1 1 1 0.050188456922434732 0.049713287669210481 1 1 1 0.050531699973504804 1 1 1 1 1 1 1 1 1 1 1 1 1 1 1 1 1 1 1 1 1 1 1 1 1 1 1 1 1 1 1 1 1 1 1 0.05020171712883497 1 1 0.050098666036110601 1 1 1 1 0.050125479777096041 1 1 1 0.050408419987787806 1 1 1 0.050161722307191632 1 1 0.050247183811668719 1 1 1 1 1 1 1 1 1 1 1 1 1 1 1 1 1 1 1 1 1 0.050380963773517994 1 1 1 0.050484230624294225 1 1 1 1 1 0.050227165145955127 1 1 1 1 1 1 0.050238198802932704 1 1 1 1 1 1 1 1 1 1 1 1 1 1 1 1 1 1 0.050134524177792884 1 1 1 1 1 1 1 1 1 1 1 1 1 1 1 1 1 1 1 1 1 0.050026813740985436 1 1 1 1 1 1 1 1 1 1 1 1 1 1 1 0.04989760392806622 1 1 1 1 1 1 1 1 1 1 1 1 1 1 1 1 1 1 0.05004946326105237 1 1 1 1 1 1 1 0.0500521600298061 1 1 1 1 1 1 1 1 1 1 1 1 1 1 1 1 1 1 1 1 1 0.050018445529868005 1 1 1 1 1 1 1 1 1 0.050042475747429219 1 1 1 1 1 1 1 1 0.051350902841634925 1 1 1 1 1 1 1 1 1 1 1 1 1 1 1 1 1 1 1 0.049312117843840653 1 1 1 1 1 0.051187924288315922 1 1 1 0.050003459502139871 1 1 1 1 1 1 0.05002715880179489 1 1 1 1 1 1 1 1 1 1 0.049906869890210898 1 1 1 1 1 1 1 1 1 1 1 1 0.051190735744971481 1 0.049702379451632708 1 1 1 1 1 1 1 0.049265809019109277 1 0.050963176938934887 1 1 1 1 1 1 1 1 1 1 1 1 1 1 1 1 1 1 1 1 1 1 1 1 1 1 1 1 1 1 1 1 1 1 1 1 1 1 1 1 1 1 1 1 1 0.050778602278705391 0.050021684170094602 1 1 0.049927209392630477 1 1 1 1 1 1 1 1 1 1 1 1 1 1 1 1 0.049790862113816357 1 1 1 1 0.049907228437206505 1 1 0.049999900725591705 1 1 1 1 1 1 0.049845856670673608 1 0.049811085412316811 1 1 0.049982273993007933 1 1 1 1 1 1 1 1 1 1 0.050861646072854469 1 1 1 1 1 0.049893734924712788 0.050026599816322112 1 1 1 1 0.050199037003474486 1 1 0.050242786488812967 1 0.050793431588738294 1 1 1 1 1 0.050637030012036358 1 1 0.05000751456721661 1 1 1 1 1 1 1 1 1 1 1 1 0.050017318442628404 1 1 1 1 1 1 1 1 1 1 1 1 1 1 1 0.050373287174956448 1 0.05000029891842285 1 0.050253121464282319 0.049846568951443987 1 0.050601171963128432 1 1 0.050000480377304 1 1 1 1 1 1 0.051513101357336132 1 0.049995202287071459 1 1 0.051342244174164685 1 1 1 0.049866607654261534 1 1 0.050000515291860496 1 1 1 1 1 0.050775245690762097 1 1 0.050644257118319103 1 1 1 1 1 0.0500035499879561 1 0.050068759008676349 1 1 0.049966910450169752 1 1 0.051092672055438958 1 1 1 1 1 1 1 1 0.051062586912370547 1 1 1 1 1 1 1 1 1 1 0.051007754152286498 1 1 1 1 0.050053764966122558 1 1 0.050188308054503951 1 1 1 1 1 0.049607014789588816 1 1 1 1 1 0.049998992473087339 1 0.05001255926753144 1 1 1 1 1 1 0.049986089470746099 1 1 1 1 1 1 1 1 0.050044363646472169 0.050196714354160885 0.050934742815411181 1 1 1 1 0.050112209599619449 1 0.05038902289492718 1 1 1 0.049561510305615106 0.050000306991077964 1 1 1 0.049928623906415115 1 1 1 0.049835201906967795 1 0.050155755318783121 1 0.050103344386085089 0.049562257274352574 1 0.050001265654911767 1 1 1 1 0.050214635713731505 1 1 1 0.050006287505541563 1 0.051004089447259399 1 0.050629511838412439 1 1 1 1 1 1 1 0.049996931548633099 1 1 1 1 0.050441921582301492 1 1 1 1 1 1 1 1 0.050000666318073955 1 0.049990479953278232 0.050023076690995254 1 1 1 0.050612658328291753 1 1 1 1 0.050692608541998509 0.050025167200061955 1 1 0.050297974909772954 0.050097398784808497 1 1 1 1 1 0.050034128822034993 1 1 1 1 1 1 1 1 0.050142327650315038 1 0.05037064022304124 1 1 1 1 1 1 1 1 1 1 1 1 1 1 1 1 1 0.050093763036539493 1 1 1 1 1 1 1 1 1 1 1 1 1 1 1 1 1 1 1 1 1 1 1 1 1 0.050007730055440007 1 0.050193937296710074 1 1 1 1 1 0.049998374337750923 0.050001990937553704 1 1 1 1 0.049702171737813133 0.050623030184312419 1 0.050576836508787623 1 1 0.050538010815223057 1 1 0.050576173294451673 1 1 1 1 0.050026395049101814 0.051036872711111646 1 1 1 1 1 1 1 1 0.050180571929257213 1 1 0.050429064676853444 1 1 1 0.050443853936506328 1 1 0.050214401278724077 1 1 1 1 1 1 0.049988267252974929 1 1 1 1 1 1 0.050561188655801816 1 1 1 1 1 0.049966180636384111 1 1 0.050033188785111239 0.050726208973968283 1 1 0.04991395612765185 1 1 0.050001205729965345 1 1 1 1 1 1 1 1 1 1 1 1 0.050825935522528627 1 0.049922964315288136 1 1 0.049944105501412331 1 1 1 1 1 1 0.049994922788957369 1 1 1 0.050063427996290426 0.050719343234549678 0.049999769947133552 1 1 1 0.049764018312866566 0.050176330933786921 1 0.050031310683603579 0.050335769200404334 1 1 0.050104599127206648 1 1 0.050090991069437985 1 0.050178482361306606 1 0.050086317381693043 1 1 1 0.049871753283214047 0.050049817470484079 1 1 0.049887330267016111 0.0501423673878163 0.050094958194291446 0.050031050226877177 1 1 1 0.050115975611359331 0.049920884397020783 1 1 0.050056533721234919 0.050372191523226799 0.049921109793090584 1 0.050222991182405911 0.049953609739139836 1 1 0.049874782902242044 1 0.049962802930877848 0.050094997384813607 1 0.049920056257812935 1 1 0.050248304080001992 1 0.050404327286312077 0.050191807018239561 1 1 1 1 0.050076255923882769 0.050710402752382498 1 1 0.049996224886344212 1 1 1 0.050010733102390598 1 1 1 1 1 1 1 1 1 1 1 1 1 1 1 1 1 1 1 1 1 1 1 1 1 1 1 1 1 1 1 1 1 1 1 1 1 1 1 1 1 1 1 1 1 1 1 1 1 1 1 1 1 1 1 1 1 1 0.050573828527073844 1 0.050186893219359353 1 1 1 1 1 1 1 1 1 1 1 1 1 1 0.050534506368599998 1 1 1 1 1 1 1 1 1 1 0.05018763080316134 1 1 1 1 1 1 1 1 1 1 1 1 1 1 1 1 1 1 1 1 1 1 1 1 1 1 1 1 1 1 1 1 1 1 1 1 1 1 1 1 1 1 1 1 1 1 0.050002149150148639 1 1 1 0.05000173859558521 1 0.050016066053271059 1 1 1 1 1 0.050041017642335976 1 0.049717680042322847 1 1 1 1 1 1 1 1 1 1 1 1 1 1 1 1 1 1 1 1 1 1 1 1 1 0.049902739988391967 1 1 1 1 1 1 0.050901248831385047 1 0.050279959946238094 1 1 1 0.051034304356946197 1 1 0.05160960197890542 1 1 1 1 1 1 1 1 1 1 1 1 1 1 1 1 1 1 1 1 1 1 1 1 1 1 1 1 1 1 1 1 1 1 1 1 1 0.04982587031821107 1 0.050359392390182126 1 1 1 1 1 1 1 1 1 1 0.049955484638087952 1 1 1 1 1 1 1 1 1 1 1 1 1 1 1 1 1 0.051106915022514639 1 1 1 0.049996810967539246 0.052009625842492267 1 0.052325394985341209 1 1 1 1 1 1 1 1 0.050041280386097189 1 1 1 1 0.050206938054907425 1 1 1 1 1 1 1 0.050038318866420434 1 1 0.050691847085073717 1 0.05181698286950203 1 1 0.049944227097445205 1 1 0.051415984196806097 0.049996550734506116 1 1 1 1 1 1 1 1 1 1 1 1 1 1 1 0.052328186597283 1 0.051374681952986202 1 1 1 0.050022090222408548 1 0.050315800055948857 1 1 1 1 1 1 1 1 1 1 1 1 0.050118357534792504 1 0.049869184012295953 1 1 1 1 1 1 1 1 0.050326892389614339 1 1 0.050410515876368203 1 1 1 0.049772242757330984 0.049942658949811557 1 1 1 1 1 1 1 1 1 1 1 1 1 1 1 1 1 1 1 1 1 0.050191415524665058 1 1 1 1 1 0.049997268497862943 1 0.050154893982780842 1 1 1 1 0.050219580197062033 1 1 0.049934057321888818 1 1 1 1 1 0.049872941336995116 1 1 1 1 0.050049348240944168 1 1 1 1 1 1 1 0.050273940318938899 1 1 1 0.050521593460261666 1 1 1 1 1 1 1 1 1 1 1 0.050534235602416273 1 1 1 1 1 1 1 1 0.050136961405087603 1 1 1 1 1 1 0.050348570320565056 1 1 1 1 1 1 0.050424030811257611 1 1 1 1 1 1 1 1 1 1 1 0.050003418926938083 1 1 1 0.049982329183415289 1 1 1 0.050046810924739837 1 0.049998694113091116 1 1 1 1 1 1 0.050212421895780165 1 1 1 1 1 1 1 1 1 1 1 1 1 1 1 0.050050838241507883 1 1 1 1 1 0.049873036252360746 1 1 1 1 1 1 1 1 0.049967683594545328 1 1 1 1 1 1 1 1 1 1 1 1 1 1 1 1 0.050030737788622673 1 1 1 1 0.050006001646671072 1 1 1 1 1 1 1 1 1 1 1 1 1 1 1 1 1 1 1 1 1 1 1 1 1 1 0.050876879537072713 1 1 1 0.050000949967804839 1 0.050412829906332307 1 1 1 1 0.050339107212902967 1 0.050014143021279114 1 1 1 1 1 0.050003571789055845 1 1 1 1 1 1 1 1 1 0.050823606721833899 1 1 1 1 1 1 1 1 1 1 1 1 1 1 1 1 1 1 1 1 1 1 1 1 0.050075850865026965 0.049926644345383256 1 1 1 1 1 0.049952973740039056 1 1 1 0.050007521780486675 1 1 1 0.050085490244846549 1 1 0.050009128526757901 1 0.049983171345998799 1 1 1 1 0.050061007966510106 1 1 1 1 0.050089684840149973 0.050009673259520056 1 1 1 1 1 1 1 1 1 1 1 1 0.050034458876457438 1 1 1 1 0.05000280190124641 1 1 1 1 1 0.049937371524467734 1 1 0.049977357728931228 1 1 1 1 1 1 1 1 1 1 1 1 1 1 1 1 0.04998859509181728 1 1 0.050015564600442465 1 1 1 0.050019951136535616 1 1 1 1 1 1 1 1 1 1 1 0.050004386536093154 1 1 1 1 1 1 1 1 1 1 1 1 1 1 1 1 0.050006217578667668 1 1 0.049742265129512325 1 0.049579175777372544 1 1 0.050917065511351112 1 0.050019695716064488 1 0.050929687015218925 1 1 1 1 1 1 1 1 1 1 1 1 1 0.050926813957691781 1 0.049863636404225212 0.050121578358740225 1 1 0.051067707909264057 0.050048711309238443 1 1 0.04999981518153826 0.050215420684824326 1 1 1 0.051405625895211464 1 0.050687467174777304 1 1 0.049965791890166943 1 1 1 1 0.050075636672733084 0.050884954162106193 1 0.049521172577599054 1 1 0.050419308556216791 0.049997990582139711 1 1 0.050127852121510906 1 1 1 0.050348747393292148 1 1 1 0.049925243169584181 0.049521059244483967 0.050233895483193909 1 1 0.049844700940109676 1 0.048421926357315827 0.049994458790931173 1 1 1 1 1 1 1 1 1 1 1 0.049929676792711437 0.049868944887739367 1 0.049562810341255426 1 0.050780923307956728 1 0.050343730607486148 1 1 1 0.050022513634022034 1 1 1 1 1 0.049954221086156846 1 1 1 1 1 1 1 1 1 1 1 1 1 1 1 1 1 1 1 1 1 1 1 1 0.050016819752293336 1 1 1 1 1 1 1 1 1 1 1 1 1 1 1 1 1 1 0.052351242754563328 1 1 1 1 1 1 1 1 1 1 1 0.049921102889273289 1 1 1 1 1 0.052374785903560976 1 1 1 1 1 1 1 1 1 1 1 1 1 1 0.050187914912802535 1 1 1 1 1 1 1 1 1 1 1 1 1 1 0.050437655583258682 1 0.050735109527078694 1 1 1 1 0.050500863195039492 1 1 1 1 1 1 1 1 1 1 1 1 0.050700195546136931 1 0.049995264986042974 1 1 1 1 0.049984438698466339 1 1 1 1 1 1 1 0.051392785031695462 1 1 1 1 1 1 1 0.050001270831457896 1 1 1 0.050527194814969409 1 0.050000524372771006 1 1 1 1 1 1 1 1 1 0.050196782581303431 1 1 1 1 1 1 1 1 1 1 1 1 1 1 1 1 1 1 1 1 1 1 1 1 1 1 1 1 1 1 1 1 1 1 1 1 1 1 1 1 1 1 1 0.050056825544407373 1 1 0.050712556620758464 1 1 1 1 1 1 1 1 1 1 0.050018996174127917 1 1 1 1 1 0.04983145984262554 1 1 0.050238275491951603 1 1 1 1 1 1 0.050660196688174251 1 1 1 1 0.05000187412440539 1 1 0.050316868455179221 1 0.050353252868436588 1 1 1 1 1 1 1 1 1 1 1 0.050236316244848644 1 0.0504165201667124 1 1 1 1 0.050083987555075357 1 1 1 1 1 1 1 1 1 1 1 1 1 1 1 1 1 1 1 1 1 0.050716540253290678 1 1 1 1 0.050293761827015962 1 1 1 1 1 1 1 0.050149607861221336 1 1 1 1 1 0.05089417978237358 1 1 1 0.049611388048298989 1 1 1 0.05055597987167855 1 1 0.050194329807824054 1 1 1 0.049753745710734855 1 1 0.04991769843910368 1 1 1 1 1 1 1 1 1 1 1 1 1 1 1 1 1 1 1 1 1 1 1 1 1 1 1 1 1 1 1 0.050060926990034449 1 1 1 1 1 1 1 1 1 1 1 0.049979429341296275 1 1 1 1 1 1 1 1 1 1 1 1 1 1 1 0.049944992881284178 0.049887035398315231 1 1 1 0.050169164505350167 1 1 1 1 0.04998532613149502 1 1 0.050172819811290265 1 1 1 1 1 1 1 1 1 1 1 1 1 0.050206722079459018 0.050093788461979677 1 1 1 1 1 1 1 1 1 1 1 0.050602023272644729 1 1 0.0501559320651409 1 1 1 1 1 1 1 1 1 1 1 1 1 1 1 1 1 1 1 0.050320960962462843 1 1 1 0.049999405787706133 1 1 1 1 1 0.050003918242262899 1 1 1 1 1 1 1 1 1 1 1 1 1 1 1 1 1 1 1 1 0.050026518583251862 1 1 0.050039404278244833 1 1 1 1 1 1 1 1 1 1 1 1 1 1 1 1 1 1 1 0.050034496062546209 1 1 1 1 1 1 1 1 1 1 1 1 1 1 1 1 1 1 1 1 1 1 1 1 1 1 1 1 1 1 1 1 0.049973351243668598 1 1 1 1 1 1 0.048859496603662587 1 1 1 1 1 0.049308183349807855 1 1 1 1 0.049682609880717592 1 1 1 1 1 1 1 1 1 1 1 1 1 1 1 1 1 1 1 1 1 1 0.049891950053546359 1 1 1 1 1 1 1 0.049976536224075725 1 1 0.049990481835817197 1 1 0.050005778540769957 1 1 1 1 1 1 0.049997147562352143 1 1 1 1 1 1 1 1 1 1 0.049807812793884784 1 0.050497036247451915 1 1 1 1 1 1 1 1 0.050000217713745153 1 1 0.050022088495536209 1 1 1 0.050127810278619254 1 1 1 0.050169209689468773 1 1 1 0.050000000831387649 0.049999383185480709 1 1 0.050196352435592596 1 1 0.050232549560867895 1 1 0.050000460250003272 1 1 1 1 1 1 1 1 1 0.050000459530049703 1 1 1 0.050268772049324784 1 1 1 0.050304801831808167 1 1 1 0.05000045450810197 1 0.050001523682054856 1 1 0.050496585046853032 1 1 1 1 1 1 1 1 0.05002938616205619 1 1 0.049995836543471388 1 1 1 1 1 1 1 1 1 1 1 1 1 0.050157446441149139 1 0.04999954054910262 1 1 1 0.050215499430457909 0.050022490890180078 1 0.050115051875483235 1 1 1 1 0.049998613436459713 1 0.049970798526276797 1 1 1 1 1 1 1 1 1 0.049988861826968788 1 1 1 1 1 1 1 1 1 1 1 1 1 1 1 1 1 1 1 1 1 1 1 1 1 1 1 1 0.049996870675807277 1 1 1 1 1 1 0.049996297164610043 1 1 1 1 1 1 0.049997552458778315 1 1 1 1 1 1 0.049999616518089846 1 1 1 0.050003641754841024 1 1 1 0.050007786147123749 1 1 0.05102552655182923 1 1 1 1 1 1 0.050618763255313698 1 1 1 0.050875671443312592 0.0500020330210331 1 1 1 1 1 1 1 1 1 1 1 1 1 1 1 1 1 0.050001478390060257 1 1 1 1 1 1 1 0.050000759436511485 1 1 1 1 1 0.05090474134468017 1 1 1 1 1 0.050000016831125128 1 1 0.050122941961354556 1 1 1 1 0.050000975696880806 1 1 1 1 1 1 0.049513607145474904 1 0.051165863419609894 1 0.049458262336406052 0.050866120893654547 1 0.050000336611571272 1 1 1 0.049999682239414492 1 1 1 1 1 0.049998040064443916 1 1 1 0.050000483885572017 1 1 1 1 0.050001396410036508 0.050093020252032473 0.050053050240106881 1 1 1 1 0.050065017743111971 0.050769629961867603 1 0.050902671161511114 1 1 1 1 1 1 0.050000373918649567 1 0.050126509679272527 1 1 0.050101075631685227 1 1 1 0.05000041961168112 1 1 0.051024781459311254 1 1 1 1 1 1 1 1 1 1 1 1 0.050007294375761922 1 1 1 1 0.050452991469461084 1 1 1 1 0.050468344728047017 1 1 1 1 1 1 1 1 1 0.050023233331664953 0.050583998082888749 0.049931900447714103 1 1 1 0.049999751860432096 0.050009234680014218 1 1 0.050106261388953542 1 0.050489359194350165 1 1 1 1 1 1 1 0.050137707113053771 1 1 1 1 1 1 1 1 1 1 1 1 1 1 1 1 0.050006898555433228 1 1 1 1 1 1 1 1 1 0.050021073668383133 1 1 0.050418522726978096 1 0.050205218518609013 1 0.050010573138281909 1 1 0.050306907172488174 1 1 1 0.050000031583805157 0.049830646488973639 1 1 0.050044790419474482 1 1 1 0.050229530520794055 1 1 1 1 0.050016623701976695 1 1 1 1 1 1 1 1 1 1 1 0.050231222738584193 0.050000835312203777 1 1 1 1 1 1 1 1 1 1 1 1 1 1 1 1 1 1 1 1 1 1 1 1 1 1 1 1 1 1 1 1 0.050000641698167314 1 1 1 1 1 1 1 1 1 1 1 1 1 1 1 1 1 1 1 0.049965871058016073 1 1 1 1 1 1 0.05000082625536037 0.050359815651431557 1 1 0.050235643021097877 0.050061105377020583 1 1 1 0.049997898739680025 1 1 1 1 1 1 1 1 1 1 1 1 1 1 1 1 1 1 1 1 1 1 1 0.050027658063061822 1 0.050314434863376153 1 0.05000943023126888 1 1 1 1 1 1 0.050824756141645659 1 0.05009436910056863 0.049923203911851982 1 1 0.050527059185964632 1 1 1 1 1 1 0.050013421845088335 0.050423137701473539 1 1 0.050757715649618736 0.049980594871223985 1 1 0.050742844047640435 0.050004345008223129 1 1 1 1 1 1 1 1 0.050947504612818571 1 1 1 1 1 0.050578880549921559 1 1 0.050487736349817354 1 1 1 0.049999808159635201 1 1 1 1 1 1 1 1 1 1 1 1 1 1 1 1 1 1 1 1 1 1 1 1 1 1 1 1 1 1 1 1 1 1 0.050032557878076013 1 1 0.05181346292235272 1 0.04960449775118015 0.05114475515250759 1 1 1 1 1 1 1 1 1 0.049645825215063361 1 1 1 1 1 0.049683927561762375 1 1 1 1 1 1 1 0.049989068358237951 1 1 1 1 1 1 1 1 0.049961786859008726 1 1 1 1 1 0.049926393749368567 1 1 1 1 1 1 1 1 1 1 1 1 1 1 1 1 1 1 1 1 1 1 1 1 1 1 1 1 1 1 0.049969440188257171 0.050014271685205842 1 1 1 1 1 1 1 0.049996207411946207 1 1 1 0.049901567024213028 1 0.050046049611099069 1 1 1 1 1 1 1 1 1 1 1 1 1 1 1 1 1 1 1 1 1 0.050041453792716267 1 1 1 1 1 1 0.049882313718965614 1 1 1 1 1 1 1 0.052152022191020095 1 1 0.050011551830518738 1 1 1 1 1 1 0.049890828560946551 1 1 1 0.052225900004292856 1 1 0.052284558338366552 0.050000594933901757 1 1 1 1 1 1 1 1 1 1 1 1 1 1 1 1 1 1 1 1 1 1 1 1 1 1 1 1 0.049998361223921574 1 1 1 1 1 1 1 1 1 1 1 1 1 1 1 1 1 1 1 0.051965795808474442 1 1 1 0.052041553931107626 0.050032911386711405 1 1 1 1 1 0.050011702612763255 1 1 1 0.050077490970759475 1 1 1 1 1 0.050096891500240007 1 1 1 1 1 1 1 1 1 1 1 1 1 1 1 1 1 1 1 1 1 0.050297401561367076 1 1 1 1 1 1 0.050733154676903064 1 1 1 1 1 1 1 1 1 1 1 1 0.050167409865372242 1 1 1 1 0.050084585350745205 1 0.050166919911584396 1 1 1 1 1 1 1 1 1 1 1 1 1 0.050991915069460117 1 1 1 1 1 0.051165465798604398 1 1 1 1 1 1 0.050084412932605751 1 1 1 1 1 1 1 1 1 1 1 1 0.050007054668228218 1 1 0.050016208241554949 1 1 0.050060663919104173 1 1 0.050020326275397139 1 1 1 1 1 1 1 1 1 1 0.049761125415368965 1 1 1 1 1 1 1 1 0.049996141259162262 1 1 1 0.050003246595057685 1 1 1 0.050784056603734744 1 1 0.050041095929411271 1 1 1 0.049937641017028828 1 1 1 1 1 0.050073972644951885 1 0.050000049295479826 1 1 1 1 0.04999559008405887 0.049835539916511289 1 1 1 0.051387351083414218 1 1 1 1 0.050012414372184601 1 1 1 1 1 1 1 1 1 1 1 1 1 1 1 0.05000870725169438 1 1 0.049940378063786192 0.049940248206216141 1 1 1 1 0.050070414004749757 1 1 1 1 1 1 0.049987401783971257 1 1 1 1 1 1 0.049995814795968083 1 1 1 1 1 1 1 1 0.050078871024608687 1 1 1 1 1 1 1 1 1 1 0.049963453797977668 1 1 0.051066664352308083 1 1 0.051133217618883009 1 1 1 1 1 0.050050452409100513 0.050004714347453204 1 1 0.050000311304849936 0.049889468682036545 1 0.049953634977387792 1 0.05036689791083248 1 0.050426331545975478 0.050098814506864923 1 1 0.050165071215768471 1 0.049960832119166763 1 0.050189532971017713 1 0.050617166509859715 1 0.049945288738157005 1 1 0.050000749368742908 1 0.049998925396198747 1 0.050104398235642299 1 1 1 1 1 1 0.049848810706169776 1 1 1 0.049999878314528221 1 1 1 1 1 1 1 1 1 0.050190227224588359 1 1 0.049817524731855092 1 0.050001251441432554 1 0.050187539369538986 1 1 1 0.045030588841770795 0.050123666232731554 1 1 1 1 1 1 1 1 1 1 1 0.050038557929864357 1 1 1 1 1 0.050114201996074803 1 1 1 1 1 1 1 1 1 1 1 1 1 1 1 1 1 0.05003119186500584 1 1 1 1 1 1 0.051120520563720753 1 1 1 0.051159538536160322 1 1 0.05000404535487369 1 1 1 0.050554639152989043 1 0.050401193154186306 0.050022799137927135 1 1 1 1 1 1 1 1 1 0.05052285222625439 1 1 1 1 1 1 1 0.049998913816448436 1 0.050080147606714975 1 0.050026744449986942 1 1 1 1 1 1 1 1 1 1 1 1 1 1 1 1 1 1 1 1 1 1 1 1 1 1 1 1 1 1 1 1 1 1 1 1 1 0.050719162305043128 1 1 0.050788994632772651 0.050560912844734858 1 1 1 1 0.050645293112918627 1 1 1 1 1 0.050434570070109562 1 1 0.050000270772872973 0.050301649756774786 1 1 1 1 1 1 0.050295948451565459 1 0.050005108504855858 1 1 0.050903884595562512 0.050380615989195972 1 0.049861971225084269 1 1 1 0.050018913464047514 1 1 1 1 0.050025370420317836 1 1 1 0.050929543277727314 1 1 0.050310773129170747 0.050003299275220091 1 1 1 0.050628011406897808 1 1 1 1 0.050000156368685503 1 1 0.050987434411705841 1 1 1 0.049781371269000514 1 1 0.05100734553367274 1 1 1 0.049763302269556789 1 0.04996692738982695 1 1 0.050085087984668555 1 1 0.051118943750748519 0.050000368244776917 1 1 0.050642420376221069 1 0.049999406182072111 0.050481410138339178 1 1 1 1 0.050210481888521681 1 1 1 1 0.05005166182434935 1 1 1 1 1 1 1 1 1 1 1 1 0.050772872079306502 1 1 1 1 0.049999674029968792 1 0.049573755841454667 1 1 1 1 1 0.050368458344322839 0.050002166378110391 0.050004747528532033 1 1 1 1 1 1 1 1 0.050425954576474349 1 1 1 1 1 1 0.050247918714921326 1 1 1 1 0.05042271718497076 1 1 1 1 1 1 1 1 1 1 1 1 1 1 1 1 1 1 0.050163644948504282 1 0.049888121304996751 1 1 0.050272448563813098 0.04984482151856811 1 0.050036973268928725 1 1 0.050003102071083411 1 0.049962049507670823 1 0.049949099248125517 1 0.050087423091513469 1 1 1 1 0.0500311046273237 1 1 1 0.050105880587853723 1 1 1 1 1 1 1 1 1 1 1 1 1 1 1 1 1 1 1 1 1 1 1 1 1 0.050000125317089333 1 1 1 1 1 0.051982707419038619 1 1 1 1 1 1 1 1 1 1 1 0.049990752364602722 1 1 1 1 1 0.050009433473425006 1 1 0.05004449750200797 0.051919004391163176 1 1 1 0.050994215034383263 1 1 0.050251528910580753 0.050939889937127406 1 0.050737876462449073 1 1 1 1 1 1 1 1 1 1 1 1 1 1 1 1 0.050038296058934825 1 1 1 1 0.04994809104978528 1 1 1 1 1 1 1 1 0.050897294613977087 0.050828837850281916 1 1 0.050019527141714606 1 1 1 1 1 1 1 1 1 0.050681581607509713 0.049783956808703338 1 1 0.050108996357042968 1 1 1 0.050166346421376719 1 1 1 1 1 1 1 1 1 1 1 1 1 1 1 1 1 1 1 1 1 1 1 1 1 1 0.050019410066793134 1 1 1 1 1 1 1 1 1 1 1 1 1 1 1 1 1 1 1 1 0.050336816917062897 1 1 1 0.050144740016267703 0.050001286890992355 1 1 1 0.050520029844063764 1 1 0.050014302439274336 1 1 1 1 1 0.050166999876619572 1 0.049950412687159024 1 1 1 1 1 1 1 1 0.050040065945860857 1 1 1 0.050350307002206364 1 1 0.050077455645964067 1 0.050113017899394222 1 1 1 0.050097134602049606 1 1 1 0.050293135526153984 1 1 1 1 1 1 1 1 1 1 1 1 1 1 1 1 1 0.050468509060604717 1 1 1 1 1 1 1 1 1 0.049995350751450167 1 1 1 1 1 1 1 1 0.050582609739204115 1 1 1 1 1 1 1 1 1 1 1 1 1 0.049998136987704535 1 1 1 0.050013639148115158 1 1 1 1 1 1 1 1 1 1 1 1 1 1 1 1 1 1 1 0.049986994273988998 1 1 1 0.050084623775537331 1 0.049997015842142452 1 1 1 0.050367623751429738 1 1 1 0.049999185009723827 0.049906409749302306 1 1 1 1 1 1 1 1 1 1 1 1 1 1 1 1 1 1 1 1 1 1 0.049992317737640783 1 1 1 1 0.049984095318830031 1 1 1 1 0.049991777581189251 1 1 1 1 1 1 1 0.049836397710262464 1 1 1 1 0.049895526029674564 1 1 1 1 1 1 0.04996310415356861 1 1 1 1 1 1 0.050007932935970681 1 1 1 0.050010774291295808 1 1 1 1 1 1 1 1 1 0.050038145702962375 1 1 1 1 1 1 0.050109477756828093 1 1 1 1 1 1 1 1 1 1 1 0.050000058012625047 1 1 0.050270420520105739 1 1 1 1 1 0.050026162890501165 1 1 0.050142133285876349 1 1 1 1 1 1 1 0.050751656145598442 0.049830741555571281 1 1 1 1 0.049836923924256357 1 1 1 1 1 1 0.050000271663800437 1 1 1 1 1 1 1 1 1 1 0.050166692801838504 1 1 1 1 1 1 1 1 1 1 1 1 0.050078072543572778 1 0.049985555061289641 1 1 1 0.050175005397830541 1 1 0.05020179413625768 1 1 1 1 0.050219533958008378 1 1 1 1 1 0.050212508147070706 1 1 1 1 1 1 1 1 0.050216202618286701 1 1 1 1 0.049981083928940323 1 1 1 1 1 1 1 0.049993959952883901 1 1 1 1 1 1 1 1 1 1 0.049986656450150095 1 1 1 0.049980408140390002 1 0.050014390265629913 1 1 1 1 1 1 0.050124837739230509 1 0.050048875266072802 1 0.050003197274913501 1 1 1 1 0.050063186389697964 1 1 1 1 1 1 1 1 1 1 1 1 1 1 0.049953583928433257 1 0.051318791890248572 1 1 1 1 1 1 1 0.050013895954477278 1 1 1 1 1 1 1 1 1 1 1 1 1 0.051155183994096957 1 1 1 1 0.050959942428803792 1 1 1 1 1 1 1 1 1 1 1 1 1 1 1 1 1 1 1 1 1 1 1 1 0.050009623935090182 1 1 1 1 0.04971312078820201 1 1 1 0.050076144486159546 1 1 0.050002012480589567 1 1 0.05028924871234039 1 1 1 1 1 1 1 1 1 1 1 1 1 1 1 0.050049936260010225 1 1 0.050043202326404967 1 1 1 1 1 1 1 0.050152496336630277 1 1 1 1 1 0.050401315757762459 1 1 1 0.050480699941177945 1 1 1 0.050468380568383556 1 1 1 1 1 1 1 0.049824335126278409 1 1 1 0.050269885017594163 1 0.049915076014767017 0.050145985427032531 1 1 1 1 1 0.050080031625819706 1 1 1 1 1 1 1 1 1 1 0.049805186705811362 1 1 1 1 1 1 1 1 1 1 1 1 1 1 1 1 1 1 1 1 1 1 1 1 1 1 1 1 1 1 1 1 1 1 1 1 1 0.050294532440453669 1 1 1 1 1 1 1 1 1 1 1 1 1 1 1 1 0.050599042932283497 1 1 1 1 1 1 1 1 1 0.050293990313744263 1 1 1 1 1 1 1 0.05030979421994311 1 1 1 1 1 1 1 1 1 1 1 1 1 1 1 1 1 1 1 1 1 0.050009884861359974 1 1 1 1 1 1 1 1 1 1 1 1 1 1 1 1 1 0.050001751518754925 1 1 1 1 1 1 1 1 1 1 1 1 1 1 1 1 1 1 1 1 1 1 1 1 1 1 1 1 1 1 1 1 1 1 1 1 1 1 1 1 1 1 1 1 1 1 0.050048816840386881 1 1 1 1 1 1 1 1 1 1 1 1 1 0.050000435912972631 1 0.049999502369885339 1 1 1 1 1 0.049967936613063653 1 1 1 1 1 0.050016820563773344 0.050033562444128502 1 1 1 1 1 1 1 1 1 1 1 1 1 1 1 1 1 0.050020587764178115 0.050032132072061697 1 1 1 1 1 1 0.050020690725291243 1 0.050028832987084049 1 1 1 1 1 1 1 1 1 0.050006462210984176 1 1 1 1 1 1 1 1 1 1 1 1 1 1 1 1 1 1 1 0.050007554651504353 1 1 1 1 1 0.050020857178391949 1 0.050041203866471179 1 1 1 1 1 1 1 0.050040144340245875 1 1 1 0.05002034668807924 1 1 1 0.050131181010329741 1 1 0.050613123086248338 1 1 1 0.049757746444688278 1 1 0.049883815103210709 1 0.050082132393526088 1 0.049746918104523717 1 1 0.049929886851247635 1 1 1 1 1 1 1 1 1 1 1 1 1 1 1 1 1 1 1 1 1 0.050006308100527939 1 0.050102427032119333 1 1 1 1 1 1 1 0.050093368269953614 1 1 1 1 1 1 1 1 1 1 1 1 1 1 1 1 1 1 1 0.050017082391823738 1 1 1 0.050002078437149024 1 1 1 1 1 1 1 1 1 1 0.049968424187626509 1 1 1 1 0.04995482192905961 1 1 0.050007462435042914 1 1 1 1 1 0.049959419825047494 1 1 1 1 0.050007909895829976 1 0.049951639715800723 1 1 0.050130297511560534 1 1 1 1 1 1 1 0.050155872625041779 1 1 0.049987388346909599 1 0.05016586552490112 1 1 1 1 1 1 1 1 1 1 1 1 1 1 1 1 1 1 0.050010754335015901 1 1 1 1 1 1 1 0.049991606797255186 1 1 1 1 0.05009951093220312 1 1 1 1 1 1 1 1 1 0.050005383997893893 1 1 1 1 0.049997152076449003 1 1 1 1 1 1 1 1 1 1 1 1 0.050057063138846294 1 1 1 1 1 1 1 1 1 0.050479341383882118 1 1 1 1 1 1 1 1 1 1 1 1 0.050394401431089267 1 1 0.050163185243508983 1 1 1 1 1 1 1 1 1 0.050043242653313474 0.051379626199553552 0.050675041342442495 1 1 1 0.050000195762859072 1 1 1 1 1 1 0.050659801637142447 1 1 1 0.049968964249411552 0.049997922341828337 1 1 1 1 1 1 1 1 1 1 1 1 0.050517498400183714 1 1 1 0.050014575978893132 0.050527270535267135 1 1 1 1 1 0.051187496566868204 1 1 1 1 0.050612746472207558 1 1 1 1 0.049999816831148444 1 1 1 1 1 0.050518178934645989 0.050697717925414151 0.050111639977893946 1 1 1 0.050499431314656194 0.050609146171020927 1 1 1 1 1 1 1 1 1 0.050409902446941587 0.050002434681945269 1 1 1 0.050023684693571394 0.049989638744302886 1 1 1 1 1 1 1 1 1 1 1 1 1 1 1 1 1 0.050396855409391803 1 0.050352375880922749 1 1 1 1 0.050574223894370045 1 1 1 1 1 1 1 0.050453180086244789 1 1 1 1 1 1 1 0.050282599610068111 1 1 0.050702089703060706 1 0.050479159610699355 0.050249839945320549 1 1 1 0.050341536735906453 0.049999559806369963 1 1 1 0.049999485459194817 0.050003783220109489 1 1 1 1 1 1 1 1 1 1 0.049999421308899304 1 1 1 1 1 1 1 0.050080262522324684 1 1 1 1 0.050326978930850974 1 1 1 1 1 1 0.050747858765699844 1 1 1 1 0.0500143880089573 1 0.050637859054717071 1 1 1 1 1 1 1 1 1 1 1 1 1 1 0.050801721194393516 1 1 1 1 1 1 1 0.050765308353630689 1 1 1 1 0.05000099561240258 1 1 1 0.050266971839577401 1 1 1 1 1 1 1 1 1 1 1 1 1 1 1 1 1 1 1 1 1 1 0.050188715615828987 1 0.0500718343891439 1 1 0.050066079555507424 1 1 1 0.050182770848114233 1 1 0.050240168764103553 1 1 1 1 1 1 1 1 1 1 1 1 1 1 1 1 1 1 1 1 0.050234681950805486 0.049985045006545284 0.05003638325348915 1 1 1 1 1 1 1 1 1 1 1 1 1 0.050231518617125492 1 1 1 0.04977442393615257 1 1 0.050793276292767385 1 1 1 1 0.050481289030729452 1 1 0.050090163251564471 0.050020754344250309 1 1 1 1 0.050069827454634945 1 1 0.049939895437847194 1 0.049983218179490141 1 1 1 1 1 1 1 1 1 1 1 1 0.049752072864930101 1 1 1 1 1 1 1 0.050162423816266455 1 0.050005298474933992 1 1 1 1 0.050043942247582213 1 1 1 1 1 1 1 1 1 1 1 1 1 1 1 1 1 1 1 1 1 1 1 0.050228724252781944 1 1 1 0.050002589545253183 1 0.049976159256192053 1 1 1 0.051726372029423158 1 1 1 1 1 0.049997972844423325 1 1 0.049344300174644674 1 1 1 1 1 1 1 1 0.050018260264112928 1 1 1 1 1 0.050085613876291138 1 1 1 1 1 1 1 1 1 1 1 1 1 1 0.050032442225284364 1 1 1 1 0.050041399600297042 1 1 1 1 1 1 1 1 1 1 1 1 0.050041860461796775 1 1 1 1 0.0500141395906544 1 1 1 1 1 1 1 1 1 1 1 1 1 0.050090937069853944 1 1 0.049960340726004582 1 1 1 0.05000930288910025 1 1 1 1 1 1 1 1 1 1 1 1 1 0.049875873872696389 0.050581099101716959 1 0.05027065963567131 0.050143617069412789 1 1 1 0.049960253310049128 0.051422128396359824 1 0.050420962316431381 1 0.050081348971748478 1 0.050708892755798859 1 1 1 0.049760439996628665 1 0.049993224093742503 1 1 1 1 0.050500266415500199 1 1 1 1 1 1 0.050139160404995303 1 1 1 1 1 0.051726862183982203 1 1 0.050002297140757518 1 1 0.050019417502109004 1 1 0.049993598857642076 1 1 1 1 1 0.050414110584563236 1 0.05018031040510261 1 1 1 1 1 1 1 1 1 1 1 1 1 0.050110317412180319 1 1 0.05002917534240664 1 1 1 1 1 1 1 1 1 0.050563239061574818 1 1 1 1 1 1 1 1 1 0.052219526497240036 1 1 0.050171561535464856 1 0.05177003530939224 1 1 1 1 1 1 1 0.049921119304909757 1 1 1 1 1 1 1 0.052582574436434784 1 0.049356928991753153 1 1 0.049642260502898355 1 1 1 0.050035369994091035 1 1 1 1 0.050096655970798945 1 1 1 1 1 0.050000030682071948 1 1 1 1 1 1 1 1 1 1 1 1 1 1 1 1 1 1 1 1 1 0.050046058615147257 1 1 0.05004914153581469 1 1 1 0.050129742927091457 1 1 1 1 0.050017222511321839 1 1 1 1 1 1 1 1 1 1 1 1 1 1 1 1 1 1 1 1 1 1 1 0.050081215846170098 1 1 1 1 1 1 0.050232166041331745 1 1 1 1 1 1 1 1 1 1 1 1 1 0.049997919220954347 1 0.05146361270816309 1 1 0.049872601155823704 1 1 1 1 0.05291283611496013 0.050180538688361795 1 0.049911009168491338 1 0.051026997751514598 1 1 1 1 1 0.053446455574582469 1 1 0.051420883439180103 0.050854297135519824 1 1 1 1 1 0.050098136118694257 1 1 0.050000168172047679 1 1 1 1 1 1 1 1 0.051070971894245615 0.050320860882383772 1 1 1 0.050943794467246062 1 0.050001471783322059 1 1 1 1 1 0.049933507743458228 1 0.050655692302364823 1 1 1 1 1 0.049949614920752138 0.050004933844310387 1 1 1 1 0.049999243977493286 1 1 1 1 0.049979544277910855 1 1 1 1 1 1 1 1 1 1 1 1 1 1 1 1 1 0.049938739215846406 1 1 0.049976741688758902 1 1 1 0.050033519449013082 1 1 1 1 1 1 1 1 1 1 1 1 1 1 1 1 1 1 1 0.050179571645470371 1 1 1 1 1 1 1 1 1 1 1 1 1 1 0.050211431620099153 0.050008018046404049 1 1 1 0.050021596427905268 1 1 1 1 1 0.050060309206394017 1 1 1 1 1 1 1 1 1 1 1 0.050058818296687804 1 1 0.050025298847674718 1 1 1 1 1 1 1 1 1 1 0.050423077761750701 1 1 1 0.050549779508263101 1 0.050187333001869477 1 0.049996208955915333 1 1 1 0.050000423652407165 0.049930255330766275 1 0.050487855644653183 1 1 0.049875791269063059 1 1 0.050070369390121293 0.050475604524031686 1 1 1 0.050649703674007542 1 1 0.049692280316522917 1 0.050512607780349765 1 1 1 0.049760614806060782 1 1 0.049879506832947861 0.050134177981952771 1 0.050160059650207256 1 1 0.050032087259478344 1 0.049969676970968692 1 1 1 1 1 1 1 1 1 0.049994953145579557 1 1 1 1 1 0.050112581375308857 1 1 1 1 1 1 1 1 1 1 0.050099359799712112 1 1 1 1 0.050106422882513352 0.050124963671143094 1 1 0.051758790340709064 1 0.051684797550125866 1 1 1 1 1 0.053072882749441302 1 1 0.049840188508534944 1 0.049997559942844605 1 1 1 1 1 1 1 0.049688486251027751 1 1 1 1 1 1 1 1 1 0.051629169501089874 1 0.049996041296294202 1 0.05000530803056643 1 0.050723278568878052 1 1 1 1 0.050011302422096303 1 1 1 1 1 0.05003740436424723 0.049830690666134082 1 1 1 1 1 1 0.049971358863539241 1 1 1 1 1 0.050360323465747051 1 1 1 1 0.051815642592932837 1 1 0.050432096705117939 1 0.050557588066258208 1 1 1 0.049594214247158326 1 0.052192369489892997 1 1 0.051297110280749722 0.049999747443790953 0.051703880898107304 1 1 1 1 1 1 0.049999768305869559 0.04958529065124119 0.049915650585213127 1 1 1 1 0.050502335731300335 1 0.050221830024556345 1 0.050822305252321898 1 1 1 1 1 1 0.050107438433193326 1 1 1 1 1 1 1 1 1 1 1 1 1 1 1 1 1 1 1 1 1 1 1 1 1 1 1 1 1 1 1 1 1 1 1 1 1 1 1 1 1 1 1 1 1 1 1 1 1 0.050074843045355553 1 1 1 0.050170102317846452 0.049995354100029581 1 1 1 1 1 1 1 1 1 1 1 1 1 1 1 1 1 1 1 0.050968680800261526 1 1 1 1 1 1 1 0.050235666796338022 1 1 0.051044068617680655 1 1 0.050294041778933735 1 1 0.050120990780356631 1 0.051455362897208541 1 1 0.051563074369057028 1 1 1 0.05000489923074309 1 0.050789961612144989 1 0.050928063453922236 0.051650724039689705 1 1 1 0.051572163128031111 0.049998451297012352 1 1 0.051658914808881087 1 1 0.051335582857966952 1 1 1 1 1 1 1 1 1 1 1 1 0.051754338907021635 1 1 1 1 0.051968927334410095 1 1 1 1 0.051698622545663465 1 1 1 1 1 1 1 1 1 0.050030894199071398 1 0.049999811775541435 1 1 1 1 0.05015587271285063 1 1 1 0.050383844925337387 1 1 1 1 1 1 0.050755223738751687 1 1 0.050001924089811821 1 1 1 0.050178280537103347 1 1 1 1 1 1 1 0.050079717270685428 1 1 1 1 1 0.049999662125011606 1 1 1 1 1 1 1 1 1 1 1 1 1 1 1 0.049975336943310175 1 1 1 1 1 0.050140195440467598 1 1 0.050223984567815363 1 0.049932257005949589 1 1 1 1 0.050011828359364019 0.050015381677316527 1 1 0.050033793063971488 1 1 1 1 1 1 1 1 1 1 1 0.049991457011307729 1 0.050051385068311541 1 1 1 1 1 0.050015714523843402 1 1 1 0.049959798810965315 1 1 1 0.049943128336791993 1 1 1 1 1 1 1 1 1 1 1 1 1 0.0501281880535865 1 1 1 1 1 1 1 0.051024362488612737 1 0.049782384458485998 1 1 1 1 1 1 1 0.049995589920261554 0.052900970357764178 1 1 1 1 1 1 1 1 1 0.050266848633187561 1 1 1 1 1 1 0.050868516796255765 0.051200242876938751 0.049905385573642602 1 0.05188147873410217 1 1 1 1 1 1 0.05202121582247278 1 0.050055337308835088 1 0.049948745952548945 1 0.051238200403252193 1 1 1 1 1 1 0.05116735644773962 1 1 0.050015767794573326 1 1 1 1 0.049987973733152648 1 1 1 1 1 1 1 1 1 1 1 1 1 1 1 1 1 1 1 1 1 0.050271226066829738 1 0.05008760515877881 1 1 1 1 1 1 1 1 1 1 1 1 1 1 1 1 1 1 1 1 1 1 1 1 1 1 1 1 1 1 1 1 1 1 1 1 1 1 1 1 1 1 1 1 1 1 1 1 1 1 1 1 1 1 1 1 1 1 0.050050719695217356 1 1 1 1 1 1 1 1 1 1 1 1 1 1 1 1 1 1 1 1 1 1 1 0.050017406213256226 1 1 1 0.050228664551527046 1 0.049995823130080344 1 1 1 1 1 1 1 1 1 1 1 1 1 1 1 1 1 1 1 1 1 1 1 1 1 1 1 1 1 1 1 1 1 1 1 1 1 1 1 0.050200732898191019 1 0.049955394925634083 1 1 1 1 1 1 1 1 1 1 1 1 1 1 1 1 1 1 1 1 1 1 1 1 1 0.050098710296204843 1 1 1 1 1 1 1 1 1 1 1 1 1 1 1 1 1 1 1 1 1 1 1 1 1 1 1 1 1 1 1 1 1 1 1 1 1 1 1 1 1 1 1 1 1 1 1 1 1 1 1 1 1 1 1 1 1 1 1 1 1 1 1 1 1 1 1 1 1 0.051393623132959712 1 1 1 1 1 1 1 0.051075235654134847 1 1 0.049992785034337663 1 1 1 1 1 1 1 1 1 1 1 1 1 1 1 1 1 1 1 1 0.050202117269385851 1 1 1 1 1 1 1 1 1 1 1 1 1 1 1 1 1 1 1 1 1 1 1 1 1 1 1 1 1 1 1 1 0.050315986899347805 1 1 1 1 0.050058539051228451 1 0.050805812076441879 1 1 1 1 1 1 0.050033222160215642 1 1 0.050083233942217718 1 1 0.05007151926384535 0.0502437888215869 1 0.050005427116633049 1 1 1 0.050075448003357372 1 1 1 1 1 1 1 1 1 1 1 1 1 1 1 0.050137724720009817 1 1 1 1 1 1 1 1 0.050199282562068265 1 1 1 1 1 1 1 1 1 1 1 1 1 1 1 1 1 1 1 1 1 1 1 1 1 1 1 1 1 1 1 1 1 1 1 1 0.050461790846338783 1 1 1 1 1 1 1 0.050484024474939188 1 1 0.0498673069473781 1 0.050532677436441832 1 1 1 1 1 1 1 1 1 1 1 0.049999935379414606 0.050001614737146718 1 1 0.049940794983095213 1 1 0.05003105526860227 0.050015717642746038 1 1 1 1 0.050057755999500277 1 0.04992163568490033 1 1 0.050056661577283015 1 0.050011674103851621 0.049961678326599354 1 0.050264377569464287 1 0.049830871560428931 1 1 1 1 1 1 1 0.049996842450561907 1 0.050004805958633991 1 1 1 1 1 0.050009857206443062 1 1 1 0.050301633409399443 1 1 0.049971077083904109 1 0.050623439213011767 1 0.050547451816067415 0.049895967050763261 1 1 0.050052958621551166 1 1 1 1 1 1 0.050043852290479363 1 1 1 1 1 1 1 1 0.050533351555329759 0.049994435881623563 1 1 1 0.050199480621436331 1 1 1 1 0.049849126881194798 0.050249354702823788 1 0.050162623608789716 1 1 1 0.050058775393559463 1 1 1 1 1 1 1 1 1 1 1 1 1 1 1 1 0.049976325233880091 1 1 1 1 1 1 0.050164490300016726 1 0.050236503575307935 1 1 1 0.050154080251328004 0.050243333340440254 1 1 0.049999312942437146 1 0.049999498049489215 1 1 1 1 1 1 1 1 1 1 1 1 0.05000007522564856 0.049999836979858645 1 1 1 1 1 0.050272304978310998 1 1 1 1 1 1 1 0.05003179140142372 1 1 1 0.049999986538409466 1 0.050434751517336313 1 1 0.049994028167284411 1 1 1 1 1 1 1 1 1 0.049993589520344828 1 1 0.050001261153266939 1 1 1 1 1 1 1 1 1 1 1 0.05023822930743134 1 1 1 1 1 1 1 1 1 1 1 1 1 1 1 1 1 1 1 1 1 1 0.050002486171675221 1 1 1 1 1 1 1 1 1 1 1 0.049995598876149329 1 1 1 1 0.049974760408975652 1 1 1 1 1 1 1 1 1 1 1 0.050015371037491603 1 1 1 1 1 0.050047469909354159 1 0.049993625189984098 1 1 1 1 1 1 1 1 1 0.049979843126595619 1 1 0.049998156482763359 1 1 0.050451170360013536 1 1 1 1 0.049978879029798778 1 1 1 1 1 1 1 1 1 1 1 1 1 1 1 1 1 1 1 1 1 0.050397453749845431 1 1 0.050121324261567221 1 0.05020526941818499 1 1 1 1 1 1 1 1 1 0.050113892789233463 1 1 0.050062993963923885 0.049995638855443322 0.050064763500682639 1 1 1 0.04999835127712618 1 1 1 1 1 1 0.04996278032316865 0.05000001292917295 1 0.050211207141392052 1 1 0.050168546045598394 1 1 0.049999176459370596 1 1 1 1 0.050038804356910459 1 1 1 1 0.050275734725765082 1 1 1 1 1 1 1 1 1 1 1 0.049992325903879906 1 1 0.050002120934410491 1 0.050158765998112663 0.05000075021972461 1 1 0.050000109874145438 0.050084871399806011 0.050157850944076147 1 1 1 1 1 1 1 1 1 1 0.049983955908853642 1 1 1 1 1 1 1 1 1 0.049734274698538319 1 1 1 1 1 0.049914464268146851 1 1 1 1 1 1 1 1 1 1 0.050032964744036269 1 1 1 1 1 1 1 1 1 1 1 1 1 1 1 1 1 1 1 1 1 1 1 1 0.05045788646493371 0.0499419521041643 1 1 1 1 1 1 1 1 0.05019262796431264 1 1 1 1 1 1 1 1 1 1 1 1 1 1 1 1 0.050107485925877715 1 1 1 1 0.050804599296053139 1 1 1 0.049757300452582323 0.050003933182210671 1 1 1 1 1 1 0.050003968026053086 1 0.049913923362388535 1 1 1 0.049970355167167746 1 1 1 1 1 1 1 1 0.050150921891164588 1 0.050908654900825689 0.049593532980221018 1 1 1 1 1 1 1 1 1 1 1 1 0.050193450696514964 1 1 0.049847515074379053 1 0.050078898429189098 1 1 1 1 1 1 1 1 1 1 1 1 1 1 1 1 1 1 1 1 1 1 1 0.050114792463811057 1 1 1 1 1 0.050082209271176251 1 1 1 1 1 1 1 1 1 1 0.04994119933282691 1 1 1 0.049977734916121945 1 1 1 1 1 1 1 1 1 1 1 0.050001936356643809 0.050091164971621964 1 1 1 1 1 0.050098612636352034 1 1 1 0.050089580730365707 1 1 1 1 1 1 1 1 1 1 0.050060997967419335 1 1 1 1 1 1 1 0.050000524242489935 0.050125169467712935 1 0.050019745577371981 1 1 1 1 0.050033909777811761 1 1 1 1 1 0.050101142632465394 1 1 1 1 1 1 1 1 1 1 0.050000066863887721 1 1 1 1 1 1 1 1 1 1 0.050072098324654375 1 1 1 1 1 1 1 0.050021399414995421 1 1 1 1 1 1 1 1 1 1 1 1 1 1 1 1 1 1 1 1 0.050057444892869743 1 1 1 0.050152516614734757 1 1 1 1 1 1 1 1 1 1 1 1 1 0.050216388336041515 1 0.049706063781525291 0.049942143091164674 1 0.049952523564801579 0.050119902781487959 1 1 1 1 1 0.049992121249465574 1 1 1 1 1 1 1 0.049929479693065375 1 1 0.049960463775067035 1 1 0.050713230079999796 1 1 0.050245413494371241 1 1 0.050001998423843286 0.049829412669544611 0.050253519459634348 0.05017084807416497 1 1 0.049871836148665409 0.049945592270342488 1 1 0.050401218943214456 1 1 0.050121053170255593 1 1 1 1 0.049961691932807049 0.050192924366439733 0.050032894185239034 0.050039744409397756 1 1 1 0.049986685833668103 1 0.050017217605014014 1 0.050198643658004583 1 0.050065426074285553 0.050275019996138183 1 1 1 1 1 1 1 0.049913422988552135 1 1 0.050072520041348156 1 0.049993126431154035 1 1 0.04985118002727662 0.050173482135368791 1 1 1 1 1 1 1 1 1 1 1 1 1 1 1 1 1 0.04990020736034418 1 1 1 1 1 1 1 1 1 1 1 1 1 1 1 1 1 0.049867636298519494 1 1 1 1 1 1 1 1 1 1 1 1 1 1 0.05071136797521849 0.05015503568095226 1 1 1 1 0.05000013612618219 1 0.050938210754593566 1 1 1 0.049903011344209505 0.050093671323408043 1 0.049981731547170172 1 1 1 1 1 1 1 1 1 1 1 1 1 1 1 1 1 1 1 0.051251046292292504 1 0.050004764212852298 1 1 1 1 0.049963334493224348 1 1 1 1 1 1 1 1 1 1 1 1 1 1 1 1 1 1 1 1 0.049964688316514329 1 1 1 1 1 1 1 1 1 1 1 1 1 1 0.050065846830725187 1 1 1 1 1 1 1 1 1 1 1 1 1 1 1 1 1 1 1 1 1 1 1 1 1 1 1 1 1 1 1 1 1 1 1 1 1 1 1 1 1 1 1 1 1 1 1 1 1 1 1 1 1 1 1 1 1 1 1 1 1 1 0.050070470632840126 1 1 1 0.050175162814496389 1 1 0.050086491556636616 1 1 1 1 1 1 1 1 1 1 1 0.05008867125785977 1 1 1 1 0.050031698905667291 1 1 1 1 1 1 1 1 1 1 1 1 1 1 1 1 1 1 1 1 1 1 1 1 1 1 1 1 1 0.050000068619142836 1 1 1 1 0.050000068315055338 1 1 1 1 1 1 1 1 1 1 0.050006397878817811 1 1 0.050017318970711093 1 1 1 1 1 1 1 1 1 1 1 1 0.0499895888268563 1 1 1 1 1 1 1 1 0.050024792850504103 1 1 1 1 1 1 1 1 1 1 0.050053698727437215 1 0.050012673281055124 1 1 1 0.050100141657146977 1 1 1 0.049968468515871306 1 0.050176845277706335 1 0.050091479945271092 0.049998420975202289 1 1 1 1 1 0.050153524105805321 1 1 1 1 1 1 1 1 1 1 1 1 1 1 1 1 1 1 1 1 1 1 1 0.050002576484605349 1 1 0.05004814079522265 1 1 1 0.050010299118651472 1 0.050030056997426117 1 1 1 1 1 1 1 1 1 1 1 1 0.050002869310748627 1 1 1 1 1 1 1 1 1 1 1 1 1 1 1 1 1 1 1 0.050193187606550886 1 1 1 1 1 1 1 1 1 1 1 1 1 1 1 1 1 1 1 1 1 1 1 1 1 1 1 0.050024544826558631 1 1 1 1 1 1 1 1 1 1 1 1 1 1 1 1 1 1 0.050156367430373168 1 1 1 0.050080238991874429 1 1 1 0.049997116511182743 0.050000258324404592 1 1 1 1 1 0.04998095030141448 1 1 1 1 1 1 1 0.04989613811507565 0.049938290610667534 1 1 1 0.049999761699673594 1 0.049997390764920366 1 1 1 1 1 1 0.05084925570721071 0.050323640333002524 1 1 0.050013724673213814 0.049873147295345734 1 1 1 1 1 1 1 1 1 1 0.050000414576779742 1 1 1 1 1 1 0.049998533494799949 1 1 1 1 1 1 1 1 1 1 1 1 1 1 1 1 1 0.049999883095539065 1 1 1 1 0.05031687146019214 1 1 0.049999321112720652 1 1 1 1 1 1 1 1 1 1 1 0.049888409927154612 1 0.04996998931638777 1 0.049924925313359327 1 1 1 1 1 1 1 1 1 1 1 1 1 1 1 1 1 1 1 0.050039719377360264 1 1 0.050122439801033793 1 1 1 0.049996393349951533 1 1 0.049987373079425898 1 1 1 1 0.050148067837504563 1 1 1 1 1 1 1 0.050232915633499804 1 1 1 1 1 1 1 1 1 1 1 1 1 1 1 1 1 1 1 1 1 1 1 1 1 1 1 1 1 0.050160946806490414 1 1 1 1 1 1 1 1 1 1 1 1 1 1 1 1 1 1 1 1 1 1 1 1 1 1 1 1 1 1 1 1 1 1 1 1 1 0.049913205320668549 0.050508172599348505 0.050361078747454643 1 1 0.0499900287407396 1 1 1 0.050093847592136434 1 0.049989640311982483 1 1 1 1 1 0.050062938711612506 1 1 1 1 1 1 1 0.050078510973571959 1 1 1 1 1 1 1 1 1 1 1 1 1 1 0.051325166222381924 1 1 1 0.050027927588864263 1 0.050058148296485826 1 1 1 1 1 1 1 1 0.051359080280603729 1 1 1 1 1 1 1 0.049999977047429645 1 0.050003433296328795 1 0.049885056359807389 1 1 1 1 1 1 1 1 0.05045262596651582 1 1 0.049964076480554336 0.050163398436253448 0.050226084118767569 1 0.050839153927278523 1 0.049468414890763292 1 1 1 1 1 1 1 1 1 1 1 1 1 1 1 1 1 1 1 1 1 0.050199173868032694 1 1 0.051062250340311532 0.049685858042930617 1 1 1 0.049992564300343351 1 1 1 1 1 1 1 0.050320837145134939 1 0.050095735665312592 1 1 1 1 0.049967769229225661 1 1 0.051479468669810027 1 1 1 1 1 1 1 0.052046402980847319 1 1 0.052107481109649606 1 1 1 0.052083874615903629 1 1 1 1 1 1 1 1 1 0.050068994649516571 1 1 1 1 1 1 0.049754943067469942 1 1 0.050107917395095423 1 1 1 1 0.049876851814476444 1 1 1 1 1 1 0.051332670558402994 0.050781763918186139 0.049910189742383787 1 1 1 0.049998159986643892 1 0.050000187328771449 1 0.050855285006507489 1 1 1 1 1 1 0.049868496366509238 1 1 1 0.05194468054781945 1 1 1 0.050584238302572658 1 1 1 1 1 1 1 1 1 1 1 1 0.050011033554736031 1 1 1 0.050002376406033305 1 1 1 1 1 0.050031627782933102 0.049926530025395335 1 1 0.05018819567237915 1 0.050202947903520298 0.049953221183849421 0.049924036108484234 1 1 1 0.049977662906443732 1 1 1 1 1 0.050362783894760677 1 1 1 1 1 1 1 1 1 1 1 1 0.050036565834874022 1 1 1 1 1 1 0.050603289606901442 1 1 0.050696567296687652 1 1 0.050000091811517891 1 1 1 1 1 0.050138501607765035 1 1 0.051536817731959485 1 0.050043052600938644 1 0.050034533700915082 1 1 1 1 1 1 0.050071099535789095 1 1 1 1 0.05001216589390086 1 1 1 1 1 1 1 1 1 1 0.050027641042771388 1 1 1 1 1 0.050002132458538066 1 1 1 1 1 1 1 1 1 1 1 1 1 1 1 0.050021632588128771 1 1 1 1 1 0.050067243948012617 1 0.049978123965357821 1 1 1 1 1 0.050047990257710485 1 1 1 1 1 0.050006657782454111 1 1 1 1 1 0.049992408859967509 1 1 1 1 1 1 1 1 1 1 0.050053390648703795 1 0.050000432497796919 1 0.050540539152897204 1 1 0.050476512393327344 1 1 1 1 1 1 1 1 0.049597713509395777 1 0.050509862234273492 1 1 1 1 1 1 1 1 1 1 0.050280620879972808 1 1 1 1 1 1 1 1 1 1 0.049989146753065261 1 1 1 0.050855224655335797 1 0.050219073261326228 0.050190844991709532 1 1 1 0.050096366493711075 1 1 1 0.050088684232068623 0.049999149134032993 1 1 1 1 1 1 1 1 1 1 0.050007340918760419 0.049998929968148267 1 1 1 1 1 0.050003065517872584 1 1 1 1 1 1 1 1 1 1 0.050022361474301488 1 0.0500568232625931 0.05003214111990404 0.050046667114145987 1 1 1 1 1 1 1 1 0.050016477333753973 1 1 1 1 1 1 1 1 1 1 1 1 1 1 1 1 1 1 1 1 1 1 1 1 1 1 1 1 1 0.05000539916071163 1 1 1 1 0.050003762884564651 1 1 1 1 1 1 1 1 0.050024250344835312 1 1 1 1 1 1 1 1 0.050001649050828836 1 1 1 1 1 1 1 1 1 1 1 1 1 1 1 1 1 1 1 1 1 1 1 1 1 1 0.049932522662513745 1 1 1 1 1 1 0.049794701333524906 1 0.050054712723955355 1 1 0.050054302372791779 1 1 1 0.050101161526140789 1 0.050591545143758548 1 1 1 0.050005472174726902 1 1 1 0.05060381001858183 1 1 1 1 1 1 0.050191570679240675 1 1 1 1 1 1 1 1 1 1 1 1 1 1 1 1 1 1 1 1 1 1 1 1 1 1 1 0.050222948919716556 1 0.050503291811163226 1 1 1 1 0.050280342891446672 1 1 1 1 1 1 1 1 1 1 1 1 1 0.050045326999960171 1 1 0.050069577344795481 1 1 0.050013352255373955 1 1 1 1 1 0.050038418937683335 1 1 1 1 1 1 1 1 0.050929586976252522 1 0.050651233293087301 1 1 1 1 1 0.050017910187180971 0.049500000962056777 1 1 0.049783297045231642 1 1 1 0.051175581423712715 1 1 1 1 1 1 1 0.049857135140130779 1 1 1 1 1 1 1 1 1 1 1 1 1 1 1 1 0.050464173238419049 1 1 1 1 1 0.050146190764443238 1 0.050098184674445788 1 1 1 1 1 1 1 1 1 1 1 1 0.050059477736409536 1 0.050021490526813636 1 1 1 1 1 1 0.050054837790573133 0.050011471646412085 1 1 1 1 1 1 1 1 1 1 1 1 1 1 1 1 1 1 1 1 1 0.050068283259099185 1 1 0.049828306864824569 1 1 1 1 1 0.050496661468176107 1 1 1 1 1 1 0.049998009026763511 1 1 1 1 1 1 1 1 1 1 1 1 1 1 1 1 0.050011401530944133 1 1 0.050265943462914978 1 1 1 1 0.050655224949982258 1 1 1 1 1 1 1 1 1 1 1 0.050316785439460818 1 1 1 1 1 1 1 1 1 1 1 1 1 1 1 1 1 1 1 0.050033347263759506 1 1 1 1 1 1 1 1 1 1 1 1 0.050164170936387878 1 1 1 1 1 1 1 1 1 1 1 1 1 0.049999301316883973 0.051634690436589768 1 1 1 1 1 1 0.050012065670584499 1 1 1 1 1 1 1 1 1 1 1 1 1 1 1 1 1 1 1 1 1 1 1 1 1 1 1 1 1 1 1 1 1 1 1 0.049924594112826258 1 1 1 1 1 1 1 1 0.049987455827413263 1 1 1 1 1 1 1 1 1 1 1 1 0.0499988573583574 1 1 1 1 0.050840392122482987 1 0.051336151087646387 1 1 1 1 1 1 1 1 0.050189756080857191 1 1 1 1 1 1 1 1 1 1 0.050528195591378638 1 1 1 0.050662708948019518 1 1 0.050009033858858992 1 1 1 1 0.051062579528940631 1 1 0.051423431036686014 1 1 1 1 1 1 1 1 0.050002860176084511 1 1 1 0.049963528129162625 1 1 1 1 1 1 1 0.051204356406400572 1 0.049993115589428705 1 0.050013320731749786 1 0.049960798301288405 0.051647949673862222 1 1 1 0.049999107815852775 0.050001300867382643 0.050255360136785727 1 1 0.049729680947539975 1 1 1 0.051766169890581241 1 1 1 1 0.049755652154799684 1 1 1 1 1 1 1 1 1 1 1 1 1 1 1 1 1 1 1 1 1 1 1 1 1 1 1 1 1 1 1 1 1 1 1 1 1 1 0.049974968963418367 1 1 1 1 1 1 1 1 0.05033991477405711 1 1 1 1 0.050425013251146719 1 1 0.050130398866827561 1 1 0.050296830400606583 1 1 1 1 0.050075527302458955 1 1 1 1 1 0.050149156585512472 1 1 1 1 1 1 1 1 1 1 1 1 1 0.05008182357422282 0.050054259892948746 1 1 1 0.050058871207409796 1 1 1 1 1 1 1 1 1 1 1 1 1 1 0.050361846895178315 1 1 1 1 1 1 0.050099665417189701 1 1 0.050263836353577576 1 1 1 1 1 1 1 1 1 1 0.050965999150518415 1 1 1 1 1 0.05126868642978117 1 1 1 1 1 1 1 1 1 1 0.050820643487007412 1 1 1 1 1 1 1 1 1 1 1 1 1 1 1 0.049989624519366192 1 1 1 1 1 1 1 1 1 1 1 1 1 1 1 1 1 1 1 1 1 1 1 0.050000791063825857 1 0.050225461751858137 1 1 1 0.049975760027244215 1 1 1 1 1 1 1 1 1 0.050106072212061946 1 1 1 0.05070151402965304 1 1 1 1 1 1 1 1 1 1 1 1 1 1 1 1 0.049835093534881129 1 1 1 1 1 0.050032620460938107 1 1 1 0.049957517405911367 1 0.049983795387855461 1 1 1 1 1 1 0.050057410732151988 1 1 1 1 1 1 1 1 1 1 1 1 1 1 1 1 1 1 1 1 1 1 1 1 1 1 1 0.050026917121697705 1 1 0.050010265378867186 1 1 1 1 1 1 1 0.050171099777221971 1 1 1 1 0.050098467857710646 1 1 0.05009813867371242 1 1 1 1 1 1 0.050220639169209491 1 1 1 0.050076993367647205 1 1 1 0.05007735519502144 1 1 1 1 1 0.050362376509389288 1 1 1 1 1 0.050332205742900128 1 1 1 1 1 1 1 1 0.050224207516497553 1 1 0.050004982587547854 1 1 1 1 0.050011646673769131 1 1 1 1 0.050018299693001492 1 1 1 1 0.049709153562542151 1 1 1 0.049778651999356646 1 0.049988311321386286 1 1 1 1 1 1 1 1 1 1 0.049958259949780065 1 1 1 1 1 1 1 0.049894673154015669 0.050494427121693754 1 1 1 1 1 0.050249393042823103 1 1 1 1 1 0.050434451914611426 1 1 1 0.050816006584494137 1 1 0.050026574173435832 1 1 0.050002534788515449 1 1 1 0.050122070201055802 1 1 1 1 1 1 0.050724211133495643 1 1 1 1 1 0.050456615279908974 1 1 1 1 1 0.050228302707182773 1 1 1 1 1 1 0.050560842139670083 1 1 1 1 0.049703369564823713 1 1 1 1 1 0.050046139694489691 1 1 1 1 1 1 1 1 1 1 0.04994619589466414 1 1 1 1 1 1 1 0.050215754985708835 1 1 1 1 0.050096882105823443 0.050271567175911705 1 1 0.049658855530876254 1 1 1 1 1 1 1 0.049878632678942589 1 1 1 1 1 1 1 0.049372781484900145 1 0.05031960883681854 1 1 0.050062059965213693 1 1 1 1 0.050040005633563013 1 0.049729051237375303 1 1 1 1 1 1 1 1 1 1 0.050006537952620146 1 1 1 1 1 0.04970438815958348 1 1 1 0.049364971311780283 1 1 1 1 0.050025659659693862 1 1 0.050650458632693324 1 1 1 1 1 0.049714862603566348 1 0.050031240841495572 1 0.049998570122781194 0.05015012069246879 1 1 1 1 0.049814622215250029 0.050024536735175797 1 1 1 1 1 1 1 1 1 1 1 1 1 0.050008042831156216 1 1 1 1 1 1 0.05016725603965639 0.049932904261192707 1 1 1 1 1 1 1 1 1 1 1 1 1 0.049782188424395919 1 1 1 1 1 1 1 1 1 1 1 1 1 1 1 1 1 1 1 1 1 1 1 1 1 1 1 1 1 1 1 1 1 0.050042789295926766 1 1 0.050102735387657034 1 1 1 1 1 1 1 0.050114205984679014 1 1 1 0.049995672695265975 1 1 0.050861787978330006 1 1 1 0.050491023226555062 0.050000144206391317 1 1 1 1 0.049911448556128758 0.050260170837137283 1 1 1 1 1 1 1 1 1 1 1 1 1 1 0.050453732517684126 1 1 0.05000004980047993 1 1 1 0.050584968537425778 1 1 1 1 0.049986122106937127 1 1 0.05116092946099577 1 1 1 1 1 1 1 1 1 1 1 0.051598951380236208 1 1 1 1 1 1 1 0.051887009499607478 1 1 1 1 1 1 1 1 1 1 1 1 1 1 1 1 1 1 0.050000459252210409 1 1 1 1 1 1 0.049649687137606431 1 0.050045145431609026 1 1 1 1 1 0.049876590166905113 1 1 0.049967670505599596 1 1 1 0.051191314407925348 1 1 1 0.049951341222058292 1 1 1 1 1 1 1 1 1 1 1 1 1 1 0.050019877393927908 1 1 1 1 0.050050074470117487 0.049810705326659287 1 1 1 1 1 1 1 1 1 1 1 1 1 1 1 1 1 1 1 0.049958301518316588 1 1 1 1 1 1 1 1 0.050726739334755237 1 0.050765758795191192 1 1 1 1 1 1 1 0.050000982831284818 1 0.050146869848464636 1 1 1 1 1 0.05066988725934711 1 1 1 1 1 1 0.050012020223439597 1 1 1 1 1 0.050011805438358786 0.050117328852773174 1 1 1 0.050318697688344745 0.050217412091307076 0.050384506046986674 1 1 1 1 1 0.050170125065279896 1 1 1 1 1 0.050944998126904235 1 1 1 1 0.051006169956536833 1 0.050134159978752063 0.051384921214669296 1 0.051942322864917401 0.049797344851858008 1 1 1 0.049959712102880978 1 1 1 0.051212292402490305 1 1 1 0.051267396727019479 1 1 1 0.049850515182672667 1 1 1 1 1 1 1 1 0.050056227253419544 1 1 1 0.049741226959657825 1 1 1 1 1 1 0.050080543632892861 1 1 1 1 1 1 0.049524375136785842 1 1 1 1 1 1 1 1 1 1 1 1 1 1 0.05002593366861606 1 0.050431896081482984 1 1 1 0.049792007953313226 1 1 0.050050055380282295 1 0.050471653471524561 1 0.050237244404231864 1 1 0.050589423039539935 1 1 1 1 1 1 0.05033337688414035 1 1 1 1 0.050047717713811724 1 1 1 1 1 1 0.050123516730371596 1 1 1 1 1 1 1 1 1 1 0.05007520457540842 1 1 1 1 1 1 1 1 1 1 1 1 1 1 1 1 1 1 1 0.05320383879657397 0.050337885548670129 1 1 1 0.051026651223331158 1 1 0.052052302263411232 1 1 0.050664648074584186 1 1 0.049965572574263137 1 1 0.050723903960628564 0.051178064902018996 1 1 1 1 0.050935127228851261 1 1 1 1 1 1 1 1 1 1 1 0.050968138738091223 0.050211530897852921 1 1 1 0.050870333374392819 1 0.050003738664895769 1 0.050002227379005788 1 1 1 1 1 0.050004275537055276 1 1 0.049983338760089799 1 0.05116148248053274 1 1 0.050002421427210522 0.049985064517339514 0.049976837208945489 1 1 1 1 0.049897179471326138 1 1 0.050080788761818484 1 0.050109618333578097 1 1 0.05027148908436347 1 1 1 1 1 1 1 1 0.049995925207892415 1 0.049932030602315595 0.050206514496701507 1 1 1 1 1 0.050001017816765005 0.050101711528728471 1 1 1 0.050812023138736999 0.050700781091271699 1 1 1 1 1 1 1 1 0.050002497519156905 1 0.050026063515627286 1 1 1 1 1 1 1 1 1 1 1 1 1 1 1 1 1 1 1 1 1 1 1 1 1 1 1 1 1 0.04991546386067286 1 1 1 1 1 1 1 1 1 1 1 1 1 1 1 0.050091896918121735 1 1 0.050072030433157666 1 1 1 1 1 0.050048242290504523 1 1 1 1 1 1 1 1 1 1 1 1 1 0.050023788142653139 1 1 1 1 1 1 1 1 1 0.05007924352272012 1 1 0.050413001463586404 1 1 1 1 0.050000204615967388 0.049858995346271563 0.05057051981314617 1 1 1 1 1 0.050263127777300756 1 1 1 
</DataArray>
</CellData>
</Piece>
</UnstructuredGrid>
</VTKFile>
