<?xml version="1.0"?>
<VTKFile type="UnstructuredGrid" version="0.1" byte_order="LittleEndian">
<UnstructuredGrid>
<Piece NumberOfPoints="29298" NumberOfCells="10292">
<Points>
<DataArray type="Float64" NumberOfComponents="3" format="ascii">
-0.5 -0.5 0 -0.46041872417458801 -0.5 0 -0.46747409196672429 -0.46635237475468022 0 -0.5 -0.5 0 -0.47372258576817777 -0.43851749806451917 0 -0.5 -0.40215818236599848 0 -0.46041872417458801 -0.5 0 -0.45819951653298502 -0.47586731236597812 0 -0.44675721301359778 -0.48480373329638887 0 -0.46041872417458801 -0.5 0 -0.45819951653298502 -0.47586731236597812 0 -0.46747409196672429 -0.46635237475468022 0 -0.45819951653298502 -0.47586731236597812 0 -0.44828410186158879 -0.47258213323486548 0 -0.46452775127951579 -0.46410508109993431 0 -0.45819951653298502 -0.47586731236597812 0 -0.46747409196672429 -0.46635237475468022 0 -0.46452775127951579 -0.46410508109993431 0 -0.44828410186158879 -0.47258213323486548 0 -0.438075559351217 -0.46231173044867119 0 -0.43444593250288521 -0.48115586522433568 0 -0.45819951653298502 -0.47586731236597812 0 -0.44828410186158879 -0.47258213323486548 0 -0.44675721301359778 -0.48480373329638887 0 -0.44828410186158879 -0.47258213323486548 0 -0.44675721301359778 -0.48480373329638887 0 -0.43444593250288521 -0.48115586522433568 0 -0.46041872417458801 -0.5 0 -0.44675721301359778 -0.48480373329638887 0 -0.43081630565455131 -0.49999999999999978 0 -0.44279155480728871 -0.43782743559164239 0 -0.438075559351217 -0.46231173044867119 0 -0.44279155480728871 -0.43782743559164239 0 -0.438075559351217 -0.46231173044867119 0 -0.45500087781297488 -0.44743734919765232 0 -0.438075559351217 -0.46231173044867119 0 -0.46452775127951579 -0.46410508109993431 0 -0.44828410186158879 -0.47258213323486548 0 -0.438075559351217 -0.46231173044867119 0 -0.46452775127951579 -0.46410508109993431 0 -0.438075559351217 -0.46231173044867119 0 -0.46452775127951579 -0.46410508109993431 0 -0.45500087781297488 -0.44743734919765232 0 -0.46747409196672429 -0.46635237475468022 0 -0.46452775127951579 -0.46410508109993431 0 -0.47372258576817777 -0.43851749806451917 0 -0.46452775127951579 -0.46410508109993431 0 -0.45500087781297488 -0.44743734919765232 0 -0.47372258576817777 -0.43851749806451917 0 -0.46747409196672429 -0.46635237475468022 0 -0.47372258576817777 -0.43851749806451917 0 -0.5 -0.5 0 -0.46747409196672429 -0.46635237475468022 0 -0.47372258576817777 -0.43851749806451917 0 -0.47372258576817777 -0.43851749806451917 0 -0.47997107956963109 -0.41068262137435829 0 -0.5 -0.40215818236599848 0 -0.47372258576817777 -0.43851749806451917 0 -0.47997107956963109 -0.41068262137435829 0 -0.45990318050858159 -0.42553720605681872 0 -0.47372258576817777 -0.43851749806451917 0 -0.47997107956963109 -0.41068262137435829 0 -0.47997107956963109 -0.41068262137435829 0 -0.48621957337108462 -0.38284774468419719 0 -0.5 -0.40215818236599848 0 -0.47997107956963109 -0.41068262137435829 0 -0.48621957337108462 -0.38284774468419719 0 -0.47997107956963109 -0.41068262137435829 0 -0.48621957337108462 -0.38284774468419719 0 -0.46061798818106148 -0.38950224539549477 0 -0.48621957337108462 -0.38284774468419719 0 -0.46061798818106148 -0.38950224539549477 0 -0.46314646492496542 -0.36348021062215441 0 -0.46061798818106148 -0.38950224539549477 0 -0.45295563401162209 -0.37624745073812571 0 -0.46314646492496542 -0.36348021062215441 0 -0.46061798818106148 -0.38950224539549477 0 -0.46314646492496542 -0.36348021062215441 0 -0.46061798818106148 -0.38950224539549477 0 -0.45222354571942802 -0.38885884587758401 0 -0.45295563401162209 -0.37624745073812571 0 -0.46061798818106148 -0.38950224539549477 0 -0.46042543483005888 -0.40541519137812682 0 -0.45222354571942802 -0.38885884587758401 0 -0.47997107956963109 -0.41068262137435829 0 -0.46061798818106148 -0.38950224539549477 0 -0.46042543483005888 -0.40541519137812682 0 -0.46042543483005888 -0.40541519137812682 0 -0.45222354571942802 -0.38885884587758401 0 -0.44750755026335842 -0.41334314073461309 0 -0.45222354571942802 -0.38885884587758401 0 -0.44750755026335842 -0.41334314073461309 0 -0.43944708140057082 -0.39943917350740538 0 -0.45222354571942802 -0.38885884587758401 0 -0.44750755026335842 -0.41334314073461309 0 -0.43944708140057082 -0.39943917350740538 0 -0.45222354571942802 -0.38885884587758401 0 -0.43991806855136362 -0.38484112519593899 0 -0.43991806855136362 -0.38484112519593899 0 -0.45295563401162209 -0.37624745073812571 0 -0.43984316204505469 -0.36909794372703719 0 -0.45222354571942802 -0.38885884587758401 0 -0.43991806855136362 -0.38484112519593899 0 -0.45295563401162209 -0.37624745073812571 0 -0.45500087781297488 -0.44743734919765232 0 -0.47372258576817777 -0.43851749806451917 0 -0.45990318050858159 -0.42553720605681872 0 -0.47997107956963109 -0.41068262137435829 0 -0.46042543483005888 -0.40541519137812682 0 -0.45990318050858159 -0.42553720605681872 0 -0.46042543483005888 -0.40541519137812682 0 -0.45990318050858159 -0.42553720605681872 0 -0.44750755026335842 -0.41334314073461309 0 -0.43944708140057082 -0.39943917350740538 0 -0.44750755026335842 -0.41334314073461309 0 -0.43046448816499949 -0.41343251458703728 0 -0.44279155480728871 -0.43782743559164239 0 -0.44750755026335842 -0.41334314073461309 0 -0.43046448816499949 -0.41343251458703728 0 -0.44279155480728871 -0.43782743559164239 0 -0.45500087781297488 -0.44743734919765232 0 -0.45990318050858159 -0.42553720605681872 0 -0.44279155480728871 -0.43782743559164239 0 -0.44750755026335842 -0.41334314073461309 0 -0.44279155480728871 -0.43782743559164239 0 -0.45990318050858159 -0.42553720605681872 0 -0.44750755026335842 -0.41334314073461309 0 -0.44279155480728871 -0.43782743559164239 0 -0.43046448816499949 -0.41343251458703728 0 -0.41386943218760641 -0.42464906852793988 0 -0.44279155480728871 -0.43782743559164239 0 -0.41386943218760641 -0.42464906852793988 0 -0.423125636324716 -0.44634012224188169 0 -0.43046448816499949 -0.41343251458703728 0 -0.41386943218760641 -0.42464906852793988 0 -0.41325406299604162 -0.40270262648220378 0 -0.41386943218760641 -0.42464906852793988 0 -0.41325406299604162 -0.40270262648220378 0 -0.39647706496066432 -0.40356677437860439 0 -0.43991806855136362 -0.38484112519593899 0 -0.42768557797177481 -0.38192216189686012 0 -0.43984316204505469 -0.36909794372703719 0 -0.43991806855136362 -0.38484112519593899 0 -0.42768557797177481 -0.38192216189686012 0 -0.4271217543037043 -0.39672024114185411 0 -0.42768557797177481 -0.38192216189686012 0 -0.4271217543037043 -0.39672024114185411 0 -0.41422573019701941 -0.38747486131003228 0 -0.43046448816499949 -0.41343251458703728 0 -0.4271217543037043 -0.39672024114185411 0 -0.41325406299604162 -0.40270262648220378 0 -0.43944708140057082 -0.39943917350740538 0 -0.43046448816499949 -0.41343251458703728 0 -0.4271217543037043 -0.39672024114185411 0 -0.43944708140057082 -0.39943917350740538 0 -0.43991806855136362 -0.38484112519593899 0 -0.4271217543037043 -0.39672024114185411 0 -0.41325406299604162 -0.40270262648220378 0 -0.41422573019701941 -0.38747486131003228 0 -0.3973659081622557 -0.39037229894775521 0 -0.4271217543037043 -0.39672024114185411 0 -0.41325406299604162 -0.40270262648220378 0 -0.41422573019701941 -0.38747486131003228 0 -0.42768557797177481 -0.38192216189686012 0 -0.41422573019701941 -0.38747486131003228 0 -0.4173191747617318 -0.37147663810943821 0 -0.41422573019701941 -0.38747486131003228 0 -0.4038116012304574 -0.37792315688141909 0 -0.4173191747617318 -0.37147663810943821 0 -0.3973659081622557 -0.39037229894775521 0 -0.4038116012304574 -0.37792315688141909 0 -0.39154030978956561 -0.3744609372448135 0 -0.3973659081622557 -0.39037229894775521 0 -0.38554988889744463 -0.3844337879503838 0 -0.39154030978956561 -0.3744609372448135 0 -0.41422573019701941 -0.38747486131003228 0 -0.3973659081622557 -0.39037229894775521 0 -0.4038116012304574 -0.37792315688141909 0 -0.41325406299604162 -0.40270262648220378 0 -0.3973659081622557 -0.39037229894775521 0 -0.39647706496066432 -0.40356677437860439 0 -0.3973659081622557 -0.39037229894775521 0 -0.39647706496066432 -0.40356677437860439 0 -0.38009500019605358 -0.39439078473986727 0 -0.39647706496066432 -0.40356677437860439 0 -0.38009500019605358 -0.39439078473986727 0 -0.37855821513367782 -0.40980771242859643 0 -0.38009500019605358 -0.39439078473986727 0 -0.37855821513367782 -0.40980771242859643 0 -0.36904983326882818 -0.39985468805073809 0 -0.3973659081622557 -0.39037229894775521 0 -0.38009500019605358 -0.39439078473986727 0 -0.38554988889744463 -0.3844337879503838 0 -0.38009500019605358 -0.39439078473986727 0 -0.38554988889744463 -0.3844337879503838 0 -0.37376125972292512 -0.38039979218528158 0 -0.38554988889744463 -0.3844337879503838 0 -0.38120614903516797 -0.37422622318350918 0 -0.37376125972292512 -0.38039979218528158 0 -0.38554988889744463 -0.3844337879503838 0 -0.39154030978956561 -0.3744609372448135 0 -0.38120614903516797 -0.37422622318350918 0 -0.41386943218760641 -0.42464906852793988 0 -0.38611327022433489 -0.42560937872863358 0 -0.40066823844991428 -0.44414861722684718 0 -0.39647706496066432 -0.40356677437860439 0 -0.38611327022433489 -0.42560937872863358 0 -0.41386943218760641 -0.42464906852793988 0 -0.39647706496066432 -0.40356677437860439 0 -0.38611327022433489 -0.42560937872863358 0 -0.37855821513367782 -0.40980771242859643 0 -0.38611327022433489 -0.42560937872863358 0 -0.37090144580233381 -0.4250987793791331 0 -0.39647706496066432 -0.40356677437860439 0 -0.37855821513367782 -0.40980771242859643 0 -0.38611327022433489 -0.42560937872863358 0 -0.38611327022433489 -0.42560937872863358 0 -0.37574947548800558 -0.44765198307866277 0 -0.37090144580233381 -0.4250987793791331 0 -0.38611327022433489 -0.42560937872863358 0 -0.37574947548800558 -0.44765198307866277 0 -0.37574947548800558 -0.44765198307866277 0 -0.40066823844991428 -0.44414861722684718 0 -0.38841682257859361 -0.45894507077171542 0 -0.38611327022433489 -0.42560937872863358 0 -0.37574947548800558 -0.44765198307866277 0 -0.40066823844991428 -0.44414861722684718 0 -0.40066823844991428 -0.44414861722684718 0 -0.38841682257859361 -0.45894507077171542 0 -0.41324619096490528 -0.46062840061019322 0 -0.38841682257859361 -0.45894507077171542 0 -0.39977863244955208 -0.47534652349279161 0 -0.41324619096490528 -0.46062840061019322 0 -0.38841682257859361 -0.45894507077171542 0 -0.41324619096490528 -0.46062840061019322 0 -0.37574947548800558 -0.44765198307866277 0 -0.38841682257859361 -0.45894507077171542 0 -0.36538568075167621 -0.46969458742869219 0 -0.38841682257859361 -0.45894507077171542 0 -0.38238649144304337 -0.48092833609651681 0 -0.36538568075167621 -0.46969458742869219 0 -0.38841682257859361 -0.45894507077171542 0 -0.38238649144304337 -0.48092833609651681 0 -0.39977863244955208 -0.47534652349279161 0 -0.38238649144304337 -0.48092833609651681 0 -0.40111973828255448 -0.5 0 -0.37142317091055771 -0.5 0 -0.38238649144304337 -0.48092833609651681 0 -0.40111973828255448 -0.5 0 -0.39977863244955208 -0.47534652349279161 0 -0.40111973828255448 -0.5 0 -0.39977863244955208 -0.47534652349279161 0 -0.41496669313073409 -0.48259362293292141 0 -0.39977863244955208 -0.47534652349279161 0 -0.41496669313073409 -0.48259362293292141 0 -0.41324619096490528 -0.46062840061019322 0 -0.41496669313073409 -0.48259362293292141 0 -0.43444593250288521 -0.48115586522433568 0 -0.41324619096490528 -0.46062840061019322 0 -0.40111973828255448 -0.5 0 -0.41496669313073409 -0.48259362293292141 0 -0.43081630565455131 -0.49999999999999978 0 -0.41496669313073409 -0.48259362293292141 0 -0.43081630565455131 -0.49999999999999978 0 -0.43444593250288521 -0.48115586522433568 0 -0.43081630565455131 -0.49999999999999978 0 -0.43444593250288521 -0.48115586522433568 0 -0.44675721301359778 -0.48480373329638887 0 -0.43081630565455131 -0.49999999999999978 0 -0.43444593250288521 -0.48115586522433568 0 -0.438075559351217 -0.46231173044867119 0 -0.43444593250288521 -0.48115586522433568 0 -0.438075559351217 -0.46231173044867119 0 -0.423125636324716 -0.44634012224188169 0 -0.41324619096490528 -0.46062840061019322 0 -0.438075559351217 -0.46231173044867119 0 -0.43444593250288521 -0.48115586522433568 0 -0.41324619096490528 -0.46062840061019322 0 -0.438075559351217 -0.46231173044867119 0 -0.41324619096490528 -0.46062840061019322 0 -0.44279155480728871 -0.43782743559164239 0 -0.438075559351217 -0.46231173044867119 0 -0.423125636324716 -0.44634012224188169 0 -0.41386943218760641 -0.42464906852793988 0 -0.40066823844991428 -0.44414861722684718 0 -0.423125636324716 -0.44634012224188169 0 -0.40066823844991428 -0.44414861722684718 0 -0.423125636324716 -0.44634012224188169 0 -0.41324619096490528 -0.46062840061019322 0 -0.48933906433256152 -0.28464296803053368 0 -0.5 -0.33243153857065072 0 -0.50000000000000155 -0.2473336705449882 0 -0.44485247883738982 -0.26116397149622111 0 -0.43498649548547852 -0.25282224765555178 0 -0.44164891654744198 -0.2450584551682439 0 -0.44485247883738982 -0.26116397149622111 0 -0.45783156572408301 -0.27283209572463307 0 -0.444541753922024 -0.28649950623877679 0 -0.44485247883738982 -0.26116397149622111 0 -0.444541753922024 -0.28649950623877679 0 -0.43375534180759312 -0.28465166160636102 0 -0.44485247883738982 -0.26116397149622111 0 -0.43375534180759312 -0.28465166160636102 0 -0.45783156572408301 -0.27283209572463307 0 -0.47219834717732501 -0.2703219898463512 0 -0.47073189515667702 -0.28541410630213337 0 -0.45783156572408301 -0.27283209572463307 0 -0.46095441007604793 -0.25848998864844891 0 -0.47219834717732501 -0.2703219898463512 0 -0.44485247883738982 -0.26116397149622111 0 -0.46095441007604793 -0.25848998864844891 0 -0.4559496158671873 -0.23767628138608149 0 -0.44485247883738982 -0.26116397149622111 0 -0.45783156572408301 -0.27283209572463307 0 -0.46095441007604793 -0.25848998864844891 0 -0.48009332590390569 -0.26065871860717138 0 -0.48933906433256152 -0.28464296803053368 0 -0.50000000000000155 -0.2473336705449882 0 -0.46095441007604793 -0.25848998864844891 0 -0.48009332590390569 -0.26065871860717138 0 -0.47219834717732501 -0.2703219898463512 0 -0.46095441007604793 -0.25848998864844891 0 -0.48009332590390569 -0.26065871860717138 0 -0.47797480793359443 -0.24250497596553491 0 -0.48009332590390569 -0.26065871860717138 0 -0.50000000000000155 -0.2473336705449882 0 -0.47797480793359443 -0.24250497596553491 0 -0.48009332590390569 -0.26065871860717138 0 -0.47219834717732501 -0.2703219898463512 0 -0.48933906433256152 -0.28464296803053368 0 -0.47219834717732501 -0.2703219898463512 0 -0.47073189515667702 -0.28541410630213337 0 -0.48933906433256152 -0.28464296803053368 0 -0.47219834717732501 -0.2703219898463512 0 -0.47073189515667702 -0.28541410630213337 0 -0.47073189515667702 -0.28541410630213337 0 -0.48933906433256152 -0.28464296803053368 0 -0.48933906433256152 -0.28464296803053368 0 -0.48206859447550288 -0.30348118849469791 0 -0.5 -0.33243153857065072 0 -0.47073189515667702 -0.28541410630213337 0 -0.48933906433256152 -0.28464296803053368 0 -0.48206859447550288 -0.30348118849469791 0 -0.47073189515667702 -0.28541410630213337 0 -0.48206859447550288 -0.30348118849469791 0 -0.46820341841277319 -0.31143614107547363 0 -0.47073189515667702 -0.28541410630213337 0 -0.46820341841277319 -0.31143614107547363 0 -0.46820341841277319 -0.31143614107547363 0 -0.4556821397470554 -0.2958210107658123 0 -0.44822230101558741 -0.30628183892115057 0 -0.47073189515667702 -0.28541410630213337 0 -0.46820341841277319 -0.31143614107547363 0 -0.4556821397470554 -0.2958210107658123 0 -0.47073189515667702 -0.28541410630213337 0 -0.444541753922024 -0.28649950623877679 0 -0.45783156572408301 -0.27283209572463307 0 -0.47073189515667702 -0.28541410630213337 0 -0.444541753922024 -0.28649950623877679 0 -0.47073189515667702 -0.28541410630213337 0 -0.4556821397470554 -0.2958210107658123 0 -0.444541753922024 -0.28649950623877679 0 -0.4556821397470554 -0.2958210107658123 0 -0.444541753922024 -0.28649950623877679 0 -0.44517218561600169 -0.29734062845633052 0 -0.444541753922024 -0.28649950623877679 0 -0.44517218561600169 -0.29734062845633052 0 -0.43224254777934012 -0.30076015789958238 0 -0.44517218561600169 -0.29734062845633052 0 -0.44822230101558741 -0.30628183892115057 0 -0.43224254777934012 -0.30076015789958238 0 -0.44822230101558741 -0.30628183892115057 0 -0.43343191245233231 -0.31989541096196727 0 -0.43224254777934012 -0.30076015789958238 0 -0.4556821397470554 -0.2958210107658123 0 -0.44517218561600169 -0.29734062845633052 0 -0.44822230101558741 -0.30628183892115057 0 -0.48621957337108462 -0.38284774468419719 0 -0.5 -0.40215818236599848 0 -0.5 -0.33243153857065072 0 -0.44822230101558741 -0.30628183892115057 0 -0.45158168064744242 -0.32216039836058091 0 -0.43343191245233231 -0.31989541096196727 0 -0.45158168064744242 -0.32216039836058091 0 -0.44237582968764999 -0.33573042499549882 0 -0.43343191245233231 -0.31989541096196727 0 -0.44237582968764999 -0.33573042499549882 0 -0.4656749416688693 -0.33745817584881388 0 -0.44238729333591031 -0.35241270171695149 0 -0.45158168064744242 -0.32216039836058091 0 -0.44237582968764999 -0.33573042499549882 0 -0.4656749416688693 -0.33745817584881388 0 -0.46820341841277319 -0.31143614107547363 0 -0.44822230101558741 -0.30628183892115057 0 -0.45158168064744242 -0.32216039836058091 0 -0.46820341841277319 -0.31143614107547363 0 -0.4656749416688693 -0.33745817584881388 0 -0.46820341841277319 -0.31143614107547363 0 -0.45158168064744242 -0.32216039836058091 0 -0.4656749416688693 -0.33745817584881388 0 -0.48206859447550288 -0.30348118849469791 0 -0.46820341841277319 -0.31143614107547363 0 -0.5 -0.33243153857065072 0 -0.46820341841277319 -0.31143614107547363 0 -0.4656749416688693 -0.33745817584881388 0 -0.5 -0.33243153857065072 0 -0.4656749416688693 -0.33745817584881388 0 -0.5 -0.33243153857065072 0 -0.46314646492496542 -0.36348021062215441 0 -0.48621957337108462 -0.38284774468419719 0 -0.5 -0.33243153857065072 0 -0.46314646492496542 -0.36348021062215441 0 -0.4656749416688693 -0.33745817584881388 0 -0.46314646492496542 -0.36348021062215441 0 -0.44238729333591031 -0.35241270171695149 0 -0.4656749416688693 -0.33745817584881388 0 -0.46314646492496542 -0.36348021062215441 0 -0.45295563401162209 -0.37624745073812571 0 -0.46314646492496542 -0.36348021062215441 0 -0.43984316204505469 -0.36909794372703719 0 -0.46314646492496542 -0.36348021062215441 0 -0.44238729333591031 -0.35241270171695149 0 -0.43984316204505469 -0.36909794372703719 0 -0.44238729333591031 -0.35241270171695149 0 -0.43984316204505469 -0.36909794372703719 0 -0.42291089481166799 -0.35826172265199352 0 -0.43984316204505469 -0.36909794372703719 0 -0.42291089481166799 -0.35826172265199352 0 -0.4173191747617318 -0.37147663810943821 0 -0.42768557797177481 -0.38192216189686012 0 -0.43984316204505469 -0.36909794372703719 0 -0.4173191747617318 -0.37147663810943821 0 -0.44238729333591031 -0.35241270171695149 0 -0.42684157415505491 -0.3466284791748247 0 -0.42291089481166799 -0.35826172265199352 0 -0.44237582968764999 -0.33573042499549882 0 -0.44238729333591031 -0.35241270171695149 0 -0.42684157415505491 -0.3466284791748247 0 -0.42291089481166799 -0.35826172265199352 0 -0.41187894310721429 -0.34437042115660021 0 -0.40927526189181668 -0.35592641192760061 0 -0.42684157415505491 -0.3466284791748247 0 -0.42291089481166799 -0.35826172265199352 0 -0.41187894310721429 -0.34437042115660021 0 -0.41187894310721429 -0.34437042115660021 0 -0.40927526189181668 -0.35592641192760061 0 -0.4023895206850121 -0.34843646569759879 0 -0.40927526189181668 -0.35592641192760061 0 -0.4173191747617318 -0.37147663810943821 0 -0.402626770801777 -0.36643469149253799 0 -0.42291089481166799 -0.35826172265199352 0 -0.40927526189181668 -0.35592641192760061 0 -0.4173191747617318 -0.37147663810943821 0 -0.4038116012304574 -0.37792315688141909 0 -0.4173191747617318 -0.37147663810943821 0 -0.402626770801777 -0.36643469149253799 0 -0.4038116012304574 -0.37792315688141909 0 -0.402626770801777 -0.36643469149253799 0 -0.39154030978956561 -0.3744609372448135 0 -0.40927526189181668 -0.35592641192760061 0 -0.402626770801777 -0.36643469149253799 0 -0.39741046929993568 -0.35633521350398129 0 -0.402626770801777 -0.36643469149253799 0 -0.39238769084681052 -0.36340667136804089 0 -0.39741046929993568 -0.35633521350398129 0 -0.402626770801777 -0.36643469149253799 0 -0.39238769084681052 -0.36340667136804089 0 -0.39154030978956561 -0.3744609372448135 0 -0.39238769084681052 -0.36340667136804089 0 -0.39154030978956561 -0.3744609372448135 0 -0.38342569540122873 -0.36536539672438201 0 -0.39154030978956561 -0.3744609372448135 0 -0.38342569540122873 -0.36536539672438201 0 -0.38120614903516797 -0.37422622318350918 0 -0.39238769084681052 -0.36340667136804089 0 -0.38342569540122873 -0.36536539672438201 0 -0.38525021433194939 -0.3558753510925291 0 -0.38342569540122873 -0.36536539672438201 0 -0.37554994196041808 -0.3580875508336912 0 -0.38525021433194939 -0.3558753510925291 0 -0.38342569540122873 -0.36536539672438201 0 -0.37554994196041808 -0.3580875508336912 0 -0.37436054982250588 -0.36883970961726431 0 -0.38120614903516797 -0.37422622318350918 0 -0.37436054982250588 -0.36883970961726431 0 -0.37376125972292512 -0.38039979218528158 0 -0.38342569540122873 -0.36536539672438201 0 -0.38120614903516797 -0.37422622318350918 0 -0.37436054982250588 -0.36883970961726431 0 -0.37900516355689678 -0.34513562489116278 0 -0.37554994196041808 -0.3580875508336912 0 -0.38525021433194939 -0.3558753510925291 0 -0.37900516355689678 -0.34513562489116278 0 -0.3927062741502127 -0.3490512185154705 0 -0.38835861048012787 -0.34007832384620978 0 -0.37900516355689678 -0.34513562489116278 0 -0.38525021433194939 -0.3558753510925291 0 -0.3927062741502127 -0.3490512185154705 0 -0.3927062741502127 -0.3490512185154705 0 -0.39741046929993568 -0.35633521350398129 0 -0.4023895206850121 -0.34843646569759879 0 -0.39238769084681052 -0.36340667136804089 0 -0.38525021433194939 -0.3558753510925291 0 -0.39741046929993568 -0.35633521350398129 0 -0.38525021433194939 -0.3558753510925291 0 -0.3927062741502127 -0.3490512185154705 0 -0.39741046929993568 -0.35633521350398129 0 -0.40927526189181668 -0.35592641192760061 0 -0.39741046929993568 -0.35633521350398129 0 -0.4023895206850121 -0.34843646569759879 0 -0.3927062741502127 -0.3490512185154705 0 -0.4023895206850121 -0.34843646569759879 0 -0.40067665497588068 -0.33649906338434138 0 -0.41187894310721429 -0.34437042115660021 0 -0.4023895206850121 -0.34843646569759879 0 -0.40067665497588068 -0.33649906338434138 0 -0.40067665497588068 -0.33649906338434138 0 -0.38763032270515602 -0.33034983568717891 0 -0.39554459744696818 -0.32281406272967489 0 -0.40067665497588068 -0.33649906338434138 0 -0.38835861048012787 -0.34007832384620978 0 -0.38763032270515602 -0.33034983568717891 0 -0.3927062741502127 -0.3490512185154705 0 -0.40067665497588068 -0.33649906338434138 0 -0.38835861048012787 -0.34007832384620978 0 -0.38835861048012787 -0.34007832384620978 0 -0.38763032270515602 -0.33034983568717891 0 -0.37769435705814042 -0.3331825175471162 0 -0.38763032270515602 -0.33034983568717891 0 -0.37769435705814042 -0.3331825175471162 0 -0.38253192411370829 -0.32105763806260412 0 -0.37900516355689678 -0.34513562489116278 0 -0.38835861048012787 -0.34007832384620978 0 -0.37769435705814042 -0.3331825175471162 0 -0.38253192411370829 -0.32105763806260412 0 -0.38274652455608532 -0.30973031748420599 0 -0.37496129393649419 -0.31368223541798762 0 -0.38253192411370829 -0.32105763806260412 0 -0.36792354938230382 -0.32386776959441188 0 -0.37496129393649419 -0.31368223541798762 0 -0.37769435705814042 -0.3331825175471162 0 -0.38253192411370829 -0.32105763806260412 0 -0.36792354938230382 -0.32386776959441188 0 -0.38763032270515602 -0.33034983568717891 0 -0.38253192411370829 -0.32105763806260412 0 -0.39554459744696818 -0.32281406272967489 0 -0.38253192411370829 -0.32105763806260412 0 -0.39033177599187657 -0.31440076301917508 0 -0.38274652455608532 -0.30973031748420599 0 -0.38253192411370829 -0.32105763806260412 0 -0.39033177599187657 -0.31440076301917508 0 -0.39554459744696818 -0.32281406272967489 0 -0.39033177599187657 -0.31440076301917508 0 -0.39554459744696818 -0.32281406272967489 0 -0.39785240150170098 -0.31162894017446541 0 -0.40067665497588068 -0.33649906338434138 0 -0.39554459744696818 -0.32281406272967489 0 -0.40819329956451478 -0.32012814386238547 0 -0.39554459744696818 -0.32281406272967489 0 -0.40819329956451478 -0.32012814386238547 0 -0.39785240150170098 -0.31162894017446541 0 -0.40819329956451478 -0.32012814386238547 0 -0.4201217823407507 -0.32273265244075477 0 -0.41942068450360381 -0.31054298993253499 0 -0.40819329956451478 -0.32012814386238547 0 -0.4201217823407507 -0.32273265244075477 0 -0.41689837727749629 -0.33359660732772151 0 -0.40067665497588068 -0.33649906338434138 0 -0.40819329956451478 -0.32012814386238547 0 -0.41689837727749629 -0.33359660732772151 0 -0.41187894310721429 -0.34437042115660021 0 -0.40067665497588068 -0.33649906338434138 0 -0.41689837727749629 -0.33359660732772151 0 -0.42684157415505491 -0.3466284791748247 0 -0.41187894310721429 -0.34437042115660021 0 -0.41689837727749629 -0.33359660732772151 0 -0.4201217823407507 -0.32273265244075477 0 -0.41689837727749629 -0.33359660732772151 0 -0.42913681442491808 -0.33261761440170279 0 -0.44237582968764999 -0.33573042499549882 0 -0.42913681442491808 -0.33261761440170279 0 -0.43343191245233231 -0.31989541096196727 0 -0.42684157415505491 -0.3466284791748247 0 -0.41689837727749629 -0.33359660732772151 0 -0.42913681442491808 -0.33261761440170279 0 -0.44237582968764999 -0.33573042499549882 0 -0.42684157415505491 -0.3466284791748247 0 -0.42913681442491808 -0.33261761440170279 0 -0.4201217823407507 -0.32273265244075477 0 -0.43343191245233231 -0.31989541096196727 0 -0.41942068450360381 -0.31054298993253499 0 -0.4201217823407507 -0.32273265244075477 0 -0.42913681442491808 -0.33261761440170279 0 -0.43343191245233231 -0.31989541096196727 0 -0.43224254777934012 -0.30076015789958238 0 -0.4160668251635648 -0.29980250954959858 0 -0.41942068450360381 -0.31054298993253499 0 -0.43343191245233231 -0.31989541096196727 0 -0.43224254777934012 -0.30076015789958238 0 -0.41942068450360381 -0.31054298993253499 0 -0.444541753922024 -0.28649950623877679 0 -0.41835161268737098 -0.28758490617542071 0 -0.444541753922024 -0.28649950623877679 0 -0.43375534180759312 -0.28465166160636102 0 -0.41835161268737098 -0.28758490617542071 0 -0.444541753922024 -0.28649950623877679 0 -0.43224254777934012 -0.30076015789958238 0 -0.41835161268737098 -0.28758490617542071 0 -0.43224254777934012 -0.30076015789958238 0 -0.41835161268737098 -0.28758490617542071 0 -0.4160668251635648 -0.29980250954959858 0 -0.43375534180759312 -0.28465166160636102 0 -0.41835161268737098 -0.28758490617542071 0 -0.4297292752643363 -0.27572574137895273 0 -0.41835161268737098 -0.28758490617542071 0 -0.40505727922980389 -0.28331949647603499 0 -0.41438402675714803 -0.27867540090718113 0 -0.41835161268737098 -0.28758490617542071 0 -0.4160668251635648 -0.29980250954959858 0 -0.40343422490656061 -0.29608194849703479 0 -0.4160668251635648 -0.29980250954959858 0 -0.4065050367831034 -0.30570628918095272 0 -0.40343422490656061 -0.29608194849703479 0 -0.40819329956451478 -0.32012814386238547 0 -0.41942068450360381 -0.31054298993253499 0 -0.4065050367831034 -0.30570628918095272 0 -0.4160668251635648 -0.29980250954959858 0 -0.41942068450360381 -0.31054298993253499 0 -0.4065050367831034 -0.30570628918095272 0 -0.4065050367831034 -0.30570628918095272 0 -0.39623215686020952 -0.3005286080128472 0 -0.39785240150170098 -0.31162894017446541 0 -0.40819329956451478 -0.32012814386238547 0 -0.4065050367831034 -0.30570628918095272 0 -0.39785240150170098 -0.31162894017446541 0 -0.4065050367831034 -0.30570628918095272 0 -0.39623215686020952 -0.3005286080128472 0 -0.40343422490656061 -0.29608194849703479 0 -0.39623215686020952 -0.3005286080128472 0 -0.39480089499776888 -0.29507109030731771 0 -0.40343422490656061 -0.29608194849703479 0 -0.39623215686020952 -0.3005286080128472 0 -0.39010012836495972 -0.30593955767358261 0 -0.38883933031549289 -0.29536683958898718 0 -0.39623215686020952 -0.3005286080128472 0 -0.38883933031549289 -0.29536683958898718 0 -0.39480089499776888 -0.29507109030731771 0 -0.39033177599187657 -0.31440076301917508 0 -0.39785240150170098 -0.31162894017446541 0 -0.39010012836495972 -0.30593955767358261 0 -0.39623215686020952 -0.3005286080128472 0 -0.39785240150170098 -0.31162894017446541 0 -0.39010012836495972 -0.30593955767358261 0 -0.39010012836495972 -0.30593955767358261 0 -0.38219631653721181 -0.30232970776850882 0 -0.38274652455608532 -0.30973031748420599 0 -0.39033177599187657 -0.31440076301917508 0 -0.39010012836495972 -0.30593955767358261 0 -0.38274652455608532 -0.30973031748420599 0 -0.38219631653721181 -0.30232970776850882 0 -0.38883933031549289 -0.29536683958898718 0 -0.36917733310789991 -0.29963953866627441 0 -0.39010012836495972 -0.30593955767358261 0 -0.38219631653721181 -0.30232970776850882 0 -0.38883933031549289 -0.29536683958898718 0 -0.38219631653721181 -0.30232970776850882 0 -0.37502205455869969 -0.30689835277755623 0 -0.36917733310789991 -0.29963953866627441 0 -0.37502205455869969 -0.30689835277755623 0 -0.38274652455608532 -0.30973031748420599 0 -0.37496129393649419 -0.31368223541798762 0 -0.38219631653721181 -0.30232970776850882 0 -0.37502205455869969 -0.30689835277755623 0 -0.38274652455608532 -0.30973031748420599 0 -0.3911137205670927 -0.28403377499603361 0 -0.3846443043826398 -0.27733038263380672 0 -0.36917733310789991 -0.29963953866627441 0 -0.3911137205670927 -0.28403377499603361 0 -0.36917733310789991 -0.29963953866627441 0 -0.38883933031549289 -0.29536683958898718 0 -0.3911137205670927 -0.28403377499603361 0 -0.36917733310789991 -0.29963953866627441 0 -0.41835161268737098 -0.28758490617542071 0 -0.39216147145271801 -0.28867030611206462 0 -0.41835161268737098 -0.28758490617542071 0 -0.39216147145271801 -0.28867030611206462 0 -0.40505727922980389 -0.28331949647603499 0 -0.41835161268737098 -0.28758490617542071 0 -0.39216147145271801 -0.28867030611206462 0 -0.40343422490656061 -0.29608194849703479 0 -0.3911137205670927 -0.28403377499603361 0 -0.39216147145271801 -0.28867030611206462 0 -0.40505727922980389 -0.28331949647603499 0 -0.38883933031549289 -0.29536683958898718 0 -0.3911137205670927 -0.28403377499603361 0 -0.39216147145271801 -0.28867030611206462 0 -0.39216147145271801 -0.28867030611206462 0 -0.39480089499776888 -0.29507109030731771 0 -0.40343422490656061 -0.29608194849703479 0 -0.38883933031549289 -0.29536683958898718 0 -0.39216147145271801 -0.28867030611206462 0 -0.39480089499776888 -0.29507109030731771 0 -0.3846443043826398 -0.27733038263380672 0 -0.39083757795583213 -0.26529247284791552 0 -0.40840051962943591 -0.26278064963318287 0 -0.3911137205670927 -0.28403377499603361 0 -0.39930216315136352 -0.27314320464720399 0 -0.41305010802628561 -0.26842801132579269 0 -0.3911137205670927 -0.28403377499603361 0 -0.40505727922980389 -0.28331949647603499 0 -0.41305010802628561 -0.26842801132579269 0 -0.3846443043826398 -0.27733038263380672 0 -0.40840051962943591 -0.26278064963318287 0 -0.39930216315136352 -0.27314320464720399 0 -0.3846443043826398 -0.27733038263380672 0 -0.40840051962943591 -0.26278064963318287 0 -0.3911137205670927 -0.28403377499603361 0 -0.41305010802628561 -0.26842801132579269 0 -0.3911137205670927 -0.28403377499603361 0 -0.39930216315136352 -0.27314320464720399 0 -0.3846443043826398 -0.27733038263380672 0 -0.3846443043826398 -0.27733038263380672 0 -0.38093008954995311 -0.26776953663982711 0 -0.39083757795583213 -0.26529247284791552 0 -0.3846443043826398 -0.27733038263380672 0 -0.38093008954995311 -0.26776953663982711 0 -0.37596625357951058 -0.27382313945543851 0 -0.38093008954995311 -0.26776953663982711 0 -0.37596625357951058 -0.27382313945543851 0 -0.37287103718914549 -0.2686891774741561 0 -0.38093008954995311 -0.26776953663982711 0 -0.37327982704898077 -0.26214359768186779 0 -0.37287103718914549 -0.2686891774741561 0 -0.3846443043826398 -0.27733038263380672 0 -0.37596625357951058 -0.27382313945543851 0 -0.37041276913235271 -0.28062154151437452 0 -0.37908475899651162 -0.25861785707064727 0 -0.37327982704898077 -0.26214359768186779 0 -0.37382784469199809 -0.25255299355580002 0 -0.37908475899651162 -0.25861785707064727 0 -0.37382784469199809 -0.25255299355580002 0 -0.38220465509505391 -0.2453862558345459 0 -0.38093008954995311 -0.26776953663982711 0 -0.37908475899651162 -0.25861785707064727 0 -0.37327982704898077 -0.26214359768186779 0 -0.38093008954995311 -0.26776953663982711 0 -0.37908475899651162 -0.25861785707064727 0 -0.38436771192387509 -0.26221845474046013 0 -0.38093008954995311 -0.26776953663982711 0 -0.38436771192387509 -0.26221845474046013 0 -0.39083757795583213 -0.26529247284791552 0 -0.37908475899651162 -0.25861785707064727 0 -0.38436771192387509 -0.26221845474046013 0 -0.38903805502888011 -0.25783536093713461 0 -0.38436771192387509 -0.26221845474046013 0 -0.38903805502888011 -0.25783536093713461 0 -0.39083757795583213 -0.26529247284791552 0 -0.37908475899651162 -0.25861785707064727 0 -0.38903805502888011 -0.25783536093713461 0 -0.38220465509505391 -0.2453862558345459 0 -0.38903805502888011 -0.25783536093713461 0 -0.39980713000764739 -0.25281121590483963 0 -0.39320617752625442 -0.24585335226367991 0 -0.39083757795583213 -0.26529247284791552 0 -0.3983555323592145 -0.25968740414381519 0 -0.40840051962943591 -0.26278064963318287 0 -0.38903805502888011 -0.25783536093713461 0 -0.3983555323592145 -0.25968740414381519 0 -0.39980713000764739 -0.25281121590483963 0 -0.38903805502888011 -0.25783536093713461 0 -0.39083757795583213 -0.26529247284791552 0 -0.3983555323592145 -0.25968740414381519 0 -0.3983555323592145 -0.25968740414381519 0 -0.40359125726209222 -0.25711017124304442 0 -0.40840051962943591 -0.26278064963318287 0 -0.39980713000764739 -0.25281121590483963 0 -0.40359125726209222 -0.25711017124304442 0 -0.4078018470520709 -0.2531614152903397 0 -0.3983555323592145 -0.25968740414381519 0 -0.39980713000764739 -0.25281121590483963 0 -0.40359125726209222 -0.25711017124304442 0 -0.4078018470520709 -0.2531614152903397 0 -0.40840051962943591 -0.26278064963318287 0 -0.41578820806797528 -0.2484958297920084 0 -0.40840051962943591 -0.26278064963318287 0 -0.42214846450435789 -0.25806545631177169 0 -0.43215673487623202 -0.24823091663255911 0 -0.40359125726209222 -0.25711017124304442 0 -0.4078018470520709 -0.2531614152903397 0 -0.40840051962943591 -0.26278064963318287 0 -0.4197869720444854 -0.25041636405616802 0 -0.40840051962943591 -0.26278064963318287 0 -0.43215673487623202 -0.24823091663255911 0 -0.40840051962943591 -0.26278064963318287 0 -0.43215673487623202 -0.24823091663255911 0 -0.4197869720444854 -0.25041636405616802 0 -0.40840051962943591 -0.26278064963318287 0 -0.41578820806797528 -0.2484958297920084 0 -0.40840051962943591 -0.26278064963318287 0 -0.41305010802628561 -0.26842801132579269 0 -0.42214846450435789 -0.25806545631177169 0 -0.39930216315136352 -0.27314320464720399 0 -0.40840051962943591 -0.26278064963318287 0 -0.41305010802628561 -0.26842801132579269 0 -0.40505727922980389 -0.28331949647603499 0 -0.41305010802628561 -0.26842801132579269 0 -0.41438402675714803 -0.27867540090718113 0 -0.41305010802628561 -0.26842801132579269 0 -0.41438402675714803 -0.27867540090718113 0 -0.42107710708513157 -0.27536918965147628 0 -0.41835161268737098 -0.28758490617542071 0 -0.41438402675714803 -0.27867540090718113 0 -0.42107710708513157 -0.27536918965147628 0 -0.41305010802628561 -0.26842801132579269 0 -0.42107710708513157 -0.27536918965147628 0 -0.42489318287672012 -0.26593880819910309 0 -0.44485247883738982 -0.26116397149622111 0 -0.43375534180759312 -0.28465166160636102 0 -0.4297292752643363 -0.27572574137895273 0 -0.42107710708513157 -0.27536918965147628 0 -0.4297292752643363 -0.27572574137895273 0 -0.43045902090998511 -0.26713578416359179 0 -0.42107710708513157 -0.27536918965147628 0 -0.42489318287672012 -0.26593880819910309 0 -0.43045902090998511 -0.26713578416359179 0 -0.41835161268737098 -0.28758490617542071 0 -0.42107710708513157 -0.27536918965147628 0 -0.4297292752643363 -0.27572574137895273 0 -0.44485247883738982 -0.26116397149622111 0 -0.4297292752643363 -0.27572574137895273 0 -0.43045902090998511 -0.26713578416359179 0 -0.41305010802628561 -0.26842801132579269 0 -0.43498649548547852 -0.25282224765555178 0 -0.41305010802628561 -0.26842801132579269 0 -0.43498649548547852 -0.25282224765555178 0 -0.42214846450435789 -0.25806545631177169 0 -0.44485247883738982 -0.26116397149622111 0 -0.43045902090998511 -0.26713578416359179 0 -0.43498649548547852 -0.25282224765555178 0 -0.41305010802628561 -0.26842801132579269 0 -0.42489318287672012 -0.26593880819910309 0 -0.43498649548547852 -0.25282224765555178 0 -0.42489318287672012 -0.26593880819910309 0 -0.43045902090998511 -0.26713578416359179 0 -0.43498649548547852 -0.25282224765555178 0 -0.43498649548547852 -0.25282224765555178 0 -0.42214846450435789 -0.25806545631177169 0 -0.43215673487623202 -0.24823091663255911 0 -0.32034024124292237 -0.27424960049472452 0 -0.33188287507836628 -0.25144687983635688 0 -0.33188287507836628 -0.25144687983635688 0 -0.30822270907570759 -0.25868279318866538 0 -0.31461339992943471 -0.24091525041458581 0 -0.32034024124292237 -0.27424960049472452 0 -0.33188287507836628 -0.25144687983635688 0 -0.30822270907570759 -0.25868279318866538 0 -0.32034024124292237 -0.27424960049472452 0 -0.33574891981718641 -0.27767764844166998 0 -0.33902896267449623 -0.26600389856786771 0 -0.32034024124292237 -0.27424960049472452 0 -0.33574891981718641 -0.27767764844166998 0 -0.3318048869400439 -0.28914410918271372 0 -0.33574891981718641 -0.27767764844166998 0 -0.34357451063556083 -0.27252727335051419 0 -0.34565448001625149 -0.28467157397777471 0 -0.33574891981718641 -0.27767764844166998 0 -0.34357451063556083 -0.27252727335051419 0 -0.33902896267449623 -0.26600389856786771 0 -0.34357451063556083 -0.27252727335051419 0 -0.33902896267449623 -0.26600389856786771 0 -0.3475258802463525 -0.26427666564867119 0 -0.32034024124292237 -0.27424960049472452 0 -0.33902896267449623 -0.26600389856786771 0 -0.33188287507836628 -0.25144687983635688 0 -0.33902896267449623 -0.26600389856786771 0 -0.34404735253277591 -0.24256037382710849 0 -0.33902896267449623 -0.26600389856786771 0 -0.347448714500246 -0.25534600023974963 0 -0.34404735253277591 -0.24256037382710849 0 -0.33902896267449623 -0.26600389856786771 0 -0.33188287507836628 -0.25144687983635688 0 -0.34404735253277591 -0.24256037382710849 0 -0.347448714500246 -0.25534600023974963 0 -0.35133787250422799 -0.25929485509486028 0 -0.35508395309772589 -0.24354324406268901 0 -0.35133787250422799 -0.25929485509486028 0 -0.35558386352192178 -0.26747820392123861 0 -0.35508395309772589 -0.24354324406268901 0 -0.35558386352192178 -0.26747820392123861 0 -0.35508395309772589 -0.24354324406268901 0 -0.347448714500246 -0.25534600023974963 0 -0.3475258802463525 -0.26427666564867119 0 -0.35133787250422799 -0.25929485509486028 0 -0.33902896267449623 -0.26600389856786771 0 -0.347448714500246 -0.25534600023974963 0 -0.3475258802463525 -0.26427666564867119 0 -0.3475258802463525 -0.26427666564867119 0 -0.35133787250422799 -0.25929485509486028 0 -0.3510469511548937 -0.26583016160195327 0 -0.35133787250422799 -0.25929485509486028 0 -0.35558386352192178 -0.26747820392123861 0 -0.3510469511548937 -0.26583016160195327 0 -0.35558386352192178 -0.26747820392123861 0 -0.3680147300752396 -0.24595335410024541 0 -0.35508395309772589 -0.24354324406268901 0 -0.35558386352192178 -0.26747820392123861 0 -0.3680147300752396 -0.24595335410024541 0 -0.3665038261957892 -0.25969281417855489 0 -0.35558386352192178 -0.26747820392123861 0 -0.3680147300752396 -0.24595335410024541 0 -0.3665038261957892 -0.25969281417855489 0 -0.36074660599287722 -0.26734646615244378 0 -0.35558386352192178 -0.26747820392123861 0 -0.3665038261957892 -0.25969281417855489 0 -0.36755769755492662 -0.2643291542922091 0 -0.36074660599287722 -0.26734646615244378 0 -0.3665038261957892 -0.25969281417855489 0 -0.37327982704898077 -0.26214359768186779 0 -0.37382784469199809 -0.25255299355580002 0 -0.3665038261957892 -0.25969281417855489 0 -0.36755769755492662 -0.2643291542922091 0 -0.37327982704898077 -0.26214359768186779 0 -0.36755769755492662 -0.2643291542922091 0 -0.37327982704898077 -0.26214359768186779 0 -0.37287103718914549 -0.2686891774741561 0 -0.3665038261957892 -0.25969281417855489 0 -0.37382784469199809 -0.25255299355580002 0 -0.3680147300752396 -0.24595335410024541 0 -0.36955570651579772 -0.27467773736789192 0 -0.37041276913235271 -0.28062154151437452 0 -0.36581792530467622 -0.27933368364411731 0 -0.37596625357951058 -0.27382313945543851 0 -0.36955570651579772 -0.27467773736789192 0 -0.37041276913235271 -0.28062154151437452 0 -0.37596625357951058 -0.27382313945543851 0 -0.36955570651579772 -0.27467773736789192 0 -0.37287103718914549 -0.2686891774741561 0 -0.36755769755492662 -0.2643291542922091 0 -0.37287103718914549 -0.2686891774741561 0 -0.36752678441010078 -0.27040701428879221 0 -0.36955570651579772 -0.27467773736789192 0 -0.36752678441010078 -0.27040701428879221 0 -0.36473946947900038 -0.27519186783047273 0 -0.36955570651579772 -0.27467773736789192 0 -0.37287103718914549 -0.2686891774741561 0 -0.36752678441010078 -0.27040701428879221 0 -0.36752678441010078 -0.27040701428879221 0 -0.3641388555323109 -0.26829150134884211 0 -0.36168390699929448 -0.27144530149071189 0 -0.36752678441010078 -0.27040701428879221 0 -0.36168390699929448 -0.27144530149071189 0 -0.36473946947900038 -0.27519186783047273 0 -0.36755769755492662 -0.2643291542922091 0 -0.36752678441010078 -0.27040701428879221 0 -0.3641388555323109 -0.26829150134884211 0 -0.36755769755492662 -0.2643291542922091 0 -0.3641388555323109 -0.26829150134884211 0 -0.36074660599287722 -0.26734646615244378 0 -0.3641388555323109 -0.26829150134884211 0 -0.36074660599287722 -0.26734646615244378 0 -0.36168390699929448 -0.27144530149071189 0 -0.36074660599287722 -0.26734646615244378 0 -0.36168390699929448 -0.27144530149071189 0 -0.35903956331126508 -0.27119715449221238 0 -0.36168390699929448 -0.27144530149071189 0 -0.35924029243625327 -0.27487002724690252 0 -0.35903956331126508 -0.27119715449221238 0 -0.36168390699929448 -0.27144530149071189 0 -0.36473946947900038 -0.27519186783047273 0 -0.35924029243625327 -0.27487002724690252 0 -0.37041276913235271 -0.28062154151437452 0 -0.36581792530467622 -0.27933368364411731 0 -0.36237676703699639 -0.28371464473814217 0 -0.36473946947900038 -0.27519186783047273 0 -0.3600639694122183 -0.28037322049539393 0 -0.35924029243625327 -0.27487002724690252 0 -0.36955570651579772 -0.27467773736789192 0 -0.36473946947900038 -0.27519186783047273 0 -0.36581792530467622 -0.27933368364411731 0 -0.36473946947900038 -0.27519186783047273 0 -0.36581792530467622 -0.27933368364411731 0 -0.3600639694122183 -0.28037322049539393 0 -0.36581792530467622 -0.27933368364411731 0 -0.3600639694122183 -0.28037322049539393 0 -0.36237676703699639 -0.28371464473814217 0 -0.35558386352192178 -0.26747820392123861 0 -0.34877085931348778 -0.27098601814952611 0 -0.34565448001625149 -0.28467157397777471 0 -0.3600639694122183 -0.28037322049539393 0 -0.35924029243625327 -0.27487002724690252 0 -0.35305018210632849 -0.27935382640184009 0 -0.35558386352192178 -0.26747820392123861 0 -0.34565448001625149 -0.28467157397777471 0 -0.35305018210632849 -0.27935382640184009 0 -0.35558386352192178 -0.26747820392123861 0 -0.34565448001625149 -0.28467157397777471 0 -0.35924029243625327 -0.27487002724690252 0 -0.35305018210632849 -0.27935382640184009 0 -0.3568043889435592 -0.2727995329557088 0 -0.35305018210632849 -0.27935382640184009 0 -0.35558386352192178 -0.26747820392123861 0 -0.3568043889435592 -0.2727995329557088 0 -0.36074660599287722 -0.26734646615244378 0 -0.35558386352192178 -0.26747820392123861 0 -0.35747200693783721 -0.26819237665423401 0 -0.36074660599287722 -0.26734646615244378 0 -0.35747200693783721 -0.26819237665423401 0 -0.35708241712806321 -0.26987150810212418 0 -0.36074660599287722 -0.26734646615244378 0 -0.35708241712806321 -0.26987150810212418 0 -0.35903956331126508 -0.27119715449221238 0 -0.35558386352192178 -0.26747820392123861 0 -0.35747200693783721 -0.26819237665423401 0 -0.35708241712806321 -0.26987150810212418 0 -0.35558386352192178 -0.26747820392123861 0 -0.35708241712806321 -0.26987150810212418 0 -0.3568043889435592 -0.2727995329557088 0 -0.35708241712806321 -0.26987150810212418 0 -0.35903956331126508 -0.27119715449221238 0 -0.3568043889435592 -0.2727995329557088 0 -0.35924029243625327 -0.27487002724690252 0 -0.35903956331126508 -0.27119715449221238 0 -0.3568043889435592 -0.2727995329557088 0 -0.35558386352192178 -0.26747820392123861 0 -0.3510469511548937 -0.26583016160195327 0 -0.34877085931348778 -0.27098601814952611 0 -0.34357451063556083 -0.27252727335051419 0 -0.3475258802463525 -0.26427666564867119 0 -0.34877085931348778 -0.27098601814952611 0 -0.3475258802463525 -0.26427666564867119 0 -0.3510469511548937 -0.26583016160195327 0 -0.34877085931348778 -0.27098601814952611 0 -0.34357451063556083 -0.27252727335051419 0 -0.34877085931348778 -0.27098601814952611 0 -0.34565448001625149 -0.28467157397777471 0 -0.35305018210632849 -0.27935382640184009 0 -0.34565448001625149 -0.28467157397777471 0 -0.35470108219989099 -0.28636466240239461 0 -0.34565448001625149 -0.28467157397777471 0 -0.34624671895703318 -0.29516808017082607 0 -0.35470108219989099 -0.28636466240239461 0 -0.34624671895703318 -0.29516808017082607 0 -0.35470108219989099 -0.28636466240239461 0 -0.3608880891358438 -0.2918801156344305 0 -0.35470108219989099 -0.28636466240239461 0 -0.36237676703699639 -0.28371464473814217 0 -0.3608880891358438 -0.2918801156344305 0 -0.3600639694122183 -0.28037322049539393 0 -0.35305018210632849 -0.27935382640184009 0 -0.35470108219989099 -0.28636466240239461 0 -0.3600639694122183 -0.28037322049539393 0 -0.35470108219989099 -0.28636466240239461 0 -0.36237676703699639 -0.28371464473814217 0 -0.3846443043826398 -0.27733038263380672 0 -0.3608880891358438 -0.2918801156344305 0 -0.36917733310789991 -0.29963953866627441 0 -0.37041276913235271 -0.28062154151437452 0 -0.36237676703699639 -0.28371464473814217 0 -0.3608880891358438 -0.2918801156344305 0 -0.3846443043826398 -0.27733038263380672 0 -0.37041276913235271 -0.28062154151437452 0 -0.3608880891358438 -0.2918801156344305 0 -0.3846443043826398 -0.27733038263380672 0 -0.3608880891358438 -0.2918801156344305 0 -0.37502205455869969 -0.30689835277755623 0 -0.36917733310789991 -0.29963953866627441 0 -0.36579692030970301 -0.31013884472687708 0 -0.37502205455869969 -0.30689835277755623 0 -0.36579692030970301 -0.31013884472687708 0 -0.37496129393649419 -0.31368223541798762 0 -0.3608880891358438 -0.2918801156344305 0 -0.36917733310789991 -0.29963953866627441 0 -0.36018593801734677 -0.30353670344297368 0 -0.36917733310789991 -0.29963953866627441 0 -0.36018593801734677 -0.30353670344297368 0 -0.36579692030970301 -0.31013884472687708 0 -0.36018593801734677 -0.30353670344297368 0 -0.36579692030970301 -0.31013884472687708 0 -0.35516959979727442 -0.30939906212729368 0 -0.34624671895703318 -0.29516808017082607 0 -0.3608880891358438 -0.2918801156344305 0 -0.33713187388904697 -0.30642984863505313 0 -0.3608880891358438 -0.2918801156344305 0 -0.34989774773601329 -0.30662595605999288 0 -0.33713187388904697 -0.30642984863505313 0 -0.36018593801734677 -0.30353670344297368 0 -0.35516959979727442 -0.30939906212729368 0 -0.34989774773601329 -0.30662595605999288 0 -0.3608880891358438 -0.2918801156344305 0 -0.33713187388904697 -0.30642984863505313 0 -0.35516959979727442 -0.30939906212729368 0 -0.34989774773601329 -0.30662595605999288 0 -0.35116824345130798 -0.31255280130383128 0 -0.3608880891358438 -0.2918801156344305 0 -0.36018593801734677 -0.30353670344297368 0 -0.34989774773601329 -0.30662595605999288 0 -0.34989774773601329 -0.30662595605999288 0 -0.34627746271268961 -0.31547090655481369 0 -0.35116824345130798 -0.31255280130383128 0 -0.34989774773601329 -0.30662595605999288 0 -0.33713187388904697 -0.30642984863505313 0 -0.34627746271268961 -0.31547090655481369 0 -0.33087613125852089 -0.31026124113799097 0 -0.33572509651058119 -0.30186494403431058 0 -0.33087613125852089 -0.31026124113799097 0 -0.33572509651058119 -0.30186494403431058 0 -0.32788039174688433 -0.30340360419996792 0 -0.33713187388904697 -0.30642984863505313 0 -0.33087613125852089 -0.31026124113799097 0 -0.33572509651058119 -0.30186494403431058 0 -0.33713187388904697 -0.30642984863505313 0 -0.33087613125852089 -0.31026124113799097 0 -0.33119272832279928 -0.31930574818550728 0 -0.33713187388904697 -0.30642984863505313 0 -0.33087613125852089 -0.31026124113799097 0 -0.33572509651058119 -0.30186494403431058 0 -0.32982210904669479 -0.29671961402946723 0 -0.32788039174688433 -0.30340360419996792 0 -0.34624671895703318 -0.29516808017082607 0 -0.33713187388904697 -0.30642984863505313 0 -0.33572509651058119 -0.30186494403431058 0 -0.33713187388904697 -0.30642984863505313 0 -0.33572509651058119 -0.30186494403431058 0 -0.34565448001625149 -0.28467157397777471 0 -0.34624671895703318 -0.29516808017082607 0 -0.33572509651058119 -0.30186494403431058 0 -0.34565448001625149 -0.28467157397777471 0 -0.33572509651058119 -0.30186494403431058 0 -0.3318048869400439 -0.28914410918271372 0 -0.34565448001625149 -0.28467157397777471 0 -0.33572509651058119 -0.30186494403431058 0 -0.33574891981718641 -0.27767764844166998 0 -0.34565448001625149 -0.28467157397777471 0 -0.3318048869400439 -0.28914410918271372 0 -0.33572509651058119 -0.30186494403431058 0 -0.3318048869400439 -0.28914410918271372 0 -0.33572509651058119 -0.30186494403431058 0 -0.3318048869400439 -0.28914410918271372 0 -0.32982210904669479 -0.29671961402946723 0 -0.32034024124292237 -0.27424960049472452 0 -0.32259928468707327 -0.29765208760139911 0 -0.3087976074074783 -0.29705232115309232 0 -0.32034024124292237 -0.27424960049472452 0 -0.3087976074074783 -0.29705232115309232 0 -0.3318048869400439 -0.28914410918271372 0 -0.32982210904669479 -0.29671961402946723 0 -0.32259928468707327 -0.29765208760139911 0 -0.32034024124292237 -0.27424960049472452 0 -0.3318048869400439 -0.28914410918271372 0 -0.32259928468707327 -0.29765208760139911 0 -0.31809128454357072 -0.31014026916809229 0 -0.32259928468707327 -0.29765208760139911 0 -0.3087976074074783 -0.29705232115309232 0 -0.33087613125852089 -0.31026124113799097 0 -0.31809128454357072 -0.31014026916809229 0 -0.32788039174688433 -0.30340360419996792 0 -0.31809128454357072 -0.31014026916809229 0 -0.32788039174688433 -0.30340360419996792 0 -0.32259928468707327 -0.29765208760139911 0 -0.32982210904669479 -0.29671961402946723 0 -0.32788039174688433 -0.30340360419996792 0 -0.32259928468707327 -0.29765208760139911 0 -0.33087613125852089 -0.31026124113799097 0 -0.31740079570577318 -0.33359465661761639 0 -0.31246286337928808 -0.32153863227663171 0 -0.33087613125852089 -0.31026124113799097 0 -0.31740079570577318 -0.33359465661761639 0 -0.33087613125852089 -0.31026124113799097 0 -0.31246286337928808 -0.32153863227663171 0 -0.33087613125852089 -0.31026124113799097 0 -0.31740079570577318 -0.33359465661761639 0 -0.33119272832279928 -0.31930574818550728 0 -0.33087613125852089 -0.31026124113799097 0 -0.31809128454357072 -0.31014026916809229 0 -0.31246286337928808 -0.32153863227663171 0 -0.31740079570577318 -0.33359465661761639 0 -0.32417157549571451 -0.33828040389395381 0 -0.31715042266862958 -0.35725505960240028 0 -0.32417157549571451 -0.33828040389395381 0 -0.33119272832279928 -0.31930574818550728 0 -0.31740079570577318 -0.33359465661761639 0 -0.32417157549571451 -0.33828040389395381 0 -0.33119272832279928 -0.31930574818550728 0 -0.32417157549571451 -0.33828040389395381 0 -0.33357373088512149 -0.33211132028775192 0 -0.33119272832279928 -0.31930574818550728 0 -0.32417157549571451 -0.33828040389395381 0 -0.33357373088512149 -0.33211132028775192 0 -0.33610701312678792 -0.34123127908084783 0 -0.33357373088512149 -0.33211132028775192 0 -0.33610701312678792 -0.34123127908084783 0 -0.34416875563440857 -0.32926408974953919 0 -0.33357373088512149 -0.33211132028775192 0 -0.33119272832279928 -0.31930574818550728 0 -0.34416875563440857 -0.32926408974953919 0 -0.33713187388904697 -0.30642984863505313 0 -0.34416875563440857 -0.32926408974953919 0 -0.33713187388904697 -0.30642984863505313 0 -0.33119272832279928 -0.31930574818550728 0 -0.34416875563440857 -0.32926408974953919 0 -0.33713187388904697 -0.30642984863505313 0 -0.34627746271268961 -0.31547090655481369 0 -0.34416875563440857 -0.32926408974953919 0 -0.34627746271268961 -0.31547090655481369 0 -0.35116824345130798 -0.31255280130383128 0 -0.35502919685696632 -0.31877609996161971 0 -0.34627746271268961 -0.31547090655481369 0 -0.35502919685696632 -0.31877609996161971 0 -0.34416875563440857 -0.32926408974953919 0 -0.35502919685696632 -0.31877609996161971 0 -0.35675450567380168 -0.33268651145338862 0 -0.34416875563440857 -0.32926408974953919 0 -0.35516959979727442 -0.30939906212729368 0 -0.35116824345130798 -0.31255280130383128 0 -0.35502919685696632 -0.31877609996161971 0 -0.36579692030970301 -0.31013884472687708 0 -0.35516959979727442 -0.30939906212729368 0 -0.35502919685696632 -0.31877609996161971 0 -0.36579692030970301 -0.31013884472687708 0 -0.35502919685696632 -0.31877609996161971 0 -0.36792354938230382 -0.32386776959441188 0 -0.35502919685696632 -0.31877609996161971 0 -0.36792354938230382 -0.32386776959441188 0 -0.35675450567380168 -0.33268651145338862 0 -0.36579692030970301 -0.31013884472687708 0 -0.36792354938230382 -0.32386776959441188 0 -0.37496129393649419 -0.31368223541798762 0 -0.37900516355689678 -0.34513562489116278 0 -0.37769435705814042 -0.3331825175471162 0 -0.36544538911555929 -0.33942626709734641 0 -0.37769435705814042 -0.3331825175471162 0 -0.36792354938230382 -0.32386776959441188 0 -0.36544538911555929 -0.33942626709734641 0 -0.36792354938230382 -0.32386776959441188 0 -0.36544538911555929 -0.33942626709734641 0 -0.35675450567380168 -0.33268651145338862 0 -0.34416875563440857 -0.32926408974953919 0 -0.35120563737977062 -0.35209833086402542 0 -0.35675450567380168 -0.33268651145338862 0 -0.34416875563440857 -0.32926408974953919 0 -0.35120563737977062 -0.35209833086402542 0 -0.33610701312678792 -0.34123127908084783 0 -0.34416875563440857 -0.32926408974953919 0 -0.35120563737977062 -0.35209833086402542 0 -0.36544538911555929 -0.33942626709734641 0 -0.35675450567380168 -0.33268651145338862 0 -0.35120563737977062 -0.35209833086402542 0 -0.36544538911555929 -0.33942626709734641 0 -0.35120563737977062 -0.35209833086402542 0 -0.36735745520318142 -0.35150493065846389 0 -0.35120563737977062 -0.35209833086402542 0 -0.36735745520318142 -0.35150493065846389 0 -0.36558114400326203 -0.36277687960609339 0 -0.37554994196041808 -0.3580875508336912 0 -0.36735745520318142 -0.35150493065846389 0 -0.36558114400326203 -0.36277687960609339 0 -0.37900516355689678 -0.34513562489116278 0 -0.37554994196041808 -0.3580875508336912 0 -0.36735745520318142 -0.35150493065846389 0 -0.37900516355689678 -0.34513562489116278 0 -0.36544538911555929 -0.33942626709734641 0 -0.36735745520318142 -0.35150493065846389 0 -0.37436054982250588 -0.36883970961726431 0 -0.36558114400326203 -0.36277687960609339 0 -0.36653106021996917 -0.37330910808461082 0 -0.37436054982250588 -0.36883970961726431 0 -0.36653106021996917 -0.37330910808461082 0 -0.37376125972292512 -0.38039979218528158 0 -0.37554994196041808 -0.3580875508336912 0 -0.37436054982250588 -0.36883970961726431 0 -0.36558114400326203 -0.36277687960609339 0 -0.36653106021996917 -0.37330910808461082 0 -0.35836833896333631 -0.37541927794748609 0 -0.36558114400326203 -0.36277687960609339 0 -0.36653106021996917 -0.37330910808461082 0 -0.35836833896333631 -0.37541927794748609 0 -0.35120563737977062 -0.35209833086402542 0 -0.35836833896333631 -0.37541927794748609 0 -0.33960739919807659 -0.36518285428665881 0 -0.35836833896333631 -0.37541927794748609 0 -0.34067485925329988 -0.37999327312380982 0 -0.35120563737977062 -0.35209833086402542 0 -0.36558114400326203 -0.36277687960609339 0 -0.35836833896333631 -0.37541927794748609 0 -0.35120563737977062 -0.35209833086402542 0 -0.33960739919807659 -0.36518285428665881 0 -0.35836833896333631 -0.37541927794748609 0 -0.33960739919807659 -0.36518285428665881 0 -0.32652049759753299 -0.37057963892112677 0 -0.34067485925329988 -0.37999327312380982 0 -0.33960739919807659 -0.36518285428665881 0 -0.32652049759753299 -0.37057963892112677 0 -0.32712880020552371 -0.36083710938107599 0 -0.33960739919807659 -0.36518285428665881 0 -0.33387208162720011 -0.35265620145140308 0 -0.32712880020552371 -0.36083710938107599 0 -0.33610701312678792 -0.34123127908084783 0 -0.35120563737977062 -0.35209833086402542 0 -0.33387208162720011 -0.35265620145140308 0 -0.35120563737977062 -0.35209833086402542 0 -0.33960739919807659 -0.36518285428665881 0 -0.33387208162720011 -0.35265620145140308 0 -0.32417157549571451 -0.33828040389395381 0 -0.33610701312678792 -0.34123127908084783 0 -0.33387208162720011 -0.35265620145140308 0 -0.31740079570577318 -0.33359465661761639 0 -0.31715042266862958 -0.35725505960240028 0 -0.30392546015302713 -0.35692807209724259 0 -0.32417157549571451 -0.33828040389395381 0 -0.31715042266862958 -0.35725505960240028 0 -0.33387208162720011 -0.35265620145140308 0 -0.31715042266862958 -0.35725505960240028 0 -0.32712880020552371 -0.36083710938107599 0 -0.32417157549571451 -0.33828040389395381 0 -0.33387208162720011 -0.35265620145140308 0 -0.31715042266862958 -0.35725505960240028 0 -0.31715042266862958 -0.35725505960240028 0 -0.31012926984154482 -0.37622971531084698 0 -0.31715042266862958 -0.35725505960240028 0 -0.32652049759753299 -0.37057963892112677 0 -0.31012926984154482 -0.37622971531084698 0 -0.31715042266862958 -0.35725505960240028 0 -0.32652049759753299 -0.37057963892112677 0 -0.32712880020552371 -0.36083710938107599 0 -0.30694315158246871 -0.35829718569675661 0 -0.30254148609603082 -0.35932451273195032 0 -0.31012926984154482 -0.37622971531084698 0 -0.30254148609603082 -0.35932451273195032 0 -0.31012926984154482 -0.37622971531084698 0 -0.31715042266862958 -0.35725505960240028 0 -0.30694315158246871 -0.35829718569675661 0 -0.31012926984154482 -0.37622971531084698 0 -0.30030147417916031 -0.36320323831403822 0 -0.30013936615211873 -0.3552103375617941 0 -0.29528899231213063 -0.38336225581223971 0 -0.30030147417916031 -0.36320323831403822 0 -0.30209755322185861 -0.37206870803913339 0 -0.29528899231213063 -0.38336225581223971 0 -0.30013936615211873 -0.3552103375617941 0 -0.29528899231213063 -0.38336225581223971 0 -0.30209755322185861 -0.37206870803913339 0 -0.30254148609603082 -0.35932451273195032 0 -0.31012926984154482 -0.37622971531084698 0 -0.30030147417916031 -0.36320323831403822 0 -0.30209755322185861 -0.37206870803913339 0 -0.30254148609603082 -0.35932451273195032 0 -0.30030147417916031 -0.36320323831403822 0 -0.30254148609603082 -0.35932451273195032 0 -0.30392546015302713 -0.35692807209724259 0 -0.30013936615211873 -0.3552103375617941 0 -0.30345569214315937 -0.33596214324284168 0 -0.31740079570577318 -0.33359465661761639 0 -0.30392546015302713 -0.35692807209724259 0 -0.31715042266862958 -0.35725505960240028 0 -0.30694315158246871 -0.35829718569675661 0 -0.30392546015302713 -0.35692807209724259 0 -0.30013936615211873 -0.3552103375617941 0 -0.30345569214315937 -0.33596214324284168 0 -0.30013936615211873 -0.3552103375617941 0 -0.29427329111672329 -0.34090338796417619 0 -0.30345569214315937 -0.33596214324284168 0 -0.30694315158246871 -0.35829718569675661 0 -0.30392546015302713 -0.35692807209724259 0 -0.30013936615211873 -0.3552103375617941 0 -0.29427329111672329 -0.34090338796417619 0 -0.30030147417916031 -0.36320323831403822 0 -0.30254148609603082 -0.35932451273195032 0 -0.30013936615211873 -0.3552103375617941 0 -0.30694315158246871 -0.35829718569675661 0 -0.30254148609603082 -0.35932451273195032 0 -0.30392546015302713 -0.35692807209724259 0 -0.30254148609603082 -0.35932451273195032 0 -0.30392546015302713 -0.35692807209724259 0 -0.30013936615211873 -0.3552103375617941 0 -0.30254148609603082 -0.35932451273195032 0 -0.30013936615211873 -0.3552103375617941 0 -0.30392546015302713 -0.35692807209724259 0 -0.30013936615211873 -0.3552103375617941 0 -0.30254148609603082 -0.35932451273195032 0 -0.30392546015302713 -0.35692807209724259 0 -0.30013936615211873 -0.3552103375617941 0 -0.2756363276208198 -0.34409341455390852 0 -0.30013936615211873 -0.3552103375617941 0 -0.2756363276208198 -0.34409341455390852 0 -0.29427329111672329 -0.34090338796417619 0 -0.30013936615211873 -0.3552103375617941 0 -0.27502354569873511 -0.36132746443282021 0 -0.2756363276208198 -0.34409341455390852 0 -0.30013936615211873 -0.3552103375617941 0 -0.28153111102238798 -0.37263903616197019 0 -0.29098662418677401 -0.37681692419347729 0 -0.30013936615211873 -0.3552103375617941 0 -0.28153111102238798 -0.37263903616197019 0 -0.27502354569873511 -0.36132746443282021 0 -0.30013936615211873 -0.3552103375617941 0 -0.29528899231213063 -0.38336225581223971 0 -0.29098662418677401 -0.37681692419347729 0 -0.28153111102238798 -0.37263903616197019 0 -0.27502354569873511 -0.36132746443282021 0 -0.27073783464623241 -0.37667471460480589 0 -0.27502354569873511 -0.36132746443282021 0 -0.26095897901188581 -0.37003000453940338 0 -0.27073783464623241 -0.37667471460480589 0 -0.26095897901188581 -0.37003000453940338 0 -0.26081931491172988 -0.35316824303750771 0 -0.2460023022026411 -0.36224307152110841 0 -0.2592047447232026 -0.38680084736461973 0 -0.2460023022026411 -0.36224307152110841 0 -0.27502354569873511 -0.36132746443282021 0 -0.26095897901188581 -0.37003000453940338 0 -0.26081931491172988 -0.35316824303750771 0 -0.26095897901188581 -0.37003000453940338 0 -0.2592047447232026 -0.38680084736461973 0 -0.2460023022026411 -0.36224307152110841 0 -0.26081931491172988 -0.35316824303750771 0 -0.2460023022026411 -0.36224307152110841 0 -0.24377862724592991 -0.35810682846981901 0 -0.26081931491172988 -0.35316824303750771 0 -0.25299703868895912 -0.33382206670913711 0 -0.24377862724592991 -0.35810682846981901 0 -0.26081931491172988 -0.35316824303750771 0 -0.2460023022026411 -0.36224307152110841 0 -0.27502354569873511 -0.36132746443282021 0 -0.26081931491172988 -0.35316824303750771 0 -0.2756363276208198 -0.34409341455390852 0 -0.26081931491172988 -0.35316824303750771 0 -0.2756363276208198 -0.34409341455390852 0 -0.2756363276208198 -0.34409341455390852 0 -0.25299703868895912 -0.33382206670913711 0 -0.27823215795338091 -0.32481954637883531 0 -0.2756363276208198 -0.34409341455390852 0 -0.25299703868895912 -0.33382206670913711 0 -0.26081931491172988 -0.35316824303750771 0 -0.2756363276208198 -0.34409341455390852 0 -0.25299703868895912 -0.33382206670913711 0 -0.25299703868895912 -0.33382206670913711 0 -0.2631733871945095 -0.30701373855214081 0 -0.24360540713082579 -0.32081459247988048 0 -0.25299703868895912 -0.33382206670913711 0 -0.2631733871945095 -0.30701373855214081 0 -0.25299703868895912 -0.33382206670913711 0 -0.27823215795338091 -0.32481954637883531 0 -0.2631733871945095 -0.30701373855214081 0 -0.27823215795338091 -0.32481954637883531 0 -0.28185591492682172 -0.30898503830205259 0 -0.2631733871945095 -0.30701373855214081 0 -0.27823215795338091 -0.32481954637883531 0 -0.29404959550005422 -0.33281602341527061 0 -0.29725497357203429 -0.31985504181146002 0 -0.27823215795338091 -0.32481954637883531 0 -0.29725497357203429 -0.31985504181146002 0 -0.28185591492682172 -0.30898503830205259 0 -0.2756363276208198 -0.34409341455390852 0 -0.29404959550005422 -0.33281602341527061 0 -0.2756363276208198 -0.34409341455390852 0 -0.27823215795338091 -0.32481954637883531 0 -0.29404959550005422 -0.33281602341527061 0 -0.2756363276208198 -0.34409341455390852 0 -0.29427329111672329 -0.34090338796417619 0 -0.29404959550005422 -0.33281602341527061 0 -0.31740079570577318 -0.33359465661761639 0 -0.30392546015302713 -0.35692807209724259 0 -0.30345569214315937 -0.33596214324284168 0 -0.29404959550005422 -0.33281602341527061 0 -0.30345569214315937 -0.33596214324284168 0 -0.30684223668206873 -0.33097786388809008 0 -0.29404959550005422 -0.33281602341527061 0 -0.30684223668206873 -0.33097786388809008 0 -0.31246286337928808 -0.32153863227663171 0 -0.29427329111672329 -0.34090338796417619 0 -0.29404959550005422 -0.33281602341527061 0 -0.30345569214315937 -0.33596214324284168 0 -0.31740079570577318 -0.33359465661761639 0 -0.30345569214315937 -0.33596214324284168 0 -0.30684223668206873 -0.33097786388809008 0 -0.31740079570577318 -0.33359465661761639 0 -0.30684223668206873 -0.33097786388809008 0 -0.31246286337928808 -0.32153863227663171 0 -0.29404959550005422 -0.33281602341527061 0 -0.31246286337928808 -0.32153863227663171 0 -0.29725497357203429 -0.31985504181146002 0 -0.31809128454357072 -0.31014026916809229 0 -0.31246286337928808 -0.32153863227663171 0 -0.29725497357203429 -0.31985504181146002 0 -0.29404959550005422 -0.33281602341527061 0 -0.31246286337928808 -0.32153863227663171 0 -0.29725497357203429 -0.31985504181146002 0 -0.3087976074074783 -0.29705232115309232 0 -0.29725497357203429 -0.31985504181146002 0 -0.3087976074074783 -0.29705232115309232 0 -0.29175813829428138 -0.29853730415038698 0 -0.31809128454357072 -0.31014026916809229 0 -0.29725497357203429 -0.31985504181146002 0 -0.3087976074074783 -0.29705232115309232 0 -0.32034024124292237 -0.27424960049472452 0 -0.3087976074074783 -0.29705232115309232 0 -0.3029223601971035 -0.28542930916453019 0 -0.3087976074074783 -0.29705232115309232 0 -0.3029223601971035 -0.28542930916453019 0 -0.29175813829428138 -0.29853730415038698 0 -0.29175813829428138 -0.29853730415038698 0 -0.27886091761990239 -0.29469956061743968 0 -0.27974170176675378 -0.27642435675843269 0 -0.29175813829428138 -0.29853730415038698 0 -0.27974170176675378 -0.27642435675843269 0 -0.29291541172053259 -0.28265987040717488 0 -0.29175813829428138 -0.29853730415038698 0 -0.27974170176675378 -0.27642435675843269 0 -0.3029223601971035 -0.28542930916453019 0 -0.29291541172053259 -0.28265987040717488 0 -0.29175813829428138 -0.29853730415038698 0 -0.29175813829428138 -0.29853730415038698 0 -0.28185591492682172 -0.30898503830205259 0 -0.27886091761990239 -0.29469956061743968 0 -0.29725497357203429 -0.31985504181146002 0 -0.29175813829428138 -0.29853730415038698 0 -0.28185591492682172 -0.30898503830205259 0 -0.28185591492682172 -0.30898503830205259 0 -0.2631733871945095 -0.30701373855214081 0 -0.27886091761990239 -0.29469956061743968 0 -0.2631733871945095 -0.30701373855214081 0 -0.25150620891688957 -0.29671190529847857 0 -0.24154087261896171 -0.30509679822178848 0 -0.2631733871945095 -0.30701373855214081 0 -0.25150620891688957 -0.29671190529847857 0 -0.26014900791929918 -0.28790390568308771 0 -0.2631733871945095 -0.30701373855214081 0 -0.26014900791929918 -0.28790390568308771 0 -0.27334973570005983 -0.28020541039514441 0 -0.26014900791929918 -0.28790390568308771 0 -0.25500366536127361 -0.28040897753500388 0 -0.24704595407450111 -0.28488916192179159 0 -0.25150620891688957 -0.29671190529847857 0 -0.26014900791929918 -0.28790390568308771 0 -0.24704595407450111 -0.28488916192179159 0 -0.26014900791929918 -0.28790390568308771 0 -0.27334973570005983 -0.28020541039514441 0 -0.2629852702850381 -0.27847103513044619 0 -0.26014900791929918 -0.28790390568308771 0 -0.2629852702850381 -0.27847103513044619 0 -0.25500366536127361 -0.28040897753500388 0 -0.27886091761990239 -0.29469956061743968 0 -0.27974170176675378 -0.27642435675843269 0 -0.27334973570005983 -0.28020541039514441 0 -0.2631733871945095 -0.30701373855214081 0 -0.27334973570005983 -0.28020541039514441 0 -0.2631733871945095 -0.30701373855214081 0 -0.27886091761990239 -0.29469956061743968 0 -0.27334973570005983 -0.28020541039514441 0 -0.27974170176675378 -0.27642435675843269 0 -0.26773919820457859 -0.27097280269900192 0 -0.26772526523922652 -0.25431140936647811 0 -0.27974170176675378 -0.27642435675843269 0 -0.26773919820457859 -0.27097280269900192 0 -0.27334973570005983 -0.28020541039514441 0 -0.27974170176675378 -0.27642435675843269 0 -0.26772526523922652 -0.25431140936647811 0 -0.28205337854097629 -0.26720279570626088 0 -0.26773919820457859 -0.27097280269900192 0 -0.27334973570005983 -0.28020541039514441 0 -0.2629852702850381 -0.27847103513044619 0 -0.26773919820457859 -0.27097280269900192 0 -0.2629852702850381 -0.27847103513044619 0 -0.25850705641092581 -0.27200262533673941 0 -0.2629852702850381 -0.27847103513044619 0 -0.25850705641092581 -0.27200262533673941 0 -0.25500366536127361 -0.28040897753500388 0 -0.26773919820457859 -0.27097280269900192 0 -0.25850705641092581 -0.27200262533673941 0 -0.26197004023289339 -0.26403696580659958 0 -0.25850705641092581 -0.27200262533673941 0 -0.25299644359707452 -0.25851950246286298 0 -0.24478160024726039 -0.27126628069458419 0 -0.25850705641092581 -0.27200262533673941 0 -0.25500366536127361 -0.28040897753500388 0 -0.24478160024726039 -0.27126628069458419 0 -0.25299644359707452 -0.25851950246286298 0 -0.26197004023289339 -0.26403696580659958 0 -0.26772526523922652 -0.25431140936647811 0 -0.25850705641092581 -0.27200262533673941 0 -0.25299644359707452 -0.25851950246286298 0 -0.26197004023289339 -0.26403696580659958 0 -0.25299644359707452 -0.25851950246286298 0 -0.26772526523922652 -0.25431140936647811 0 -0.27974170176675378 -0.27642435675843269 0 -0.26772526523922652 -0.25431140936647811 0 -0.26772526523922652 -0.25431140936647811 0 -0.29116933258433042 -0.2476133298905312 0 -0.26773919820457859 -0.27097280269900192 0 -0.26197004023289339 -0.26403696580659958 0 -0.26772526523922652 -0.25431140936647811 0 -0.26772526523922652 -0.25431140936647811 0 -0.29053000329888973 -0.26322424887852192 0 -0.28205337854097629 -0.26720279570626088 0 -0.26772526523922652 -0.25431140936647811 0 -0.29053000329888973 -0.26322424887852192 0 -0.29116933258433042 -0.2476133298905312 0 -0.29053000329888973 -0.26322424887852192 0 -0.30822270907570759 -0.25868279318866538 0 -0.29116933258433042 -0.2476133298905312 0 -0.29053000329888973 -0.26322424887852192 0 -0.28205337854097629 -0.26720279570626088 0 -0.29021654385903539 -0.27485116782161118 0 -0.27974170176675378 -0.27642435675843269 0 -0.28205337854097629 -0.26720279570626088 0 -0.29021654385903539 -0.27485116782161118 0 -0.29291541172053259 -0.28265987040717488 0 -0.27974170176675378 -0.27642435675843269 0 -0.29021654385903539 -0.27485116782161118 0 -0.29291541172053259 -0.28265987040717488 0 -0.29021654385903539 -0.27485116782161118 0 -0.30080040232030281 -0.27464744961727239 0 -0.29053000329888973 -0.26322424887852192 0 -0.29021654385903539 -0.27485116782161118 0 -0.30080040232030281 -0.27464744961727239 0 -0.32034024124292237 -0.27424960049472452 0 -0.30080040232030281 -0.27464744961727239 0 -0.30822270907570759 -0.25868279318866538 0 -0.32034024124292237 -0.27424960049472452 0 -0.3029223601971035 -0.28542930916453019 0 -0.30080040232030281 -0.27464744961727239 0 -0.3029223601971035 -0.28542930916453019 0 -0.29291541172053259 -0.28265987040717488 0 -0.30080040232030281 -0.27464744961727239 0 -0.29053000329888973 -0.26322424887852192 0 -0.30080040232030281 -0.27464744961727239 0 -0.30822270907570759 -0.25868279318866538 0 -0.32829519487322462 -0.45348191246011771 0 -0.33564223006728372 -0.46159064500568892 0 -0.32873221886834869 -0.46642187675406521 0 -0.32829519487322462 -0.45348191246011771 0 -0.33564223006728372 -0.46159064500568892 0 -0.33726375000661879 -0.45352888090126692 0 -0.33564223006728372 -0.46159064500568892 0 -0.32873221886834869 -0.46642187675406521 0 -0.339909687785033 -0.47062967385505478 0 -0.33564223006728372 -0.46159064500568892 0 -0.339909687785033 -0.47062967385505478 0 -0.34541779642965631 -0.45716688094274849 0 -0.33726375000661879 -0.45352888090126692 0 -0.3432006447049783 -0.44991108399237928 0 -0.34541779642965631 -0.45716688094274849 0 -0.33564223006728372 -0.46159064500568892 0 -0.33726375000661879 -0.45352888090126692 0 -0.34541779642965631 -0.45716688094274849 0 -0.33766231498518717 -0.44782616048125462 0 -0.32801561842794552 -0.44243403391167702 0 -0.32689135617110698 -0.43143995287742543 0 -0.33766231498518717 -0.44782616048125462 0 -0.33678467390124639 -0.43561662202362661 0 -0.32689135617110698 -0.43143995287742543 0 -0.33766231498518717 -0.44782616048125462 0 -0.32689135617110698 -0.43143995287742543 0 -0.33726375000661879 -0.45352888090126692 0 -0.3432006447049783 -0.44991108399237928 0 -0.33766231498518717 -0.44782616048125462 0 -0.3432006447049783 -0.44991108399237928 0 -0.34782525252529389 -0.43919290258460281 0 -0.33678467390124639 -0.43561662202362661 0 -0.3432006447049783 -0.44991108399237928 0 -0.33766231498518717 -0.44782616048125462 0 -0.33678467390124639 -0.43561662202362661 0 -0.3432006447049783 -0.44991108399237928 0 -0.33678467390124639 -0.43561662202362661 0 -0.32829519487322462 -0.45348191246011771 0 -0.33726375000661879 -0.45352888090126692 0 -0.33130281459245398 -0.44787832521363119 0 -0.32829519487322462 -0.45348191246011771 0 -0.33130281459245398 -0.44787832521363119 0 -0.32801561842794552 -0.44243403391167702 0 -0.33766231498518717 -0.44782616048125462 0 -0.33130281459245398 -0.44787832521363119 0 -0.32801561842794552 -0.44243403391167702 0 -0.33726375000661879 -0.45352888090126692 0 -0.33766231498518717 -0.44782616048125462 0 -0.33130281459245398 -0.44787832521363119 0 -0.32829519487322462 -0.45348191246011771 0 -0.32801561842794552 -0.44243403391167702 0 -0.31850150104480851 -0.44913504478441169 0 -0.32801561842794552 -0.44243403391167702 0 -0.31678777868173441 -0.43836023175093752 0 -0.31850150104480851 -0.44913504478441169 0 -0.31678777868173441 -0.43836023175093752 0 -0.31850150104480851 -0.44913504478441169 0 -0.30348617896306168 -0.44716981502760061 0 -0.31850150104480851 -0.44913504478441169 0 -0.32026755133986728 -0.46225175206177188 0 -0.31249599199218292 -0.45616249331809411 0 -0.32026755133986728 -0.46225175206177188 0 -0.32087673991514359 -0.47236025662428233 0 -0.30485931206519779 -0.46236385409118391 0 -0.32026755133986728 -0.46225175206177188 0 -0.30485931206519779 -0.46236385409118391 0 -0.31249599199218292 -0.45616249331809411 0 -0.32829519487322462 -0.45348191246011771 0 -0.31850150104480851 -0.44913504478441169 0 -0.32026755133986728 -0.46225175206177188 0 -0.32829519487322462 -0.45348191246011771 0 -0.32873221886834869 -0.46642187675406521 0 -0.32026755133986728 -0.46225175206177188 0 -0.32873221886834869 -0.46642187675406521 0 -0.32026755133986728 -0.46225175206177188 0 -0.32087673991514359 -0.47236025662428233 0 -0.31253971170819173 -0.48078640309266207 0 -0.32087673991514359 -0.47236025662428233 0 -0.30485931206519779 -0.46236385409118391 0 -0.31253971170819173 -0.48078640309266207 0 -0.32087673991514359 -0.47236025662428233 0 -0.32604446521611791 -0.48567228330006079 0 -0.32087673991514359 -0.47236025662428233 0 -0.32604446521611791 -0.48567228330006079 0 -0.33281718029313828 -0.4766653704459497 0 -0.32873221886834869 -0.46642187675406521 0 -0.32087673991514359 -0.47236025662428233 0 -0.33281718029313828 -0.4766653704459497 0 -0.31253971170819173 -0.48078640309266207 0 -0.32604446521611791 -0.48567228330006079 0 -0.31203003616656427 -0.5 0 -0.32604446521611791 -0.48567228330006079 0 -0.34172660353856099 -0.5 0 -0.31203003616656427 -0.5 0 -0.32604446521611791 -0.48567228330006079 0 -0.33998572386686821 -0.48629693075889208 0 -0.34172660353856099 -0.5 0 -0.32873221886834869 -0.46642187675406521 0 -0.33281718029313828 -0.4766653704459497 0 -0.339909687785033 -0.47062967385505478 0 -0.32604446521611791 -0.48567228330006079 0 -0.33998572386686821 -0.48629693075889208 0 -0.33281718029313828 -0.4766653704459497 0 -0.33998572386686821 -0.48629693075889208 0 -0.33281718029313828 -0.4766653704459497 0 -0.34631913378329959 -0.4783000219506599 0 -0.33281718029313828 -0.4766653704459497 0 -0.339909687785033 -0.47062967385505478 0 -0.34631913378329959 -0.4783000219506599 0 -0.34631913378329959 -0.4783000219506599 0 -0.35502188601534679 -0.49173719177872138 0 -0.36538568075167621 -0.46969458742869219 0 -0.339909687785033 -0.47062967385505478 0 -0.34631913378329959 -0.4783000219506599 0 -0.35122858692569853 -0.46557008281061663 0 -0.34631913378329959 -0.4783000219506599 0 -0.36538568075167621 -0.46969458742869219 0 -0.35122858692569853 -0.46557008281061663 0 -0.34172660353856099 -0.5 0 -0.35502188601534679 -0.49173719177872138 0 -0.37142317091055771 -0.5 0 -0.33998572386686821 -0.48629693075889208 0 -0.34172660353856099 -0.5 0 -0.35502188601534679 -0.49173719177872138 0 -0.33998572386686821 -0.48629693075889208 0 -0.34631913378329959 -0.4783000219506599 0 -0.35502188601534679 -0.49173719177872138 0 -0.38238649144304337 -0.48092833609651681 0 -0.37142317091055771 -0.5 0 -0.36881629076136158 -0.4847652413595962 0 -0.35502188601534679 -0.49173719177872138 0 -0.37142317091055771 -0.5 0 -0.36881629076136158 -0.4847652413595962 0 -0.38238649144304337 -0.48092833609651681 0 -0.36881629076136158 -0.4847652413595962 0 -0.36538568075167621 -0.46969458742869219 0 -0.35502188601534679 -0.49173719177872138 0 -0.36538568075167621 -0.46969458742869219 0 -0.35502188601534679 -0.49173719177872138 0 -0.36881629076136158 -0.4847652413595962 0 -0.36538568075167621 -0.46969458742869219 0 -0.37574947548800558 -0.44765198307866277 0 -0.36538568075167621 -0.46969458742869219 0 -0.35917687483082578 -0.45209947203688122 0 -0.37574947548800558 -0.44765198307866277 0 -0.36538568075167621 -0.46969458742869219 0 -0.36538568075167621 -0.46969458742869219 0 -0.35122858692569853 -0.46557008281061663 0 -0.35917687483082578 -0.45209947203688122 0 -0.34541779642965631 -0.45716688094274849 0 -0.35122858692569853 -0.46557008281061663 0 -0.35917687483082578 -0.45209947203688122 0 -0.339909687785033 -0.47062967385505478 0 -0.34541779642965631 -0.45716688094274849 0 -0.35122858692569853 -0.46557008281061663 0 -0.35150280068715573 -0.44683832799735201 0 -0.35917687483082578 -0.45209947203688122 0 -0.36147395483582151 -0.43500663758666791 0 -0.3432006447049783 -0.44991108399237928 0 -0.34782525252529389 -0.43919290258460281 0 -0.35150280068715573 -0.44683832799735201 0 -0.3432006447049783 -0.44991108399237928 0 -0.34541779642965631 -0.45716688094274849 0 -0.35150280068715573 -0.44683832799735201 0 -0.34541779642965631 -0.45716688094274849 0 -0.35150280068715573 -0.44683832799735201 0 -0.35917687483082578 -0.45209947203688122 0 -0.34782525252529389 -0.43919290258460281 0 -0.35150280068715573 -0.44683832799735201 0 -0.36147395483582151 -0.43500663758666791 0 -0.37574947548800558 -0.44765198307866277 0 -0.35917687483082578 -0.45209947203688122 0 -0.36147395483582151 -0.43500663758666791 0 -0.37574947548800558 -0.44765198307866277 0 -0.36147395483582151 -0.43500663758666791 0 -0.37090144580233381 -0.4250987793791331 0 -0.36147395483582151 -0.43500663758666791 0 -0.37090144580233381 -0.4250987793791331 0 -0.35825503138417941 -0.42139952893919708 0 -0.37855821513367782 -0.40980771242859643 0 -0.37090144580233381 -0.4250987793791331 0 -0.36525872774798401 -0.41111743551304109 0 -0.37855821513367782 -0.40980771242859643 0 -0.36525872774798401 -0.41111743551304109 0 -0.36904983326882818 -0.39985468805073809 0 -0.36525872774798401 -0.41111743551304109 0 -0.35395198416596418 -0.40994661781015101 0 -0.35992125157200211 -0.40171843142090052 0 -0.37090144580233381 -0.4250987793791331 0 -0.36525872774798401 -0.41111743551304109 0 -0.35825503138417941 -0.42139952893919708 0 -0.35825503138417941 -0.42139952893919708 0 -0.35395198416596418 -0.40994661781015101 0 -0.34900501807246909 -0.41858568696340059 0 -0.36525872774798401 -0.41111743551304109 0 -0.35825503138417941 -0.42139952893919708 0 -0.35395198416596418 -0.40994661781015101 0 -0.35395198416596418 -0.40994661781015101 0 -0.34385264307708402 -0.40972291554555779 0 -0.34900501807246909 -0.41858568696340059 0 -0.34385264307708402 -0.40972291554555779 0 -0.34900501807246909 -0.41858568696340059 0 -0.34070285009637469 -0.4180588959101037 0 -0.34900501807246909 -0.41858568696340059 0 -0.34592132896666739 -0.42816439882077129 0 -0.34070285009637469 -0.4180588959101037 0 -0.35825503138417941 -0.42139952893919708 0 -0.34900501807246909 -0.41858568696340059 0 -0.34592132896666739 -0.42816439882077129 0 -0.36147395483582151 -0.43500663758666791 0 -0.34592132896666739 -0.42816439882077129 0 -0.34782525252529389 -0.43919290258460281 0 -0.36147395483582151 -0.43500663758666791 0 -0.34592132896666739 -0.42816439882077129 0 -0.36147395483582151 -0.43500663758666791 0 -0.35825503138417941 -0.42139952893919708 0 -0.34592132896666739 -0.42816439882077129 0 -0.36653106021996917 -0.37330910808461082 0 -0.355709737333537 -0.38439558649302619 0 -0.35836833896333631 -0.37541927794748609 0 -0.36653106021996917 -0.37330910808461082 0 -0.36529357244793659 -0.38403965019298841 0 -0.355709737333537 -0.38439558649302619 0 -0.36653106021996917 -0.37330910808461082 0 -0.37376125972292512 -0.38039979218528158 0 -0.36529357244793659 -0.38403965019298841 0 -0.37376125972292512 -0.38039979218528158 0 -0.36978486801480359 -0.38968665449479412 0 -0.36529357244793659 -0.38403965019298841 0 -0.38009500019605358 -0.39439078473986727 0 -0.37376125972292512 -0.38039979218528158 0 -0.36978486801480359 -0.38968665449479412 0 -0.36529357244793659 -0.38403965019298841 0 -0.36068093694844822 -0.39240710970722931 0 -0.355709737333537 -0.38439558649302619 0 -0.36978486801480359 -0.38968665449479412 0 -0.36529357244793659 -0.38403965019298841 0 -0.36068093694844822 -0.39240710970722931 0 -0.36068093694844822 -0.39240710970722931 0 -0.36904983326882818 -0.39985468805073809 0 -0.35992125157200211 -0.40171843142090052 0 -0.36978486801480359 -0.38968665449479412 0 -0.36068093694844822 -0.39240710970722931 0 -0.36904983326882818 -0.39985468805073809 0 -0.38009500019605358 -0.39439078473986727 0 -0.36978486801480359 -0.38968665449479412 0 -0.36904983326882818 -0.39985468805073809 0 -0.36525872774798401 -0.41111743551304109 0 -0.36904983326882818 -0.39985468805073809 0 -0.35992125157200211 -0.40171843142090052 0 -0.35395198416596418 -0.40994661781015101 0 -0.35992125157200211 -0.40171843142090052 0 -0.34693147216871761 -0.39596152560563758 0 -0.35395198416596418 -0.40994661781015101 0 -0.34385264307708402 -0.40972291554555779 0 -0.34693147216871761 -0.39596152560563758 0 -0.36068093694844822 -0.39240710970722931 0 -0.35992125157200211 -0.40171843142090052 0 -0.34693147216871761 -0.39596152560563758 0 -0.36068093694844822 -0.39240710970722931 0 -0.34693147216871761 -0.39596152560563758 0 -0.355709737333537 -0.38439558649302619 0 -0.355709737333537 -0.38439558649302619 0 -0.35836833896333631 -0.37541927794748609 0 -0.34067485925329988 -0.37999327312380982 0 -0.34693147216871761 -0.39596152560563758 0 -0.355709737333537 -0.38439558649302619 0 -0.34067485925329988 -0.37999327312380982 0 -0.35836833896333631 -0.37541927794748609 0 -0.34067485925329988 -0.37999327312380982 0 -0.34693147216871761 -0.39596152560563758 0 -0.34067485925329988 -0.37999327312380982 0 -0.33268569085836341 -0.39371602977388798 0 -0.32652049759753299 -0.37057963892112677 0 -0.34067485925329988 -0.37999327312380982 0 -0.32303582124475172 -0.37837001637969853 0 -0.34067485925329988 -0.37999327312380982 0 -0.33268569085836341 -0.39371602977388798 0 -0.31481865828663058 -0.38667743816300909 0 -0.33840978389109899 -0.40194811286804022 0 -0.32259368069207173 -0.40399979910894179 0 -0.33518553217082858 -0.41101037669750368 0 -0.33268569085836341 -0.39371602977388798 0 -0.33840978389109899 -0.40194811286804022 0 -0.32259368069207173 -0.40399979910894179 0 -0.34693147216871761 -0.39596152560563758 0 -0.33268569085836341 -0.39371602977388798 0 -0.33840978389109899 -0.40194811286804022 0 -0.34385264307708402 -0.40972291554555779 0 -0.34693147216871761 -0.39596152560563758 0 -0.33840978389109899 -0.40194811286804022 0 -0.32259368069207173 -0.40399979910894179 0 -0.31377307194719922 -0.39755280549180683 0 -0.31612039735702691 -0.41505374527359618 0 -0.32259368069207173 -0.40399979910894179 0 -0.31377307194719922 -0.39755280549180683 0 -0.31481865828663058 -0.38667743816300909 0 -0.33268569085836341 -0.39371602977388798 0 -0.32259368069207173 -0.40399979910894179 0 -0.31481865828663058 -0.38667743816300909 0 -0.32259368069207173 -0.40399979910894179 0 -0.31481865828663058 -0.38667743816300909 0 -0.32652049759753299 -0.37057963892112677 0 -0.32303582124475172 -0.37837001637969853 0 -0.31012926984154482 -0.37622971531084698 0 -0.34067485925329988 -0.37999327312380982 0 -0.31481865828663058 -0.38667743816300909 0 -0.34067485925329988 -0.37999327312380982 0 -0.31481865828663058 -0.38667743816300909 0 -0.32303582124475172 -0.37837001637969853 0 -0.31481865828663058 -0.38667743816300909 0 -0.32303582124475172 -0.37837001637969853 0 -0.31012926984154482 -0.37622971531084698 0 -0.33678467390124639 -0.43561662202362661 0 -0.33036870309751382 -0.42132216005487422 0 -0.33678467390124639 -0.43561662202362661 0 -0.33036870309751382 -0.42132216005487422 0 -0.32689135617110698 -0.43143995287742543 0 -0.34782525252529389 -0.43919290258460281 0 -0.34592132896666739 -0.42816439882077129 0 -0.33678467390124639 -0.43561662202362661 0 -0.34592132896666739 -0.42816439882077129 0 -0.33678467390124639 -0.43561662202362661 0 -0.33036870309751382 -0.42132216005487422 0 -0.34592132896666739 -0.42816439882077129 0 -0.33036870309751382 -0.42132216005487422 0 -0.34592132896666739 -0.42816439882077129 0 -0.34070285009637469 -0.4180588959101037 0 -0.33036870309751382 -0.42132216005487422 0 -0.32259368069207173 -0.40399979910894179 0 -0.33518553217082858 -0.41101037669750368 0 -0.33036870309751382 -0.42132216005487422 0 -0.34385264307708402 -0.40972291554555779 0 -0.33840978389109899 -0.40194811286804022 0 -0.33518553217082858 -0.41101037669750368 0 -0.34385264307708402 -0.40972291554555779 0 -0.34070285009637469 -0.4180588959101037 0 -0.33518553217082858 -0.41101037669750368 0 -0.34070285009637469 -0.4180588959101037 0 -0.33518553217082858 -0.41101037669750368 0 -0.33036870309751382 -0.42132216005487422 0 -0.33036870309751382 -0.42132216005487422 0 -0.31612039735702691 -0.41505374527359618 0 -0.32259368069207173 -0.40399979910894179 0 -0.33036870309751382 -0.42132216005487422 0 -0.31612039735702691 -0.41505374527359618 0 -0.32259368069207173 -0.40399979910894179 0 -0.33036870309751382 -0.42132216005487422 0 -0.33036870309751382 -0.42132216005487422 0 -0.31612039735702691 -0.41505374527359618 0 -0.32689135617110698 -0.43143995287742543 0 -0.31612039735702691 -0.41505374527359618 0 -0.31419521235522752 -0.42772949798997217 0 -0.32689135617110698 -0.43143995287742543 0 -0.31612039735702691 -0.41505374527359618 0 -0.32689135617110698 -0.43143995287742543 0 -0.32801561842794552 -0.44243403391167702 0 -0.31678777868173441 -0.43836023175093752 0 -0.32689135617110698 -0.43143995287742543 0 -0.31678777868173441 -0.43836023175093752 0 -0.31419521235522752 -0.42772949798997217 0 -0.32689135617110698 -0.43143995287742543 0 -0.31678777868173441 -0.43836023175093752 0 -0.31419521235522752 -0.42772949798997217 0 -0.30656827729091157 -0.43244640560542907 0 -0.30656827729091157 -0.43244640560542907 0 -0.30460825227535782 -0.42134715444247323 0 -0.29056525806054567 -0.4291014298230883 0 -0.30656827729091157 -0.43244640560542907 0 -0.29056525806054567 -0.4291014298230883 0 -0.30348617896306168 -0.44716981502760061 0 -0.31419521235522752 -0.42772949798997217 0 -0.30656827729091157 -0.43244640560542907 0 -0.30460825227535782 -0.42134715444247323 0 -0.31612039735702691 -0.41505374527359618 0 -0.31419521235522752 -0.42772949798997217 0 -0.30460825227535782 -0.42134715444247323 0 -0.31612039735702691 -0.41505374527359618 0 -0.29861328519625602 -0.40735164772986049 0 -0.29861328519625602 -0.40735164772986049 0 -0.30460825227535782 -0.42134715444247323 0 -0.29056525806054567 -0.4291014298230883 0 -0.31612039735702691 -0.41505374527359618 0 -0.29861328519625602 -0.40735164772986049 0 -0.30460825227535782 -0.42134715444247323 0 -0.29861328519625602 -0.40735164772986049 0 -0.28834155574350862 -0.42368567680663621 0 -0.2916812324797019 -0.40430195308515338 0 -0.28834155574350862 -0.42368567680663621 0 -0.2916812324797019 -0.40430195308515338 0 -0.29861328519625602 -0.40735164772986049 0 -0.29056525806054567 -0.4291014298230883 0 -0.28469584148538057 -0.41072449433634878 0 -0.28834155574350862 -0.42368567680663621 0 -0.2916812324797019 -0.40430195308515338 0 -0.29861328519625602 -0.40735164772986049 0 -0.28834155574350862 -0.42368567680663621 0 -0.29056525806054567 -0.4291014298230883 0 -0.28469584148538057 -0.41072449433634878 0 -0.2916812324797019 -0.40430195308515338 0 -0.27970807944097043 -0.4060397755018908 0 -0.28469584148538057 -0.41072449433634878 0 -0.28233891957231072 -0.4168549772280209 0 -0.2777197394754497 -0.41217915896875162 0 -0.28233891957231072 -0.4168549772280209 0 -0.28834155574350862 -0.42368567680663621 0 -0.27774969961353357 -0.42230827276822969 0 -0.28469584148538057 -0.41072449433634878 0 -0.28233891957231072 -0.4168549772280209 0 -0.28834155574350862 -0.42368567680663621 0 -0.28834155574350862 -0.42368567680663621 0 -0.27924634423751882 -0.43231963276243301 0 -0.28534916759849049 -0.44319790701125139 0 -0.28834155574350862 -0.42368567680663621 0 -0.28534916759849049 -0.44319790701125139 0 -0.28834155574350862 -0.42368567680663621 0 -0.27924634423751882 -0.43231963276243301 0 -0.27774969961353357 -0.42230827276822969 0 -0.28834155574350862 -0.42368567680663621 0 -0.29056525806054567 -0.4291014298230883 0 -0.28534916759849049 -0.44319790701125139 0 -0.29056525806054567 -0.4291014298230883 0 -0.28534916759849049 -0.44319790701125139 0 -0.30209755322185861 -0.37206870803913339 0 -0.30311350298749112 -0.38135249651146652 0 -0.29528899231213063 -0.38336225581223971 0 -0.31012926984154482 -0.37622971531084698 0 -0.30535837795801157 -0.38912304396237579 0 -0.31481865828663058 -0.38667743816300909 0 -0.31012926984154482 -0.37622971531084698 0 -0.30209755322185861 -0.37206870803913339 0 -0.30311350298749112 -0.38135249651146652 0 -0.31012926984154482 -0.37622971531084698 0 -0.30311350298749112 -0.38135249651146652 0 -0.31012926984154482 -0.37622971531084698 0 -0.30535837795801157 -0.38912304396237579 0 -0.31481865828663058 -0.38667743816300909 0 -0.31012926984154482 -0.37622971531084698 0 -0.30535837795801157 -0.38912304396237579 0 -0.31481865828663058 -0.38667743816300909 0 -0.30535837795801157 -0.38912304396237579 0 -0.30311350298749112 -0.38135249651146652 0 -0.30535837795801157 -0.38912304396237579 0 -0.29998819589764469 -0.39051130603646039 0 -0.30311350298749112 -0.38135249651146652 0 -0.29998819589764469 -0.39051130603646039 0 -0.29528899231213063 -0.38336225581223971 0 -0.30535837795801157 -0.38912304396237579 0 -0.29998819589764469 -0.39051130603646039 0 -0.29998819589764469 -0.39051130603646039 0 -0.29528899231213063 -0.38336225581223971 0 -0.31612039735702691 -0.41505374527359618 0 -0.3030954811387378 -0.39523851945578742 0 -0.31612039735702691 -0.41505374527359618 0 -0.29861328519625602 -0.40735164772986049 0 -0.3030954811387378 -0.39523851945578742 0 -0.31377307194719922 -0.39755280549180683 0 -0.31612039735702691 -0.41505374527359618 0 -0.3030954811387378 -0.39523851945578742 0 -0.29998819589764469 -0.39051130603646039 0 -0.29819039211823273 -0.39426303918305672 0 -0.3030954811387378 -0.39523851945578742 0 -0.29998819589764469 -0.39051130603646039 0 -0.29378078441060901 -0.39211600283236908 0 -0.29998819589764469 -0.39051130603646039 0 -0.29819039211823273 -0.39426303918305672 0 -0.29378078441060901 -0.39211600283236908 0 -0.29819039211823273 -0.39426303918305672 0 -0.3030954811387378 -0.39523851945578742 0 -0.2966903124620639 -0.39889113767723372 0 -0.29998819589764469 -0.39051130603646039 0 -0.3030954811387378 -0.39523851945578742 0 -0.30535837795801157 -0.38912304396237579 0 -0.3030954811387378 -0.39523851945578742 0 -0.30535837795801157 -0.38912304396237579 0 -0.29998819589764469 -0.39051130603646039 0 -0.3030954811387378 -0.39523851945578742 0 -0.31377307194719922 -0.39755280549180683 0 -0.30535837795801157 -0.38912304396237579 0 -0.3030954811387378 -0.39523851945578742 0 -0.31377307194719922 -0.39755280549180683 0 -0.31481865828663058 -0.38667743816300909 0 -0.30535837795801157 -0.38912304396237579 0 -0.29861328519625602 -0.40735164772986049 0 -0.3030954811387378 -0.39523851945578742 0 -0.29861328519625602 -0.40735164772986049 0 -0.3030954811387378 -0.39523851945578742 0 -0.2966903124620639 -0.39889113767723372 0 -0.2916812324797019 -0.40430195308515338 0 -0.27463004710705952 -0.39680043645749491 0 -0.27970807944097043 -0.4060397755018908 0 -0.2916812324797019 -0.40430195308515338 0 -0.27463004710705952 -0.39680043645749491 0 -0.2916812324797019 -0.40430195308515338 0 -0.28501153478454427 -0.39438296818609919 0 -0.27463004710705952 -0.39680043645749491 0 -0.29861328519625602 -0.40735164772986049 0 -0.2966903124620639 -0.39889113767723372 0 -0.2916812324797019 -0.40430195308515338 0 -0.29861328519625602 -0.40735164772986049 0 -0.2916812324797019 -0.40430195308515338 0 -0.28501153478454427 -0.39438296818609919 0 -0.29378078441060901 -0.39211600283236908 0 -0.2916812324797019 -0.40430195308515338 0 -0.29378078441060901 -0.39211600283236908 0 -0.2916812324797019 -0.40430195308515338 0 -0.28501153478454427 -0.39438296818609919 0 -0.29378078441060901 -0.39211600283236908 0 -0.2966903124620639 -0.39889113767723372 0 -0.2916812324797019 -0.40430195308515338 0 -0.29378078441060901 -0.39211600283236908 0 -0.29819039211823273 -0.39426303918305672 0 -0.2966903124620639 -0.39889113767723372 0 -0.29378078441060901 -0.39211600283236908 0 -0.29378078441060901 -0.39211600283236908 0 -0.29528899231213063 -0.38336225581223971 0 -0.29378078441060901 -0.39211600283236908 0 -0.29528899231213063 -0.38336225581223971 0 -0.28591598007814539 -0.38454617792540852 0 -0.29998819589764469 -0.39051130603646039 0 -0.29378078441060901 -0.39211600283236908 0 -0.29528899231213063 -0.38336225581223971 0 -0.28501153478454427 -0.39438296818609919 0 -0.29378078441060901 -0.39211600283236908 0 -0.28591598007814539 -0.38454617792540852 0 -0.28501153478454427 -0.39438296818609919 0 -0.28591598007814539 -0.38454617792540852 0 -0.27839665958567272 -0.38914340684817539 0 -0.28153111102238798 -0.37263903616197019 0 -0.28591598007814539 -0.38454617792540852 0 -0.29098662418677401 -0.37681692419347729 0 -0.28153111102238798 -0.37263903616197019 0 -0.28591598007814539 -0.38454617792540852 0 -0.27730241918010828 -0.38157080933592519 0 -0.29528899231213063 -0.38336225581223971 0 -0.28591598007814539 -0.38454617792540852 0 -0.29098662418677401 -0.37681692419347729 0 -0.29528899231213063 -0.38336225581223971 0 -0.29098662418677401 -0.37681692419347729 0 -0.27073783464623241 -0.37667471460480589 0 -0.27730241918010828 -0.38157080933592519 0 -0.27040620824107497 -0.38768012579409689 0 -0.28153111102238798 -0.37263903616197019 0 -0.27073783464623241 -0.37667471460480589 0 -0.27730241918010828 -0.38157080933592519 0 -0.28591598007814539 -0.38454617792540852 0 -0.27730241918010828 -0.38157080933592519 0 -0.27839665958567272 -0.38914340684817539 0 -0.27730241918010828 -0.38157080933592519 0 -0.27839665958567272 -0.38914340684817539 0 -0.27040620824107497 -0.38768012579409689 0 -0.27073783464623241 -0.37667471460480589 0 -0.27040620824107497 -0.38768012579409689 0 -0.2592047447232026 -0.38680084736461973 0 -0.27040620824107497 -0.38768012579409689 0 -0.27463004710705952 -0.39680043645749491 0 -0.26276919670061988 -0.39720507200095689 0 -0.28501153478454427 -0.39438296818609919 0 -0.27839665958567272 -0.38914340684817539 0 -0.27463004710705952 -0.39680043645749491 0 -0.27839665958567272 -0.38914340684817539 0 -0.27040620824107497 -0.38768012579409689 0 -0.27463004710705952 -0.39680043645749491 0 -0.27463004710705952 -0.39680043645749491 0 -0.27970807944097043 -0.4060397755018908 0 -0.26981353665726082 -0.40619283466170558 0 -0.27463004710705952 -0.39680043645749491 0 -0.26981353665726082 -0.40619283466170558 0 -0.26276919670061988 -0.39720507200095689 0 -0.26276919670061988 -0.39720507200095689 0 -0.25576693522964739 -0.40915399643003719 0 -0.24679370824547431 -0.39660219129778729 0 -0.26276919670061988 -0.39720507200095689 0 -0.2592047447232026 -0.38680084736461973 0 -0.24679370824547431 -0.39660219129778729 0 -0.26981353665726082 -0.40619283466170558 0 -0.26276919670061988 -0.39720507200095689 0 -0.25576693522964739 -0.40915399643003719 0 -0.2592047447232026 -0.38680084736461973 0 -0.24679370824547431 -0.39660219129778729 0 -0.244747899488584 -0.38057329054419903 0 -0.26095897901188581 -0.37003000453940338 0 -0.27073783464623241 -0.37667471460480589 0 -0.2592047447232026 -0.38680084736461973 0 -0.27040620824107497 -0.38768012579409689 0 -0.26276919670061988 -0.39720507200095689 0 -0.2592047447232026 -0.38680084736461973 0 -0.26811582188462768 -0.4322800320455647 0 -0.27774969961353357 -0.42230827276822969 0 -0.26651503655094938 -0.41815591515934819 0 -0.26811582188462768 -0.4322800320455647 0 -0.27924634423751882 -0.43231963276243301 0 -0.27654124398938368 -0.44039164248994689 0 -0.26811582188462768 -0.4322800320455647 0 -0.27924634423751882 -0.43231963276243301 0 -0.27774969961353357 -0.42230827276822969 0 -0.28233891957231072 -0.4168549772280209 0 -0.27774969961353357 -0.42230827276822969 0 -0.2777197394754497 -0.41217915896875162 0 -0.27774969961353357 -0.42230827276822969 0 -0.2777197394754497 -0.41217915896875162 0 -0.26651503655094938 -0.41815591515934819 0 -0.27970807944097043 -0.4060397755018908 0 -0.26981353665726082 -0.40619283466170558 0 -0.2777197394754497 -0.41217915896875162 0 -0.28469584148538057 -0.41072449433634878 0 -0.27970807944097043 -0.4060397755018908 0 -0.2777197394754497 -0.41217915896875162 0 -0.26981353665726082 -0.40619283466170558 0 -0.2777197394754497 -0.41217915896875162 0 -0.26651503655094938 -0.41815591515934819 0 -0.26651503655094938 -0.41815591515934819 0 -0.25576693522964739 -0.40915399643003719 0 -0.25378751279796252 -0.42777966276414292 0 -0.26981353665726082 -0.40619283466170558 0 -0.26651503655094938 -0.41815591515934819 0 -0.25576693522964739 -0.40915399643003719 0 -0.26811582188462768 -0.4322800320455647 0 -0.25378751279796252 -0.42777966276414292 0 -0.25661497371879699 -0.44383835042080372 0 -0.26811582188462768 -0.4322800320455647 0 -0.26651503655094938 -0.41815591515934819 0 -0.25378751279796252 -0.42777966276414292 0 -0.26811582188462768 -0.4322800320455647 0 -0.26195227942346833 -0.45924540724590007 0 -0.25378751279796252 -0.42777966276414292 0 -0.25661497371879699 -0.44383835042080372 0 -0.2403206514339086 -0.44443776135919028 0 -0.25661497371879699 -0.44383835042080372 0 -0.26195227942346833 -0.45924540724590007 0 -0.2403206514339086 -0.44443776135919028 0 -0.26811582188462768 -0.4322800320455647 0 -0.25661497371879699 -0.44383835042080372 0 -0.26195227942346833 -0.45924540724590007 0 -0.26195227942346833 -0.45924540724590007 0 -0.2452496448979663 -0.47006360154846771 0 -0.28251723092483499 -0.45085121191631589 0 -0.27446920378912421 -0.47260099400954342 0 -0.27742868868105042 -0.44922143155519972 0 -0.28251723092483499 -0.45085121191631589 0 -0.27446920378912421 -0.47260099400954342 0 -0.26195227942346833 -0.45924540724590007 0 -0.27742868868105042 -0.44922143155519972 0 -0.27446920378912421 -0.47260099400954342 0 -0.26195227942346833 -0.45924540724590007 0 -0.27742868868105042 -0.44922143155519972 0 -0.26811582188462768 -0.4322800320455647 0 -0.26195227942346833 -0.45924540724590007 0 -0.27654124398938368 -0.44039164248994689 0 -0.26195227942346833 -0.45924540724590007 0 -0.27742868868105042 -0.44922143155519972 0 -0.27654124398938368 -0.44039164248994689 0 -0.27924634423751882 -0.43231963276243301 0 -0.27654124398938368 -0.44039164248994689 0 -0.28534916759849049 -0.44319790701125139 0 -0.27742868868105042 -0.44922143155519972 0 -0.27654124398938368 -0.44039164248994689 0 -0.28534916759849049 -0.44319790701125139 0 -0.28534916759849049 -0.44319790701125139 0 -0.28251723092483499 -0.45085121191631589 0 -0.30348617896306168 -0.44716981502760061 0 -0.28251723092483499 -0.45085121191631589 0 -0.29513174497006378 -0.45696682627136598 0 -0.30348617896306168 -0.44716981502760061 0 -0.29056525806054567 -0.4291014298230883 0 -0.28534916759849049 -0.44319790701125139 0 -0.30348617896306168 -0.44716981502760061 0 -0.27742868868105042 -0.44922143155519972 0 -0.28534916759849049 -0.44319790701125139 0 -0.28251723092483499 -0.45085121191631589 0 -0.28534916759849049 -0.44319790701125139 0 -0.28251723092483499 -0.45085121191631589 0 -0.28251723092483499 -0.45085121191631589 0 -0.28966425792716088 -0.4674824240503635 0 -0.27446920378912421 -0.47260099400954342 0 -0.28251723092483499 -0.45085121191631589 0 -0.28966425792716088 -0.4674824240503635 0 -0.29513174497006378 -0.45696682627136598 0 -0.28966425792716088 -0.4674824240503635 0 -0.29513174497006378 -0.45696682627136598 0 -0.30485931206519779 -0.46236385409118391 0 -0.29513174497006378 -0.45696682627136598 0 -0.30485931206519779 -0.46236385409118391 0 -0.30348617896306168 -0.44716981502760061 0 -0.28966425792716088 -0.4674824240503635 0 -0.30485931206519779 -0.46236385409118391 0 -0.30485931206519779 -0.46236385409118391 0 -0.31249599199218292 -0.45616249331809411 0 -0.30348617896306168 -0.44716981502760061 0 -0.31850150104480851 -0.44913504478441169 0 -0.31249599199218292 -0.45616249331809411 0 -0.30348617896306168 -0.44716981502760061 0 -0.31678777868173441 -0.43836023175093752 0 -0.30656827729091157 -0.43244640560542907 0 -0.30348617896306168 -0.44716981502760061 0 -0.31203003616656427 -0.5 0 -0.30055663252922388 -0.4784848581388304 0 -0.28662431939014549 -0.48357142632110439 0 -0.31253971170819173 -0.48078640309266207 0 -0.31203003616656427 -0.5 0 -0.30055663252922388 -0.4784848581388304 0 -0.31253971170819173 -0.48078640309266207 0 -0.30485931206519779 -0.46236385409118391 0 -0.30055663252922388 -0.4784848581388304 0 -0.28966425792716088 -0.4674824240503635 0 -0.30485931206519779 -0.46236385409118391 0 -0.30055663252922388 -0.4784848581388304 0 -0.28966425792716088 -0.4674824240503635 0 -0.28662431939014549 -0.48357142632110439 0 -0.27446920378912421 -0.47260099400954342 0 -0.28966425792716088 -0.4674824240503635 0 -0.30055663252922388 -0.4784848581388304 0 -0.28662431939014549 -0.48357142632110439 0 -0.28966425792716088 -0.4674824240503635 0 -0.27446920378912421 -0.47260099400954342 0 -0.31203003616656427 -0.5 0 -0.28662431939014549 -0.48357142632110439 0 -0.28233346879456772 -0.5 0 -0.28233346879456772 -0.5 0 -0.27025592863155201 -0.48398736423801791 0 -0.252636901422571 -0.49999999999999989 0 -0.28662431939014549 -0.48357142632110439 0 -0.28233346879456772 -0.5 0 -0.27025592863155201 -0.48398736423801791 0 -0.27446920378912421 -0.47260099400954342 0 -0.25760075004302002 -0.47828326139853922 0 -0.27446920378912421 -0.47260099400954342 0 -0.27025592863155201 -0.48398736423801791 0 -0.25760075004302002 -0.47828326139853922 0 -0.28662431939014549 -0.48357142632110439 0 -0.27446920378912421 -0.47260099400954342 0 -0.27025592863155201 -0.48398736423801791 0 -0.27446920378912421 -0.47260099400954342 0 -0.27025592863155201 -0.48398736423801791 0 -0.26195227942346833 -0.45924540724590007 0 -0.27446920378912421 -0.47260099400954342 0 -0.25760075004302002 -0.47828326139853922 0 -0.26195227942346833 -0.45924540724590007 0 -0.25760075004302002 -0.47828326139853922 0 -0.26195227942346833 -0.45924540724590007 0 -0.25760075004302002 -0.47828326139853922 0 -0.2452496448979663 -0.47006360154846771 0 -0.25760075004302002 -0.47828326139853922 0 -0.24748601426825689 -0.48169048734268638 0 -0.2452496448979663 -0.47006360154846771 0 -0.25760075004302002 -0.47828326139853922 0 -0.24748601426825689 -0.48169048734268638 0 -0.27025592863155201 -0.48398736423801791 0 -0.25760075004302002 -0.47828326139853922 0 -0.252636901422571 -0.49999999999999989 0 -0.252636901422571 -0.49999999999999989 0 -0.25100775121625468 -0.49999999999999528 0 -0.24748601426825689 -0.48169048734268638 0 -0.25760075004302002 -0.47828326139853922 0 -0.252636901422571 -0.49999999999999989 0 -0.24748601426825689 -0.48169048734268638 0 -0.25760075004302002 -0.47828326139853922 0 -0.252636901422571 -0.49999999999999989 0 -0.24748601426825689 -0.48169048734268638 0 -0.2282444056986582 -0.48817217004653529 0 -0.25100775121625468 -0.49999999999999528 0 -0.24038731861822091 -0.49241849357716472 0 -0.2299949003212419 -0.5 0 -0.24038731861822091 -0.49241849357716472 0 -0.24748601426825689 -0.48169048734268638 0 -0.2282444056986582 -0.48817217004653529 0 -0.25100775121625468 -0.49999999999999528 0 -0.24748601426825689 -0.48169048734268638 0 -0.25100775121625468 -0.49999999999999528 0 -0.24038731861822091 -0.49241849357716472 0 -0.24748601426825689 -0.48169048734268638 0 -0.24748601426825689 -0.48169048734268638 0 -0.2452496448979663 -0.47006360154846771 0 -0.22638970887156809 -0.48227906684858968 0 -0.2452496448979663 -0.47006360154846771 0 -0.22638970887156809 -0.48227906684858968 0 -0.24748601426825689 -0.48169048734268638 0 -0.2452496448979663 -0.47006360154846771 0 -0.24748601426825689 -0.48169048734268638 0 -0.22638970887156809 -0.48227906684858968 0 -0.2282444056986582 -0.48817217004653529 0 -0.2452496448979663 -0.47006360154846771 0 -0.22638970887156809 -0.48227906684858968 0 -0.2273916416632335 -0.46059091063869267 0 -0.21997971150395751 -0.49543877765749628 0 -0.2282444056986582 -0.48817217004653529 0 -0.209002797129061 -0.49465385275038892 0 -0.21997971150395751 -0.49543877765749628 0 -0.2299949003212419 -0.5 0 -0.208982049426229 -0.50000000000000355 0 -0.22638970887156809 -0.48227906684858968 0 -0.2282444056986582 -0.48817217004653529 0 -0.209002797129061 -0.49465385275038892 0 -0.21997971150395751 -0.49543877765749628 0 -0.22646295436756261 -0.49447927098431149 0 -0.2282444056986582 -0.48817217004653529 0 -0.21997971150395751 -0.49543877765749628 0 -0.22646295436756261 -0.49447927098431149 0 -0.2299949003212419 -0.5 0 -0.22646295436756261 -0.49447927098431149 0 -0.2299949003212419 -0.5 0 -0.23127239475142089 -0.4937674836520029 0 -0.24038731861822091 -0.49241849357716472 0 -0.2299949003212419 -0.5 0 -0.23127239475142089 -0.4937674836520029 0 -0.24038731861822091 -0.49241849357716472 0 -0.23127239475142089 -0.4937674836520029 0 -0.2282444056986582 -0.48817217004653529 0 -0.22646295436756261 -0.49447927098431149 0 -0.23127239475142089 -0.4937674836520029 0 -0.2282444056986582 -0.48817217004653529 0 -0.2452496448979663 -0.47006360154846771 0 -0.2403206514339086 -0.44443776135919028 0 -0.2452496448979663 -0.47006360154846771 0 -0.2403206514339086 -0.44443776135919028 0 -0.2273916416632335 -0.46059091063869267 0 -0.26195227942346833 -0.45924540724590007 0 -0.2452496448979663 -0.47006360154846771 0 -0.2403206514339086 -0.44443776135919028 0 -0.22638970887156809 -0.48227906684858968 0 -0.2273916416632335 -0.46059091063869267 0 -0.21358204474534301 -0.46318994273179342 0 -0.2403206514339086 -0.44443776135919028 0 -0.21507164530136891 -0.44475421719515418 0 -0.22271589348175369 -0.43034426812875881 0 -0.2403206514339086 -0.44443776135919028 0 -0.2273916416632335 -0.46059091063869267 0 -0.21507164530136891 -0.44475421719515418 0 -0.21507164530136891 -0.44475421719515418 0 -0.19686156097863591 -0.45405216860144532 0 -0.20030633205524989 -0.43436801131330288 0 -0.21507164530136891 -0.44475421719515418 0 -0.21358204474534301 -0.46318994273179342 0 -0.19686156097863591 -0.45405216860144532 0 -0.21358204474534301 -0.46318994273179342 0 -0.19686156097863591 -0.45405216860144532 0 -0.2021956669119086 -0.47427335037508522 0 -0.2273916416632335 -0.46059091063869267 0 -0.21507164530136891 -0.44475421719515418 0 -0.21358204474534301 -0.46318994273179342 0 -0.19686156097863591 -0.45405216860144532 0 -0.2021956669119086 -0.47427335037508522 0 -0.17947637882829609 -0.47606307703603878 0 -0.19686156097863591 -0.45405216860144532 0 -0.2021956669119086 -0.47427335037508522 0 -0.19686156097863591 -0.45405216860144532 0 -0.20030633205524989 -0.43436801131330288 0 -0.19152745504536101 -0.43383098682780591 0 -0.19686156097863591 -0.45405216860144532 0 -0.1756956179223696 -0.45313983716461448 0 -0.19152745504536101 -0.43383098682780591 0 -0.19686156097863591 -0.45405216860144532 0 -0.19152745504536101 -0.43383098682780591 0 -0.22638970887156809 -0.48227906684858968 0 -0.209002797129061 -0.49465385275038892 0 -0.20752977284517909 -0.49449453214872569 0 -0.2282444056986582 -0.48817217004653529 0 -0.209002797129061 -0.49465385275038892 0 -0.22638970887156809 -0.48227906684858968 0 -0.20752977284517909 -0.49449453214872569 0 -0.20752977284517909 -0.49449453214872569 0 -0.2021956669119086 -0.47427335037508522 0 -0.208982049426229 -0.50000000000000355 0 -0.209002797129061 -0.49465385275038892 0 -0.20752977284517909 -0.49449453214872569 0 -0.208982049426229 -0.50000000000000355 0 -0.20752977284517909 -0.49449453214872569 0 -0.21997971150395751 -0.49543877765749628 0 -0.208982049426229 -0.50000000000000355 0 -0.209002797129061 -0.49465385275038892 0 -0.22638970887156809 -0.48227906684858968 0 -0.20752977284517909 -0.49449453214872569 0 -0.2021956669119086 -0.47427335037508522 0 -0.22638970887156809 -0.48227906684858968 0 -0.21358204474534301 -0.46318994273179342 0 -0.2021956669119086 -0.47427335037508522 0 -0.2021956669119086 -0.47427335037508522 0 -0.19582083789867419 -0.48804608107840303 0 -0.17947637882829609 -0.47606307703603878 0 -0.208982049426229 -0.50000000000000355 0 -0.20752977284517909 -0.49449453214872569 0 -0.18376972979375211 -0.5 0 -0.20752977284517909 -0.49449453214872569 0 -0.19582083789867419 -0.48804608107840303 0 -0.18376972979375211 -0.5 0 -0.20752977284517909 -0.49449453214872569 0 -0.2021956669119086 -0.47427335037508522 0 -0.19582083789867419 -0.48804608107840303 0 -0.18376972979375211 -0.5 0 -0.1618471422416734 -0.48253188554014242 0 -0.17947637882829609 -0.47606307703603878 0 -0.19582083789867419 -0.48804608107840303 0 -0.18376972979375211 -0.5 0 -0.17947637882829609 -0.47606307703603878 0 -0.18376972979375211 -0.5 0 -0.15855741016127509 -0.5 0 -0.1618471422416734 -0.48253188554014242 0 -0.1618471422416734 -0.48253188554014242 0 -0.17947637882829609 -0.47606307703603878 0 -0.1584323046218086 -0.46452351947720377 0 -0.19686156097863591 -0.45405216860144532 0 -0.17947637882829609 -0.47606307703603878 0 -0.1756956179223696 -0.45313983716461448 0 -0.1756956179223696 -0.45313983716461448 0 -0.17068268333244119 -0.43255586327935991 0 -0.19152745504536101 -0.43383098682780591 0 -0.1756956179223696 -0.45313983716461448 0 -0.15938607793349471 -0.44620939260152609 0 -0.17068268333244119 -0.43255586327935991 0 -0.1756956179223696 -0.45313983716461448 0 -0.15938607793349471 -0.44620939260152609 0 -0.1584323046218086 -0.46452351947720377 0 -0.17947637882829609 -0.47606307703603878 0 -0.1756956179223696 -0.45313983716461448 0 -0.1584323046218086 -0.46452351947720377 0 -0.15938607793349471 -0.44620939260152609 0 -0.1584323046218086 -0.46452351947720377 0 -0.14118977906428781 -0.45025768721690529 0 -0.1584323046218086 -0.46452351947720377 0 -0.14118977906428781 -0.45025768721690529 0 -0.14066360552603391 -0.47612691614253783 0 -0.15938607793349471 -0.44620939260152609 0 -0.14118977906428781 -0.45025768721690529 0 -0.14983791161952181 -0.43128073973090658 0 -0.14118977906428781 -0.45025768721690529 0 -0.12899313990660249 -0.43000561618245092 0 -0.11363557702568269 -0.45333707745496737 0 -0.14118977906428781 -0.45025768721690529 0 -0.14066360552603391 -0.47612691614253783 0 -0.11363557702568269 -0.45333707745496737 0 -0.1333450905287982 -0.5 0 -0.14066360552603391 -0.47612691614253783 0 -0.11794329649893839 -0.48197487990695581 0 -0.15855741016127509 -0.5 0 -0.1333450905287982 -0.5 0 -0.14066360552603391 -0.47612691614253783 0 -0.15855741016127509 -0.5 0 -0.1618471422416734 -0.48253188554014242 0 -0.14066360552603391 -0.47612691614253783 0 -0.1618471422416734 -0.48253188554014242 0 -0.1584323046218086 -0.46452351947720377 0 -0.14066360552603391 -0.47612691614253783 0 -0.14918098417055611 -0.39933591225401699 0 -0.1450836739202539 -0.38146578034887879 0 -0.13156764266953189 -0.39419180846104918 0 -0.14918098417055611 -0.39933591225401699 0 -0.1450836739202539 -0.38146578034887879 0 -0.16617915400390579 -0.38893621782499188 0 -0.1450836739202539 -0.38146578034887879 0 -0.12985547058759039 -0.38221115646869708 0 -0.13156764266953189 -0.39419180846104918 0 -0.12985547058759039 -0.38221115646869708 0 -0.13156764266953189 -0.39419180846104918 0 -0.11447303716370121 -0.38805330211236078 0 -0.1450836739202539 -0.38146578034887879 0 -0.12985547058759039 -0.38221115646869708 0 -0.13270532185108841 -0.36987828221726371 0 -0.12985547058759039 -0.38221115646869708 0 -0.13270532185108841 -0.36987828221726371 0 -0.12093249032275399 -0.37630073243888962 0 -0.14918098417055611 -0.39933591225401699 0 -0.13156764266953189 -0.39419180846104918 0 -0.13094498148683609 -0.40599212159877102 0 -0.13156764266953189 -0.39419180846104918 0 -0.13094498148683609 -0.40599212159877102 0 -0.1204832726865103 -0.40099454946493029 0 -0.14918098417055611 -0.39933591225401699 0 -0.13094498148683609 -0.40599212159877102 0 -0.13908706203857879 -0.41467076421823351 0 -0.13094498148683609 -0.40599212159877102 0 -0.12604238146509139 -0.41885400096579239 0 -0.13908706203857879 -0.41467076421823351 0 -0.13094498148683609 -0.40599212159877102 0 -0.12604238146509139 -0.41885400096579239 0 -0.11968978679134649 -0.41107029338891687 0 -0.12604238146509139 -0.41885400096579239 0 -0.13908706203857879 -0.41467076421823351 0 -0.12899313990660249 -0.43000561618245092 0 -0.12899313990660249 -0.43000561618245092 0 -0.14983791161952181 -0.43128073973090658 0 -0.14118977906428781 -0.45025768721690529 0 -0.12899313990660249 -0.43000561618245092 0 -0.14983791161952181 -0.43128073973090658 0 -0.13908706203857879 -0.41467076421823351 0 -0.12899313990660249 -0.43000561618245092 0 -0.14983791161952181 -0.43128073973090658 0 -0.12899313990660249 -0.43000561618245092 0 -0.1237441851603739 -0.42968452531641471 0 -0.12604238146509139 -0.41885400096579239 0 -0.12899313990660249 -0.43000561618245092 0 -0.1237441851603739 -0.42968452531641471 0 -0.13908706203857879 -0.41467076421823351 0 -0.12899313990660249 -0.43000561618245092 0 -0.13908706203857879 -0.41467076421823351 0 -0.14983791161952181 -0.43128073973090658 0 -0.15464413834413571 -0.41742983927333072 0 -0.14918098417055611 -0.39933591225401699 0 -0.13908706203857879 -0.41467076421823351 0 -0.15464413834413571 -0.41742983927333072 0 -0.14918098417055611 -0.39933591225401699 0 -0.13908706203857879 -0.41467076421823351 0 -0.15464413834413571 -0.41742983927333072 0 -0.16804827216196361 -0.40905368322052482 0 -0.17068268333244119 -0.43255586327935991 0 -0.14918098417055611 -0.39933591225401699 0 -0.15464413834413571 -0.41742983927333072 0 -0.16804827216196361 -0.40905368322052482 0 -0.15938607793349471 -0.44620939260152609 0 -0.14983791161952181 -0.43128073973090658 0 -0.17068268333244119 -0.43255586327935991 0 -0.14983791161952181 -0.43128073973090658 0 -0.17068268333244119 -0.43255586327935991 0 -0.14983791161952181 -0.43128073973090658 0 -0.15464413834413571 -0.41742983927333072 0 -0.17068268333244119 -0.43255586327935991 0 -0.17068268333244119 -0.43255586327935991 0 -0.19152745504536101 -0.43383098682780591 0 -0.17068268333244119 -0.43255586327935991 0 -0.1869794129890992 -0.41658971222914948 0 -0.19152745504536101 -0.43383098682780591 0 -0.1869794129890992 -0.41658971222914948 0 -0.18243137093283521 -0.39934843763049382 0 -0.16804827216196361 -0.40905368322052482 0 -0.17068268333244119 -0.43255586327935991 0 -0.1869794129890992 -0.41658971222914948 0 -0.16804827216196361 -0.40905368322052482 0 -0.1869794129890992 -0.41658971222914948 0 -0.18243137093283521 -0.39934843763049382 0 -0.16804827216196361 -0.40905368322052482 0 -0.18243137093283521 -0.39934843763049382 0 -0.16617915400390579 -0.38893621782499188 0 -0.18243137093283521 -0.39934843763049382 0 -0.16617915400390579 -0.38893621782499188 0 -0.1882485337792571 -0.38577168791960781 0 -0.14918098417055611 -0.39933591225401699 0 -0.16804827216196361 -0.40905368322052482 0 -0.16617915400390579 -0.38893621782499188 0 -0.16617915400390579 -0.38893621782499188 0 -0.15841537024425509 -0.36855882599209278 0 -0.17248245143377669 -0.3747837348953118 0 -0.1450836739202539 -0.38146578034887879 0 -0.16617915400390579 -0.38893621782499188 0 -0.15841537024425509 -0.36855882599209278 0 -0.16617915400390579 -0.38893621782499188 0 -0.1882485337792571 -0.38577168791960781 0 -0.17248245143377669 -0.3747837348953118 0 -0.1882485337792571 -0.38577168791960781 0 -0.17248245143377669 -0.3747837348953118 0 -0.18493513207215029 -0.37123071705684929 0 -0.1882485337792571 -0.38577168791960781 0 -0.204835820648987 -0.38936949461208792 0 -0.20453734078969599 -0.37087534012515561 0 -0.1882485337792571 -0.38577168791960781 0 -0.20453734078969599 -0.37087534012515561 0 -0.18493513207215029 -0.37123071705684929 0 -0.18243137093283521 -0.39934843763049382 0 -0.1882485337792571 -0.38577168791960781 0 -0.1976400024637687 -0.40313487076280757 0 -0.1882485337792571 -0.38577168791960781 0 -0.1976400024637687 -0.40313487076280757 0 -0.204835820648987 -0.38936949461208792 0 -0.1976400024637687 -0.40313487076280757 0 -0.21313158075568811 -0.40090467750516129 0 -0.204835820648987 -0.38936949461208792 0 -0.1976400024637687 -0.40313487076280757 0 -0.21313158075568811 -0.40090467750516129 0 -0.20888203033879779 -0.41405532671328249 0 -0.21313158075568811 -0.40090467750516129 0 -0.21835330676092871 -0.38877122119239682 0 -0.204835820648987 -0.38936949461208792 0 -0.21835330676092871 -0.38877122119239682 0 -0.2265441112129572 -0.37281351989140432 0 -0.20453734078969599 -0.37087534012515561 0 -0.21835330676092871 -0.38877122119239682 0 -0.204835820648987 -0.38936949461208792 0 -0.20453734078969599 -0.37087534012515561 0 -0.1869794129890992 -0.41658971222914948 0 -0.19152745504536101 -0.43383098682780591 0 -0.19935974559713199 -0.42300257050879919 0 -0.1869794129890992 -0.41658971222914948 0 -0.19152745504536101 -0.43383098682780591 0 -0.20030633205524989 -0.43436801131330288 0 -0.19152745504536101 -0.43383098682780591 0 -0.19935974559713199 -0.42300257050879919 0 -0.20030633205524989 -0.43436801131330288 0 -0.19152745504536101 -0.43383098682780591 0 -0.1869794129890992 -0.41658971222914948 0 -0.18243137093283521 -0.39934843763049382 0 -0.1976400024637687 -0.40313487076280757 0 -0.19935974559713199 -0.42300257050879919 0 -0.19821529784719941 -0.41419562005350968 0 -0.20888203033879779 -0.41405532671328249 0 -0.1869794129890992 -0.41658971222914948 0 -0.19935974559713199 -0.42300257050879919 0 -0.19821529784719941 -0.41419562005350968 0 -0.1869794129890992 -0.41658971222914948 0 -0.1976400024637687 -0.40313487076280757 0 -0.19821529784719941 -0.41419562005350968 0 -0.1976400024637687 -0.40313487076280757 0 -0.19821529784719941 -0.41419562005350968 0 -0.20888203033879779 -0.41405532671328249 0 -0.21313158075568811 -0.40090467750516129 0 -0.20888203033879779 -0.41405532671328249 0 -0.22166545647152541 -0.41477792313803807 0 -0.20888203033879779 -0.41405532671328249 0 -0.21062146468177639 -0.42686837700205332 0 -0.22166545647152541 -0.41477792313803807 0 -0.19935974559713199 -0.42300257050879919 0 -0.20888203033879779 -0.41405532671328249 0 -0.21062146468177639 -0.42686837700205332 0 -0.21507164530136891 -0.44475421719515418 0 -0.21062146468177639 -0.42686837700205332 0 -0.22271589348175369 -0.43034426812875881 0 -0.21507164530136891 -0.44475421719515418 0 -0.20030633205524989 -0.43436801131330288 0 -0.21062146468177639 -0.42686837700205332 0 -0.20030633205524989 -0.43436801131330288 0 -0.19935974559713199 -0.42300257050879919 0 -0.21062146468177639 -0.42686837700205332 0 -0.21062146468177639 -0.42686837700205332 0 -0.22271589348175369 -0.43034426812875881 0 -0.22166545647152541 -0.41477792313803807 0 -0.2403206514339086 -0.44443776135919028 0 -0.22271589348175369 -0.43034426812875881 0 -0.2353916579698449 -0.41881192116991389 0 -0.22166545647152541 -0.41477792313803807 0 -0.2353916579698449 -0.41881192116991389 0 -0.22719945433311969 -0.40178260350599848 0 -0.22271589348175369 -0.43034426812875881 0 -0.22166545647152541 -0.41477792313803807 0 -0.2353916579698449 -0.41881192116991389 0 -0.25576693522964739 -0.40915399643003719 0 -0.2353916579698449 -0.41881192116991389 0 -0.24679370824547431 -0.39660219129778729 0 -0.25576693522964739 -0.40915399643003719 0 -0.25378751279796252 -0.42777966276414292 0 -0.2353916579698449 -0.41881192116991389 0 -0.25378751279796252 -0.42777966276414292 0 -0.2403206514339086 -0.44443776135919028 0 -0.2353916579698449 -0.41881192116991389 0 -0.2403206514339086 -0.44443776135919028 0 -0.2353916579698449 -0.41881192116991389 0 -0.21835330676092871 -0.38877122119239682 0 -0.23046266450577971 -0.39318608098063801 0 -0.2265441112129572 -0.37281351989140432 0 -0.23046266450577971 -0.39318608098063801 0 -0.2265441112129572 -0.37281351989140432 0 -0.23046266450577971 -0.39318608098063801 0 -0.23725575419103509 -0.36759998283563622 0 -0.2265441112129572 -0.37281351989140432 0 -0.21313158075568811 -0.40090467750516129 0 -0.21835330676092871 -0.38877122119239682 0 -0.22719945433311969 -0.40178260350599848 0 -0.2353916579698449 -0.41881192116991389 0 -0.23046266450577971 -0.39318608098063801 0 -0.2353916579698449 -0.41881192116991389 0 -0.22719945433311969 -0.40178260350599848 0 -0.23046266450577971 -0.39318608098063801 0 -0.21835330676092871 -0.38877122119239682 0 -0.22719945433311969 -0.40178260350599848 0 -0.23046266450577971 -0.39318608098063801 0 -0.21313158075568811 -0.40090467750516129 0 -0.22166545647152541 -0.41477792313803807 0 -0.22719945433311969 -0.40178260350599848 0 -0.22719945433311969 -0.40178260350599848 0 -0.23046266450577971 -0.39318608098063801 0 -0.2353916579698449 -0.41881192116991389 0 -0.23046266450577971 -0.39318608098063801 0 -0.24679370824547431 -0.39660219129778729 0 -0.23046266450577971 -0.39318608098063801 0 -0.244747899488584 -0.38057329054419903 0 -0.2410593474444202 -0.3652704338858237 0 -0.23046266450577971 -0.39318608098063801 0 -0.2410593474444202 -0.3652704338858237 0 -0.23725575419103509 -0.36759998283563622 0 -0.2592047447232026 -0.38680084736461973 0 -0.244747899488584 -0.38057329054419903 0 -0.2460023022026411 -0.36224307152110841 0 -0.23046266450577971 -0.39318608098063801 0 -0.2410593474444202 -0.3652704338858237 0 -0.23046266450577971 -0.39318608098063801 0 -0.24679370824547431 -0.39660219129778729 0 -0.244747899488584 -0.38057329054419903 0 -0.244747899488584 -0.38057329054419903 0 -0.2460023022026411 -0.36224307152110841 0 -0.2410593474444202 -0.3652704338858237 0 -0.2460023022026411 -0.36224307152110841 0 -0.2410593474444202 -0.3652704338858237 0 -0.2460023022026411 -0.36224307152110841 0 -0.2410593474444202 -0.3652704338858237 0 -0.24377862724592991 -0.35810682846981901 0 -0.2410593474444202 -0.3652704338858237 0 -0.24377862724592991 -0.35810682846981901 0 -0.2460023022026411 -0.36224307152110841 0 -0.24377862724592991 -0.35810682846981901 0 -0.2410593474444202 -0.3652704338858237 0 -0.23725575419103509 -0.36759998283563622 0 -0.23701736817527641 -0.35569496724222521 0 -0.2410593474444202 -0.3652704338858237 0 -0.23701736817527641 -0.35569496724222521 0 -0.24377862724592991 -0.35810682846981901 0 -0.2410593474444202 -0.3652704338858237 0 -0.23725575419103509 -0.36759998283563622 0 -0.2265441112129572 -0.37281351989140432 0 -0.22262555792013411 -0.35244095880217091 0 -0.23725575419103509 -0.36759998283563622 0 -0.2265441112129572 -0.37281351989140432 0 -0.22262555792013411 -0.35244095880217091 0 -0.22262555792013411 -0.35244095880217091 0 -0.23701736817527641 -0.35569496724222521 0 -0.23336514533586669 -0.33873677977621192 0 -0.22262555792013411 -0.35244095880217091 0 -0.23701736817527641 -0.35569496724222521 0 -0.23725575419103509 -0.36759998283563622 0 -0.22262555792013411 -0.35244095880217091 0 -0.23701736817527641 -0.35569496724222521 0 -0.23701736817527641 -0.35569496724222521 0 -0.24377862724592991 -0.35810682846981901 0 -0.23336514533586669 -0.33873677977621192 0 -0.25299703868895912 -0.33382206670913711 0 -0.24377862724592991 -0.35810682846981901 0 -0.24377862724592991 -0.35810682846981901 0 -0.23336514533586669 -0.33873677977621192 0 -0.25299703868895912 -0.33382206670913711 0 -0.24377862724592991 -0.35810682846981901 0 -0.23336514533586669 -0.33873677977621192 0 -0.25299703868895912 -0.33382206670913711 0 -0.22763203278919261 -0.32231407282005331 0 -0.23336514533586669 -0.33873677977621192 0 -0.24360540713082579 -0.32081459247988048 0 -0.23555629798485059 -0.31605184782680512 0 -0.22763203278919261 -0.32231407282005331 0 -0.25299703868895912 -0.33382206670913711 0 -0.24360540713082579 -0.32081459247988048 0 -0.22763203278919261 -0.32231407282005331 0 -0.25299703868895912 -0.33382206670913711 0 -0.22763203278919261 -0.32231407282005331 0 -0.24360540713082579 -0.32081459247988048 0 -0.23555629798485059 -0.31605184782680512 0 -0.24154087261896171 -0.30509679822178848 0 -0.22763203278919261 -0.32231407282005331 0 -0.22295166342580261 -0.31936673108260522 0 -0.23336514533586669 -0.33873677977621192 0 -0.22763203278919261 -0.32231407282005331 0 -0.22295166342580261 -0.31936673108260522 0 -0.22975603219394361 -0.31151916599568602 0 -0.23555629798485059 -0.31605184782680512 0 -0.22763203278919261 -0.32231407282005331 0 -0.22975603219394361 -0.31151916599568602 0 -0.22653528170768869 -0.32787483719069771 0 -0.2178222453206749 -0.32746853350879251 0 -0.22653528170768869 -0.32787483719069771 0 -0.22295166342580261 -0.31936673108260522 0 -0.2178222453206749 -0.32746853350879251 0 -0.22653528170768869 -0.32787483719069771 0 -0.22295166342580261 -0.31936673108260522 0 -0.23336514533586669 -0.33873677977621192 0 -0.22262555792013411 -0.35244095880217091 0 -0.23336514533586669 -0.33873677977621192 0 -0.2178222453206749 -0.32746853350879251 0 -0.22295166342580261 -0.31936673108260522 0 -0.23336514533586669 -0.33873677977621192 0 -0.22262555792013411 -0.35244095880217091 0 -0.2178222453206749 -0.32746853350879251 0 -0.22653528170768869 -0.32787483719069771 0 -0.23336514533586669 -0.33873677977621192 0 -0.2178222453206749 -0.32746853350879251 0 -0.22262555792013411 -0.35244095880217091 0 -0.2178222453206749 -0.32746853350879251 0 -0.19957745336066909 -0.3472297501054073 0 -0.2178222453206749 -0.32746853350879251 0 -0.21253818151573889 -0.29999668238899851 0 -0.2178222453206749 -0.32746853350879251 0 -0.21253818151573889 -0.29999668238899851 0 -0.1980494735725207 -0.31098446202146568 0 -0.22295166342580261 -0.31936673108260522 0 -0.2178222453206749 -0.32746853350879251 0 -0.21253818151573889 -0.29999668238899851 0 -0.2178222453206749 -0.32746853350879251 0 -0.1887374245133322 -0.32611225892704121 0 -0.1887374245133322 -0.32611225892704121 0 -0.1980494735725207 -0.31098446202146568 0 -0.18177076353132871 -0.31151253466574502 0 -0.2178222453206749 -0.32746853350879251 0 -0.1887374245133322 -0.32611225892704121 0 -0.1980494735725207 -0.31098446202146568 0 -0.2178222453206749 -0.32746853350879251 0 -0.1887374245133322 -0.32611225892704121 0 -0.19957745336066909 -0.3472297501054073 0 -0.1887374245133322 -0.32611225892704121 0 -0.19957745336066909 -0.3472297501054073 0 -0.17652934880120411 -0.34201854140864407 0 -0.19957745336066909 -0.3472297501054073 0 -0.18884343381515531 -0.35838521860273581 0 -0.17652934880120411 -0.34201854140864407 0 -0.19957745336066909 -0.3472297501054073 0 -0.18884343381515531 -0.35838521860273581 0 -0.20453734078969599 -0.37087534012515561 0 -0.19957745336066909 -0.3472297501054073 0 -0.17652934880120411 -0.34201854140864407 0 -0.18884343381515531 -0.35838521860273581 0 -0.20453734078969599 -0.37087534012515561 0 -0.18493513207215029 -0.37123071705684929 0 -0.2265441112129572 -0.37281351989140432 0 -0.22262555792013411 -0.35244095880217091 0 -0.20453734078969599 -0.37087534012515561 0 -0.22262555792013411 -0.35244095880217091 0 -0.19957745336066909 -0.3472297501054073 0 -0.22262555792013411 -0.35244095880217091 0 -0.19957745336066909 -0.3472297501054073 0 -0.20453734078969599 -0.37087534012515561 0 -0.22641788391325321 -0.26609482917591371 0 -0.2305738397104786 -0.23852602789213109 0 -0.22641788391325321 -0.26609482917591371 0 -0.21660475357700959 -0.25507434199911633 0 -0.2305738397104786 -0.23852602789213109 0 -0.2399648233912737 -0.2555988223921688 0 -0.22641788391325321 -0.26609482917591371 0 -0.2305738397104786 -0.23852602789213109 0 -0.2399648233912737 -0.2555988223921688 0 -0.24478160024726039 -0.27126628069458419 0 -0.22641788391325321 -0.26609482917591371 0 -0.25299644359707452 -0.25851950246286298 0 -0.2399648233912737 -0.2555988223921688 0 -0.24478160024726039 -0.27126628069458419 0 -0.25299644359707452 -0.25851950246286298 0 -0.2399648233912737 -0.2555988223921688 0 -0.24456523742333311 -0.24298281553316639 0 -0.24478160024726039 -0.27126628069458419 0 -0.22641788391325321 -0.26609482917591371 0 -0.2353388535850495 -0.28166023015784952 0 -0.24478160024726039 -0.27126628069458419 0 -0.2353388535850495 -0.28166023015784952 0 -0.24704595407450111 -0.28488916192179159 0 -0.25500366536127361 -0.28040897753500388 0 -0.24478160024726039 -0.27126628069458419 0 -0.24704595407450111 -0.28488916192179159 0 -0.22641788391325321 -0.26609482917591371 0 -0.2222619281160278 -0.29366363045969618 0 -0.2353388535850495 -0.28166023015784952 0 -0.22641788391325321 -0.26609482917591371 0 -0.2222619281160278 -0.29366363045969618 0 -0.20757961293226121 -0.27421708113486842 0 -0.22641788391325321 -0.26609482917591371 0 -0.2222619281160278 -0.29366363045969618 0 -0.2222619281160278 -0.29366363045969618 0 -0.2353388535850495 -0.28166023015784952 0 -0.2361869015742048 -0.29238724853726161 0 -0.2222619281160278 -0.29366363045969618 0 -0.2361869015742048 -0.29238724853726161 0 -0.23017308610071671 -0.30104162483689773 0 -0.2353388535850495 -0.28166023015784952 0 -0.24704595407450111 -0.28488916192179159 0 -0.2361869015742048 -0.29238724853726161 0 -0.24704595407450111 -0.28488916192179159 0 -0.24416934174205759 -0.2941241400944194 0 -0.2361869015742048 -0.29238724853726161 0 -0.25150620891688957 -0.29671190529847857 0 -0.24704595407450111 -0.28488916192179159 0 -0.24416934174205759 -0.2941241400944194 0 -0.24416934174205759 -0.2941241400944194 0 -0.2361869015742048 -0.29238724853726161 0 -0.24154087261896171 -0.30509679822178848 0 -0.2361869015742048 -0.29238724853726161 0 -0.24154087261896171 -0.30509679822178848 0 -0.23017308610071671 -0.30104162483689773 0 -0.2631733871945095 -0.30701373855214081 0 -0.24360540713082579 -0.32081459247988048 0 -0.24154087261896171 -0.30509679822178848 0 -0.25150620891688957 -0.29671190529847857 0 -0.24416934174205759 -0.2941241400944194 0 -0.24154087261896171 -0.30509679822178848 0 -0.23555629798485059 -0.31605184782680512 0 -0.24154087261896171 -0.30509679822178848 0 -0.22975603219394361 -0.31151916599568602 0 -0.22975603219394361 -0.31151916599568602 0 -0.23017308610071671 -0.30104162483689773 0 -0.22353617827044581 -0.30511756695277681 0 -0.24154087261896171 -0.30509679822178848 0 -0.22975603219394361 -0.31151916599568602 0 -0.23017308610071671 -0.30104162483689773 0 -0.22295166342580261 -0.31936673108260522 0 -0.22353617827044581 -0.30511756695277681 0 -0.21253818151573889 -0.29999668238899851 0 -0.2222619281160278 -0.29366363045969618 0 -0.22353617827044581 -0.30511756695277681 0 -0.21253818151573889 -0.29999668238899851 0 -0.2222619281160278 -0.29366363045969618 0 -0.23017308610071671 -0.30104162483689773 0 -0.22353617827044581 -0.30511756695277681 0 -0.22295166342580261 -0.31936673108260522 0 -0.22975603219394361 -0.31151916599568602 0 -0.22353617827044581 -0.30511756695277681 0 -0.22295166342580261 -0.31936673108260522 0 -0.21253818151573889 -0.29999668238899851 0 -0.21253818151573889 -0.29999668238899851 0 -0.1980494735725207 -0.31098446202146568 0 -0.1991058216570358 -0.29646064652123671 0 -0.1980494735725207 -0.31098446202146568 0 -0.18489960599671551 -0.29644585272573842 0 -0.18177076353132871 -0.31151253466574502 0 -0.1980494735725207 -0.31098446202146568 0 -0.1991058216570358 -0.29646064652123671 0 -0.18489960599671551 -0.29644585272573842 0 -0.1991058216570358 -0.29646064652123671 0 -0.20093602554316869 -0.27841558894874391 0 -0.18489960599671551 -0.29644585272573842 0 -0.20093602554316869 -0.27841558894874391 0 -0.18034131060680519 -0.27542690187426289 0 -0.18489960599671551 -0.29644585272573842 0 -0.21253818151573889 -0.29999668238899851 0 -0.1991058216570358 -0.29646064652123671 0 -0.20093602554316869 -0.27841558894874391 0 -0.2222619281160278 -0.29366363045969618 0 -0.21253818151573889 -0.29999668238899851 0 -0.20757961293226121 -0.27421708113486842 0 -0.21253818151573889 -0.29999668238899851 0 -0.20757961293226121 -0.27421708113486842 0 -0.21253818151573889 -0.29999668238899851 0 -0.20093602554316869 -0.27841558894874391 0 -0.21253818151573889 -0.29999668238899851 0 -0.20757961293226121 -0.27421708113486842 0 -0.20093602554316869 -0.27841558894874391 0 -0.20093602554316869 -0.27841558894874391 0 -0.18933386957059889 -0.25683449550848919 0 -0.18034131060680519 -0.27542690187426289 0 -0.20093602554316869 -0.27841558894874391 0 -0.18933386957059889 -0.25683449550848919 0 -0.20757961293226121 -0.27421708113486842 0 -0.20093602554316869 -0.27841558894874391 0 -0.18933386957059889 -0.25683449550848919 0 -0.20757961293226121 -0.27421708113486842 0 -0.18933386957059889 -0.25683449550848919 0 -0.20262104434878389 -0.2484374798807383 0 -0.20757961293226121 -0.27421708113486842 0 -0.20488228512787229 -0.25223142847060898 0 -0.21660475357700959 -0.25507434199911633 0 -0.22641788391325321 -0.26609482917591371 0 -0.20757961293226121 -0.27421708113486842 0 -0.21660475357700959 -0.25507434199911633 0 -0.20488228512787229 -0.25223142847060898 0 -0.20262104434878389 -0.2484374798807383 0 -0.20757961293226121 -0.27421708113486842 0 -0.20262104434878389 -0.2484374798807383 0 -0.20757961293226121 -0.27421708113486842 0 -0.20488228512787229 -0.25223142847060898 0 -0.20262104434878389 -0.2484374798807383 0 -0.16905252216868019 -0.25613820074362248 0 -0.1627540001104664 -0.27268581766329619 0 -0.15408580470717839 -0.26129309964391018 0 -0.16905252216868019 -0.25613820074362248 0 -0.15408580470717839 -0.26129309964391018 0 -0.15770655761944219 -0.24753195129691111 0 -0.18933386957059889 -0.25683449550848919 0 -0.16905252216868019 -0.25613820074362248 0 -0.17240093000016751 -0.2399074743415513 0 -0.18933386957059889 -0.25683449550848919 0 -0.16905252216868019 -0.25613820074362248 0 -0.18034131060680519 -0.27542690187426289 0 -0.1627540001104664 -0.27268581766329619 0 -0.16461523481359691 -0.28916265523971618 0 -0.14567512825607129 -0.28140823081496941 0 -0.18034131060680519 -0.27542690187426289 0 -0.1627540001104664 -0.27268581766329619 0 -0.16461523481359691 -0.28916265523971618 0 -0.16905252216868019 -0.25613820074362248 0 -0.18034131060680519 -0.27542690187426289 0 -0.1627540001104664 -0.27268581766329619 0 -0.18034131060680519 -0.27542690187426289 0 -0.16461523481359691 -0.28916265523971618 0 -0.18489960599671551 -0.29644585272573842 0 -0.16461523481359691 -0.28916265523971618 0 -0.18489960599671551 -0.29644585272573842 0 -0.16735378367408971 -0.30552638687797939 0 -0.18489960599671551 -0.29644585272573842 0 -0.18177076353132871 -0.31151253466574502 0 -0.16735378367408971 -0.30552638687797939 0 -0.18177076353132871 -0.31151253466574502 0 -0.16735378367408971 -0.30552638687797939 0 -0.17086487573525061 -0.31615365639959681 0 -0.16735378367408971 -0.30552638687797939 0 -0.14734492975912539 -0.30278438059509921 0 -0.15680980325151259 -0.31286111718192833 0 -0.16461523481359691 -0.28916265523971618 0 -0.16735378367408971 -0.30552638687797939 0 -0.14734492975912539 -0.30278438059509921 0 -0.16735378367408971 -0.30552638687797939 0 -0.17086487573525061 -0.31615365639959681 0 -0.15680980325151259 -0.31286111718192833 0 -0.14734492975912539 -0.30278438059509921 0 -0.15680980325151259 -0.31286111718192833 0 -0.14535571492740251 -0.31517761073123379 0 -0.14734492975912539 -0.30278438059509921 0 -0.1324034550217382 -0.31208686177031281 0 -0.14535571492740251 -0.31517761073123379 0 -0.14734492975912539 -0.30278438059509921 0 -0.1324034550217382 -0.31208686177031281 0 -0.1240072126963065 -0.29805138080035298 0 -0.14567512825607129 -0.28140823081496941 0 -0.12949158947917319 -0.27227839422252509 0 -0.1240072126963065 -0.29805138080035298 0 -0.14734492975912539 -0.30278438059509921 0 -0.14567512825607129 -0.28140823081496941 0 -0.1240072126963065 -0.29805138080035298 0 -0.12949158947917319 -0.27227839422252509 0 -0.1240072126963065 -0.29805138080035298 0 -0.16461523481359691 -0.28916265523971618 0 -0.14734492975912539 -0.30278438059509921 0 -0.14567512825607129 -0.28140823081496941 0 -0.1627540001104664 -0.27268581766329619 0 -0.14567512825607129 -0.28140823081496941 0 -0.15408580470717839 -0.26129309964391018 0 -0.14567512825607129 -0.28140823081496941 0 -0.14011655107410961 -0.26228725149448001 0 -0.15408580470717839 -0.26129309964391018 0 -0.14567512825607129 -0.28140823081496941 0 -0.12949158947917319 -0.27227839422252509 0 -0.14011655107410961 -0.26228725149448001 0 -0.12949158947917319 -0.27227839422252509 0 -0.14011655107410961 -0.26228725149448001 0 -0.13186864264527029 -0.25209333300237979 0 -0.12949158947917319 -0.27227839422252509 0 -0.13186864264527029 -0.25209333300237979 0 -0.11610315498634841 -0.25620128443524648 0 -0.14011655107410961 -0.26228725149448001 0 -0.13186864264527029 -0.25209333300237979 0 -0.14554826146612651 -0.2474766242342207 0 -0.14011655107410961 -0.26228725149448001 0 -0.15408580470717839 -0.26129309964391018 0 -0.14554826146612651 -0.2474766242342207 0 -0.15408580470717839 -0.26129309964391018 0 -0.14554826146612651 -0.2474766242342207 0 -0.15770655761944219 -0.24753195129691111 0 -0.16226629960254499 -0.35115961650781852 0 -0.17346890282696781 -0.35965846742291813 0 -0.17652934880120411 -0.34201854140864407 0 -0.16226629960254499 -0.35115961650781852 0 -0.15841537024425509 -0.36855882599209278 0 -0.14842004862455149 -0.35376876769533461 0 -0.16226629960254499 -0.35115961650781852 0 -0.15841537024425509 -0.36855882599209278 0 -0.17346890282696781 -0.35965846742291813 0 -0.15841537024425509 -0.36855882599209278 0 -0.17346890282696781 -0.35965846742291813 0 -0.17248245143377669 -0.3747837348953118 0 -0.17346890282696781 -0.35965846742291813 0 -0.17248245143377669 -0.3747837348953118 0 -0.18493513207215029 -0.37123071705684929 0 -0.18884343381515531 -0.35838521860273581 0 -0.17346890282696781 -0.35965846742291813 0 -0.18493513207215029 -0.37123071705684929 0 -0.18884343381515531 -0.35838521860273581 0 -0.17346890282696781 -0.35965846742291813 0 -0.17652934880120411 -0.34201854140864407 0 -0.1887374245133322 -0.32611225892704121 0 -0.17652934880120411 -0.34201854140864407 0 -0.15965260370598949 -0.32475598434529002 0 -0.1887374245133322 -0.32611225892704121 0 -0.18177076353132871 -0.31151253466574502 0 -0.17086487573525061 -0.31615365639959681 0 -0.1887374245133322 -0.32611225892704121 0 -0.15965260370598949 -0.32475598434529002 0 -0.1887374245133322 -0.32611225892704121 0 -0.17086487573525061 -0.31615365639959681 0 -0.15965260370598949 -0.32475598434529002 0 -0.17086487573525061 -0.31615365639959681 0 -0.15965260370598949 -0.32475598434529002 0 -0.15680980325151259 -0.31286111718192833 0 -0.17652934880120411 -0.34201854140864407 0 -0.1534812442417392 -0.33680733271188101 0 -0.16226629960254499 -0.35115961650781852 0 -0.17652934880120411 -0.34201854140864407 0 -0.1534812442417392 -0.33680733271188101 0 -0.17652934880120411 -0.34201854140864407 0 -0.15965260370598949 -0.32475598434529002 0 -0.1534812442417392 -0.33680733271188101 0 -0.1534812442417392 -0.33680733271188101 0 -0.14045855894767079 -0.33286907982751379 0 -0.13364578042510869 -0.34442267227318257 0 -0.15965260370598949 -0.32475598434529002 0 -0.1534812442417392 -0.33680733271188101 0 -0.14045855894767079 -0.33286907982751379 0 -0.15965260370598949 -0.32475598434529002 0 -0.13056778289864679 -0.32339970976353882 0 -0.15965260370598949 -0.32475598434529002 0 -0.14535571492740251 -0.31517761073123379 0 -0.13056778289864679 -0.32339970976353882 0 -0.15965260370598949 -0.32475598434529002 0 -0.13056778289864679 -0.32339970976353882 0 -0.14045855894767079 -0.33286907982751379 0 -0.15965260370598949 -0.32475598434529002 0 -0.15680980325151259 -0.31286111718192833 0 -0.14535571492740251 -0.31517761073123379 0 -0.1324034550217382 -0.31208686177031281 0 -0.14535571492740251 -0.31517761073123379 0 -0.13056778289864679 -0.32339970976353882 0 -0.13056778289864679 -0.32339970976353882 0 -0.12724668346308779 -0.33482263663968498 0 -0.1185228359134398 -0.32382436737818088 0 -0.1324034550217382 -0.31208686177031281 0 -0.13056778289864679 -0.32339970976353882 0 -0.1185228359134398 -0.32382436737818088 0 -0.14045855894767079 -0.33286907982751379 0 -0.12724668346308779 -0.33482263663968498 0 -0.13364578042510869 -0.34442267227318257 0 -0.13056778289864679 -0.32339970976353882 0 -0.14045855894767079 -0.33286907982751379 0 -0.12724668346308779 -0.33482263663968498 0 -0.13608618631206551 -0.35927344557271751 0 -0.13364578042510869 -0.34442267227318257 0 -0.1230496859960637 -0.36229672676489699 0 -0.13608618631206551 -0.35927344557271751 0 -0.13364578042510869 -0.34442267227318257 0 -0.14842004862455149 -0.35376876769533461 0 -0.1534812442417392 -0.33680733271188101 0 -0.13364578042510869 -0.34442267227318257 0 -0.14842004862455149 -0.35376876769533461 0 -0.16226629960254499 -0.35115961650781852 0 -0.1534812442417392 -0.33680733271188101 0 -0.14842004862455149 -0.35376876769533461 0 -0.1450836739202539 -0.38146578034887879 0 -0.15841537024425509 -0.36855882599209278 0 -0.1449701798355629 -0.36644347324729137 0 -0.15841537024425509 -0.36855882599209278 0 -0.14842004862455149 -0.35376876769533461 0 -0.1449701798355629 -0.36644347324729137 0 -0.13608618631206551 -0.35927344557271751 0 -0.14842004862455149 -0.35376876769533461 0 -0.1449701798355629 -0.36644347324729137 0 -0.1450836739202539 -0.38146578034887879 0 -0.1449701798355629 -0.36644347324729137 0 -0.13270532185108841 -0.36987828221726371 0 -0.13608618631206551 -0.35927344557271751 0 -0.1449701798355629 -0.36644347324729137 0 -0.13270532185108841 -0.36987828221726371 0 -0.13608618631206551 -0.35927344557271751 0 -0.13270532185108841 -0.36987828221726371 0 -0.1230496859960637 -0.36229672676489699 0 -0.13270532185108841 -0.36987828221726371 0 -0.1230496859960637 -0.36229672676489699 0 -0.12093249032275399 -0.37630073243888962 0 -0.1230496859960637 -0.36229672676489699 0 -0.1130384591305732 -0.34959735395600883 0 -0.1075540823477065 -0.37537034053383689 0 -0.1130384591305732 -0.34959735395600883 0 -0.1075540823477065 -0.37537034053383689 0 -0.1230496859960637 -0.36229672676489699 0 -0.12093249032275399 -0.37630073243888962 0 -0.1075540823477065 -0.37537034053383689 0 -0.089124007019643237 -0.37354420806398708 0 -0.089968304967658591 -0.35505452549318339 0 -0.1075540823477065 -0.37537034053383689 0 -0.1130384591305732 -0.34959735395600883 0 -0.089968304967658591 -0.35505452549318339 0 -0.1075540823477065 -0.37537034053383689 0 -0.1130384591305732 -0.34959735395600883 0 -0.1032296461860252 -0.33511000031336918 0 -0.089968304967658591 -0.35505452549318339 0 -0.13364578042510869 -0.34442267227318257 0 -0.1230496859960637 -0.36229672676489699 0 -0.1130384591305732 -0.34959735395600883 0 -0.12724668346308779 -0.33482263663968498 0 -0.13364578042510869 -0.34442267227318257 0 -0.1130384591305732 -0.34959735395600883 0 -0.12724668346308779 -0.33482263663968498 0 -0.1130384591305732 -0.34959735395600883 0 -0.1185228359134398 -0.32382436737818088 0 -0.1130384591305732 -0.34959735395600883 0 -0.1185228359134398 -0.32382436737818088 0 -0.1032296461860252 -0.33511000031336918 0 -0.1130384591305732 -0.34959735395600883 0 -0.1185228359134398 -0.32382436737818088 0 -0.1185228359134398 -0.32382436737818088 0 -0.1052055460291338 -0.31747852934551118 0 -0.1240072126963065 -0.29805138080035298 0 -0.1052055460291338 -0.31747852934551118 0 -0.085554229768956241 -0.3283911170103862 0 -0.094713805580941404 -0.30201578122526651 0 -0.1052055460291338 -0.31747852934551118 0 -0.1032296461860252 -0.33511000031336918 0 -0.085554229768956241 -0.3283911170103862 0 -0.1185228359134398 -0.32382436737818088 0 -0.1052055460291338 -0.31747852934551118 0 -0.1032296461860252 -0.33511000031336918 0 -0.085554229768956241 -0.3283911170103862 0 -0.072279408321336447 -0.34524796160835203 0 -0.089968304967658591 -0.35505452549318339 0 -0.1032296461860252 -0.33511000031336918 0 -0.085554229768956241 -0.3283911170103862 0 -0.089968304967658591 -0.35505452549318339 0 -0.085554229768956241 -0.3283911170103862 0 -0.069402970358777821 -0.30563453465978929 0 -0.059043191696463833 -0.3314533122971372 0 -0.069402970358777821 -0.30563453465978929 0 -0.059043191696463833 -0.3314533122971372 0 -0.085554229768956241 -0.3283911170103862 0 -0.072279408321336447 -0.34524796160835203 0 -0.059043191696463833 -0.3314533122971372 0 -0.072279408321336447 -0.34524796160835203 0 -0.069003253429060718 -0.36322446147924781 0 -0.048683413034149831 -0.35727208993448523 0 -0.072279408321336447 -0.34524796160835203 0 -0.069003253429060718 -0.36322446147924781 0 -0.089968304967658591 -0.35505452549318339 0 -0.069003253429060718 -0.36322446147924781 0 -0.089124007019643237 -0.37354420806398708 0 -0.073467766996772391 -0.3814500999253248 0 -0.069003253429060718 -0.36322446147924781 0 -0.089124007019643237 -0.37354420806398708 0 -0.089968304967658591 -0.35505452549318339 0 -0.094648936121322372 -0.25719087650937139 0 -0.11610315498634841 -0.25620128443524648 0 -0.11248140091563261 -0.23963277876114389 0 -0.094648936121322372 -0.25719087650937139 0 -0.11610315498634841 -0.25620128443524648 0 -0.10297454546388859 -0.27643176105135647 0 -0.12949158947917319 -0.27227839422252509 0 -0.11610315498634841 -0.25620128443524648 0 -0.10297454546388859 -0.27643176105135647 0 -0.10297454546388859 -0.27643176105135647 0 -0.1240072126963065 -0.29805138080035298 0 -0.094713805580941404 -0.30201578122526651 0 -0.12949158947917319 -0.27227839422252509 0 -0.10297454546388859 -0.27643176105135647 0 -0.1240072126963065 -0.29805138080035298 0 -0.1324034550217382 -0.31208686177031281 0 -0.1185228359134398 -0.32382436737818088 0 -0.1240072126963065 -0.29805138080035298 0 -0.1185228359134398 -0.32382436737818088 0 -0.1240072126963065 -0.29805138080035298 0 -0.1052055460291338 -0.31747852934551118 0 -0.1240072126963065 -0.29805138080035298 0 -0.094713805580941404 -0.30201578122526651 0 -0.085554229768956241 -0.3283911170103862 0 -0.094713805580941404 -0.30201578122526651 0 -0.069402970358777821 -0.30563453465978929 0 -0.069402970358777821 -0.30563453465978929 0 -0.0797627490210919 -0.27981575702244121 0 -0.05570383692112528 -0.29164250342164988 0 -0.069402970358777821 -0.30563453465978929 0 -0.0797627490210919 -0.27981575702244121 0 -0.094713805580941404 -0.30201578122526651 0 -0.069402970358777821 -0.30563453465978929 0 -0.0797627490210919 -0.27981575702244121 0 -0.10297454546388859 -0.27643176105135647 0 -0.094713805580941404 -0.30201578122526651 0 -0.0797627490210919 -0.27981575702244121 0 -0.094648936121322372 -0.25719087650937139 0 -0.10297454546388859 -0.27643176105135647 0 -0.082177484218620062 -0.26552622341186888 0 -0.10297454546388859 -0.27643176105135647 0 -0.0797627490210919 -0.27981575702244121 0 -0.082177484218620062 -0.26552622341186888 0 -0.0797627490210919 -0.27981575702244121 0 -0.082177484218620062 -0.26552622341186888 0 -0.058782750912104387 -0.27026415708336038 0 -0.0797627490210919 -0.27981575702244121 0 -0.058782750912104387 -0.27026415708336038 0 -0.05570383692112528 -0.29164250342164988 0 -0.069901999805711768 -0.25534959832076543 0 -0.082177484218620062 -0.26552622341186888 0 -0.058782750912104387 -0.27026415708336038 0 -0.069901999805711768 -0.25534959832076543 0 -0.083061394198631885 -0.25231299141374219 0 -0.082177484218620062 -0.26552622341186888 0 -0.094648936121322372 -0.25719087650937139 0 -0.083061394198631885 -0.25231299141374219 0 -0.082177484218620062 -0.26552622341186888 0 -0.094648936121322372 -0.25719087650937139 0 -0.083061394198631885 -0.25231299141374219 0 -0.091532858120709271 -0.24289377847047311 0 -0.036339718242798663 -0.26583544472838699 0 -0.018804125696618709 -0.2505286077479259 0 -0.050739868253730509 -0.24646922590884929 0 -0.069901999805711768 -0.25534959832076543 0 -0.058782750912104387 -0.27026415708336038 0 -0.050739868253730509 -0.24646922590884929 0 -0.058782750912104387 -0.27026415708336038 0 -0.036339718242798663 -0.26583544472838699 0 -0.050739868253730509 -0.24646922590884929 0 -0.058782750912104387 -0.27026415708336038 0 -0.036339718242798663 -0.26583544472838699 0 -0.036087740154305409 -0.28608556569205162 0 -0.036087740154305409 -0.28608556569205162 0 -0.05570383692112528 -0.29164250342164988 0 -0.041323068065378311 -0.31194337154703061 0 -0.058782750912104387 -0.27026415708336038 0 -0.036087740154305409 -0.28608556569205162 0 -0.05570383692112528 -0.29164250342164988 0 -0.069402970358777821 -0.30563453465978929 0 -0.05570383692112528 -0.29164250342164988 0 -0.041323068065378311 -0.31194337154703061 0 -0.036087740154305409 -0.28608556569205162 0 -0.041323068065378311 -0.31194337154703061 0 -0.020335493301629461 -0.30026236225600478 0 -0.020335493301629461 -0.30026236225600478 0 -0.00099669197394388351 -0.3087205103267594 0 0.00095968447781457202 -0.28794634655103107 0 -0.020335493301629461 -0.30026236225600478 0 -0.017707849585834681 -0.27647518834516083 0 0.00095968447781457202 -0.28794634655103107 0 -0.036087740154305409 -0.28608556569205162 0 -0.020335493301629461 -0.30026236225600478 0 -0.017707849585834681 -0.27647518834516083 0 -0.036339718242798663 -0.26583544472838699 0 -0.036087740154305409 -0.28608556569205162 0 -0.017707849585834681 -0.27647518834516083 0 -0.017707849585834681 -0.27647518834516083 0 0.00095968447781457202 -0.28794634655103107 0 0.0048410001038069238 -0.26607636639245469 0 -0.018804125696618709 -0.2505286077479259 0 0.0048410001038069238 -0.26607636639245469 0 0.0096229953273914148 -0.2417426688876598 0 -0.017707849585834681 -0.27647518834516083 0 -0.018804125696618709 -0.2505286077479259 0 0.0048410001038069238 -0.26607636639245469 0 -0.036339718242798663 -0.26583544472838699 0 -0.017707849585834681 -0.27647518834516083 0 -0.018804125696618709 -0.2505286077479259 0 -0.048683413034149831 -0.35727208993448523 0 -0.036103626039545582 -0.33642088702337303 0 -0.019093956091466632 -0.35169648299592893 0 -0.048683413034149831 -0.35727208993448523 0 -0.021597714725874361 -0.37520402400042252 0 -0.049338474213755742 -0.38139255792623789 0 -0.069003253429060718 -0.36322446147924781 0 -0.048683413034149831 -0.35727208993448523 0 -0.049338474213755742 -0.38139255792623789 0 -0.072279408321336447 -0.34524796160835203 0 -0.048683413034149831 -0.35727208993448523 0 -0.059043191696463833 -0.3314533122971372 0 -0.048683413034149831 -0.35727208993448523 0 -0.059043191696463833 -0.3314533122971372 0 -0.048683413034149831 -0.35727208993448523 0 -0.059043191696463833 -0.3314533122971372 0 -0.036103626039545582 -0.33642088702337303 0 -0.069402970358777821 -0.30563453465978929 0 -0.041323068065378311 -0.31194337154703061 0 -0.059043191696463833 -0.3314533122971372 0 -0.041323068065378311 -0.31194337154703061 0 -0.059043191696463833 -0.3314533122971372 0 -0.036103626039545582 -0.33642088702337303 0 -0.036103626039545582 -0.33642088702337303 0 -0.012374501310269291 -0.32973917834228328 0 -0.019093956091466632 -0.35169648299592893 0 -0.041323068065378311 -0.31194337154703061 0 -0.020335493301629461 -0.30026236225600478 0 -0.012374501310269291 -0.32973917834228328 0 -0.041323068065378311 -0.31194337154703061 0 -0.036103626039545582 -0.33642088702337303 0 -0.012374501310269291 -0.32973917834228328 0 -0.00099669197394388351 -0.3087205103267594 0 -0.012374501310269291 -0.32973917834228328 0 0.01235625904661445 -0.32349751453283321 0 -0.012374501310269291 -0.32973917834228328 0 0.01235625904661445 -0.32349751453283321 0 -0.020335493301629461 -0.30026236225600478 0 -0.00099669197394388351 -0.3087205103267594 0 -0.012374501310269291 -0.32973917834228328 0 -0.012374501310269291 -0.32973917834228328 0 -0.019093956091466632 -0.35169648299592893 0 0.0039484790034304256 -0.34229917506297192 0 -0.019093956091466632 -0.35169648299592893 0 -0.002490395708879795 -0.36117497802836229 0 0.0039484790034304256 -0.34229917506297192 0 -0.048683413034149831 -0.35727208993448523 0 -0.019093956091466632 -0.35169648299592893 0 -0.021597714725874361 -0.37520402400042252 0 -0.002490395708879795 -0.36117497802836229 0 -0.021597714725874361 -0.37520402400042252 0 0.0071573240810073246 -0.3785539547048164 0 -0.019093956091466632 -0.35169648299592893 0 -0.002490395708879795 -0.36117497802836229 0 -0.021597714725874361 -0.37520402400042252 0 -0.0062829033893789252 -0.39530308145853871 0 -0.021597714725874361 -0.37520402400042252 0 0.0071573240810073246 -0.3785539547048164 0 -0.0062829033893789252 -0.39530308145853871 0 -0.019036860936441771 -0.41161134742830552 0 0.01073878042323523 -0.40901460405261397 0 -0.0062829033893789252 -0.39530308145853871 0 -0.034780787818197753 -0.39988166453462148 0 -0.019036860936441771 -0.41161134742830552 0 -0.0062829033893789252 -0.39530308145853871 0 -0.021597714725874361 -0.37520402400042252 0 -0.034780787818197753 -0.39988166453462148 0 -0.021597714725874361 -0.37520402400042252 0 -0.034780787818197753 -0.39988166453462148 0 -0.049338474213755742 -0.38139255792623789 0 -0.034780787818197753 -0.39988166453462148 0 -0.049338474213755742 -0.38139255792623789 0 -0.065437951641509465 -0.40228969637409279 0 -0.040685558062751002 -0.42552547745525782 0 -0.065437951641509465 -0.40228969637409279 0 -0.074521243018857319 -0.42985983569705383 0 -0.040685558062751002 -0.42552547745525782 0 -0.054545345946435328 -0.45076310248940032 0 -0.074521243018857319 -0.42985983569705383 0 -0.034780787818197753 -0.39988166453462148 0 -0.040685558062751002 -0.42552547745525782 0 -0.065437951641509465 -0.40228969637409279 0 -0.034780787818197753 -0.39988166453462148 0 -0.040685558062751002 -0.42552547745525782 0 -0.019036860936441771 -0.41161134742830552 0 -0.040685558062751002 -0.42552547745525782 0 -0.017187509758502618 -0.43018940868168781 0 -0.023950429641773061 -0.45048121520080781 0 -0.040685558062751002 -0.42552547745525782 0 -0.017187509758502618 -0.43018940868168781 0 -0.019036860936441771 -0.41161134742830552 0 -0.019036860936441771 -0.41161134742830552 0 -0.001223291168959903 -0.42551787017524489 0 0.01073878042323523 -0.40901460405261397 0 -0.017187509758502618 -0.43018940868168781 0 -0.019036860936441771 -0.41161134742830552 0 -0.001223291168959903 -0.42551787017524489 0 -0.017187509758502618 -0.43018940868168781 0 -0.001223291168959903 -0.42551787017524489 0 -0.0017335022559463321 -0.44294690443588852 0 -0.0017335022559463321 -0.44294690443588852 0 -0.00048262364615160141 -0.46154445275086259 0 -0.023950429641773061 -0.45048121520080781 0 -0.017187509758502618 -0.43018940868168781 0 -0.0017335022559463321 -0.44294690443588852 0 -0.023950429641773061 -0.45048121520080781 0 -0.00048262364615160141 -0.46154445275086259 0 -0.023950429641773061 -0.45048121520080781 0 -0.015672792429850681 -0.47111431750202648 0 -0.023950429641773061 -0.45048121520080781 0 -0.015672792429850681 -0.47111431750202648 0 -0.034569448874013427 -0.47166636928174682 0 -0.0145935518015915 -0.49256963607409332 0 -0.02574414955039955 -0.5 0 0.0028440013063228981 -0.49999999999999822 0 -0.0145935518015915 -0.49256963607409332 0 -0.0047679081857238109 -0.47930991420262192 0 0.0053629893529604936 -0.48717195375217709 0 -0.0145935518015915 -0.49256963607409332 0 0.0053629893529604936 -0.48717195375217709 0 0.0028440013063228981 -0.49999999999999822 0 -0.00048262364615160141 -0.46154445275086259 0 -0.0047679081857238109 -0.47930991420262192 0 -0.015672792429850681 -0.47111431750202648 0 -0.0145935518015915 -0.49256963607409332 0 -0.0047679081857238109 -0.47930991420262192 0 -0.015672792429850681 -0.47111431750202648 0 -0.0145935518015915 -0.49256963607409332 0 -0.038790545736024501 -0.4882011554587431 0 -0.034569448874013427 -0.47166636928174682 0 -0.0145935518015915 -0.49256963607409332 0 -0.034569448874013427 -0.47166636928174682 0 -0.0145935518015915 -0.49256963607409332 0 -0.015672792429850681 -0.47111431750202648 0 -0.034569448874013427 -0.47166636928174682 0 -0.0145935518015915 -0.49256963607409332 0 -0.02574414955039955 -0.5 0 -0.038790545736024501 -0.4882011554587431 0 -0.02574414955039955 -0.5 0 -0.038790545736024501 -0.4882011554587431 0 -0.054332300407122058 -0.5 0 -0.038790545736024501 -0.4882011554587431 0 -0.034569448874013427 -0.47166636928174682 0 -0.064713278046995948 -0.47676977193787562 0 -0.038790545736024501 -0.4882011554587431 0 -0.054332300407122058 -0.5 0 -0.064713278046995948 -0.47676977193787562 0 -0.040685558062751002 -0.42552547745525782 0 -0.023950429641773061 -0.45048121520080781 0 -0.054545345946435328 -0.45076310248940032 0 -0.023950429641773061 -0.45048121520080781 0 -0.034569448874013427 -0.47166636928174682 0 -0.054545345946435328 -0.45076310248940032 0 -0.034569448874013427 -0.47166636928174682 0 -0.054545345946435328 -0.45076310248940032 0 -0.034569448874013427 -0.47166636928174682 0 -0.054545345946435328 -0.45076310248940032 0 -0.064713278046995948 -0.47676977193787562 0 -0.054545345946435328 -0.45076310248940032 0 -0.088309160714030999 -0.44937936284342 0 -0.064713278046995948 -0.47676977193787562 0 -0.088309160714030999 -0.44937936284342 0 -0.064713278046995948 -0.47676977193787562 0 -0.098278014144763934 -0.47666853872748483 0 -0.054545345946435328 -0.45076310248940032 0 -0.074521243018857319 -0.42985983569705383 0 -0.054545345946435328 -0.45076310248940032 0 -0.088309160714030999 -0.44937936284342 0 -0.074521243018857319 -0.42985983569705383 0 -0.064713278046995948 -0.47676977193787562 0 -0.082920451263844397 -0.50000000000000178 0 -0.098278014144763934 -0.47666853872748483 0 -0.054332300407122058 -0.5 0 -0.064713278046995948 -0.47676977193787562 0 -0.082920451263844397 -0.50000000000000178 0 -0.082920451263844397 -0.50000000000000178 0 -0.098278014144763934 -0.47666853872748483 0 -0.082920451263844397 -0.50000000000000178 0 -0.1081327708963213 -0.5 0 -0.098278014144763934 -0.47666853872748483 0 -0.1081327708963213 -0.5 0 -0.098278014144763934 -0.47666853872748483 0 -0.11794329649893839 -0.48197487990695581 0 -0.14066360552603391 -0.47612691614253783 0 -0.11794329649893839 -0.48197487990695581 0 -0.11363557702568269 -0.45333707745496737 0 -0.098278014144763934 -0.47666853872748483 0 -0.11794329649893839 -0.48197487990695581 0 -0.11363557702568269 -0.45333707745496737 0 -0.1333450905287982 -0.5 0 -0.1081327708963213 -0.5 0 -0.11794329649893839 -0.48197487990695581 0 -0.088309160714030999 -0.44937936284342 0 -0.11363557702568269 -0.45333707745496737 0 -0.10760843189631281 -0.43677482080998359 0 -0.088309160714030999 -0.44937936284342 0 -0.097560285516467865 -0.42648765338822558 0 -0.10760843189631281 -0.43677482080998359 0 -0.098278014144763934 -0.47666853872748483 0 -0.11363557702568269 -0.45333707745496737 0 -0.088309160714030999 -0.44937936284342 0 -0.098278014144763934 -0.47666853872748483 0 -0.11363557702568269 -0.45333707745496737 0 -0.11363557702568269 -0.45333707745496737 0 -0.1237441851603739 -0.42968452531641471 0 -0.10760843189631281 -0.43677482080998359 0 -0.12899313990660249 -0.43000561618245092 0 -0.11363557702568269 -0.45333707745496737 0 -0.1237441851603739 -0.42968452531641471 0 -0.12899313990660249 -0.43000561618245092 0 -0.11363557702568269 -0.45333707745496737 0 -0.1237441851603739 -0.42968452531641471 0 -0.1139223402559949 -0.42196091199000851 0 -0.10760843189631281 -0.43677482080998359 0 -0.12604238146509139 -0.41885400096579239 0 -0.1237441851603739 -0.42968452531641471 0 -0.1139223402559949 -0.42196091199000851 0 -0.1139223402559949 -0.42196091199000851 0 -0.097560285516467865 -0.42648765338822558 0 -0.10760843189631281 -0.43677482080998359 0 -0.1139223402559949 -0.42196091199000851 0 -0.097560285516467865 -0.42648765338822558 0 -0.11010431041755001 -0.40958721320819153 0 -0.097560285516467865 -0.42648765338822558 0 -0.094497140091279339 -0.40895656890470722 0 -0.11010431041755001 -0.40958721320819153 0 -0.11010431041755001 -0.40958721320819153 0 -0.11968978679134649 -0.41107029338891687 0 -0.1204832726865103 -0.40099454946493029 0 -0.1139223402559949 -0.42196091199000851 0 -0.11010431041755001 -0.40958721320819153 0 -0.11968978679134649 -0.41107029338891687 0 -0.12604238146509139 -0.41885400096579239 0 -0.1139223402559949 -0.42196091199000851 0 -0.11968978679134649 -0.41107029338891687 0 -0.11010431041755001 -0.40958721320819153 0 -0.1204832726865103 -0.40099454946493029 0 -0.11447303716370121 -0.38805330211236078 0 -0.13156764266953189 -0.39419180846104918 0 -0.1204832726865103 -0.40099454946493029 0 -0.11447303716370121 -0.38805330211236078 0 -0.13094498148683609 -0.40599212159877102 0 -0.11968978679134649 -0.41107029338891687 0 -0.1204832726865103 -0.40099454946493029 0 -0.12985547058759039 -0.38221115646869708 0 -0.12093249032275399 -0.37630073243888962 0 -0.11447303716370121 -0.38805330211236078 0 -0.12093249032275399 -0.37630073243888962 0 -0.11447303716370121 -0.38805330211236078 0 -0.1075540823477065 -0.37537034053383689 0 -0.089124007019643237 -0.37354420806398708 0 -0.1075540823477065 -0.37537034053383689 0 -0.090774691288952825 -0.3889616701754473 0 -0.11447303716370121 -0.38805330211236078 0 -0.1075540823477065 -0.37537034053383689 0 -0.090774691288952825 -0.3889616701754473 0 -0.094497140091279339 -0.40895656890470722 0 -0.11010431041755001 -0.40958721320819153 0 -0.11447303716370121 -0.38805330211236078 0 -0.094497140091279339 -0.40895656890470722 0 -0.11447303716370121 -0.38805330211236078 0 -0.094497140091279339 -0.40895656890470722 0 -0.11447303716370121 -0.38805330211236078 0 -0.090774691288952825 -0.3889616701754473 0 -0.094497140091279339 -0.40895656890470722 0 -0.090774691288952825 -0.3889616701754473 0 -0.065437951641509465 -0.40228969637409279 0 -0.089124007019643237 -0.37354420806398708 0 -0.090774691288952825 -0.3889616701754473 0 -0.073467766996772391 -0.3814500999253248 0 -0.069003253429060718 -0.36322446147924781 0 -0.049338474213755742 -0.38139255792623789 0 -0.073467766996772391 -0.3814500999253248 0 -0.049338474213755742 -0.38139255792623789 0 -0.073467766996772391 -0.3814500999253248 0 -0.065437951641509465 -0.40228969637409279 0 -0.090774691288952825 -0.3889616701754473 0 -0.073467766996772391 -0.3814500999253248 0 -0.065437951641509465 -0.40228969637409279 0 -0.088309160714030999 -0.44937936284342 0 -0.097560285516467865 -0.42648765338822558 0 -0.074521243018857319 -0.42985983569705383 0 -0.094497140091279339 -0.40895656890470722 0 -0.065437951641509465 -0.40228969637409279 0 -0.074521243018857319 -0.42985983569705383 0 -0.097560285516467865 -0.42648765338822558 0 -0.094497140091279339 -0.40895656890470722 0 -0.074521243018857319 -0.42985983569705383 0 -0.094497140091279339 -0.40895656890470722 0 -0.074521243018857319 -0.42985983569705383 0 -0.084920459822239086 -0.081448454320413408 0 -0.073051529861589845 -0.095207263380746837 0 -0.090372068090109406 -0.10256702268993551 0 -0.084920459822239086 -0.081448454320413408 0 -0.090372068090109406 -0.10256702268993551 0 -0.1024078336591867 -0.087985104803007794 0 -0.084920459822239086 -0.081448454320413408 0 -0.099907056365137928 -0.066332409892067914 0 -0.076250231035157018 -0.05933608143204621 0 -0.084920459822239086 -0.081448454320413408 0 -0.068616679817757625 -0.080167949106406303 0 -0.076250231035157018 -0.05933608143204621 0 -0.068616679817757625 -0.080167949106406303 0 -0.076250231035157018 -0.05933608143204621 0 -0.053985250739965858 -0.067790593848723976 0 -0.068616679817757625 -0.080167949106406303 0 -0.073051529861589845 -0.095207263380746837 0 -0.054875927629836299 -0.097057352550101089 0 -0.084920459822239086 -0.081448454320413408 0 -0.068616679817757625 -0.080167949106406303 0 -0.073051529861589845 -0.095207263380746837 0 -0.073209314966520903 -0.113273935362879 0 -0.054875927629836299 -0.097057352550101089 0 -0.073051529861589845 -0.095207263380746837 0 -0.073209314966520903 -0.113273935362879 0 -0.054875927629836299 -0.097057352550101089 0 -0.073209314966520903 -0.113273935362879 0 -0.091542702303205326 -0.1294905181756571 0 -0.068826910421613555 -0.12750477262994331 0 -0.073209314966520903 -0.113273935362879 0 -0.055350846746747978 -0.1126627234263524 0 -0.068826910421613555 -0.12750477262994331 0 -0.073209314966520903 -0.113273935362879 0 -0.090372068090109406 -0.10256702268993551 0 -0.091542702303205326 -0.1294905181756571 0 -0.073209314966520903 -0.113273935362879 0 -0.091542702303205326 -0.1294905181756571 0 -0.073051529861589845 -0.095207263380746837 0 -0.073209314966520903 -0.113273935362879 0 -0.090372068090109406 -0.10256702268993551 0 -0.090372068090109406 -0.10256702268993551 0 -0.1169524152959812 -0.109475176175515 0 -0.1024078336591867 -0.087985104803007794 0 -0.090372068090109406 -0.10256702268993551 0 -0.1169524152959812 -0.109475176175515 0 -0.091542702303205326 -0.1294905181756571 0 -0.1169524152959812 -0.109475176175515 0 -0.11401766186949661 -0.13884789141392259 0 -0.1169524152959812 -0.109475176175515 0 -0.11988716872246589 -0.080102460937107184 0 -0.1169524152959812 -0.109475176175515 0 -0.11988716872246589 -0.080102460937107184 0 -0.13208478411253441 -0.10034529383993269 0 -0.1169524152959812 -0.109475176175515 0 -0.11988716872246589 -0.080102460937107184 0 -0.1024078336591867 -0.087985104803007794 0 -0.084920459822239086 -0.081448454320413408 0 -0.1024078336591867 -0.087985104803007794 0 -0.099907056365137928 -0.066332409892067914 0 -0.11988716872246589 -0.080102460937107184 0 -0.1024078336591867 -0.087985104803007794 0 -0.099907056365137928 -0.066332409892067914 0 -0.11988716872246589 -0.080102460937107184 0 -0.1228219221489505 -0.050729745698699383 0 -0.11988716872246589 -0.080102460937107184 0 -0.099907056365137928 -0.066332409892067914 0 -0.1228219221489505 -0.050729745698699383 0 -0.1228219221489505 -0.050729745698699383 0 -0.1151991738617443 -0.026588295223576881 0 -0.09289683788474809 -0.03976849344197711 0 -0.099907056365137928 -0.066332409892067914 0 -0.1228219221489505 -0.050729745698699383 0 -0.09289683788474809 -0.03976849344197711 0 -0.1229846482582518 -0.0055933252605166392 0 -0.1151991738617443 -0.026588295223576881 0 -0.094088428313765265 -0.01080549152202971 0 -0.1151991738617443 -0.026588295223576881 0 -0.094088428313765265 -0.01080549152202971 0 -0.09289683788474809 -0.03976849344197711 0 -0.1229846482582518 -0.0055933252605166392 0 -0.094088428313765265 -0.01080549152202971 0 -0.1104540955244408 0.01018848165599631 0 -0.094088428313765265 -0.01080549152202971 0 -0.068742186924726043 -0.0086194903703009189 0 -0.081085172306247816 0.0025859021146267891 0 -0.094088428313765265 -0.01080549152202971 0 -0.072319926331146603 -0.028056065744145629 0 -0.09289683788474809 -0.03976849344197711 0 -0.094088428313765265 -0.01080549152202971 0 -0.072319926331146603 -0.028056065744145629 0 -0.068742186924726043 -0.0086194903703009189 0 -0.072319926331146603 -0.028056065744145629 0 -0.068742186924726043 -0.0086194903703009189 0 -0.048847299978387618 -0.01128300255117305 0 -0.072319926331146603 -0.028056065744145629 0 -0.076250231035157018 -0.05933608143204621 0 -0.053094573850095611 -0.038523835147346738 0 -0.072319926331146603 -0.028056065744145629 0 -0.09289683788474809 -0.03976849344197711 0 -0.076250231035157018 -0.05933608143204621 0 -0.099907056365137928 -0.066332409892067914 0 -0.09289683788474809 -0.03976849344197711 0 -0.076250231035157018 -0.05933608143204621 0 -0.053094573850095611 -0.038523835147346738 0 -0.037480318648389993 -0.058439413961918478 0 -0.053985250739965858 -0.067790593848723976 0 -0.076250231035157018 -0.05933608143204621 0 -0.053094573850095611 -0.038523835147346738 0 -0.053985250739965858 -0.067790593848723976 0 -0.053094573850095611 -0.038523835147346738 0 -0.053985250739965858 -0.067790593848723976 0 -0.053094573850095611 -0.038523835147346738 0 -0.031005099569431881 -0.025874362716016341 0 -0.024842346609541242 -0.044371958700549073 0 -0.053094573850095611 -0.038523835147346738 0 -0.037480318648389993 -0.058439413961918478 0 -0.024842346609541242 -0.044371958700549073 0 -0.068742186924726043 -0.0086194903703009189 0 -0.048847299978387618 -0.01128300255117305 0 -0.054869737487993592 0.0029178759522425 0 -0.048847299978387618 -0.01128300255117305 0 -0.041481366433000169 -0.00038453264990213708 0 -0.054869737487993592 0.0029178759522425 0 -0.072319926331146603 -0.028056065744145629 0 -0.053094573850095611 -0.038523835147346738 0 -0.048847299978387618 -0.01128300255117305 0 -0.053094573850095611 -0.038523835147346738 0 -0.048847299978387618 -0.01128300255117305 0 -0.031005099569431881 -0.025874362716016341 0 -0.048847299978387618 -0.01128300255117305 0 -0.041481366433000169 -0.00038453264990213708 0 -0.030170774266785251 -0.008565583351997327 0 -0.048847299978387618 -0.01128300255117305 0 -0.030170774266785251 -0.008565583351997327 0 -0.031005099569431881 -0.025874362716016341 0 -0.041481366433000169 -0.00038453264990213708 0 -0.030170774266785251 -0.008565583351997327 0 -0.030866146421930661 0.0051013618911337584 0 -0.030170774266785251 -0.008565583351997327 0 -0.015607125497560921 -0.011235037348270289 0 -0.017914414946056188 0.0017887383250859701 0 -0.030170774266785251 -0.008565583351997327 0 -0.017914414946056188 0.0017887383250859701 0 -0.030866146421930661 0.0051013618911337584 0 -0.030170774266785251 -0.008565583351997327 0 -0.023678216039401241 -0.01745595090630549 0 -0.015607125497560921 -0.011235037348270289 0 -0.031005099569431881 -0.025874362716016341 0 -0.023678216039401241 -0.01745595090630549 0 -0.0137327067306781 -0.022488028886469419 0 -0.030170774266785251 -0.008565583351997327 0 -0.031005099569431881 -0.025874362716016341 0 -0.023678216039401241 -0.01745595090630549 0 -0.031005099569431881 -0.025874362716016341 0 -0.0137327067306781 -0.022488028886469419 0 -0.013200620094350069 -0.035369219061225872 0 -0.023678216039401241 -0.01745595090630549 0 -0.0137327067306781 -0.022488028886469419 0 -0.015607125497560921 -0.011235037348270289 0 -0.004476297631638846 -0.026131926890842441 0 -0.0137327067306781 -0.022488028886469419 0 -0.013200620094350069 -0.035369219061225872 0 -0.004476297631638846 -0.026131926890842441 0 -0.004047477331530447 -0.016636231309710429 0 0.0051119717631370387 -0.022346314211481949 0 -0.004476297631638846 -0.026131926890842441 0 -0.004047477331530447 -0.016636231309710429 0 -0.0137327067306781 -0.022488028886469419 0 -0.004047477331530447 -0.016636231309710429 0 -0.0137327067306781 -0.022488028886469419 0 -0.015607125497560921 -0.011235037348270289 0 -0.015607125497560921 -0.011235037348270289 0 -0.0016637341516267971 -0.002949234294761292 0 -0.017914414946056188 0.0017887383250859701 0 -0.004047477331530447 -0.016636231309710429 0 -0.015607125497560921 -0.011235037348270289 0 -0.0016637341516267971 -0.002949234294761292 0 -0.037480318648389993 -0.058439413961918478 0 -0.024842346609541242 -0.044371958700549073 0 -0.019384080481310451 -0.065663455290816547 0 -0.031005099569431881 -0.025874362716016341 0 -0.024842346609541242 -0.044371958700549073 0 -0.013200620094350069 -0.035369219061225872 0 -0.004476297631638846 -0.026131926890842441 0 -0.013200620094350069 -0.035369219061225872 0 0.0034873442352273418 -0.033819840985324548 0 -0.024842346609541242 -0.044371958700549073 0 -0.013200620094350069 -0.035369219061225872 0 -0.0016381569070474391 -0.049966506661174373 0 -0.013200620094350069 -0.035369219061225872 0 -0.0016381569070474391 -0.049966506661174373 0 0.0034873442352273418 -0.033819840985324548 0 -0.0016381569070474391 -0.049966506661174373 0 -0.019384080481310451 -0.065663455290816547 0 -0.0016381569070474391 -0.049966506661174373 0 -0.0024740827135137089 -0.066048241574000729 0 -0.019384080481310451 -0.065663455290816547 0 -0.024842346609541242 -0.044371958700549073 0 -0.0016381569070474391 -0.049966506661174373 0 -0.019384080481310451 -0.065663455290816547 0 -0.0024740827135137089 -0.066048241574000729 0 -0.0084861465490325798 -0.079153840751582771 0 0.0075159774620815563 -0.076024487720319611 0 -0.0024740827135137089 -0.066048241574000729 0 -0.0084861465490325798 -0.079153840751582771 0 -0.019384080481310451 -0.065663455290816547 0 -0.0084861465490325798 -0.079153840751582771 0 -0.01252845712093071 -0.091817805847596745 0 0.001033098092474416 -0.088183934302761627 0 -0.01252845712093071 -0.091817805847596745 0 -0.00087162142712868609 -0.098914230723018651 0 0.001033098092474416 -0.088183934302761627 0 -0.0084861465490325798 -0.079153840751582771 0 -0.01252845712093071 -0.091817805847596745 0 -0.02094588724696294 -0.082418546021921613 0 -0.02094588724696294 -0.082418546021921613 0 -0.037130004055573471 -0.081360403920458707 0 -0.027200748027967479 -0.094097224299153237 0 -0.01252845712093071 -0.091817805847596745 0 -0.02094588724696294 -0.082418546021921613 0 -0.027200748027967479 -0.094097224299153237 0 -0.02094588724696294 -0.082418546021921613 0 -0.019384080481310451 -0.065663455290816547 0 -0.037130004055573471 -0.081360403920458707 0 -0.0084861465490325798 -0.079153840751582771 0 -0.02094588724696294 -0.082418546021921613 0 -0.019384080481310451 -0.065663455290816547 0 -0.019384080481310451 -0.065663455290816547 0 -0.037130004055573471 -0.081360403920458707 0 -0.037480318648389993 -0.058439413961918478 0 -0.019384080481310451 -0.065663455290816547 0 -0.037130004055573471 -0.081360403920458707 0 -0.037480318648389993 -0.058439413961918478 0 -0.037130004055573471 -0.081360403920458707 0 -0.053985250739965858 -0.067790593848723976 0 -0.037130004055573471 -0.081360403920458707 0 -0.054875927629836299 -0.097057352550101089 0 -0.037130004055573471 -0.081360403920458707 0 -0.054875927629836299 -0.097057352550101089 0 -0.041590478002256903 -0.098056303949659057 0 -0.037130004055573471 -0.081360403920458707 0 -0.041590478002256903 -0.098056303949659057 0 -0.027200748027967479 -0.094097224299153237 0 -0.053985250739965858 -0.067790593848723976 0 -0.054875927629836299 -0.097057352550101089 0 -0.037130004055573471 -0.081360403920458707 0 -0.053985250739965858 -0.067790593848723976 0 -0.054875927629836299 -0.097057352550101089 0 -0.068616679817757625 -0.080167949106406303 0 -0.053985250739965858 -0.067790593848723976 0 -0.054875927629836299 -0.097057352550101089 0 -0.055350846746747978 -0.1126627234263524 0 -0.04581363523795709 -0.1214723919342431 0 -0.055825765863659872 -0.12826809430260369 0 -0.055350846746747978 -0.1126627234263524 0 -0.055825765863659872 -0.12826809430260369 0 -0.055350846746747978 -0.1126627234263524 0 -0.055825765863659872 -0.12826809430260369 0 -0.068826910421613555 -0.12750477262994331 0 -0.073209314966520903 -0.113273935362879 0 -0.055350846746747978 -0.1126627234263524 0 -0.054875927629836299 -0.097057352550101089 0 -0.055350846746747978 -0.1126627234263524 0 -0.054875927629836299 -0.097057352550101089 0 -0.055350846746747978 -0.1126627234263524 0 -0.054875927629836299 -0.097057352550101089 0 -0.041590478002256903 -0.098056303949659057 0 -0.055350846746747978 -0.1126627234263524 0 -0.041590478002256903 -0.098056303949659057 0 -0.033940868200495022 -0.1079954375928487 0 -0.041590478002256903 -0.098056303949659057 0 -0.033940868200495022 -0.1079954375928487 0 -0.027200748027967479 -0.094097224299153237 0 -0.055350846746747978 -0.1126627234263524 0 -0.033940868200495022 -0.1079954375928487 0 -0.04581363523795709 -0.1214723919342431 0 -0.033940868200495022 -0.1079954375928487 0 -0.04581363523795709 -0.1214723919342431 0 -0.035162458712647872 -0.12600369589465771 0 -0.033940868200495022 -0.1079954375928487 0 -0.021767860600555258 -0.1225402800634172 0 -0.01539285461228892 -0.10631546354330861 0 -0.033940868200495022 -0.1079954375928487 0 -0.021767860600555258 -0.1225402800634172 0 -0.035162458712647872 -0.12600369589465771 0 -0.033940868200495022 -0.1079954375928487 0 -0.027200748027967479 -0.094097224299153237 0 -0.01539285461228892 -0.10631546354330861 0 -0.033940868200495022 -0.1079954375928487 0 -0.01539285461228892 -0.10631546354330861 0 -0.01252845712093071 -0.091817805847596745 0 -0.027200748027967479 -0.094097224299153237 0 -0.01539285461228892 -0.10631546354330861 0 -0.01539285461228892 -0.10631546354330861 0 -0.00087162142712868609 -0.098914230723018651 0 0.0031551589759171821 -0.10463548949376809 0 -0.01539285461228892 -0.10631546354330861 0 0.0031551589759171821 -0.10463548949376809 0 -0.01252845712093071 -0.091817805847596745 0 -0.01539285461228892 -0.10631546354330861 0 -0.00087162142712868609 -0.098914230723018651 0 -0.021767860600555258 -0.1225402800634172 0 -0.01539285461228892 -0.10631546354330861 0 -0.0047205678392477426 -0.12093393385180171 0 -0.01539285461228892 -0.10631546354330861 0 -0.0047205678392477426 -0.12093393385180171 0 0.0031551589759171821 -0.10463548949376809 0 -0.0047205678392477426 -0.12093393385180171 0 -0.01279532851949269 -0.1349257854666234 0 0.001792487512032919 -0.13702172144501751 0 -0.021767860600555258 -0.1225402800634172 0 -0.0047205678392477426 -0.12093393385180171 0 -0.01279532851949269 -0.1349257854666234 0 -0.021767860600555258 -0.1225402800634172 0 -0.01279532851949269 -0.1349257854666234 0 -0.028778031976600379 -0.14135632415599639 0 -0.021767860600555258 -0.1225402800634172 0 -0.028778031976600379 -0.14135632415599639 0 -0.035162458712647872 -0.12600369589465771 0 -0.01279532851949269 -0.1349257854666234 0 -0.028778031976600379 -0.14135632415599639 0 -0.010502669693092969 -0.15277666781688409 0 -0.028778031976600379 -0.14135632415599639 0 -0.010502669693092969 -0.15277666781688409 0 -0.03348110476040865 -0.1629580341310278 0 -0.01279532851949269 -0.1349257854666234 0 -0.010502669693092969 -0.15277666781688409 0 0.001792487512032919 -0.13702172144501751 0 -0.010502669693092969 -0.15277666781688409 0 0.0079424845942499232 -0.15244881847954789 0 0.001792487512032919 -0.13702172144501751 0 -0.010502669693092969 -0.15277666781688409 0 -0.017624756583517431 -0.17635489522251729 0 0.0060903572207618986 -0.1689237778187937 0 -5.7340653001114007e-05 -0.18571861917824961 0 -0.017624756583517431 -0.17635489522251729 0 -0.01332417259761275 -0.19771245324370959 0 -0.017624756583517431 -0.17635489522251729 0 0.0060903572207618986 -0.1689237778187937 0 -5.7340653001114007e-05 -0.18571861917824961 0 -0.017624756583517431 -0.17635489522251729 0 0.0060903572207618986 -0.1689237778187937 0 -0.017624756583517431 -0.17635489522251729 0 -0.041339870387796712 -0.18378601262624089 0 -0.01332417259761275 -0.19771245324370959 0 -0.017624756583517431 -0.17635489522251729 0 -0.03348110476040865 -0.1629580341310278 0 -0.041339870387796712 -0.18378601262624089 0 -0.017624756583517431 -0.17635489522251729 0 -0.041339870387796712 -0.18378601262624089 0 -0.010502669693092969 -0.15277666781688409 0 -0.017624756583517431 -0.17635489522251729 0 -0.03348110476040865 -0.1629580341310278 0 -0.03348110476040865 -0.1629580341310278 0 -0.05577639070252903 -0.17048424542456039 0 -0.046864909218915403 -0.15299005953996769 0 -0.03348110476040865 -0.1629580341310278 0 -0.041339870387796712 -0.18378601262624089 0 -0.05577639070252903 -0.17048424542456039 0 -0.041339870387796712 -0.18378601262624089 0 -0.05577639070252903 -0.17048424542456039 0 -0.06505498419207606 -0.1912171300299646 0 -0.05577639070252903 -0.17048424542456039 0 -0.046864909218915403 -0.15299005953996769 0 -0.072226984566844538 -0.15818219379061729 0 -0.060892165260772013 -0.14066579929350939 0 -0.045642411156163659 -0.1359333933609464 0 -0.046864909218915403 -0.15299005953996769 0 -0.060892165260772013 -0.14066579929350939 0 -0.046864909218915403 -0.15299005953996769 0 -0.072226984566844538 -0.15818219379061729 0 -0.060892165260772013 -0.14066579929350939 0 -0.055825765863659872 -0.12826809430260369 0 -0.068826910421613555 -0.12750477262994331 0 -0.04581363523795709 -0.1214723919342431 0 -0.055825765863659872 -0.12826809430260369 0 -0.045642411156163659 -0.1359333933609464 0 -0.060892165260772013 -0.14066579929350939 0 -0.055825765863659872 -0.12826809430260369 0 -0.045642411156163659 -0.1359333933609464 0 -0.028778031976600379 -0.14135632415599639 0 -0.045642411156163659 -0.1359333933609464 0 -0.035162458712647872 -0.12600369589465771 0 -0.04581363523795709 -0.1214723919342431 0 -0.045642411156163659 -0.1359333933609464 0 -0.035162458712647872 -0.12600369589465771 0 -0.028778031976600379 -0.14135632415599639 0 -0.045642411156163659 -0.1359333933609464 0 -0.046864909218915403 -0.15299005953996769 0 -0.028778031976600379 -0.14135632415599639 0 -0.03348110476040865 -0.1629580341310278 0 -0.046864909218915403 -0.15299005953996769 0 -0.018804125696618709 -0.2505286077479259 0 -0.010876713287168681 -0.22582585185717829 0 -0.032169860842904033 -0.2317109604543984 0 -0.018804125696618709 -0.2505286077479259 0 -0.010876713287168681 -0.22582585185717829 0 0.0096229953273914148 -0.2417426688876598 0 -0.010876713287168681 -0.22582585185717829 0 0.0096229953273914148 -0.2417426688876598 0 -0.010876713287168681 -0.22582585185717829 0 -0.031376421901728617 -0.2099090348266969 0 -0.032169860842904033 -0.2317109604543984 0 -0.010876713287168681 -0.22582585185717829 0 -0.01332417259761275 -0.19771245324370959 0 -0.031376421901728617 -0.2099090348266969 0 -0.010876713287168681 -0.22582585185717829 0 -0.031376421901728617 -0.2099090348266969 0 -0.010876713287168681 -0.22582585185717829 0 -0.01332417259761275 -0.19771245324370959 0 0.0051179138250316966 -0.20931114953373001 0 -5.7340653001114007e-05 -0.18571861917824961 0 -0.01332417259761275 -0.19771245324370959 0 0.0051179138250316966 -0.20931114953373001 0 -0.041339870387796712 -0.18378601262624089 0 -0.01332417259761275 -0.19771245324370959 0 -0.031376421901728617 -0.2099090348266969 0 -0.041339870387796712 -0.18378601262624089 0 -0.05309587098647553 -0.20798641260553821 0 -0.031376421901728617 -0.2099090348266969 0 -0.041339870387796712 -0.18378601262624089 0 -0.05309587098647553 -0.20798641260553821 0 -0.06505498419207606 -0.1912171300299646 0 -0.041339870387796712 -0.18378601262624089 0 -0.06505498419207606 -0.1912171300299646 0 -0.05309587098647553 -0.20798641260553821 0 -0.031376421901728617 -0.2099090348266969 0 -0.047840951872672427 -0.22497207348157611 0 -0.018804125696618709 -0.2505286077479259 0 -0.032169860842904033 -0.2317109604543984 0 -0.050739868253730509 -0.24646922590884929 0 -0.031376421901728617 -0.2099090348266969 0 -0.032169860842904033 -0.2317109604543984 0 -0.047840951872672427 -0.22497207348157611 0 -0.05309587098647553 -0.20798641260553821 0 -0.047840951872672427 -0.22497207348157611 0 -0.066008866006037559 -0.2247046930535222 0 -0.047840951872672427 -0.22497207348157611 0 -0.050739868253730509 -0.24646922590884929 0 -0.066008866006037559 -0.2247046930535222 0 -0.032169860842904033 -0.2317109604543984 0 -0.047840951872672427 -0.22497207348157611 0 -0.050739868253730509 -0.24646922590884929 0 -0.091532858120709271 -0.24289377847047311 0 -0.075407138648058633 -0.23985773074365829 0 -0.084797634970756416 -0.22147329023243709 0 -0.083061394198631885 -0.25231299141374219 0 -0.091532858120709271 -0.24289377847047311 0 -0.075407138648058633 -0.23985773074365829 0 -0.069901999805711768 -0.25534959832076543 0 -0.083061394198631885 -0.25231299141374219 0 -0.075407138648058633 -0.23985773074365829 0 -0.050739868253730509 -0.24646922590884929 0 -0.075407138648058633 -0.23985773074365829 0 -0.066008866006037559 -0.2247046930535222 0 -0.069901999805711768 -0.25534959832076543 0 -0.050739868253730509 -0.24646922590884929 0 -0.075407138648058633 -0.23985773074365829 0 -0.075407138648058633 -0.23985773074365829 0 -0.066008866006037559 -0.2247046930535222 0 -0.084797634970756416 -0.22147329023243709 0 -0.091532858120709271 -0.24289377847047311 0 -0.084797634970756416 -0.22147329023243709 0 -0.10276223760618371 -0.22562701675992211 0 -0.084797634970756416 -0.22147329023243709 0 -0.08703080238379729 -0.2009957803948218 0 -0.098941638306571864 -0.21050019586067439 0 -0.084797634970756416 -0.22147329023243709 0 -0.071197631707828585 -0.2092754612632568 0 -0.08703080238379729 -0.2009957803948218 0 -0.05309587098647553 -0.20798641260553821 0 -0.066008866006037559 -0.2247046930535222 0 -0.071197631707828585 -0.2092754612632568 0 -0.066008866006037559 -0.2247046930535222 0 -0.084797634970756416 -0.22147329023243709 0 -0.071197631707828585 -0.2092754612632568 0 -0.071197631707828585 -0.2092754612632568 0 -0.06505498419207606 -0.1912171300299646 0 -0.08703080238379729 -0.2009957803948218 0 -0.06505498419207606 -0.1912171300299646 0 -0.08703080238379729 -0.2009957803948218 0 -0.07421151833938068 -0.1767161727684729 0 -0.05309587098647553 -0.20798641260553821 0 -0.071197631707828585 -0.2092754612632568 0 -0.06505498419207606 -0.1912171300299646 0 -0.08703080238379729 -0.2009957803948218 0 -0.1061258994804638 -0.19604463686681969 0 -0.098941638306571864 -0.21050019586067439 0 -0.08703080238379729 -0.2009957803948218 0 -0.1061258994804638 -0.19604463686681969 0 -0.08703080238379729 -0.2009957803948218 0 -0.1061258994804638 -0.19604463686681969 0 -0.094026596472914142 -0.17631902831885399 0 -0.1139916170916581 -0.20836025504937111 0 -0.12522099657713071 -0.191093493338819 0 -0.1061258994804638 -0.19604463686681969 0 -0.12522099657713071 -0.191093493338819 0 -0.1061258994804638 -0.19604463686681969 0 -0.1139916170916581 -0.20836025504937111 0 -0.12522099657713071 -0.191093493338819 0 -0.1139916170916581 -0.20836025504937111 0 -0.12892214791875289 -0.20714851576289259 0 -0.12522099657713071 -0.191093493338819 0 -0.1061258994804638 -0.19604463686681969 0 -0.11290685344571411 -0.18289912756367929 0 -0.12522099657713071 -0.191093493338819 0 -0.1139916170916581 -0.20836025504937111 0 -0.10276223760618371 -0.22562701675992211 0 -0.116319961743217 -0.2221593611850981 0 -0.1139916170916581 -0.20836025504937111 0 -0.116319961743217 -0.2221593611850981 0 -0.12892214791875289 -0.20714851576289259 0 -0.1139916170916581 -0.20836025504937111 0 -0.10276223760618371 -0.22562701675992211 0 -0.1139916170916581 -0.20836025504937111 0 -0.098941638306571864 -0.21050019586067439 0 -0.10276223760618371 -0.22562701675992211 0 -0.1061258994804638 -0.19604463686681969 0 -0.1139916170916581 -0.20836025504937111 0 -0.098941638306571864 -0.21050019586067439 0 -0.091532858120709271 -0.24289377847047311 0 -0.10276223760618371 -0.22562701675992211 0 -0.084797634970756416 -0.22147329023243709 0 -0.098941638306571864 -0.21050019586067439 0 -0.10276223760618371 -0.22562701675992211 0 -0.11248140091563261 -0.23963277876114389 0 -0.13031386570994291 -0.2220746810129163 0 -0.10276223760618371 -0.22562701675992211 0 -0.116319961743217 -0.2221593611850981 0 -0.11248140091563261 -0.23963277876114389 0 -0.116319961743217 -0.2221593611850981 0 -0.11248140091563261 -0.23963277876114389 0 -0.13031386570994291 -0.2220746810129163 0 -0.11248140091563261 -0.23963277876114389 0 -0.12579655330005099 -0.24121254208488949 0 -0.13031386570994291 -0.2220746810129163 0 -0.13186864264527029 -0.25209333300237979 0 -0.11610315498634841 -0.25620128443524648 0 -0.12579655330005099 -0.24121254208488949 0 -0.11610315498634841 -0.25620128443524648 0 -0.11248140091563261 -0.23963277876114389 0 -0.12579655330005099 -0.24121254208488949 0 -0.091532858120709271 -0.24289377847047311 0 -0.10276223760618371 -0.22562701675992211 0 -0.11248140091563261 -0.23963277876114389 0 -0.094648936121322372 -0.25719087650937139 0 -0.091532858120709271 -0.24289377847047311 0 -0.11248140091563261 -0.23963277876114389 0 -0.094648936121322372 -0.25719087650937139 0 -0.11248140091563261 -0.23963277876114389 0 -0.091542702303205326 -0.1294905181756571 0 -0.076140667388775313 -0.14066756521865831 0 -0.09438862661430264 -0.15208665868242799 0 -0.076140667388775313 -0.14066756521865831 0 -0.072226984566844538 -0.15818219379061729 0 -0.09438862661430264 -0.15208665868242799 0 -0.091542702303205326 -0.1294905181756571 0 -0.068826910421613555 -0.12750477262994331 0 -0.076140667388775313 -0.14066756521865831 0 -0.060892165260772013 -0.14066579929350939 0 -0.068826910421613555 -0.12750477262994331 0 -0.076140667388775313 -0.14066756521865831 0 -0.060892165260772013 -0.14066579929350939 0 -0.076140667388775313 -0.14066756521865831 0 -0.072226984566844538 -0.15818219379061729 0 -0.05577639070252903 -0.17048424542456039 0 -0.072226984566844538 -0.15818219379061729 0 -0.07421151833938068 -0.1767161727684729 0 -0.05577639070252903 -0.17048424542456039 0 -0.06505498419207606 -0.1912171300299646 0 -0.07421151833938068 -0.1767161727684729 0 -0.08703080238379729 -0.2009957803948218 0 -0.07421151833938068 -0.1767161727684729 0 -0.094026596472914142 -0.17631902831885399 0 -0.072226984566844538 -0.15818219379061729 0 -0.07421151833938068 -0.1767161727684729 0 -0.094026596472914142 -0.17631902831885399 0 -0.072226984566844538 -0.15818219379061729 0 -0.094026596472914142 -0.17631902831885399 0 -0.09438862661430264 -0.15208665868242799 0 -0.094026596472914142 -0.17631902831885399 0 -0.1110829084430119 -0.1682206066523303 0 -0.09438862661430264 -0.15208665868242799 0 -0.094026596472914142 -0.17631902831885399 0 -0.11290685344571411 -0.18289912756367929 0 -0.1110829084430119 -0.1682206066523303 0 -0.1061258994804638 -0.19604463686681969 0 -0.094026596472914142 -0.17631902831885399 0 -0.11290685344571411 -0.18289912756367929 0 -0.11290685344571411 -0.18289912756367929 0 -0.1110829084430119 -0.1682206066523303 0 -0.14016707815021939 -0.1681117756612962 0 -0.1110829084430119 -0.1682206066523303 0 -0.11401766186949661 -0.13884789141392259 0 -0.1110829084430119 -0.1682206066523303 0 -0.11401766186949661 -0.13884789141392259 0 -0.12995789994682649 -0.1509192734098681 0 -0.1110829084430119 -0.1682206066523303 0 -0.09438862661430264 -0.15208665868242799 0 -0.11401766186949661 -0.13884789141392259 0 -0.091542702303205326 -0.1294905181756571 0 -0.09438862661430264 -0.15208665868242799 0 -0.11401766186949661 -0.13884789141392259 0 -0.1169524152959812 -0.109475176175515 0 -0.091542702303205326 -0.1294905181756571 0 -0.11401766186949661 -0.13884789141392259 0 -0.1169524152959812 -0.109475176175515 0 -0.11401766186949661 -0.13884789141392259 0 -0.1319725165178541 -0.13265700904038599 0 -0.1319725165178541 -0.13265700904038599 0 -0.14358540631873221 -0.12977317260242671 0 -0.1415635245991371 -0.11698596747277221 0 -0.1319725165178541 -0.13265700904038599 0 -0.14358540631873221 -0.12977317260242671 0 -0.14782559579047919 -0.1419440353354374 0 -0.14358540631873221 -0.12977317260242671 0 -0.15297998836745841 -0.12750567856111131 0 -0.14782559579047919 -0.1419440353354374 0 -0.15297998836745841 -0.12750567856111131 0 -0.14782559579047919 -0.1419440353354374 0 -0.1628856224947165 -0.13593824003670499 0 -0.1551131597233065 -0.14513005798377229 0 -0.14782559579047919 -0.1419440353354374 0 -0.14016707815021939 -0.1681117756612962 0 -0.14782559579047919 -0.1419440353354374 0 -0.12995789994682649 -0.1509192734098681 0 -0.14016707815021939 -0.1681117756612962 0 -0.11401766186949661 -0.13884789141392259 0 -0.1319725165178541 -0.13265700904038599 0 -0.12995789994682649 -0.1509192734098681 0 -0.1319725165178541 -0.13265700904038599 0 -0.14782559579047919 -0.1419440353354374 0 -0.12995789994682649 -0.1509192734098681 0 -0.1110829084430119 -0.1682206066523303 0 -0.12995789994682649 -0.1509192734098681 0 -0.14016707815021939 -0.1681117756612962 0 -0.14016707815021939 -0.1681117756612962 0 -0.150034477792654 -0.18465963723923859 0 -0.12522099657713071 -0.191093493338819 0 -0.11290685344571411 -0.18289912756367929 0 -0.14016707815021939 -0.1681117756612962 0 -0.12522099657713071 -0.191093493338819 0 -0.14016707815021939 -0.1681117756612962 0 -0.12522099657713071 -0.191093493338819 0 -0.14016707815021939 -0.1681117756612962 0 -0.15400757941546589 -0.17293787960907639 0 -0.150034477792654 -0.18465963723923859 0 -0.14016707815021939 -0.1681117756612962 0 -0.15400757941546589 -0.17293787960907639 0 -0.15872243725168031 -0.16326407238923549 0 -0.1551131597233065 -0.14513005798377229 0 -0.14016707815021939 -0.1681117756612962 0 -0.1551131597233065 -0.14513005798377229 0 -0.14016707815021939 -0.1681117756612962 0 -0.15872243725168031 -0.16326407238923549 0 -0.15400757941546589 -0.17293787960907639 0 -0.15872243725168031 -0.16326407238923549 0 -0.16513367002986529 -0.17281063624143189 0 -0.15872243725168031 -0.16326407238923549 0 -0.1710187416052798 -0.16433711662822889 0 -0.16513367002986529 -0.17281063624143189 0 -0.1710187416052798 -0.16433711662822889 0 -0.16513367002986529 -0.17281063624143189 0 -0.17484795900817771 -0.17822578113965939 0 -0.15872243725168031 -0.16326407238923549 0 -0.1710187416052798 -0.16433711662822889 0 -0.16437107995121991 -0.15542417664619049 0 -0.150034477792654 -0.18465963723923859 0 -0.1648640614460046 -0.18508816592595809 0 -0.17484795900817771 -0.17822578113965939 0 -0.150034477792654 -0.18465963723923859 0 -0.16513367002986529 -0.17281063624143189 0 -0.17484795900817771 -0.17822578113965939 0 -0.150034477792654 -0.18465963723923859 0 -0.1648640614460046 -0.18508816592595809 0 -0.1659787952985626 -0.18695848551646019 0 -0.150034477792654 -0.18465963723923859 0 -0.17484795900817771 -0.17822578113965939 0 -0.15400757941546589 -0.17293787960907639 0 -0.150034477792654 -0.18465963723923859 0 -0.16513367002986529 -0.17281063624143189 0 -0.1659787952985626 -0.18695848551646019 0 -0.17484795900817771 -0.17822578113965939 0 -0.1648640614460046 -0.18508816592595809 0 -0.1659787952985626 -0.18695848551646019 0 -0.17484795900817771 -0.17822578113965939 0 -0.1648640614460046 -0.18508816592595809 0 -0.1659787952985626 -0.18695848551646019 0 -0.17484795900817771 -0.17822578113965939 0 -0.19172728586150961 -0.17384916187012481 0 -0.17484795900817771 -0.17822578113965939 0 -0.18614116283346219 -0.16710633248563639 0 -0.19172728586150961 -0.17384916187012481 0 -0.17484795900817771 -0.17822578113965939 0 -0.18413525637609149 -0.18411571840584531 0 -0.19172728586150961 -0.17384916187012481 0 -0.1761353585063016 -0.18530034885373081 0 -0.17484795900817771 -0.17822578113965939 0 -0.18413525637609149 -0.18411571840584531 0 -0.1659787952985626 -0.18695848551646019 0 -0.1761353585063016 -0.18530034885373081 0 -0.17484795900817771 -0.17822578113965939 0 -0.17484795900817771 -0.17822578113965939 0 -0.18614116283346219 -0.16710633248563639 0 -0.1761353585063016 -0.18530034885373081 0 -0.18413525637609149 -0.18411571840584531 0 -0.17957942334237489 -0.1919014103529581 0 -0.1710187416052798 -0.16433711662822889 0 -0.18614116283346219 -0.16710633248563639 0 -0.17262998122461301 -0.14896545958352531 0 -0.18614116283346219 -0.16710633248563639 0 -0.17262998122461301 -0.14896545958352531 0 -0.19743436665874689 -0.1559868838316133 0 -0.1710187416052798 -0.16433711662822889 0 -0.17484795900817771 -0.17822578113965939 0 -0.18614116283346219 -0.16710633248563639 0 -0.17262998122461301 -0.14896545958352531 0 -0.19743436665874689 -0.1559868838316133 0 -0.17262998122461301 -0.14896545958352531 0 -0.19109322556454719 -0.13832040142295751 0 -0.19743436665874689 -0.1559868838316133 0 -0.17262998122461301 -0.14896545958352531 0 -0.1762392399454496 -0.13300076254338819 0 -0.19109322556454719 -0.13832040142295751 0 -0.1762392399454496 -0.13300076254338819 0 -0.19109322556454719 -0.13832040142295751 0 -0.19217549732123901 -0.121548435812575 0 -0.17262998122461301 -0.14896545958352531 0 -0.1762392399454496 -0.13300076254338819 0 -0.1628856224947165 -0.13593824003670499 0 -0.1762392399454496 -0.13300076254338819 0 -0.1628856224947165 -0.13593824003670499 0 -0.16603465620396551 -0.12494099135846901 0 -0.15297998836745841 -0.12750567856111131 0 -0.1628856224947165 -0.13593824003670499 0 -0.16603465620396551 -0.12494099135846901 0 -0.1551131597233065 -0.14513005798377229 0 -0.15872243725168031 -0.16326407238923549 0 -0.16437107995121991 -0.15542417664619049 0 -0.1551131597233065 -0.14513005798377229 0 -0.17262998122461301 -0.14896545958352531 0 -0.16437107995121991 -0.15542417664619049 0 -0.14782559579047919 -0.1419440353354374 0 -0.17262998122461301 -0.14896545958352531 0 -0.1628856224947165 -0.13593824003670499 0 -0.1551131597233065 -0.14513005798377229 0 -0.14782559579047919 -0.1419440353354374 0 -0.17262998122461301 -0.14896545958352531 0 -0.14782559579047919 -0.1419440353354374 0 -0.17262998122461301 -0.14896545958352531 0 -0.1710187416052798 -0.16433711662822889 0 -0.17262998122461301 -0.14896545958352531 0 -0.16437107995121991 -0.15542417664619049 0 -0.14554826146612651 -0.2474766242342207 0 -0.15265653073135829 -0.2337800900312744 0 -0.15770655761944219 -0.24753195129691111 0 -0.14554826146612651 -0.2474766242342207 0 -0.1382157022430609 -0.236060633212761 0 -0.15265653073135829 -0.2337800900312744 0 -0.13186864264527029 -0.25209333300237979 0 -0.12579655330005099 -0.24121254208488949 0 -0.1382157022430609 -0.236060633212761 0 -0.13186864264527029 -0.25209333300237979 0 -0.14554826146612651 -0.2474766242342207 0 -0.1382157022430609 -0.236060633212761 0 -0.12579655330005099 -0.24121254208488949 0 -0.1382157022430609 -0.236060633212761 0 -0.13031386570994291 -0.2220746810129163 0 -0.1382157022430609 -0.236060633212761 0 -0.13031386570994291 -0.2220746810129163 0 -0.14542752676530921 -0.22294519829380299 0 -0.1382157022430609 -0.236060633212761 0 -0.14542752676530921 -0.22294519829380299 0 -0.15265653073135829 -0.2337800900312744 0 -0.14542752676530921 -0.22294519829380299 0 -0.15265653073135829 -0.2337800900312744 0 -0.15780520463793049 -0.2182940039473745 0 -0.14542752676530921 -0.22294519829380299 0 -0.14814633050425319 -0.20451658326468869 0 -0.15780520463793049 -0.2182940039473745 0 -0.13031386570994291 -0.2220746810129163 0 -0.14542752676530921 -0.22294519829380299 0 -0.14814633050425319 -0.20451658326468869 0 -0.13031386570994291 -0.2220746810129163 0 -0.14814633050425319 -0.20451658326468869 0 -0.12892214791875289 -0.20714851576289259 0 -0.13031386570994291 -0.2220746810129163 0 -0.14814633050425319 -0.20451658326468869 0 -0.116319961743217 -0.2221593611850981 0 -0.13031386570994291 -0.2220746810129163 0 -0.12892214791875289 -0.20714851576289259 0 -0.14814633050425319 -0.20451658326468869 0 -0.12892214791875289 -0.20714851576289259 0 -0.12522099657713071 -0.191093493338819 0 -0.150034477792654 -0.18465963723923859 0 -0.12522099657713071 -0.191093493338819 0 -0.150034477792654 -0.18465963723923859 0 -0.14814633050425319 -0.20451658326468869 0 -0.12522099657713071 -0.191093493338819 0 -0.150034477792654 -0.18465963723923859 0 -0.1659787952985626 -0.18695848551646019 0 -0.14814633050425319 -0.20451658326468869 0 -0.1659787952985626 -0.18695848551646019 0 -0.17745640891063749 -0.2062158226303813 0 -0.1659787952985626 -0.18695848551646019 0 -0.14814633050425319 -0.20451658326468869 0 -0.1659787952985626 -0.18695848551646019 0 -0.17745640891063749 -0.2062158226303813 0 -0.1630638029121142 -0.20451251195199149 0 -0.1659787952985626 -0.18695848551646019 0 -0.14814633050425319 -0.20451658326468869 0 -0.1630638029121142 -0.20451251195199149 0 -0.1659787952985626 -0.18695848551646019 0 -0.17957942334237489 -0.1919014103529581 0 -0.17745640891063749 -0.2062158226303813 0 -0.1659787952985626 -0.18695848551646019 0 -0.1761353585063016 -0.18530034885373081 0 -0.17957942334237489 -0.1919014103529581 0 -0.17957942334237489 -0.1919014103529581 0 -0.17745640891063749 -0.2062158226303813 0 -0.19329353765279189 -0.20273369621322429 0 -0.18413525637609149 -0.18411571840584531 0 -0.17957942334237489 -0.1919014103529581 0 -0.19059703355009691 -0.1900832090756456 0 -0.17745640891063749 -0.2062158226303813 0 -0.17137382435198631 -0.22342713441366771 0 -0.17917295861728089 -0.2236958723075288 0 -0.17745640891063749 -0.2062158226303813 0 -0.17917295861728089 -0.2236958723075288 0 -0.1889340225227186 -0.2254731597442988 0 -0.17745640891063749 -0.2062158226303813 0 -0.1889340225227186 -0.2254731597442988 0 -0.17745640891063749 -0.2062158226303813 0 -0.16721149487088149 -0.21275080119072121 0 -0.17137382435198631 -0.22342713441366771 0 -0.16721149487088149 -0.21275080119072121 0 -0.15780520463793049 -0.2182940039473745 0 -0.17137382435198631 -0.22342713441366771 0 -0.17745640891063749 -0.2062158226303813 0 -0.16721149487088149 -0.21275080119072121 0 -0.1630638029121142 -0.20451251195199149 0 -0.14814633050425319 -0.20451658326468869 0 -0.1630638029121142 -0.20451251195199149 0 -0.15780520463793049 -0.2182940039473745 0 -0.16721149487088149 -0.21275080119072121 0 -0.1630638029121142 -0.20451251195199149 0 -0.15780520463793049 -0.2182940039473745 0 -0.15265653073135829 -0.2337800900312744 0 -0.15780520463793049 -0.2182940039473745 0 -0.1658675827398636 -0.2317072389853666 0 -0.1658675827398636 -0.2317072389853666 0 -0.17137382435198631 -0.22342713441366771 0 -0.17773171359802739 -0.23525340206823539 0 -0.15780520463793049 -0.2182940039473745 0 -0.1658675827398636 -0.2317072389853666 0 -0.17137382435198631 -0.22342713441366771 0 -0.17773171359802739 -0.23525340206823539 0 -0.18965516251003231 -0.2414996343004403 0 -0.1889340225227186 -0.2254731597442988 0 -0.17773171359802739 -0.23525340206823539 0 -0.1889340225227186 -0.2254731597442988 0 -0.17917295861728089 -0.2236958723075288 0 -0.17773171359802739 -0.23525340206823539 0 -0.1889340225227186 -0.2254731597442988 0 -0.17137382435198631 -0.22342713441366771 0 -0.17917295861728089 -0.2236958723075288 0 -0.17773171359802739 -0.23525340206823539 0 -0.17137382435198631 -0.22342713441366771 0 -0.17773171359802739 -0.23525340206823539 0 -0.1658675827398636 -0.2317072389853666 0 -0.17240093000016751 -0.2399074743415513 0 -0.17773171359802739 -0.23525340206823539 0 -0.18933386957059889 -0.25683449550848919 0 -0.17773171359802739 -0.23525340206823539 0 -0.18965516251003231 -0.2414996343004403 0 -0.18933386957059889 -0.25683449550848919 0 -0.17240093000016751 -0.2399074743415513 0 -0.17773171359802739 -0.23525340206823539 0 -0.18933386957059889 -0.25683449550848919 0 -0.17773171359802739 -0.23525340206823539 0 -0.17240093000016751 -0.2399074743415513 0 -0.17773171359802739 -0.23525340206823539 0 -0.16905252216868019 -0.25613820074362248 0 -0.17240093000016751 -0.2399074743415513 0 -0.16353682465190239 -0.24181299107974519 0 -0.1658675827398636 -0.2317072389853666 0 -0.17240093000016751 -0.2399074743415513 0 -0.16353682465190239 -0.24181299107974519 0 -0.15265653073135829 -0.2337800900312744 0 -0.16353682465190239 -0.24181299107974519 0 -0.15770655761944219 -0.24753195129691111 0 -0.15265653073135829 -0.2337800900312744 0 -0.1658675827398636 -0.2317072389853666 0 -0.16353682465190239 -0.24181299107974519 0 -0.16905252216868019 -0.25613820074362248 0 -0.16353682465190239 -0.24181299107974519 0 -0.15770655761944219 -0.24753195129691111 0 -0.21150805409762569 -0.2422940444111642 0 -0.21358700047679441 -0.22498847113631751 0 -0.2305738397104786 -0.23852602789213109 0 -0.20488228512787229 -0.25223142847060898 0 -0.21660475357700959 -0.25507434199911633 0 -0.21150805409762569 -0.2422940444111642 0 -0.21150805409762569 -0.2422940444111642 0 -0.20262104434878389 -0.2484374798807383 0 -0.199748355293038 -0.233502367632625 0 -0.20488228512787229 -0.25223142847060898 0 -0.21150805409762569 -0.2422940444111642 0 -0.20262104434878389 -0.2484374798807383 0 -0.20262104434878389 -0.2484374798807383 0 -0.18965516251003231 -0.2414996343004403 0 -0.1889340225227186 -0.2254731597442988 0 -0.20262104434878389 -0.2484374798807383 0 -0.1889340225227186 -0.2254731597442988 0 -0.20262104434878389 -0.2484374798807383 0 -0.199748355293038 -0.233502367632625 0 -0.1889340225227186 -0.2254731597442988 0 -0.18933386957059889 -0.25683449550848919 0 -0.20262104434878389 -0.2484374798807383 0 -0.18965516251003231 -0.2414996343004403 0 -0.20262104434878389 -0.2484374798807383 0 -0.199748355293038 -0.233502367632625 0 -0.1889340225227186 -0.2254731597442988 0 -0.1968756662372928 -0.21856725538451149 0 -0.199748355293038 -0.233502367632625 0 -0.1889340225227186 -0.2254731597442988 0 -0.1968756662372928 -0.21856725538451149 0 -0.199748355293038 -0.233502367632625 0 -0.1968756662372928 -0.21856725538451149 0 -0.199748355293038 -0.233502367632625 0 -0.21358700047679441 -0.22498847113631751 0 -0.1968756662372928 -0.21856725538451149 0 -0.21150805409762569 -0.2422940444111642 0 -0.199748355293038 -0.233502367632625 0 -0.21358700047679441 -0.22498847113631751 0 -0.1968756662372928 -0.21856725538451149 0 -0.2146313814201519 -0.20303792797274109 0 -0.21358700047679441 -0.22498847113631751 0 -0.2146313814201519 -0.20303792797274109 0 -0.22334420055709089 -0.2134945078797135 0 -0.21358700047679441 -0.22498847113631751 0 -0.1968756662372928 -0.21856725538451149 0 -0.2146313814201519 -0.20303792797274109 0 -0.17745640891063749 -0.2062158226303813 0 -0.1968756662372928 -0.21856725538451149 0 -0.19329353765279189 -0.20273369621322429 0 -0.17745640891063749 -0.2062158226303813 0 -0.1889340225227186 -0.2254731597442988 0 -0.1968756662372928 -0.21856725538451149 0 -0.1968756662372928 -0.21856725538451149 0 -0.19329353765279189 -0.20273369621322429 0 -0.2146313814201519 -0.20303792797274109 0 -0.17957942334237489 -0.1919014103529581 0 -0.19329353765279189 -0.20273369621322429 0 -0.19059703355009691 -0.1900832090756456 0 -0.19329353765279189 -0.20273369621322429 0 -0.19059703355009691 -0.1900832090756456 0 -0.2019862940381898 -0.18904516679605321 0 -0.19329353765279189 -0.20273369621322429 0 -0.2019862940381898 -0.18904516679605321 0 -0.2146313814201519 -0.20303792797274109 0 -0.2019862940381898 -0.18904516679605321 0 -0.2146313814201519 -0.20303792797274109 0 -0.2178439466097627 -0.18758980537489719 0 -0.2146313814201519 -0.20303792797274109 0 -0.227502339927768 -0.202108116416922 0 -0.23240076785222721 -0.18752425963689481 0 -0.2146313814201519 -0.20303792797274109 0 -0.2178439466097627 -0.18758980537489719 0 -0.23240076785222721 -0.18752425963689481 0 -0.2146313814201519 -0.20303792797274109 0 -0.23240076785222721 -0.18752425963689481 0 -0.227502339927768 -0.202108116416922 0 -0.2347329755047739 -0.1935981716635399 0 -0.23567387908912599 -0.2051248580633325 0 -0.227502339927768 -0.202108116416922 0 -0.23240076785222721 -0.18752425963689481 0 -0.2347329755047739 -0.1935981716635399 0 -0.2347329755047739 -0.1935981716635399 0 -0.2395379069393474 -0.1876040672579658 0 -0.24358299375608869 -0.19587478054186239 0 -0.2347329755047739 -0.1935981716635399 0 -0.24358299375608869 -0.19587478054186239 0 -0.24573040541625801 -0.21383591756451939 0 -0.23240076785222721 -0.18752425963689481 0 -0.2347329755047739 -0.1935981716635399 0 -0.2395379069393474 -0.1876040672579658 0 -0.24968431970358079 -0.19908319888389009 0 -0.24358299375608869 -0.19587478054186239 0 -0.24573040541625801 -0.21383591756451939 0 -0.24968431970358079 -0.19908319888389009 0 -0.24358299375608869 -0.19587478054186239 0 -0.24822936121648331 -0.185252547339397 0 -0.2395379069393474 -0.1876040672579658 0 -0.24358299375608869 -0.19587478054186239 0 -0.24822936121648331 -0.185252547339397 0 -0.23567387908912599 -0.2051248580633325 0 -0.24573040541625801 -0.21383591756451939 0 -0.23472979550770401 -0.21095722660834881 0 -0.2347329755047739 -0.1935981716635399 0 -0.24573040541625801 -0.21383591756451939 0 -0.24573040541625801 -0.21383591756451939 0 -0.23472979550770401 -0.21095722660834881 0 -0.24256324509009691 -0.22819606145317009 0 -0.2347329755047739 -0.1935981716635399 0 -0.23567387908912599 -0.2051248580633325 0 -0.24573040541625801 -0.21383591756451939 0 -0.24968431970358079 -0.19908319888389009 0 -0.24573040541625801 -0.21383591756451939 0 -0.25373063328139828 -0.20791507636346049 0 -0.227502339927768 -0.202108116416922 0 -0.23567387908912599 -0.2051248580633325 0 -0.23472979550770401 -0.21095722660834881 0 -0.227502339927768 -0.202108116416922 0 -0.23472979550770401 -0.21095722660834881 0 -0.22334420055709089 -0.2134945078797135 0 -0.2146313814201519 -0.20303792797274109 0 -0.227502339927768 -0.202108116416922 0 -0.22334420055709089 -0.2134945078797135 0 -0.21358700047679441 -0.22498847113631751 0 -0.22334420055709089 -0.2134945078797135 0 -0.2305738397104786 -0.23852602789213109 0 -0.23472979550770401 -0.21095722660834881 0 -0.2305738397104786 -0.23852602789213109 0 -0.23472979550770401 -0.21095722660834881 0 -0.22334420055709089 -0.2134945078797135 0 -0.2305738397104786 -0.23852602789213109 0 -0.23472979550770401 -0.21095722660834881 0 -0.24256324509009691 -0.22819606145317009 0 -0.2305738397104786 -0.23852602789213109 0 -0.24573040541625801 -0.21383591756451939 0 -0.24256324509009691 -0.22819606145317009 0 -0.25672783532774202 -0.23407366346549879 0 -0.2399648233912737 -0.2555988223921688 0 -0.24456523742333311 -0.24298281553316639 0 -0.2305738397104786 -0.23852602789213109 0 -0.24256324509009691 -0.22819606145317009 0 -0.24456523742333311 -0.24298281553316639 0 -0.2305738397104786 -0.23852602789213109 0 -0.24256324509009691 -0.22819606145317009 0 -0.24456523742333311 -0.24298281553316639 0 -0.25672783532774202 -0.23407366346549879 0 -0.21660475357700959 -0.25507434199911633 0 -0.21150805409762569 -0.2422940444111642 0 -0.2305738397104786 -0.23852602789213109 0 -0.21283590264454019 -0.14082231306528351 0 -0.19743436665874689 -0.1559868838316133 0 -0.22246020917043161 -0.16307099635304509 0 -0.21283590264454019 -0.14082231306528351 0 -0.19743436665874689 -0.1559868838316133 0 -0.21283590264454019 -0.14082231306528351 0 -0.20828618689728001 -0.12586720329171711 0 -0.19109322556454719 -0.13832040142295751 0 -0.21283590264454019 -0.14082231306528351 0 -0.20828618689728001 -0.12586720329171711 0 -0.22823743863033361 -0.12565774229895371 0 -0.20828618689728001 -0.12586720329171711 0 -0.19109322556454719 -0.13832040142295751 0 -0.19217549732123901 -0.121548435812575 0 -0.21283590264454019 -0.14082231306528351 0 -0.19109322556454719 -0.13832040142295751 0 -0.19743436665874689 -0.1559868838316133 0 -0.18614116283346219 -0.16710633248563639 0 -0.19743436665874689 -0.1559868838316133 0 -0.19534895087068399 -0.1651634422316075 0 -0.19534895087068399 -0.1651634422316075 0 -0.19172728586150961 -0.17384916187012481 0 -0.20860661271484141 -0.16947254260059019 0 -0.19172728586150961 -0.17384916187012481 0 -0.20860661271484141 -0.16947254260059019 0 -0.18614116283346219 -0.16710633248563639 0 -0.19743436665874689 -0.1559868838316133 0 -0.18614116283346219 -0.16710633248563639 0 -0.19534895087068399 -0.1651634422316075 0 -0.19172728586150961 -0.17384916187012481 0 -0.19743436665874689 -0.1559868838316133 0 -0.19534895087068399 -0.1651634422316075 0 -0.20860661271484141 -0.16947254260059019 0 -0.19172728586150961 -0.17384916187012481 0 -0.20183329720872981 -0.17808746361510289 0 -0.20860661271484141 -0.16947254260059019 0 -0.18413525637609149 -0.18411571840584531 0 -0.19059703355009691 -0.1900832090756456 0 -0.1939906563410366 -0.1826200536101468 0 -0.18413525637609149 -0.18411571840584531 0 -0.1939906563410366 -0.1826200536101468 0 -0.19172728586150961 -0.17384916187012481 0 -0.1939906563410366 -0.1826200536101468 0 -0.19172728586150961 -0.17384916187012481 0 -0.20183329720872981 -0.17808746361510289 0 -0.19059703355009691 -0.1900832090756456 0 -0.2019862940381898 -0.18904516679605321 0 -0.1939906563410366 -0.1826200536101468 0 -0.2019862940381898 -0.18904516679605321 0 -0.1939906563410366 -0.1826200536101468 0 -0.20183329720872981 -0.17808746361510289 0 -0.2019862940381898 -0.18904516679605321 0 -0.2178439466097627 -0.18758980537489719 0 -0.22516317286868329 -0.17464385876704011 0 -0.2019862940381898 -0.18904516679605321 0 -0.22516317286868329 -0.17464385876704011 0 -0.20183329720872981 -0.17808746361510289 0 -0.20860661271484141 -0.16947254260059019 0 -0.22516317286868329 -0.17464385876704011 0 -0.2019862940381898 -0.18904516679605321 0 -0.20183329720872981 -0.17808746361510289 0 -0.22516317286868329 -0.17464385876704011 0 -0.20860661271484141 -0.16947254260059019 0 -0.22246020917043161 -0.16307099635304509 0 -0.22516317286868329 -0.17464385876704011 0 -0.19743436665874689 -0.1559868838316133 0 -0.20860661271484141 -0.16947254260059019 0 -0.22246020917043161 -0.16307099635304509 0 -0.19743436665874689 -0.1559868838316133 0 -0.22246020917043161 -0.16307099635304509 0 -0.22246020917043161 -0.16307099635304509 0 -0.22516317286868329 -0.17464385876704011 0 -0.248340051699177 -0.16024255073802701 0 -0.2178439466097627 -0.18758980537489719 0 -0.23240076785222721 -0.18752425963689481 0 -0.22618898910832819 -0.1826680453203261 0 -0.2178439466097627 -0.18758980537489719 0 -0.22618898910832819 -0.1826680453203261 0 -0.22516317286868329 -0.17464385876704011 0 -0.22516317286868329 -0.17464385876704011 0 -0.23255005823514771 -0.1817567819341008 0 -0.23945945440715219 -0.17634367868827719 0 -0.22618898910832819 -0.1826680453203261 0 -0.22516317286868329 -0.17464385876704011 0 -0.23255005823514771 -0.1817567819341008 0 -0.23240076785222721 -0.18752425963689481 0 -0.22618898910832819 -0.1826680453203261 0 -0.23255005823514771 -0.1817567819341008 0 -0.2395379069393474 -0.1876040672579658 0 -0.23255005823514771 -0.1817567819341008 0 -0.23945945440715219 -0.17634367868827719 0 -0.23240076785222721 -0.18752425963689481 0 -0.2395379069393474 -0.1876040672579658 0 -0.23255005823514771 -0.1817567819341008 0 -0.23945945440715219 -0.17634367868827719 0 -0.24822936121648331 -0.185252547339397 0 -0.25041623700348359 -0.1732946864964002 0 -0.2395379069393474 -0.1876040672579658 0 -0.23945945440715219 -0.17634367868827719 0 -0.24822936121648331 -0.185252547339397 0 -0.22516317286868329 -0.17464385876704011 0 -0.23945945440715219 -0.17634367868827719 0 -0.248340051699177 -0.16024255073802701 0 -0.22516317286868329 -0.17464385876704011 0 -0.248340051699177 -0.16024255073802701 0 -0.23945945440715219 -0.17634367868827719 0 -0.248340051699177 -0.16024255073802701 0 -0.25041623700348359 -0.1732946864964002 0 -0.22246020917043161 -0.16307099635304509 0 -0.248340051699177 -0.16024255073802701 0 -0.23662769227539071 -0.14445259344711689 0 -0.248340051699177 -0.16024255073802701 0 -0.23662769227539071 -0.14445259344711689 0 -0.25446505566657213 -0.14346193728670151 0 -0.21283590264454019 -0.14082231306528351 0 -0.22246020917043161 -0.16307099635304509 0 -0.23662769227539071 -0.14445259344711689 0 -0.21283590264454019 -0.14082231306528351 0 -0.23662769227539071 -0.14445259344711689 0 -0.22823743863033361 -0.12565774229895371 0 -0.21283590264454019 -0.14082231306528351 0 -0.22823743863033361 -0.12565774229895371 0 -0.23662769227539071 -0.14445259344711689 0 -0.25446505566657213 -0.14346193728670151 0 -0.25221903949000618 -0.13072785163159911 0 -0.23662769227539071 -0.14445259344711689 0 -0.22823743863033361 -0.12565774229895371 0 -0.25221903949000618 -0.13072785163159911 0 -0.22823743863033361 -0.12565774229895371 0 -0.24341893088802399 -0.1131008348671146 0 -0.25221903949000618 -0.13072785163159911 0 -0.24341893088802399 -0.1131008348671146 0 -0.22915967056864289 -0.099263333959776212 0 -0.24809860131482331 -0.093114318798538612 0 -0.22823743863033361 -0.12565774229895371 0 -0.24341893088802399 -0.1131008348671146 0 -0.22915967056864289 -0.099263333959776212 0 -0.22823743863033361 -0.12565774229895371 0 -0.22915967056864289 -0.099263333959776212 0 -0.2099207793220097 -0.1086364592189295 0 -0.2371933862813943 -0.063112847200515229 0 -0.2329805135591291 -0.080523644600928868 0 -0.25143544676879431 -0.071358460655110645 0 -0.24809860131482331 -0.093114318798538612 0 -0.2329805135591291 -0.080523644600928868 0 -0.25143544676879431 -0.071358460655110645 0 -0.22915967056864289 -0.099263333959776212 0 -0.24809860131482331 -0.093114318798538612 0 -0.2329805135591291 -0.080523644600928868 0 -0.2329805135591291 -0.080523644600928868 0 -0.21662641672443489 -0.068680013341628696 0 -0.215369559696685 -0.087612893650003826 0 -0.22915967056864289 -0.099263333959776212 0 -0.2329805135591291 -0.080523644600928868 0 -0.215369559696685 -0.087612893650003826 0 -0.2371933862813943 -0.063112847200515229 0 -0.2329805135591291 -0.080523644600928868 0 -0.21662641672443489 -0.068680013341628696 0 -0.21662641672443489 -0.068680013341628696 0 -0.215369559696685 -0.087612893650003826 0 -0.19934381668333351 -0.075850079855561692 0 -0.21662641672443489 -0.068680013341628696 0 -0.19934381668333351 -0.075850079855561692 0 -0.19361038518034099 -0.057709753188847142 0 -0.215369559696685 -0.087612893650003826 0 -0.19890575889745651 -0.090860044146544749 0 -0.19934381668333351 -0.075850079855561692 0 -0.19890575889745651 -0.090860044146544749 0 -0.1886077937748403 -0.1031053012414135 0 -0.18192647411547549 -0.079823491967497301 0 -0.19890575889745651 -0.090860044146544749 0 -0.19934381668333351 -0.075850079855561692 0 -0.18192647411547549 -0.079823491967497301 0 -0.19934381668333351 -0.075850079855561692 0 -0.18192647411547549 -0.079823491967497301 0 -0.19361038518034099 -0.057709753188847142 0 -0.20828618689728001 -0.12586720329171711 0 -0.2099207793220097 -0.1086364592189295 0 -0.19217549732123901 -0.121548435812575 0 -0.20828618689728001 -0.12586720329171711 0 -0.22823743863033361 -0.12565774229895371 0 -0.2099207793220097 -0.1086364592189295 0 -0.22915967056864289 -0.099263333959776212 0 -0.215369559696685 -0.087612893650003826 0 -0.2099207793220097 -0.1086364592189295 0 -0.215369559696685 -0.087612893650003826 0 -0.19890575889745651 -0.090860044146544749 0 -0.2099207793220097 -0.1086364592189295 0 -0.19890575889745651 -0.090860044146544749 0 -0.2099207793220097 -0.1086364592189295 0 -0.1886077937748403 -0.1031053012414135 0 -0.2099207793220097 -0.1086364592189295 0 -0.1886077937748403 -0.1031053012414135 0 -0.19217549732123901 -0.121548435812575 0 -0.1762392399454496 -0.13300076254338819 0 -0.17705435695481839 -0.1157637759512626 0 -0.16603465620396551 -0.12494099135846901 0 -0.1762392399454496 -0.13300076254338819 0 -0.19217549732123901 -0.121548435812575 0 -0.17705435695481839 -0.1157637759512626 0 -0.1886077937748403 -0.1031053012414135 0 -0.19217549732123901 -0.121548435812575 0 -0.17705435695481839 -0.1157637759512626 0 -0.17705435695481839 -0.1157637759512626 0 -0.15916352972210429 -0.11151991615257061 0 -0.16603465620396551 -0.12494099135846901 0 -0.15297998836745841 -0.12750567856111131 0 -0.15916352972210429 -0.11151991615257061 0 -0.16603465620396551 -0.12494099135846901 0 -0.15916352972210429 -0.11151991615257061 0 -0.1714070130577395 -0.099353316063821862 0 -0.14993602783255361 -0.094817570774336279 0 -0.17705435695481839 -0.1157637759512626 0 -0.15916352972210429 -0.11151991615257061 0 -0.1714070130577395 -0.099353316063821862 0 -0.1886077937748403 -0.1031053012414135 0 -0.1714070130577395 -0.099353316063821862 0 -0.18192647411547549 -0.079823491967497301 0 -0.1886077937748403 -0.1031053012414135 0 -0.17705435695481839 -0.1157637759512626 0 -0.1714070130577395 -0.099353316063821862 0 -0.1714070130577395 -0.099353316063821862 0 -0.18192647411547549 -0.079823491967497301 0 -0.16438585926394969 -0.080946808106278106 0 -0.18192647411547549 -0.079823491967497301 0 -0.16771958236752321 -0.062921962149844635 0 -0.19361038518034099 -0.057709753188847142 0 -0.18192647411547549 -0.079823491967497301 0 -0.16771958236752321 -0.062921962149844635 0 -0.16438585926394969 -0.080946808106278106 0 -0.16771958236752321 -0.062921962149844635 0 -0.16438585926394969 -0.080946808106278106 0 -0.14811635664584849 -0.070385413342262032 0 -0.1714070130577395 -0.099353316063821862 0 -0.16438585926394969 -0.080946808106278106 0 -0.14993602783255361 -0.094817570774336279 0 -0.16438585926394969 -0.080946808106278106 0 -0.14811635664584849 -0.070385413342262032 0 -0.14993602783255361 -0.094817570774336279 0 -0.11988716872246589 -0.080102460937107184 0 -0.1228219221489505 -0.050729745698699383 0 -0.14811635664584849 -0.070385413342262032 0 -0.11988716872246589 -0.080102460937107184 0 -0.13208478411253441 -0.10034529383993269 0 -0.14993602783255361 -0.094817570774336279 0 -0.11988716872246589 -0.080102460937107184 0 -0.14811635664584849 -0.070385413342262032 0 -0.14993602783255361 -0.094817570774336279 0 -0.1169524152959812 -0.109475176175515 0 -0.13208478411253441 -0.10034529383993269 0 -0.1415635245991371 -0.11698596747277221 0 -0.1169524152959812 -0.109475176175515 0 -0.1319725165178541 -0.13265700904038599 0 -0.1415635245991371 -0.11698596747277221 0 -0.15297998836745841 -0.12750567856111131 0 -0.15916352972210429 -0.11151991615257061 0 -0.1415635245991371 -0.11698596747277221 0 -0.14358540631873221 -0.12977317260242671 0 -0.15297998836745841 -0.12750567856111131 0 -0.1415635245991371 -0.11698596747277221 0 -0.13208478411253441 -0.10034529383993269 0 -0.1415635245991371 -0.11698596747277221 0 -0.14993602783255361 -0.094817570774336279 0 -0.15916352972210429 -0.11151991615257061 0 -0.1415635245991371 -0.11698596747277221 0 -0.14993602783255361 -0.094817570774336279 0 -0.1229846482582518 -0.0055933252605166392 0 -0.1151991738617443 -0.026588295223576881 0 -0.14652656056561481 -0.022965467903293471 0 -0.14652656056561481 -0.022965467903293471 0 -0.14750110570290759 -0.002059166847461874 0 -0.17188684792672981 -0.0080234740798620328 0 -0.1229846482582518 -0.0055933252605166392 0 -0.14652656056561481 -0.022965467903293471 0 -0.14750110570290759 -0.002059166847461874 0 -0.1229846482582518 -0.0055933252605166392 0 -0.14652656056561481 -0.022965467903293471 0 -0.1228219221489505 -0.050729745698699383 0 -0.14652656056561481 -0.022965467903293471 0 -0.1482099461265465 -0.048328695748112938 0 -0.1228219221489505 -0.050729745698699383 0 -0.1151991738617443 -0.026588295223576881 0 -0.14652656056561481 -0.022965467903293471 0 -0.1228219221489505 -0.050729745698699383 0 -0.14811635664584849 -0.070385413342262032 0 -0.1482099461265465 -0.048328695748112938 0 -0.16771958236752321 -0.062921962149844635 0 -0.14811635664584849 -0.070385413342262032 0 -0.1482099461265465 -0.048328695748112938 0 -0.14652656056561481 -0.022965467903293471 0 -0.1482099461265465 -0.048328695748112938 0 -0.17006847287297791 -0.04033761054607031 0 -0.14652656056561481 -0.022965467903293471 0 -0.17006847287297791 -0.04033761054607031 0 -0.16771958236752321 -0.062921962149844635 0 -0.1482099461265465 -0.048328695748112938 0 -0.17006847287297791 -0.04033761054607031 0 -0.16771958236752321 -0.062921962149844635 0 -0.17006847287297791 -0.04033761054607031 0 -0.19361038518034099 -0.057709753188847142 0 -0.17006847287297791 -0.04033761054607031 0 -0.19361038518034099 -0.057709753188847142 0 -0.14652656056561481 -0.022965467903293471 0 -0.17006847287297791 -0.04033761054607031 0 -0.17188684792672981 -0.0080234740798620328 0 -0.17006847287297791 -0.04033761054607031 0 -0.17188684792672981 -0.0080234740798620328 0 -0.1956524255893354 -0.01887888673598883 0 -0.17188684792672981 -0.0080234740798620328 0 -0.1956524255893354 -0.01887888673598883 0 -0.196142535214333 0.002272681728797563 0 -0.1956524255893354 -0.01887888673598883 0 -0.21422800054317101 -0.025251689537882632 0 -0.20154941346570451 -0.039656737751201709 0 -0.1956524255893354 -0.01887888673598883 0 -0.21422800054317101 -0.025251689537882632 0 -0.21782897871155019 -0.0003940275126071017 0 -0.1956524255893354 -0.01887888673598883 0 -0.21782897871155019 -0.0003940275126071017 0 -0.196142535214333 0.002272681728797563 0 -0.17006847287297791 -0.04033761054607031 0 -0.19361038518034099 -0.057709753188847142 0 -0.20154941346570451 -0.039656737751201709 0 -0.17006847287297791 -0.04033761054607031 0 -0.1956524255893354 -0.01887888673598883 0 -0.20154941346570451 -0.039656737751201709 0 -0.19361038518034099 -0.057709753188847142 0 -0.20154941346570451 -0.039656737751201709 0 -0.20876138570433039 -0.051934800569997858 0 -0.20154941346570451 -0.039656737751201709 0 -0.20876138570433039 -0.051934800569997858 0 -0.2232593274468411 -0.041692697998313863 0 -0.21422800054317101 -0.025251689537882632 0 -0.20154941346570451 -0.039656737751201709 0 -0.2232593274468411 -0.041692697998313863 0 -0.21662641672443489 -0.068680013341628696 0 -0.20876138570433039 -0.051934800569997858 0 -0.2232593274468411 -0.041692697998313863 0 -0.21662641672443489 -0.068680013341628696 0 -0.19361038518034099 -0.057709753188847142 0 -0.20876138570433039 -0.051934800569997858 0 -0.21662641672443489 -0.068680013341628696 0 -0.23095019381453261 -0.047765909231617359 0 -0.2232593274468411 -0.041692697998313863 0 -0.2371933862813943 -0.063112847200515229 0 -0.21662641672443489 -0.068680013341628696 0 -0.23095019381453261 -0.047765909231617359 0 -0.21662641672443489 -0.068680013341628696 0 -0.2232593274468411 -0.041692697998313863 0 -0.23095019381453261 -0.047765909231617359 0 -0.2232593274468411 -0.041692697998313863 0 -0.2379504985364217 -0.030994704621503281 0 -0.23095019381453261 -0.047765909231617359 0 -0.2379504985364217 -0.030994704621503281 0 -0.25752065328602353 -0.047785068869094928 0 -0.2371933862813943 -0.063112847200515229 0 -0.25752065328602353 -0.047785068869094928 0 -0.25143544676879431 -0.071358460655110645 0 -0.23095019381453261 -0.047765909231617359 0 -0.25752065328602353 -0.047785068869094928 0 -0.2371933862813943 -0.063112847200515229 0 -0.23095019381453261 -0.047765909231617359 0 -0.25752065328602353 -0.047785068869094928 0 -0.21422800054317101 -0.025251689537882632 0 -0.21782897871155019 -0.0003940275126071017 0 -0.22989223816924709 -0.01470538265499903 0 -0.21782897871155019 -0.0003940275126071017 0 -0.22989223816924709 -0.01470538265499903 0 -0.2365251488916538 0.012281932688315849 0 -0.22989223816924709 -0.01470538265499903 0 -0.2365251488916538 0.012281932688315849 0 -0.2232593274468411 -0.041692697998313863 0 -0.22989223816924709 -0.01470538265499903 0 -0.21422800054317101 -0.025251689537882632 0 -0.2232593274468411 -0.041692697998313863 0 -0.22989223816924709 -0.01470538265499903 0 -0.2232593274468411 -0.041692697998313863 0 -0.22989223816924709 -0.01470538265499903 0 -0.2379504985364217 -0.030994704621503281 0 -0.22989223816924709 -0.01470538265499903 0 -0.2379504985364217 -0.030994704621503281 0 -0.24622706090199109 -0.0057462285065727151 0 -0.22989223816924709 -0.01470538265499903 0 -0.24622706090199109 -0.0057462285065727151 0 -0.2365251488916538 0.012281932688315849 0 -0.24622706090199109 -0.0057462285065727151 0 -0.26751696773485489 -0.021248858536286531 0 -0.26196604515275917 0.0063026809159313687 0 -0.2379504985364217 -0.030994704621503281 0 -0.24622706090199109 -0.0057462285065727151 0 -0.26751696773485489 -0.021248858536286531 0 -0.26751696773485489 -0.021248858536286531 0 -0.26196604515275917 0.0063026809159313687 0 -0.28740694141386441 0.00032342914354691749 0 -0.26751696773485489 -0.021248858536286531 0 -0.29888227713974469 -0.024804683021595959 0 -0.28740694141386441 0.00032342914354691749 0 -0.29888227713974469 -0.024804683021595959 0 -0.31666736856865441 -0.0055691854636326348 0 -0.28740694141386441 0.00032342914354691749 0 -0.26751696773485489 -0.021248858536286531 0 -0.29888227713974469 -0.024804683021595959 0 -0.28409111275751442 -0.047804228506572503 0 -0.31066157222900548 -0.047823388144050072 0 -0.28409111275751442 -0.047804228506572503 0 -0.2975805851801045 -0.06774182018852748 0 -0.31066157222900548 -0.047823388144050072 0 -0.28409111275751442 -0.047804228506572503 0 -0.31066157222900548 -0.047823388144050072 0 -0.2975805851801045 -0.06774182018852748 0 -0.31967007523087021 -0.069689979383755679 0 -0.29888227713974469 -0.024804683021595959 0 -0.31066157222900548 -0.047823388144050072 0 -0.32694970013457508 -0.026705866622580929 0 -0.29888227713974469 -0.024804683021595959 0 -0.31066157222900548 -0.047823388144050072 0 -0.28409111275751442 -0.047804228506572503 0 -0.28409111275751442 -0.047804228506572503 0 -0.27219390479458089 -0.063575805258359749 0 -0.2975805851801045 -0.06774182018852748 0 -0.28409111275751442 -0.047804228506572503 0 -0.25752065328602353 -0.047785068869094928 0 -0.27219390479458089 -0.063575805258359749 0 -0.28409111275751442 -0.047804228506572503 0 -0.25752065328602353 -0.047785068869094928 0 -0.26751696773485489 -0.021248858536286531 0 -0.28409111275751442 -0.047804228506572503 0 -0.25752065328602353 -0.047785068869094928 0 -0.2379504985364217 -0.030994704621503281 0 -0.26751696773485489 -0.021248858536286531 0 -0.25752065328602353 -0.047785068869094928 0 -0.25752065328602353 -0.047785068869094928 0 -0.25143544676879431 -0.071358460655110645 0 -0.27219390479458089 -0.063575805258359749 0 -0.25143544676879431 -0.071358460655110645 0 -0.27313838139514818 -0.086167356522727764 0 -0.27219390479458089 -0.063575805258359749 0 -0.24809860131482331 -0.093114318798538612 0 -0.25143544676879431 -0.071358460655110645 0 -0.27313838139514818 -0.086167356522727764 0 -0.27313838139514818 -0.086167356522727764 0 -0.27219390479458089 -0.063575805258359749 0 -0.2975805851801045 -0.06774182018852748 0 -0.24341893088802399 -0.1131008348671146 0 -0.26200495745514429 -0.10882114288137799 0 -0.25221903949000618 -0.13072785163159911 0 -0.26200495745514429 -0.10882114288137799 0 -0.25221903949000618 -0.13072785163159911 0 -0.27137905671225321 -0.126140110197593 0 -0.24341893088802399 -0.1131008348671146 0 -0.24809860131482331 -0.093114318798538612 0 -0.26200495745514429 -0.10882114288137799 0 -0.24809860131482331 -0.093114318798538612 0 -0.27313838139514818 -0.086167356522727764 0 -0.26200495745514429 -0.10882114288137799 0 -0.27313838139514818 -0.086167356522727764 0 -0.26200495745514429 -0.10882114288137799 0 -0.28378580881893839 -0.108620524352665 0 -0.26200495745514429 -0.10882114288137799 0 -0.28378580881893839 -0.108620524352665 0 -0.27137905671225321 -0.126140110197593 0 -0.28378580881893839 -0.108620524352665 0 -0.27137905671225321 -0.126140110197593 0 -0.29469380936016432 -0.1314399346800007 0 -0.28378580881893839 -0.108620524352665 0 -0.30312337490676472 -0.1098915473919211 0 -0.29469380936016432 -0.1314399346800007 0 -0.28378580881893839 -0.108620524352665 0 -0.30312337490676472 -0.1098915473919211 0 -0.2972410481018195 -0.091065751469680462 0 -0.27313838139514818 -0.086167356522727764 0 -0.28378580881893839 -0.108620524352665 0 -0.2972410481018195 -0.091065751469680462 0 -0.30312337490676472 -0.1098915473919211 0 -0.2972410481018195 -0.091065751469680462 0 -0.31297989583375418 -0.096498134590745965 0 -0.30312337490676472 -0.1098915473919211 0 -0.31695197960153237 -0.1088536309116124 0 -0.31297989583375418 -0.096498134590745965 0 -0.30312337490676472 -0.1098915473919211 0 -0.31268723982892471 -0.1207963050883983 0 -0.29469380936016432 -0.1314399346800007 0 -0.30312337490676472 -0.1098915473919211 0 -0.31268723982892471 -0.1207963050883983 0 -0.31695197960153237 -0.1088536309116124 0 -0.27313838139514818 -0.086167356522727764 0 -0.2972410481018195 -0.091065751469680462 0 -0.2975805851801045 -0.06774182018852748 0 -0.2972410481018195 -0.091065751469680462 0 -0.31016431032156772 -0.081794997895869304 0 -0.31297989583375418 -0.096498134590745965 0 -0.2972410481018195 -0.091065751469680462 0 -0.31016431032156772 -0.081794997895869304 0 -0.2975805851801045 -0.06774182018852748 0 -0.31016431032156772 -0.081794997895869304 0 -0.2975805851801045 -0.06774182018852748 0 -0.31967007523087021 -0.069689979383755679 0 -0.31016431032156772 -0.081794997895869304 0 -0.31967007523087021 -0.069689979383755679 0 -0.32096495167793521 -0.087578587751262468 0 -0.31967007523087021 -0.069689979383755679 0 -0.32096495167793521 -0.087578587751262468 0 -0.33658548000822791 -0.086104068525280561 0 -0.31016431032156772 -0.081794997895869304 0 -0.32096495167793521 -0.087578587751262468 0 -0.31297989583375418 -0.096498134590745965 0 -0.32096495167793521 -0.087578587751262468 0 -0.33658548000822791 -0.086104068525280561 0 -0.32360533951288251 -0.098462166181047403 0 -0.33658548000822791 -0.086104068525280561 0 -0.34262656957349341 -0.058931727924225311 0 -0.33658548000822791 -0.086104068525280561 0 -0.34968184429483129 -0.073434770480055256 0 -0.34262656957349341 -0.058931727924225311 0 -0.33658548000822791 -0.086104068525280561 0 -0.32935514574841862 -0.062078342351768158 0 -0.34262656957349341 -0.058931727924225311 0 -0.31967007523087021 -0.069689979383755679 0 -0.33658548000822791 -0.086104068525280561 0 -0.32935514574841862 -0.062078342351768158 0 -0.31268723982892471 -0.1207963050883983 0 -0.33054439044296269 -0.1132764091263356 0 -0.31486342617710872 -0.13232125043616971 0 -0.31268723982892471 -0.1207963050883983 0 -0.31695197960153237 -0.1088536309116124 0 -0.33054439044296269 -0.1132764091263356 0 -0.31695197960153237 -0.1088536309116124 0 -0.32360533951288251 -0.098462166181047403 0 -0.33054439044296269 -0.1132764091263356 0 -0.32096495167793521 -0.087578587751262468 0 -0.31297989583375418 -0.096498134590745965 0 -0.32360533951288251 -0.098462166181047403 0 -0.31695197960153237 -0.1088536309116124 0 -0.31297989583375418 -0.096498134590745965 0 -0.32360533951288251 -0.098462166181047403 0 -0.33658548000822791 -0.086104068525280561 0 -0.32360533951288251 -0.098462166181047403 0 -0.33054439044296269 -0.1132764091263356 0 -0.33658548000822791 -0.086104068525280561 0 -0.3412967628955223 -0.1094441116013081 0 -0.35181354400063169 -0.086960971176827717 0 -0.33658548000822791 -0.086104068525280561 0 -0.3412967628955223 -0.1094441116013081 0 -0.33054439044296269 -0.1132764091263356 0 -0.33658548000822791 -0.086104068525280561 0 -0.33054439044296269 -0.1132764091263356 0 -0.3412967628955223 -0.1094441116013081 0 -0.3524057212862039 -0.11531352970173719 0 -0.33077998179041618 -0.13192725202579009 0 -0.3412967628955223 -0.1094441116013081 0 -0.33054439044296269 -0.1132764091263356 0 -0.33077998179041618 -0.13192725202579009 0 -0.3412967628955223 -0.1094441116013081 0 -0.33077998179041618 -0.13192725202579009 0 -0.3412967628955223 -0.1094441116013081 0 -0.3524057212862039 -0.11531352970173719 0 -0.35181354400063169 -0.086960971176827717 0 -0.3412967628955223 -0.1094441116013081 0 -0.35181354400063169 -0.086960971176827717 0 -0.3524057212862039 -0.11531352970173719 0 -0.35181354400063169 -0.086960971176827717 0 -0.3524057212862039 -0.11531352970173719 0 -0.36414944268281169 -0.099346150465910457 0 -0.35181354400063169 -0.086960971176827717 0 -0.36414944268281169 -0.099346150465910457 0 -0.3721401528509401 -0.1162149784283797 0 -0.38084593669028299 -0.1002390302153679 0 -0.36414944268281169 -0.099346150465910457 0 -0.37237073826033862 -0.092281114852717436 0 -0.38084593669028299 -0.1002390302153679 0 -0.3524057212862039 -0.11531352970173719 0 -0.36414944268281169 -0.099346150465910457 0 -0.3721401528509401 -0.1162149784283797 0 -0.3524057212862039 -0.11531352970173719 0 -0.3721401528509401 -0.1162149784283797 0 -0.36668088571768781 -0.136827298044675 0 -0.35140512999317081 -0.067406722252990131 0 -0.34968184429483129 -0.073434770480055256 0 -0.35181354400063169 -0.086960971176827717 0 -0.35140512999317081 -0.067406722252990131 0 -0.35181354400063169 -0.086960971176827717 0 -0.36154569001293457 -0.066155250943663896 0 -0.35181354400063169 -0.086960971176827717 0 -0.36154569001293457 -0.066155250943663896 0 -0.35140512999317081 -0.067406722252990131 0 -0.35181354400063169 -0.086960971176827717 0 -0.35181354400063169 -0.086960971176827717 0 -0.36375333008150518 -0.078905520003162449 0 -0.36154569001293457 -0.066155250943663896 0 -0.35140512999317081 -0.067406722252990131 0 -0.36154569001293457 -0.066155250943663896 0 -0.35596216639191169 -0.059081541782852957 0 -0.35140512999317081 -0.067406722252990131 0 -0.34968184429483129 -0.073434770480055256 0 -0.34262656957349341 -0.058931727924225311 0 -0.34968184429483129 -0.073434770480055256 0 -0.34262656957349341 -0.058931727924225311 0 -0.33658548000822791 -0.086104068525280561 0 -0.34968184429483129 -0.073434770480055256 0 -0.35181354400063169 -0.086960971176827717 0 -0.36375333008150518 -0.078905520003162449 0 -0.3648269870241479 -0.088301384666359492 0 -0.37173080150296212 -0.082730243423741495 0 -0.35181354400063169 -0.086960971176827717 0 -0.36375333008150518 -0.078905520003162449 0 -0.3648269870241479 -0.088301384666359492 0 -0.36414944268281169 -0.099346150465910457 0 -0.3648269870241479 -0.088301384666359492 0 -0.37237073826033862 -0.092281114852717436 0 -0.36414944268281169 -0.099346150465910457 0 -0.35181354400063169 -0.086960971176827717 0 -0.3648269870241479 -0.088301384666359492 0 -0.37237073826033862 -0.092281114852717436 0 -0.37173080150296212 -0.082730243423741495 0 -0.37966636621650141 -0.088222918673328793 0 -0.3648269870241479 -0.088301384666359492 0 -0.37237073826033862 -0.092281114852717436 0 -0.37173080150296212 -0.082730243423741495 0 -0.37173080150296212 -0.082730243423741495 0 -0.3719029430905223 -0.072127548889561022 0 -0.38047549661079938 -0.078655057436266898 0 -0.36375333008150518 -0.078905520003162449 0 -0.37173080150296212 -0.082730243423741495 0 -0.3719029430905223 -0.072127548889561022 0 -0.36375333008150518 -0.078905520003162449 0 -0.3719029430905223 -0.072127548889561022 0 -0.36154569001293457 -0.066155250943663896 0 -0.3719029430905223 -0.072127548889561022 0 -0.36154569001293457 -0.066155250943663896 0 -0.36674781110385801 -0.060863501329919162 0 -0.36881571457659112 -0.0478653223938659 0 -0.35990112957583348 -0.054911720605605341 0 -0.35099671598570797 -0.047852473329152531 0 -0.36154569001293457 -0.066155250943663896 0 -0.36674781110385801 -0.060863501329919162 0 -0.37127783602524089 -0.045349530710501663 0 -0.36154569001293457 -0.066155250943663896 0 -0.37127783602524089 -0.045349530710501663 0 -0.36154569001293457 -0.066155250943663896 0 -0.36881571457659112 -0.0478653223938659 0 -0.37127783602524089 -0.045349530710501663 0 -0.36154569001293457 -0.066155250943663896 0 -0.36881571457659112 -0.0478653223938659 0 -0.35990112957583348 -0.054911720605605341 0 -0.36881571457659112 -0.0478653223938659 0 -0.35099671598570797 -0.047852473329152531 0 -0.36674781110385801 -0.060863501329919162 0 -0.37127783602524089 -0.045349530710501663 0 -0.38231042678053068 -0.053843820366350763 0 -0.35140512999317081 -0.067406722252990131 0 -0.35099671598570797 -0.047852473329152531 0 -0.35140512999317081 -0.067406722252990131 0 -0.35596216639191169 -0.059081541782852957 0 -0.35099671598570797 -0.047852473329152531 0 -0.36154569001293457 -0.066155250943663896 0 -0.35990112957583348 -0.054911720605605341 0 -0.35596216639191169 -0.059081541782852957 0 -0.35140512999317081 -0.067406722252990131 0 -0.35099671598570797 -0.047852473329152531 0 -0.34262656957349341 -0.058931727924225311 0 -0.35990112957583348 -0.054911720605605341 0 -0.35596216639191169 -0.059081541782852957 0 -0.35099671598570797 -0.047852473329152531 0 -0.34509071124574342 -0.047848214580450833 0 -0.34262656957349341 -0.058931727924225311 0 -0.35099671598570797 -0.047852473329152531 0 -0.34509071124574342 -0.047848214580450833 0 -0.34262656957349341 -0.058931727924225311 0 -0.35099671598570797 -0.047852473329152531 0 -0.34509071124574342 -0.047848214580450833 0 -0.34509071124574342 -0.047848214580450833 0 -0.35086762141376371 -0.041671619224409762 0 -0.35139126120883951 -0.01950884173690624 0 -0.35086762141376371 -0.041671619224409762 0 -0.36194369801784659 -0.038677214956907027 0 -0.35139126120883951 -0.01950884173690624 0 -0.36881571457659112 -0.0478653223938659 0 -0.35099671598570797 -0.047852473329152531 0 -0.35815593749847729 -0.044016657476083777 0 -0.34509071124574342 -0.047848214580450833 0 -0.35139126120883951 -0.01950884173690624 0 -0.35099671598570797 -0.047852473329152531 0 -0.35086762141376371 -0.041671619224409762 0 -0.35099671598570797 -0.047852473329152531 0 -0.34509071124574342 -0.047848214580450833 0 -0.35086762141376371 -0.041671619224409762 0 -0.35086762141376371 -0.041671619224409762 0 -0.35815593749847729 -0.044016657476083777 0 -0.36194369801784659 -0.038677214956907027 0 -0.35099671598570797 -0.047852473329152531 0 -0.35086762141376371 -0.041671619224409762 0 -0.35815593749847729 -0.044016657476083777 0 -0.36194369801784659 -0.038677214956907027 0 -0.37127783602524089 -0.045349530710501663 0 -0.38100998203754721 -0.024543810477339421 0 -0.36881571457659112 -0.0478653223938659 0 -0.35815593749847729 -0.044016657476083777 0 -0.36194369801784659 -0.038677214956907027 0 -0.36881571457659112 -0.0478653223938659 0 -0.36194369801784659 -0.038677214956907027 0 -0.37127783602524089 -0.045349530710501663 0 -0.36194369801784659 -0.038677214956907027 0 -0.36714983617332131 -0.01560340313856357 0 -0.35139126120883951 -0.01950884173690624 0 -0.36194369801784659 -0.038677214956907027 0 -0.36714983617332131 -0.01560340313856357 0 -0.38100998203754721 -0.024543810477339421 0 -0.37263588858309638 -0.0016113739078703301 0 -0.36714983617332131 -0.01560340313856357 0 -0.3576918111719386 0.0088305311066376596 0 -0.37263588858309638 -0.0016113739078703301 0 -0.36714983617332131 -0.01560340313856357 0 -0.37854971817919902 -0.01071064380255813 0 -0.36714983617332131 -0.01560340313856357 0 -0.35139126120883951 -0.01950884173690624 0 -0.3576918111719386 0.0088305311066376596 0 -0.35139126120883951 -0.01950884173690624 0 -0.33705954901322871 -0.006363166607892482 0 -0.3576918111719386 0.0088305311066376596 0 -0.35139126120883951 -0.01950884173690624 0 -0.3576918111719386 0.0088305311066376596 0 -0.35139126120883951 -0.01950884173690624 0 -0.33705954901322871 -0.006363166607892482 0 -0.32694970013457508 -0.026705866622580929 0 -0.33705954901322871 -0.006363166607892482 0 -0.31666736856865441 -0.0055691854636326348 0 -0.332597603982136 0.011137529677019749 0 -0.33705954901322871 -0.006363166607892482 0 -0.31666736856865441 -0.0055691854636326348 0 -0.32694970013457508 -0.026705866622580929 0 -0.29888227713974469 -0.024804683021595959 0 -0.31666736856865441 -0.0055691854636326348 0 -0.32694970013457508 -0.026705866622580929 0 -0.31666736856865441 -0.0055691854636326348 0 -0.32694970013457508 -0.026705866622580929 0 -0.31066157222900548 -0.047823388144050072 0 -0.32694970013457508 -0.026705866622580929 0 -0.33723203170049643 -0.047842547781529021 0 -0.31066157222900548 -0.047823388144050072 0 -0.31967007523087021 -0.069689979383755679 0 -0.32935514574841862 -0.062078342351768158 0 -0.31066157222900548 -0.047823388144050072 0 -0.32935514574841862 -0.062078342351768158 0 -0.33723203170049643 -0.047842547781529021 0 -0.31066157222900548 -0.047823388144050072 0 -0.33723203170049643 -0.047842547781529021 0 -0.32935514574841862 -0.062078342351768158 0 -0.34262656957349341 -0.058931727924225311 0 -0.33723203170049643 -0.047842547781529021 0 -0.34509071124574342 -0.047848214580450833 0 -0.34262656957349341 -0.058931727924225311 0 -0.33723203170049643 -0.047842547781529021 0 -0.34262656957349341 -0.058931727924225311 0 -0.33723203170049643 -0.047842547781529021 0 -0.34509071124574342 -0.047848214580450833 0 -0.33723203170049643 -0.047842547781529021 0 -0.34509071124574342 -0.047848214580450833 0 -0.32694970013457508 -0.026705866622580929 0 -0.33723203170049643 -0.047842547781529021 0 -0.34509071124574342 -0.047848214580450833 0 -0.35139126120883951 -0.01950884173690624 0 -0.32694970013457508 -0.026705866622580929 0 -0.32694970013457508 -0.026705866622580929 0 -0.33723203170049643 -0.047842547781529021 0 -0.30196632335926188 -0.23179974688664659 0 -0.29116933258433042 -0.2476133298905312 0 -0.31461339992943471 -0.24091525041458581 0 -0.29116933258433042 -0.2476133298905312 0 -0.31461339992943471 -0.24091525041458581 0 -0.30822270907570759 -0.25868279318866538 0 -0.29116933258433042 -0.2476133298905312 0 -0.31461339992943471 -0.24091525041458581 0 -0.31189742406471349 -0.22260011063174129 0 -0.30196632335926188 -0.23179974688664659 0 -0.31461339992943471 -0.24091525041458581 0 -0.31189742406471349 -0.22260011063174129 0 -0.30092388814048743 -0.21927172424192831 0 -0.30196632335926188 -0.23179974688664659 0 -0.30092388814048743 -0.21927172424192831 0 -0.30196632335926188 -0.23179974688664659 0 -0.28904038181070812 -0.2263513861067126 0 -0.28904038181070812 -0.2263513861067126 0 -0.29116933258433042 -0.2476133298905312 0 -0.27463494874111638 -0.23320945654855879 0 -0.30196632335926188 -0.23179974688664659 0 -0.28904038181070812 -0.2263513861067126 0 -0.29116933258433042 -0.2476133298905312 0 -0.26772526523922652 -0.25431140936647811 0 -0.29116933258433042 -0.2476133298905312 0 -0.27463494874111638 -0.23320945654855879 0 -0.26772526523922652 -0.25431140936647811 0 -0.25672783532774202 -0.23407366346549879 0 -0.27463494874111638 -0.23320945654855879 0 -0.26772526523922652 -0.25431140936647811 0 -0.25672783532774202 -0.23407366346549879 0 -0.25299644359707452 -0.25851950246286298 0 -0.24456523742333311 -0.24298281553316639 0 -0.25672783532774202 -0.23407366346549879 0 -0.25299644359707452 -0.25851950246286298 0 -0.26772526523922652 -0.25431140936647811 0 -0.25672783532774202 -0.23407366346549879 0 -0.25672783532774202 -0.23407366346549879 0 -0.26593277203064919 -0.22246144937477019 0 -0.25685789750076349 -0.2176196037028934 0 -0.24573040541625801 -0.21383591756451939 0 -0.25672783532774202 -0.23407366346549879 0 -0.24573040541625801 -0.21383591756451939 0 -0.25672783532774202 -0.23407366346549879 0 -0.25685789750076349 -0.2176196037028934 0 -0.25672783532774202 -0.23407366346549879 0 -0.26593277203064919 -0.22246144937477019 0 -0.27463494874111638 -0.23320945654855879 0 -0.28904038181070812 -0.2263513861067126 0 -0.27463494874111638 -0.23320945654855879 0 -0.27744426182398352 -0.21444981454923451 0 -0.26593277203064919 -0.22246144937477019 0 -0.27463494874111638 -0.23320945654855879 0 -0.27744426182398352 -0.21444981454923451 0 -0.27744426182398352 -0.21444981454923451 0 -0.26910729742233441 -0.20009972483144661 0 -0.2845114374967323 -0.19636132513831039 0 -0.27744426182398352 -0.21444981454923451 0 -0.26216784144777011 -0.2098119117462181 0 -0.26910729742233441 -0.20009972483144661 0 -0.26593277203064919 -0.22246144937477019 0 -0.27744426182398352 -0.21444981454923451 0 -0.26216784144777011 -0.2098119117462181 0 -0.26593277203064919 -0.22246144937477019 0 -0.26216784144777011 -0.2098119117462181 0 -0.25685789750076349 -0.2176196037028934 0 -0.26216784144777011 -0.2098119117462181 0 -0.25880729976500771 -0.2016107846387776 0 -0.26910729742233441 -0.20009972483144661 0 -0.26216784144777011 -0.2098119117462181 0 -0.25373063328139828 -0.20791507636346049 0 -0.25880729976500771 -0.2016107846387776 0 -0.24573040541625801 -0.21383591756451939 0 -0.25373063328139828 -0.20791507636346049 0 -0.25685789750076349 -0.2176196037028934 0 -0.26216784144777011 -0.2098119117462181 0 -0.25373063328139828 -0.20791507636346049 0 -0.25685789750076349 -0.2176196037028934 0 -0.24968431970358079 -0.19908319888389009 0 -0.24822936121648331 -0.185252547339397 0 -0.25934640696995498 -0.19114401136887291 0 -0.24968431970358079 -0.19908319888389009 0 -0.25373063328139828 -0.20791507636346049 0 -0.25880729976500771 -0.2016107846387776 0 -0.24968431970358079 -0.19908319888389009 0 -0.25880729976500771 -0.2016107846387776 0 -0.25934640696995498 -0.19114401136887291 0 -0.25880729976500771 -0.2016107846387776 0 -0.25934640696995498 -0.19114401136887291 0 -0.26910729742233441 -0.20009972483144661 0 -0.25934640696995498 -0.19114401136887291 0 -0.27157906157819689 -0.18820491774887491 0 -0.26910729742233441 -0.20009972483144661 0 -0.27157906157819689 -0.18820491774887491 0 -0.2845114374967323 -0.19636132513831039 0 -0.28207671287444491 -0.17997007075289581 0 -0.27157906157819689 -0.18820491774887491 0 -0.26910729742233441 -0.20009972483144661 0 -0.2845114374967323 -0.19636132513831039 0 -0.2845114374967323 -0.19636132513831039 0 -0.29472876021528049 -0.18708981208961631 0 -0.28207671287444491 -0.17997007075289581 0 -0.2845114374967323 -0.19636132513831039 0 -0.30077132376871329 -0.19608080485809459 0 -0.29472876021528049 -0.18708981208961631 0 -0.2845114374967323 -0.19636132513831039 0 -0.29302388659426332 -0.20869255642504819 0 -0.30077132376871329 -0.19608080485809459 0 -0.30092388814048743 -0.21927172424192831 0 -0.28904038181070812 -0.2263513861067126 0 -0.29302388659426332 -0.20869255642504819 0 -0.28904038181070812 -0.2263513861067126 0 -0.27744426182398352 -0.21444981454923451 0 -0.29302388659426332 -0.20869255642504819 0 -0.27744426182398352 -0.21444981454923451 0 -0.2845114374967323 -0.19636132513831039 0 -0.29302388659426332 -0.20869255642504819 0 -0.29302388659426332 -0.20869255642504819 0 -0.30660892371003451 -0.20977627731599 0 -0.30077132376871329 -0.19608080485809459 0 -0.30660892371003451 -0.20977627731599 0 -0.30077132376871329 -0.19608080485809459 0 -0.32224835304687233 -0.2062797190711507 0 -0.30092388814048743 -0.21927172424192831 0 -0.29302388659426332 -0.20869255642504819 0 -0.30660892371003451 -0.20977627731599 0 -0.31189742406471349 -0.22260011063174129 0 -0.30092388814048743 -0.21927172424192831 0 -0.30660892371003451 -0.20977627731599 0 -0.30077132376871329 -0.19608080485809459 0 -0.30590699059561871 -0.18510159769491999 0 -0.32224835304687233 -0.2062797190711507 0 -0.30077132376871329 -0.19608080485809459 0 -0.30590699059561871 -0.18510159769491999 0 -0.30077132376871329 -0.19608080485809459 0 -0.30590699059561871 -0.18510159769491999 0 -0.29472876021528049 -0.18708981208961631 0 -0.30037733634089159 -0.17793526200385881 0 -0.30974641958020349 -0.17689353287475409 0 -0.30290683454832479 -0.17018338651013121 0 -0.30037733634089159 -0.17793526200385881 0 -0.30590699059561871 -0.18510159769491999 0 -0.29472876021528049 -0.18708981208961631 0 -0.30037733634089159 -0.17793526200385881 0 -0.30590699059561871 -0.18510159769491999 0 -0.30037733634089159 -0.17793526200385881 0 -0.30590699059561871 -0.18510159769491999 0 -0.30974641958020349 -0.17689353287475409 0 -0.30590699059561871 -0.18510159769491999 0 -0.30974641958020349 -0.17689353287475409 0 -0.30037733634089159 -0.17793526200385881 0 -0.30974641958020349 -0.17689353287475409 0 -0.30974641958020349 -0.17689353287475409 0 -0.30594807366052029 -0.16141555648406711 0 -0.32026320068531011 -0.15441039245027219 0 -0.30974641958020349 -0.17689353287475409 0 -0.30594807366052029 -0.16141555648406711 0 -0.30290683454832479 -0.17018338651013121 0 -0.30594807366052029 -0.16141555648406711 0 -0.29042901814468108 -0.1650424147350236 0 -0.29612531545247311 -0.15068707395557679 0 -0.30594807366052029 -0.16141555648406711 0 -0.30290683454832479 -0.17018338651013121 0 -0.29042901814468108 -0.1650424147350236 0 -0.30037733634089159 -0.17793526200385881 0 -0.30290683454832479 -0.17018338651013121 0 -0.29042901814468108 -0.1650424147350236 0 -0.30037733634089159 -0.17793526200385881 0 -0.29042901814468108 -0.1650424147350236 0 -0.29042901814468108 -0.1650424147350236 0 -0.28048069994846903 -0.1521495674661896 0 -0.29042901814468108 -0.1650424147350236 0 -0.27682103686894571 -0.16611915961752799 0 -0.28048069994846903 -0.1521495674661896 0 -0.29042901814468108 -0.1650424147350236 0 -0.28207671287444491 -0.17997007075289581 0 -0.27682103686894571 -0.16611915961752799 0 -0.30037733634089159 -0.17793526200385881 0 -0.29472876021528049 -0.18708981208961631 0 -0.28207671287444491 -0.17997007075289581 0 -0.30037733634089159 -0.17793526200385881 0 -0.29042901814468108 -0.1650424147350236 0 -0.28207671287444491 -0.17997007075289581 0 -0.30037733634089159 -0.17793526200385881 0 -0.28207671287444491 -0.17997007075289581 0 -0.27157906157819689 -0.18820491774887491 0 -0.28207671287444491 -0.17997007075289581 0 -0.26285345312751801 -0.17344945665284889 0 -0.28207671287444491 -0.17997007075289581 0 -0.26285345312751801 -0.17344945665284889 0 -0.27682103686894571 -0.16611915961752799 0 -0.24822936121648331 -0.185252547339397 0 -0.25934640696995498 -0.19114401136887291 0 -0.26285345312751801 -0.17344945665284889 0 -0.25934640696995498 -0.19114401136887291 0 -0.27157906157819689 -0.18820491774887491 0 -0.26285345312751801 -0.17344945665284889 0 -0.24822936121648331 -0.185252547339397 0 -0.26285345312751801 -0.17344945665284889 0 -0.25041623700348359 -0.1732946864964002 0 -0.248340051699177 -0.16024255073802701 0 -0.26285345312751801 -0.17344945665284889 0 -0.26826530024961559 -0.15998428848068241 0 -0.248340051699177 -0.16024255073802701 0 -0.26285345312751801 -0.17344945665284889 0 -0.25041623700348359 -0.1732946864964002 0 -0.26285345312751801 -0.17344945665284889 0 -0.26826530024961559 -0.15998428848068241 0 -0.27682103686894571 -0.16611915961752799 0 -0.26826530024961559 -0.15998428848068241 0 -0.27682103686894571 -0.16611915961752799 0 -0.28048069994846903 -0.1521495674661896 0 -0.26826530024961559 -0.15998428848068241 0 -0.28048069994846903 -0.1521495674661896 0 -0.27151693052967069 -0.14584124270901391 0 -0.248340051699177 -0.16024255073802701 0 -0.26826530024961559 -0.15998428848068241 0 -0.27151693052967069 -0.14584124270901391 0 -0.248340051699177 -0.16024255073802701 0 -0.27151693052967069 -0.14584124270901391 0 -0.25446505566657213 -0.14346193728670151 0 -0.27151693052967069 -0.14584124270901391 0 -0.25446505566657213 -0.14346193728670151 0 -0.26362156433861611 -0.13604544790775061 0 -0.248340051699177 -0.16024255073802701 0 -0.27151693052967069 -0.14584124270901391 0 -0.25221903949000618 -0.13072785163159911 0 -0.26362156433861611 -0.13604544790775061 0 -0.27137905671225321 -0.126140110197593 0 -0.25446505566657213 -0.14346193728670151 0 -0.25221903949000618 -0.13072785163159911 0 -0.26362156433861611 -0.13604544790775061 0 -0.27151693052967069 -0.14584124270901391 0 -0.26362156433861611 -0.13604544790775061 0 -0.27137905671225321 -0.126140110197593 0 -0.27151693052967069 -0.14584124270901391 0 -0.27137905671225321 -0.126140110197593 0 -0.29469380936016432 -0.1314399346800007 0 -0.27151693052967069 -0.14584124270901391 0 -0.29469380936016432 -0.1314399346800007 0 -0.28048069994846903 -0.1521495674661896 0 -0.29469380936016432 -0.1314399346800007 0 -0.29612531545247311 -0.15068707395557679 0 -0.28048069994846903 -0.1521495674661896 0 -0.27151693052967069 -0.14584124270901391 0 -0.29469380936016432 -0.1314399346800007 0 -0.29042901814468108 -0.1650424147350236 0 -0.28048069994846903 -0.1521495674661896 0 -0.29612531545247311 -0.15068707395557679 0 -0.30594807366052029 -0.16141555648406711 0 -0.30948304014092309 -0.14547365941877219 0 -0.32026320068531011 -0.15441039245027219 0 -0.29469380936016432 -0.1314399346800007 0 -0.29612531545247311 -0.15068707395557679 0 -0.30948304014092309 -0.14547365941877219 0 -0.30594807366052029 -0.16141555648406711 0 -0.29612531545247311 -0.15068707395557679 0 -0.30948304014092309 -0.14547365941877219 0 -0.31268723982892471 -0.1207963050883983 0 -0.29469380936016432 -0.1314399346800007 0 -0.31486342617710872 -0.13232125043616971 0 -0.29469380936016432 -0.1314399346800007 0 -0.30948304014092309 -0.14547365941877219 0 -0.31486342617710872 -0.13232125043616971 0 -0.33054439044296269 -0.1132764091263356 0 -0.32450330087769752 -0.14044874972739069 0 -0.31486342617710872 -0.13232125043616971 0 -0.33054439044296269 -0.1132764091263356 0 -0.32450330087769752 -0.14044874972739069 0 -0.30948304014092309 -0.14547365941877219 0 -0.32450330087769752 -0.14044874972739069 0 -0.31486342617710872 -0.13232125043616971 0 -0.30948304014092309 -0.14547365941877219 0 -0.32450330087769752 -0.14044874972739069 0 -0.32026320068531011 -0.15441039245027219 0 -0.32450330087769752 -0.14044874972739069 0 -0.32026320068531011 -0.15441039245027219 0 -0.33077998179041618 -0.13192725202579009 0 -0.32026320068531011 -0.15441039245027219 0 -0.33077998179041618 -0.13192725202579009 0 -0.33077998179041618 -0.13192725202579009 0 -0.35299789857177211 -0.14366608822664689 0 -0.33921022705247811 -0.15689774983851781 0 -0.32026320068531011 -0.15441039245027219 0 -0.33077998179041618 -0.13192725202579009 0 -0.33921022705247811 -0.15689774983851781 0 -0.33054439044296269 -0.1132764091263356 0 -0.32450330087769752 -0.14044874972739069 0 -0.33077998179041618 -0.13192725202579009 0 -0.3524057212862039 -0.11531352970173719 0 -0.36668088571768781 -0.136827298044675 0 -0.35299789857177211 -0.14366608822664689 0 -0.3524057212862039 -0.11531352970173719 0 -0.33077998179041618 -0.13192725202579009 0 -0.35299789857177211 -0.14366608822664689 0 -0.3524057212862039 -0.11531352970173719 0 -0.35299789857177211 -0.14366608822664689 0 -0.3721401528509401 -0.1162149784283797 0 -0.36668088571768781 -0.136827298044675 0 -0.38203554953434349 -0.1248085006506521 0 -0.36668088571768781 -0.136827298044675 0 -0.36298205586978283 -0.15410646755920651 0 -0.35299789857177211 -0.14366608822664689 0 -0.36668088571768781 -0.136827298044675 0 -0.36298205586978283 -0.15410646755920651 0 -0.37967688146091461 -0.15414372778192759 0 -0.36668088571768781 -0.136827298044675 0 -0.36298205586978283 -0.15410646755920651 0 -0.36298205586978283 -0.15410646755920651 0 -0.35299789857177211 -0.14366608822664689 0 -0.35359007585733843 -0.17201864675155659 0 -0.35299789857177211 -0.14366608822664689 0 -0.35359007585733843 -0.17201864675155659 0 -0.36298205586978283 -0.15410646755920651 0 -0.35928322602187712 -0.17138563707373791 0 -0.35359007585733843 -0.17201864675155659 0 -0.35299789857177211 -0.14366608822664689 0 -0.35359007585733843 -0.17201864675155659 0 -0.33921022705247811 -0.15689774983851781 0 -0.35928322602187712 -0.17138563707373791 0 -0.35359007585733843 -0.17201864675155659 0 -0.35928322602187712 -0.17138563707373791 0 -0.36764627745291839 -0.1641403805051363 0 -0.37739656839241609 -0.16937165172523669 0 -0.36298205586978283 -0.15410646755920651 0 -0.35928322602187712 -0.17138563707373791 0 -0.36298205586978283 -0.15410646755920651 0 -0.36764627745291839 -0.1641403805051363 0 -0.37967688146091461 -0.15414372778192759 0 -0.36298205586978283 -0.15410646755920651 0 -0.35928322602187712 -0.17138563707373791 0 -0.36764627745291839 -0.1641403805051363 0 -0.35928322602187712 -0.17138563707373791 0 -0.37739656839241609 -0.16937165172523669 0 -0.36764627745291839 -0.1641403805051363 0 -0.37739656839241609 -0.16937165172523669 0 -0.37967688146091461 -0.15414372778192759 0 -0.35928322602187712 -0.17138563707373791 0 -0.37303268722967092 -0.1865818333711349 0 -0.37739656839241609 -0.16937165172523669 0 -0.35928322602187712 -0.17138563707373791 0 -0.37303268722967092 -0.1865818333711349 0 -0.35408413224933488 -0.19567332434559001 0 -0.35359007585733843 -0.17201864675155659 0 -0.35408413224933488 -0.19567332434559001 0 -0.35928322602187712 -0.17138563707373791 0 -0.35408413224933488 -0.19567332434559001 0 -0.35928322602187712 -0.17138563707373791 0 -0.35359007585733843 -0.17201864675155659 0 -0.35408413224933488 -0.19567332434559001 0 -0.35359007585733843 -0.17201864675155659 0 -0.34123827448407762 -0.18610569610179231 0 -0.35408413224933488 -0.19567332434559001 0 -0.35359007585733843 -0.17201864675155659 0 -0.33166824771877101 -0.17445608981315511 0 -0.34123827448407762 -0.18610569610179231 0 -0.33166824771877101 -0.17445608981315511 0 -0.34123827448407762 -0.18610569610179231 0 -0.32203829915442272 -0.18764522309109891 0 -0.35359007585733843 -0.17201864675155659 0 -0.33166824771877101 -0.17445608981315511 0 -0.32026320068531011 -0.15441039245027219 0 -0.33166824771877101 -0.17445608981315511 0 -0.33921022705247811 -0.15689774983851781 0 -0.35359007585733843 -0.17201864675155659 0 -0.33166824771877101 -0.17445608981315511 0 -0.33921022705247811 -0.15689774983851781 0 -0.30974641958020349 -0.17689353287475409 0 -0.32026320068531011 -0.15441039245027219 0 -0.33166824771877101 -0.17445608981315511 0 -0.30974641958020349 -0.17689353287475409 0 -0.32026320068531011 -0.15441039245027219 0 -0.30974641958020349 -0.17689353287475409 0 -0.33166824771877101 -0.17445608981315511 0 -0.32203829915442272 -0.18764522309109891 0 -0.30974641958020349 -0.17689353287475409 0 -0.33166824771877101 -0.17445608981315511 0 -0.30590699059561871 -0.18510159769491999 0 -0.30974641958020349 -0.17689353287475409 0 -0.32203829915442272 -0.18764522309109891 0 -0.30590699059561871 -0.18510159769491999 0 -0.32224835304687233 -0.2062797190711507 0 -0.32203829915442272 -0.18764522309109891 0 -0.32224835304687233 -0.2062797190711507 0 -0.33962327225535682 -0.20483667813986259 0 -0.30590699059561871 -0.18510159769491999 0 -0.32203829915442272 -0.18764522309109891 0 -0.32224835304687233 -0.2062797190711507 0 -0.31189742406471349 -0.22260011063174129 0 -0.30660892371003451 -0.20977627731599 0 -0.32224835304687233 -0.2062797190711507 0 -0.32224835304687233 -0.2062797190711507 0 -0.33858971549812938 -0.22745784044737871 0 -0.32224835304687233 -0.2062797190711507 0 -0.33859051842104482 -0.21726704918454609 0 -0.33962327225535682 -0.20483667813986259 0 -0.32224835304687233 -0.2062797190711507 0 -0.33859051842104482 -0.21726704918454609 0 -0.33858971549812938 -0.22745784044737871 0 -0.33859051842104482 -0.21726704918454609 0 -0.33962327225535682 -0.20483667813986259 0 -0.34906574239105548 -0.2191168490863494 0 -0.34123827448407762 -0.18610569610179231 0 -0.32203829915442272 -0.18764522309109891 0 -0.33962327225535682 -0.20483667813986259 0 -0.34123827448407762 -0.18610569610179231 0 -0.33962327225535682 -0.20483667813986259 0 -0.35408413224933488 -0.19567332434559001 0 -0.37303268722967092 -0.1865818333711349 0 -0.35408413224933488 -0.19567332434559001 0 -0.37025657918267602 -0.20730824388463831 0 -0.37025657918267602 -0.20730824388463831 0 -0.36741723021840711 -0.22014493078139821 0 -0.38044559662855709 -0.22442850427925221 0 -0.35408413224933488 -0.19567332434559001 0 -0.37025657918267602 -0.20730824388463831 0 -0.35458404267353028 -0.21960828420413939 0 -0.37025657918267602 -0.20730824388463831 0 -0.35458404267353028 -0.21960828420413939 0 -0.36741723021840711 -0.22014493078139821 0 -0.35408413224933488 -0.19567332434559001 0 -0.34906574239105548 -0.2191168490863494 0 -0.33962327225535682 -0.20483667813986259 0 -0.35408413224933488 -0.19567332434559001 0 -0.34906574239105548 -0.2191168490863494 0 -0.35408413224933488 -0.19567332434559001 0 -0.34906574239105548 -0.2191168490863494 0 -0.35458404267353028 -0.21960828420413939 0 -0.35408413224933488 -0.19567332434559001 0 -0.35458404267353028 -0.21960828420413939 0 -0.34906574239105548 -0.2191168490863494 0 -0.34404735253277591 -0.24256037382710849 0 -0.35458404267353028 -0.21960828420413939 0 -0.35508395309772589 -0.24354324406268901 0 -0.34906574239105548 -0.2191168490863494 0 -0.35072960554243687 -0.23166148930402169 0 -0.34404735253277591 -0.24256037382710849 0 -0.34906574239105548 -0.2191168490863494 0 -0.34404735253277591 -0.24256037382710849 0 -0.34342550891381018 -0.22864415917798939 0 -0.35458404267353028 -0.21960828420413939 0 -0.36502839852204461 -0.23056888873799139 0 -0.35508395309772589 -0.24354324406268901 0 -0.35072960554243687 -0.23166148930402169 0 -0.35458404267353028 -0.21960828420413939 0 -0.35508395309772589 -0.24354324406268901 0 -0.34906574239105548 -0.2191168490863494 0 -0.35072960554243687 -0.23166148930402169 0 -0.35458404267353028 -0.21960828420413939 0 -0.36502839852204461 -0.23056888873799139 0 -0.3680147300752396 -0.24595335410024541 0 -0.38044559662855709 -0.22442850427925221 0 -0.35458404267353028 -0.21960828420413939 0 -0.36502839852204461 -0.23056888873799139 0 -0.36741723021840711 -0.22014493078139821 0 -0.36502839852204461 -0.23056888873799139 0 -0.36741723021840711 -0.22014493078139821 0 -0.38044559662855709 -0.22442850427925221 0 -0.3680147300752396 -0.24595335410024541 0 -0.38044559662855709 -0.22442850427925221 0 -0.37382784469199809 -0.25255299355580002 0 -0.3680147300752396 -0.24595335410024541 0 -0.38220465509505391 -0.2453862558345459 0 -0.36502839852204461 -0.23056888873799139 0 -0.3680147300752396 -0.24595335410024541 0 -0.35508395309772589 -0.24354324406268901 0 -0.35072960554243687 -0.23166148930402169 0 -0.35508395309772589 -0.24354324406268901 0 -0.34404735253277591 -0.24256037382710849 0 -0.347448714500246 -0.25534600023974963 0 -0.35508395309772589 -0.24354324406268901 0 -0.34404735253277591 -0.24256037382710849 0 -0.33188287507836628 -0.25144687983635688 0 -0.34404735253277591 -0.24256037382710849 0 -0.34342550891381018 -0.22864415917798939 0 -0.33188287507836628 -0.25144687983635688 0 -0.34342550891381018 -0.22864415917798939 0 -0.33805746727453911 -0.2342171709386405 0 -0.33188287507836628 -0.25144687983635688 0 -0.34342550891381018 -0.22864415917798939 0 -0.33188287507836628 -0.25144687983635688 0 -0.33805746727453911 -0.2342171709386405 0 -0.31461339992943471 -0.24091525041458581 0 -0.32224835304687233 -0.2062797190711507 0 -0.33858971549812938 -0.22745784044737871 0 -0.3250236562021902 -0.22755794586014641 0 -0.34342550891381018 -0.22864415917798939 0 -0.33858971549812938 -0.22745784044737871 0 -0.33805746727453911 -0.2342171709386405 0 -0.33859051842104482 -0.21726704918454609 0 -0.34906574239105548 -0.2191168490863494 0 -0.34342550891381018 -0.22864415917798939 0 -0.33859051842104482 -0.21726704918454609 0 -0.34342550891381018 -0.22864415917798939 0 -0.33858971549812938 -0.22745784044737871 0 -0.33858971549812938 -0.22745784044737871 0 -0.33805746727453911 -0.2342171709386405 0 -0.3250236562021902 -0.22755794586014641 0 -0.33805746727453911 -0.2342171709386405 0 -0.3250236562021902 -0.22755794586014641 0 -0.31461339992943471 -0.24091525041458581 0 -0.31189742406471349 -0.22260011063174129 0 -0.3250236562021902 -0.22755794586014641 0 -0.31461339992943471 -0.24091525041458581 0 -0.31189742406471349 -0.22260011063174129 0 -0.32224835304687233 -0.2062797190711507 0 -0.3250236562021902 -0.22755794586014641 0 -0.33805746727453911 -0.2342171709386405 0 -0.31461339992943471 -0.24091525041458581 0 -0.43215673487623202 -0.24823091663255911 0 -0.42689787205185958 -0.23130712022454569 0 -0.44164891654744198 -0.2450584551682439 0 -0.42280242560429859 -0.24215806016692151 0 -0.43215673487623202 -0.24823091663255911 0 -0.42689787205185958 -0.23130712022454569 0 -0.42280242560429859 -0.24215806016692151 0 -0.42689787205185958 -0.23130712022454569 0 -0.41594335103758018 -0.23643277249030861 0 -0.4197869720444854 -0.25041636405616802 0 -0.42280242560429859 -0.24215806016692151 0 -0.43215673487623202 -0.24823091663255911 0 -0.43498649548547852 -0.25282224765555178 0 -0.43215673487623202 -0.24823091663255911 0 -0.44164891654744198 -0.2450584551682439 0 -0.42689787205185958 -0.23130712022454569 0 -0.41009275309491589 -0.22110112274271931 0 -0.43045735081697528 -0.20393673163118239 0 -0.41009275309491589 -0.22110112274271931 0 -0.41594335103758018 -0.23643277249030861 0 -0.40413549636885182 -0.23910172952534819 0 -0.42689787205185958 -0.23130712022454569 0 -0.41009275309491589 -0.22110112274271931 0 -0.41594335103758018 -0.23643277249030861 0 -0.41594335103758018 -0.23643277249030861 0 -0.41578820806797528 -0.2484958297920084 0 -0.40413549636885182 -0.23910172952534819 0 -0.4197869720444854 -0.25041636405616802 0 -0.42280242560429859 -0.24215806016692151 0 -0.41578820806797528 -0.2484958297920084 0 -0.42280242560429859 -0.24215806016692151 0 -0.41594335103758018 -0.23643277249030861 0 -0.41578820806797528 -0.2484958297920084 0 -0.4078018470520709 -0.2531614152903397 0 -0.41578820806797528 -0.2484958297920084 0 -0.40413549636885182 -0.23910172952534819 0 -0.39980713000764739 -0.25281121590483963 0 -0.4078018470520709 -0.2531614152903397 0 -0.40413549636885182 -0.23910172952534819 0 -0.39980713000764739 -0.25281121590483963 0 -0.40413549636885182 -0.23910172952534819 0 -0.39320617752625442 -0.24585335226367991 0 -0.40413549636885182 -0.23910172952534819 0 -0.39320617752625442 -0.24585335226367991 0 -0.392891412787645 -0.23220029738243381 0 -0.3680147300752396 -0.24595335410024541 0 -0.38220465509505391 -0.2453862558345459 0 -0.38044559662855709 -0.22442850427925221 0 -0.38903805502888011 -0.25783536093713461 0 -0.39320617752625442 -0.24585335226367991 0 -0.38220465509505391 -0.2453862558345459 0 -0.39320617752625442 -0.24585335226367991 0 -0.38220465509505391 -0.2453862558345459 0 -0.392891412787645 -0.23220029738243381 0 -0.38044559662855709 -0.22442850427925221 0 -0.392891412787645 -0.23220029738243381 0 -0.39217386598857201 -0.2126942554872244 0 -0.38220465509505391 -0.2453862558345459 0 -0.38044559662855709 -0.22442850427925221 0 -0.392891412787645 -0.23220029738243381 0 -0.41009275309491589 -0.22110112274271931 0 -0.392891412787645 -0.23220029738243381 0 -0.39217386598857201 -0.2126942554872244 0 -0.41009275309491589 -0.22110112274271931 0 -0.40413549636885182 -0.23910172952534819 0 -0.392891412787645 -0.23220029738243381 0 -0.41009275309491589 -0.22110112274271931 0 -0.39217386598857201 -0.2126942554872244 0 -0.40838665445132488 -0.1982502061844986 0 -0.37025657918267602 -0.20730824388463831 0 -0.39217386598857201 -0.2126942554872244 0 -0.38933190768533438 -0.1948818996090855 0 -0.37025657918267602 -0.20730824388463831 0 -0.38044559662855709 -0.22442850427925221 0 -0.39217386598857201 -0.2126942554872244 0 -0.37303268722967092 -0.1865818333711349 0 -0.37025657918267602 -0.20730824388463831 0 -0.38933190768533438 -0.1948818996090855 0 -0.39217386598857201 -0.2126942554872244 0 -0.38933190768533438 -0.1948818996090855 0 -0.40838665445132488 -0.1982502061844986 0 -0.38933190768533438 -0.1948818996090855 0 -0.40838665445132488 -0.1982502061844986 0 -0.40300155298343959 -0.18053891384452209 0 -0.40838665445132488 -0.1982502061844986 0 -0.43045735081697528 -0.20393673163118239 0 -0.42526249613871248 -0.17634831379225779 0 -0.41009275309491589 -0.22110112274271931 0 -0.40838665445132488 -0.1982502061844986 0 -0.43045735081697528 -0.20393673163118239 0 -0.42689787205185958 -0.23130712022454569 0 -0.43045735081697528 -0.20393673163118239 0 -0.44694592142380868 -0.21726329031209851 0 -0.43045735081697528 -0.20393673163118239 0 -0.42526249613871248 -0.17634831379225779 0 -0.43045735081697528 -0.20393673163118239 0 -0.42526249613871248 -0.17634831379225779 0 -0.44243634102474849 -0.18091534681248889 0 -0.42526249613871248 -0.17634831379225779 0 -0.43582275949329369 -0.16276739228240031 0 -0.44243634102474849 -0.18091534681248889 0 -0.42526249613871248 -0.17634831379225779 0 -0.43582275949329369 -0.16276739228240031 0 -0.42006764146044961 -0.14875989595333311 0 -0.42526249613871248 -0.17634831379225779 0 -0.42006764146044961 -0.14875989595333311 0 -0.42526249613871248 -0.17634831379225779 0 -0.40837335899714933 -0.16487097555634131 0 -0.42006764146044961 -0.14875989595333311 0 -0.40838665445132488 -0.1982502061844986 0 -0.42526249613871248 -0.17634831379225779 0 -0.40300155298343959 -0.18053891384452209 0 -0.42526249613871248 -0.17634831379225779 0 -0.40837335899714933 -0.16487097555634131 0 -0.40300155298343959 -0.18053891384452209 0 -0.40300155298343959 -0.18053891384452209 0 -0.38765452541076317 -0.17974639298534301 0 -0.39550991076295511 -0.16735766637673569 0 -0.38933190768533438 -0.1948818996090855 0 -0.40300155298343959 -0.18053891384452209 0 -0.38765452541076317 -0.17974639298534301 0 -0.37303268722967092 -0.1865818333711349 0 -0.38765452541076317 -0.17974639298534301 0 -0.37739656839241609 -0.16937165172523669 0 -0.37303268722967092 -0.1865818333711349 0 -0.38933190768533438 -0.1948818996090855 0 -0.38765452541076317 -0.17974639298534301 0 -0.38765452541076317 -0.17974639298534301 0 -0.37739656839241609 -0.16937165172523669 0 -0.39550991076295511 -0.16735766637673569 0 -0.37739656839241609 -0.16937165172523669 0 -0.39550991076295511 -0.16735766637673569 0 -0.37739656839241609 -0.16937165172523669 0 -0.39550991076295511 -0.16735766637673569 0 -0.37967688146091461 -0.15414372778192759 0 -0.40837335899714933 -0.16487097555634131 0 -0.39550991076295511 -0.16735766637673569 0 -0.39802519364018968 -0.1513500878148574 0 -0.39550991076295511 -0.16735766637673569 0 -0.39802519364018968 -0.1513500878148574 0 -0.37967688146091461 -0.15414372778192759 0 -0.40837335899714933 -0.16487097555634131 0 -0.40300155298343959 -0.18053891384452209 0 -0.39550991076295511 -0.16735766637673569 0 -0.39802519364018968 -0.1513500878148574 0 -0.39038282441050243 -0.13588639119870741 0 -0.40568235008804049 -0.13578502363305611 0 -0.36668088571768781 -0.136827298044675 0 -0.37967688146091461 -0.15414372778192759 0 -0.39038282441050243 -0.13588639119870741 0 -0.39802519364018968 -0.1513500878148574 0 -0.37967688146091461 -0.15414372778192759 0 -0.39038282441050243 -0.13588639119870741 0 -0.36668088571768781 -0.136827298044675 0 -0.39038282441050243 -0.13588639119870741 0 -0.38203554953434349 -0.1248085006506521 0 -0.39038282441050243 -0.13588639119870741 0 -0.38203554953434349 -0.1248085006506521 0 -0.39335984459194451 -0.1216098013378914 0 -0.39038282441050243 -0.13588639119870741 0 -0.40594885016692411 -0.12179111383503589 0 -0.39335984459194451 -0.1216098013378914 0 -0.39038282441050243 -0.13588639119870741 0 -0.40594885016692411 -0.12179111383503589 0 -0.39038282441050243 -0.13588639119870741 0 -0.40568235008804049 -0.13578502363305611 0 -0.40594885016692411 -0.12179111383503589 0 -0.42006764146044961 -0.14875989595333311 0 -0.4148727867821867 -0.1211714781144084 0 -0.40568235008804049 -0.13578502363305611 0 -0.40594885016692411 -0.12179111383503589 0 -0.4148727867821867 -0.1211714781144084 0 -0.40568235008804049 -0.13578502363305611 0 -0.42006764146044961 -0.14875989595333311 0 -0.4148727867821867 -0.1211714781144084 0 -0.40837335899714933 -0.16487097555634131 0 -0.39802519364018968 -0.1513500878148574 0 -0.42006764146044961 -0.14875989595333311 0 -0.39802519364018968 -0.1513500878148574 0 -0.40568235008804049 -0.13578502363305611 0 -0.42006764146044961 -0.14875989595333311 0 -0.43582275949329369 -0.16276739228240031 0 -0.42006764146044961 -0.14875989595333311 0 -0.44418725497194389 -0.14624848521506181 0 -0.42006764146044961 -0.14875989595333311 0 -0.43176461769217711 -0.1266491510419108 0 -0.4148727867821867 -0.1211714781144084 0 -0.42006764146044961 -0.14875989595333311 0 -0.43176461769217711 -0.1266491510419108 0 -0.44418725497194389 -0.14624848521506181 0 -0.43176461769217711 -0.1266491510419108 0 -0.44418725497194389 -0.14624848521506181 0 -0.45142360993786879 -0.1184788934301879 0 -0.44418725497194389 -0.14624848521506181 0 -0.45979527302151241 -0.1563176337878284 0 -0.4508016451120907 -0.1660941860381456 0 -0.44418725497194389 -0.14624848521506181 0 -0.46576631819597131 -0.14335722775268361 0 -0.45979527302151241 -0.1563176337878284 0 -0.46576631819597131 -0.14335722775268361 0 -0.46995949638211548 -0.16268714640518619 0 -0.45979527302151241 -0.1563176337878284 0 -0.46576631819597131 -0.14335722775268361 0 -0.46998635133671418 -0.12672619219378239 0 -0.45142360993786879 -0.1184788934301879 0 -0.46576631819597131 -0.14335722775268361 0 -0.45142360993786879 -0.1184788934301879 0 -0.44418725497194389 -0.14624848521506181 0 -0.46576631819597131 -0.14335722775268361 0 -0.45142360993786879 -0.1184788934301879 0 -0.48158424359770491 -0.1417547901596585 0 -0.4830594607413386 -0.1152740182441373 0 -0.46998635133671418 -0.12672619219378239 0 -0.48158424359770491 -0.1417547901596585 0 -0.4830594607413386 -0.1152740182441373 0 -0.46576631819597131 -0.14335722775268361 0 -0.46998635133671418 -0.12672619219378239 0 -0.48158424359770491 -0.1417547901596585 0 -0.5 -0.1342701483083896 0 -0.48158424359770491 -0.1417547901596585 0 -0.4830594607413386 -0.1152740182441373 0 -0.5 -0.1342701483083896 0 -0.48787309462859291 -0.1550349284155168 0 -0.48158424359770491 -0.1417547901596585 0 -0.5 -0.1342701483083896 0 -0.48787309462859291 -0.1550349284155168 0 -0.5 -0.16253602886753929 0 -0.46576631819597131 -0.14335722775268361 0 -0.48010902645407272 -0.1682355620751799 0 -0.48787309462859291 -0.1550349284155168 0 -0.48158424359770491 -0.1417547901596585 0 -0.48010902645407272 -0.1682355620751799 0 -0.46576631819597131 -0.14335722775268361 0 -0.48158424359770491 -0.1417547901596585 0 -0.48010902645407272 -0.1682355620751799 0 -0.48158424359770491 -0.1417547901596585 0 -0.48010902645407272 -0.1682355620751799 0 -0.46576631819597131 -0.14335722775268361 0 -0.46995949638211548 -0.16268714640518619 0 -0.48010902645407272 -0.1682355620751799 0 -0.47183122336814942 -0.16868772833957099 0 -0.4741111834156434 -0.17402786976066589 0 -0.46546673176909181 -0.1698144638183261 0 -0.46995949638211548 -0.16268714640518619 0 -0.47518712179669231 -0.16903659538640281 0 -0.48010902645407272 -0.1682355620751799 0 -0.46995949638211548 -0.16268714640518619 0 -0.47183122336814942 -0.16868772833957099 0 -0.46546673176909181 -0.1698144638183261 0 -0.46995949638211548 -0.16268714640518619 0 -0.47183122336814942 -0.16868772833957099 0 -0.47518712179669231 -0.16903659538640281 0 -0.47518712179669231 -0.16903659538640281 0 -0.4799246793634801 -0.1715446703514108 0 -0.4741111834156434 -0.17402786976066589 0 -0.47183122336814942 -0.16868772833957099 0 -0.47518712179669231 -0.16903659538640281 0 -0.4741111834156434 -0.17402786976066589 0 -0.47518712179669231 -0.16903659538640281 0 -0.4799246793634801 -0.1715446703514108 0 -0.48010902645407272 -0.1682355620751799 0 -0.4799246793634801 -0.1715446703514108 0 -0.48010902645407272 -0.1682355620751799 0 -0.48787309462859291 -0.1550349284155168 0 -0.48010902645407272 -0.1682355620751799 0 -0.4898119641621197 -0.16488159333298871 0 -0.48010902645407272 -0.1682355620751799 0 -0.4898119641621197 -0.16488159333298871 0 -0.49126573556581321 -0.17371985397371889 0 -0.4898119641621197 -0.16488159333298871 0 -0.5 -0.16253602886753929 0 -0.49126573556581321 -0.17371985397371889 0 -0.48787309462859291 -0.1550349284155168 0 -0.4898119641621197 -0.16488159333298871 0 -0.5 -0.16253602886753929 0 -0.49126573556581321 -0.17371985397371889 0 -0.48867537167884267 -0.18309442949328489 0 -0.5 -0.19080190942668879 0 -0.5 -0.16253602886753929 0 -0.49126573556581321 -0.17371985397371889 0 -0.5 -0.19080190942668879 0 -0.48010902645407272 -0.1682355620751799 0 -0.48867537167884267 -0.18309442949328489 0 -0.48010902645407272 -0.1682355620751799 0 -0.49126573556581321 -0.17371985397371889 0 -0.48867537167884267 -0.18309442949328489 0 -0.48867537167884267 -0.18309442949328489 0 -0.47972872505065323 -0.1822001073352818 0 -0.48696641294745718 -0.1939784108659329 0 -0.4799246793634801 -0.1715446703514108 0 -0.48867537167884267 -0.18309442949328489 0 -0.47972872505065323 -0.1822001073352818 0 -0.4799246793634801 -0.1715446703514108 0 -0.47972872505065323 -0.1822001073352818 0 -0.4741111834156434 -0.17402786976066589 0 -0.4799246793634801 -0.1715446703514108 0 -0.48010902645407272 -0.1682355620751799 0 -0.48867537167884267 -0.18309442949328489 0 -0.4741111834156434 -0.17402786976066589 0 -0.47092733545858989 -0.18220998606187749 0 -0.46546673176909181 -0.1698144638183261 0 -0.47972872505065323 -0.1822001073352818 0 -0.4741111834156434 -0.17402786976066589 0 -0.47092733545858989 -0.18220998606187749 0 -0.47972872505065323 -0.1822001073352818 0 -0.47092733545858989 -0.18220998606187749 0 -0.47601724520754812 -0.19520205961825221 0 -0.47092733545858989 -0.18220998606187749 0 -0.45683245674176542 -0.1793883093144315 0 -0.45544133784565438 -0.19695714781651619 0 -0.47092733545858989 -0.18220998606187749 0 -0.45683245674176542 -0.1793883093144315 0 -0.46546673176909181 -0.1698144638183261 0 -0.46995949638211548 -0.16268714640518619 0 -0.46546673176909181 -0.1698144638183261 0 -0.45979527302151241 -0.1563176337878284 0 -0.46546673176909181 -0.1698144638183261 0 -0.45979527302151241 -0.1563176337878284 0 -0.4508016451120907 -0.1660941860381456 0 -0.45683245674176542 -0.1793883093144315 0 -0.46546673176909181 -0.1698144638183261 0 -0.4508016451120907 -0.1660941860381456 0 -0.43582275949329369 -0.16276739228240031 0 -0.4508016451120907 -0.1660941860381456 0 -0.44243634102474849 -0.18091534681248889 0 -0.43582275949329369 -0.16276739228240031 0 -0.44418725497194389 -0.14624848521506181 0 -0.4508016451120907 -0.1660941860381456 0 -0.45683245674176542 -0.1793883093144315 0 -0.44243634102474849 -0.18091534681248889 0 -0.45544133784565438 -0.19695714781651619 0 -0.45683245674176542 -0.1793883093144315 0 -0.4508016451120907 -0.1660941860381456 0 -0.44243634102474849 -0.18091534681248889 0 -0.43045735081697528 -0.20393673163118239 0 -0.44243634102474849 -0.18091534681248889 0 -0.45544133784565438 -0.19695714781651619 0 -0.43045735081697528 -0.20393673163118239 0 -0.44694592142380868 -0.21726329031209851 0 -0.45544133784565438 -0.19695714781651619 0 -0.44694592142380868 -0.21726329031209851 0 -0.46598343053736718 -0.21643917050216671 0 -0.45544133784565438 -0.19695714781651619 0 -0.47092733545858989 -0.18220998606187749 0 -0.45544133784565438 -0.19695714781651619 0 -0.47601724520754812 -0.19520205961825221 0 -0.46598343053736718 -0.21643917050216671 0 -0.45544133784565438 -0.19695714781651619 0 -0.47601724520754812 -0.19520205961825221 0 -0.47601724520754812 -0.19520205961825221 0 -0.48696641294745718 -0.1939784108659329 0 -0.48523226126720598 -0.2083089270690032 0 -0.47972872505065323 -0.1822001073352818 0 -0.47601724520754812 -0.19520205961825221 0 -0.48696641294745718 -0.1939784108659329 0 -0.48867537167884267 -0.18309442949328489 0 -0.48696641294745718 -0.1939784108659329 0 -0.49724171690361152 -0.19795329691139049 0 -0.49724171690361152 -0.19795329691139049 0 -0.5 -0.19080190942668879 0 -0.5 -0.21906778998583851 0 -0.48696641294745718 -0.1939784108659329 0 -0.49724171690361152 -0.19795329691139049 0 -0.48523226126720598 -0.2083089270690032 0 -0.48867537167884267 -0.18309442949328489 0 -0.49724171690361152 -0.19795329691139049 0 -0.48867537167884267 -0.18309442949328489 0 -0.49724171690361152 -0.19795329691139049 0 -0.5 -0.19080190942668879 0 -0.49724171690361152 -0.19795329691139049 0 -0.48523226126720598 -0.2083089270690032 0 -0.5 -0.21906778998583851 0 -0.48523226126720598 -0.2083089270690032 0 -0.5 -0.21906778998583851 0 -0.48518476200725252 -0.22721283453043839 0 -0.46598343053736718 -0.21643917050216671 0 -0.48523226126720598 -0.2083089270690032 0 -0.48518476200725252 -0.22721283453043839 0 -0.46598343053736718 -0.21643917050216671 0 -0.47601724520754812 -0.19520205961825221 0 -0.46598343053736718 -0.21643917050216671 0 -0.47601724520754812 -0.19520205961825221 0 -0.48523226126720598 -0.2083089270690032 0 -0.46598343053736718 -0.21643917050216671 0 -0.48518476200725252 -0.22721283453043839 0 -0.47797480793359443 -0.24250497596553491 0 -0.5 -0.21906778998583851 0 -0.48518476200725252 -0.22721283453043839 0 -0.50000000000000155 -0.2473336705449882 0 -0.50000000000000155 -0.2473336705449882 0 -0.47797480793359443 -0.24250497596553491 0 -0.48518476200725252 -0.22721283453043839 0 -0.50000000000000155 -0.2473336705449882 0 -0.47797480793359443 -0.24250497596553491 0 -0.47797480793359443 -0.24250497596553491 0 -0.4559496158671873 -0.23767628138608149 0 -0.46095441007604793 -0.25848998864844891 0 -0.47797480793359443 -0.24250497596553491 0 -0.4559496158671873 -0.23767628138608149 0 -0.46598343053736718 -0.21643917050216671 0 -0.4559496158671873 -0.23767628138608149 0 -0.46598343053736718 -0.21643917050216671 0 -0.47797480793359443 -0.24250497596553491 0 -0.4559496158671873 -0.23767628138608149 0 -0.44694592142380868 -0.21726329031209851 0 -0.46598343053736718 -0.21643917050216671 0 -0.4559496158671873 -0.23767628138608149 0 -0.42689787205185958 -0.23130712022454569 0 -0.44694592142380868 -0.21726329031209851 0 -0.4559496158671873 -0.23767628138608149 0 -0.44485247883738982 -0.26116397149622111 0 -0.4559496158671873 -0.23767628138608149 0 -0.42689787205185958 -0.23130712022454569 0 -0.4559496158671873 -0.23767628138608149 0 -0.42689787205185958 -0.23130712022454569 0 -0.4559496158671873 -0.23767628138608149 0 -0.44164891654744198 -0.2450584551682439 0 -0.44485247883738982 -0.26116397149622111 0 -0.4559496158671873 -0.23767628138608149 0 -0.44164891654744198 -0.2450584551682439 0 -0.41940857698061512 -0.046360495642332758 0 -0.41259919389127597 -0.03883915622434686 0 -0.40262985989834721 -0.048443941687680132 0 -0.41259919389127597 -0.03883915622434686 0 -0.41607139650859148 -0.027946966168313599 0 -0.39930631331475602 -0.031608578407074359 0 -0.41940857698061512 -0.046360495642332758 0 -0.41259919389127597 -0.03883915622434686 0 -0.42557982275407008 -0.039835799216333428 0 -0.42557982275407008 -0.039835799216333428 0 -0.41607139650859148 -0.027946966168313599 0 -0.41259919389127597 -0.03883915622434686 0 -0.42557982275407008 -0.039835799216333428 0 -0.41607139650859148 -0.027946966168313599 0 -0.41940857698061512 -0.046360495642332758 0 -0.41792871505035761 -0.055912092639455312 0 -0.40262985989834721 -0.048443941687680132 0 -0.40658288370080831 -0.062492879319187178 0 -0.41792871505035761 -0.055912092639455312 0 -0.41456287295843008 -0.066311277324615989 0 -0.40658288370080831 -0.062492879319187178 0 -0.41792871505035761 -0.055912092639455312 0 -0.40262985989834721 -0.048443941687680132 0 -0.41792871505035761 -0.055912092639455312 0 -0.42928914131713142 -0.054564575609215918 0 -0.42421267379165217 -0.071279804214158776 0 -0.41940857698061512 -0.046360495642332758 0 -0.42928914131713142 -0.054564575609215918 0 -0.42557982275407008 -0.039835799216333428 0 -0.41940857698061512 -0.046360495642332758 0 -0.41792871505035761 -0.055912092639455312 0 -0.42928914131713142 -0.054564575609215918 0 -0.42928914131713142 -0.054564575609215918 0 -0.42557982275407008 -0.039835799216333428 0 -0.4482042793974631 -0.048469206518556233 0 -0.42557982275407008 -0.039835799216333428 0 -0.42738362483028791 -0.032263669819425141 0 -0.4482042793974631 -0.048469206518556233 0 -0.42557982275407008 -0.039835799216333428 0 -0.42738362483028791 -0.032263669819425141 0 -0.41607139650859148 -0.027946966168313599 0 -0.42738362483028791 -0.032263669819425141 0 -0.41611750668234432 -0.011215390120275131 0 -0.43878726799841128 -0.024476852797909319 0 -0.41611750668234432 -0.011215390120275131 0 -0.43878726799841128 -0.024476852797909319 0 -0.41611750668234432 -0.011215390120275131 0 -0.44578732100732571 -0.003346329288056523 0 -0.43878726799841128 -0.024476852797909319 0 -0.41611750668234432 -0.011215390120275131 0 -0.4116157544614989 0.0084241392466555074 0 -0.39344774536627719 0.002046072557359023 0 -0.42738362483028791 -0.032263669819425141 0 -0.41611750668234432 -0.011215390120275131 0 -0.40656297026311289 -0.016058133120293892 0 -0.42738362483028791 -0.032263669819425141 0 -0.41607139650859148 -0.027946966168313599 0 -0.40656297026311289 -0.016058133120293892 0 -0.42738362483028791 -0.032263669819425141 0 -0.40656297026311289 -0.016058133120293892 0 -0.41607139650859148 -0.027946966168313599 0 -0.40656297026311289 -0.016058133120293892 0 -0.39930631331475602 -0.031608578407074359 0 -0.41607139650859148 -0.027946966168313599 0 -0.40656297026311289 -0.016058133120293892 0 -0.39675823491216239 -0.0209511189497773 0 -0.39437166014978359 -0.01025633486905524 0 -0.38100998203754721 -0.024543810477339421 0 -0.39675823491216239 -0.0209511189497773 0 -0.38100998203754721 -0.024543810477339421 0 -0.39930631331475602 -0.031608578407074359 0 -0.40656297026311289 -0.016058133120293892 0 -0.39675823491216239 -0.0209511189497773 0 -0.39437166014978359 -0.01025633486905524 0 -0.40656297026311289 -0.016058133120293892 0 -0.39675823491216239 -0.0209511189497773 0 -0.39930631331475602 -0.031608578407074359 0 -0.41611750668234432 -0.011215390120275131 0 -0.39344774536627719 0.002046072557359023 0 -0.40656297026311289 -0.016058133120293892 0 -0.39287753499074779 -0.0054062190397681318 0 -0.39344774536627719 0.002046072557359023 0 -0.40656297026311289 -0.016058133120293892 0 -0.39344774536627719 0.002046072557359023 0 -0.41611750668234432 -0.011215390120275131 0 -0.40656297026311289 -0.016058133120293892 0 -0.39344774536627719 0.002046072557359023 0 -0.40656297026311289 -0.016058133120293892 0 -0.39287753499074779 -0.0054062190397681318 0 -0.40656297026311289 -0.016058133120293892 0 -0.39437166014978359 -0.01025633486905524 0 -0.39287753499074779 -0.0054062190397681318 0 -0.39437166014978359 -0.01025633486905524 0 -0.39287753499074779 -0.0054062190397681318 0 -0.39437166014978359 -0.01025633486905524 0 -0.39287753499074779 -0.0054062190397681318 0 -0.39072262449585388 -0.0037289672033424398 0 -0.39287753499074779 -0.0054062190397681318 0 -0.39072262449585388 -0.0037289672033424398 0 -0.39287753499074779 -0.0054062190397681318 0 -0.39171978545132718 -0.0016480202479848909 0 -0.39344774536627719 0.002046072557359023 0 -0.39287753499074779 -0.0054062190397681318 0 -0.39171978545132718 -0.0016480202479848909 0 -0.39287753499074779 -0.0054062190397681318 0 -0.39072262449585388 -0.0037289672033424398 0 -0.39171978545132718 -0.0016480202479848909 0 -0.39072262449585388 -0.0037289672033424398 0 -0.39171978545132718 -0.0016480202479848909 0 -0.39437166014978359 -0.01025633486905524 0 -0.39072262449585388 -0.0037289672033424398 0 -0.38100998203754721 -0.024543810477339421 0 -0.39072262449585388 -0.0037289672033424398 0 -0.37854971817919902 -0.01071064380255813 0 -0.38100998203754721 -0.024543810477339421 0 -0.39072262449585388 -0.0037289672033424398 0 -0.38100998203754721 -0.024543810477339421 0 -0.39072262449585388 -0.0037289672033424398 0 -0.37854971817919902 -0.01071064380255813 0 -0.3819240393544634 -0.00067374671502756106 0 -0.39072262449585388 -0.0037289672033424398 0 -0.38736768118614912 -0.00011237588612336 0 -0.3819240393544634 -0.00067374671502756106 0 -0.39072262449585388 -0.0037289672033424398 0 -0.39171978545132718 -0.0016480202479848909 0 -0.38736768118614912 -0.00011237588612336 0 -0.37263588858309638 -0.0016113739078703301 0 -0.37854971817919902 -0.01071064380255813 0 -0.3819240393544634 -0.00067374671502756106 0 -0.36714983617332131 -0.01560340313856357 0 -0.37854971817919902 -0.01071064380255813 0 -0.38100998203754721 -0.024543810477339421 0 -0.37127783602524089 -0.045349530710501663 0 -0.38100998203754721 -0.024543810477339421 0 -0.38689344979915191 -0.041266324924886792 0 -0.38100998203754721 -0.024543810477339421 0 -0.38689344979915191 -0.041266324924886792 0 -0.39930631331475602 -0.031608578407074359 0 -0.37127783602524089 -0.045349530710501663 0 -0.38100998203754721 -0.024543810477339421 0 -0.37127783602524089 -0.045349530710501663 0 -0.38689344979915191 -0.041266324924886792 0 -0.38231042678053068 -0.053843820366350763 0 -0.38689344979915191 -0.041266324924886792 0 -0.39930631331475602 -0.031608578407074359 0 -0.40262985989834721 -0.048443941687680132 0 -0.41259919389127597 -0.03883915622434686 0 -0.39930631331475602 -0.031608578407074359 0 -0.40262985989834721 -0.048443941687680132 0 -0.40262985989834721 -0.048443941687680132 0 -0.38231042678053068 -0.053843820366350763 0 -0.38813751519737999 -0.068211917227790936 0 -0.40658288370080831 -0.062492879319187178 0 -0.40262985989834721 -0.048443941687680132 0 -0.38813751519737999 -0.068211917227790936 0 -0.36674781110385801 -0.060863501329919162 0 -0.38231042678053068 -0.053843820366350763 0 -0.38813751519737999 -0.068211917227790936 0 -0.38689344979915191 -0.041266324924886792 0 -0.40262985989834721 -0.048443941687680132 0 -0.38231042678053068 -0.053843820366350763 0 -0.3719029430905223 -0.072127548889561022 0 -0.38813751519737999 -0.068211917227790936 0 -0.38047549661079938 -0.078655057436266898 0 -0.38813751519737999 -0.068211917227790936 0 -0.38047549661079938 -0.078655057436266898 0 -0.39280575900840198 -0.086437048519032764 0 -0.36674781110385801 -0.060863501329919162 0 -0.38813751519737999 -0.068211917227790936 0 -0.3719029430905223 -0.072127548889561022 0 -0.36674781110385801 -0.060863501329919162 0 -0.38813751519737999 -0.068211917227790936 0 -0.37173080150296212 -0.082730243423741495 0 -0.38047549661079938 -0.078655057436266898 0 -0.37966636621650141 -0.088222918673328793 0 -0.37237073826033862 -0.092281114852717436 0 -0.37966636621650141 -0.088222918673328793 0 -0.38084593669028299 -0.1002390302153679 0 -0.37966636621650141 -0.088222918673328793 0 -0.39280575900840198 -0.086437048519032764 0 -0.38084593669028299 -0.1002390302153679 0 -0.38047549661079938 -0.078655057436266898 0 -0.37966636621650141 -0.088222918673328793 0 -0.39280575900840198 -0.086437048519032764 0 -0.39280575900840198 -0.086437048519032764 0 -0.4058870149800014 -0.090263122645398292 0 -0.40952721929090208 -0.075560333125662696 0 -0.39280575900840198 -0.086437048519032764 0 -0.4058870149800014 -0.090263122645398292 0 -0.40187660554619398 -0.1007489330006146 0 -0.40658288370080831 -0.062492879319187178 0 -0.38813751519737999 -0.068211917227790936 0 -0.40952721929090208 -0.075560333125662696 0 -0.38813751519737999 -0.068211917227790936 0 -0.39280575900840198 -0.086437048519032764 0 -0.40952721929090208 -0.075560333125662696 0 -0.38813751519737999 -0.068211917227790936 0 -0.40952721929090208 -0.075560333125662696 0 -0.3721401528509401 -0.1162149784283797 0 -0.38761404010064288 -0.1135040342436069 0 -0.38084593669028299 -0.1002390302153679 0 -0.38203554953434349 -0.1248085006506521 0 -0.38761404010064288 -0.1135040342436069 0 -0.39335984459194451 -0.1216098013378914 0 -0.3721401528509401 -0.1162149784283797 0 -0.38203554953434349 -0.1248085006506521 0 -0.38761404010064288 -0.1135040342436069 0 -0.39280575900840198 -0.086437048519032764 0 -0.38084593669028299 -0.1002390302153679 0 -0.39156244368305593 -0.1038232050058724 0 -0.38761404010064288 -0.1135040342436069 0 -0.38084593669028299 -0.1002390302153679 0 -0.39156244368305593 -0.1038232050058724 0 -0.39280575900840198 -0.086437048519032764 0 -0.40187660554619398 -0.1007489330006146 0 -0.39156244368305593 -0.1038232050058724 0 -0.40187660554619398 -0.1007489330006146 0 -0.39862330516284938 -0.1118214908081492 0 -0.40837968486441972 -0.1088933319857103 0 -0.40187660554619398 -0.1007489330006146 0 -0.39156244368305593 -0.1038232050058724 0 -0.39862330516284938 -0.1118214908081492 0 -0.38761404010064288 -0.1135040342436069 0 -0.39156244368305593 -0.1038232050058724 0 -0.39862330516284938 -0.1118214908081492 0 -0.38761404010064288 -0.1135040342436069 0 -0.39862330516284938 -0.1118214908081492 0 -0.39335984459194451 -0.1216098013378914 0 -0.39862330516284938 -0.1118214908081492 0 -0.40594885016692411 -0.12179111383503589 0 -0.40837968486441972 -0.1088933319857103 0 -0.39862330516284938 -0.1118214908081492 0 -0.40594885016692411 -0.12179111383503589 0 -0.39335984459194451 -0.1216098013378914 0 -0.40594885016692411 -0.12179111383503589 0 -0.42151487592334569 -0.10769583647136451 0 -0.40837968486441972 -0.1088933319857103 0 -0.40594885016692411 -0.12179111383503589 0 -0.42151487592334569 -0.10769583647136451 0 -0.4148727867821867 -0.1211714781144084 0 -0.42151487592334569 -0.10769583647136451 0 -0.42552424324365468 -0.11671772335393869 0 -0.40594885016692411 -0.12179111383503589 0 -0.4148727867821867 -0.1211714781144084 0 -0.42151487592334569 -0.10769583647136451 0 -0.42151487592334569 -0.10769583647136451 0 -0.40837968486441972 -0.1088933319857103 0 -0.41298780974998639 -0.098433232341089208 0 -0.40187660554619398 -0.1007489330006146 0 -0.40837968486441972 -0.1088933319857103 0 -0.41298780974998639 -0.098433232341089208 0 -0.4058870149800014 -0.090263122645398292 0 -0.40187660554619398 -0.1007489330006146 0 -0.41298780974998639 -0.098433232341089208 0 -0.41298780974998639 -0.098433232341089208 0 -0.42363202886903562 -0.094650233789594321 0 -0.41663664831692238 -0.088347936153853335 0 -0.42151487592334569 -0.10769583647136451 0 -0.41298780974998639 -0.098433232341089208 0 -0.42363202886903562 -0.094650233789594321 0 -0.42151487592334569 -0.10769583647136451 0 -0.43394469257690949 -0.11135442778807141 0 -0.43708090167976638 -0.093600559107692008 0 -0.42151487592334569 -0.10769583647136451 0 -0.42363202886903562 -0.094650233789594321 0 -0.43708090167976638 -0.093600559107692008 0 -0.42151487592334569 -0.10769583647136451 0 -0.43708090167976638 -0.093600559107692008 0 -0.43176461769217711 -0.1266491510419108 0 -0.4148727867821867 -0.1211714781144084 0 -0.42552424324365468 -0.11671772335393869 0 -0.42151487592334569 -0.10769583647136451 0 -0.42552424324365468 -0.11671772335393869 0 -0.43394469257690949 -0.11135442778807141 0 -0.43176461769217711 -0.1266491510419108 0 -0.42552424324365468 -0.11671772335393869 0 -0.43394469257690949 -0.11135442778807141 0 -0.40952721929090208 -0.075560333125662696 0 -0.43091692338442422 -0.082908749023534137 0 -0.42421267379165217 -0.071279804214158776 0 -0.41456287295843008 -0.066311277324615989 0 -0.40952721929090208 -0.075560333125662696 0 -0.42421267379165217 -0.071279804214158776 0 -0.41792871505035761 -0.055912092639455312 0 -0.41456287295843008 -0.066311277324615989 0 -0.42421267379165217 -0.071279804214158776 0 -0.40658288370080831 -0.062492879319187178 0 -0.41456287295843008 -0.066311277324615989 0 -0.40952721929090208 -0.075560333125662696 0 -0.40952721929090208 -0.075560333125662696 0 -0.43091692338442422 -0.082908749023534137 0 -0.4058870149800014 -0.090263122645398292 0 -0.40952721929090208 -0.075560333125662696 0 -0.41663664831692238 -0.088347936153853335 0 -0.40952721929090208 -0.075560333125662696 0 -0.41663664831692238 -0.088347936153853335 0 -0.43091692338442422 -0.082908749023534137 0 -0.4058870149800014 -0.090263122645398292 0 -0.41298780974998639 -0.098433232341089208 0 -0.41663664831692238 -0.088347936153853335 0 -0.42363202886903562 -0.094650233789594321 0 -0.41663664831692238 -0.088347936153853335 0 -0.43091692338442422 -0.082908749023534137 0 -0.43708090167976638 -0.093600559107692008 0 -0.43091692338442422 -0.082908749023534137 0 -0.42363202886903562 -0.094650233789594321 0 -0.43708090167976638 -0.093600559107692008 0 -0.43091692338442422 -0.082908749023534137 0 -0.43708090167976638 -0.093600559107692008 0 -0.43091692338442422 -0.082908749023534137 0 -0.443945382176128 -0.087384665721173704 0 -0.43091692338442422 -0.082908749023534137 0 -0.443945382176128 -0.087384665721173704 0 -0.42928914131713142 -0.054564575609215918 0 -0.42421267379165217 -0.071279804214158776 0 -0.44040077992863041 -0.065530055424459069 0 -0.42421267379165217 -0.071279804214158776 0 -0.44040077992863041 -0.065530055424459069 0 -0.43930772885040781 -0.077260015590782535 0 -0.43091692338442422 -0.082908749023534137 0 -0.42421267379165217 -0.071279804214158776 0 -0.43930772885040781 -0.077260015590782535 0 -0.43091692338442422 -0.082908749023534137 0 -0.42421267379165217 -0.071279804214158776 0 -0.44040077992863041 -0.065530055424459069 0 -0.45648515807038298 -0.076029704469431483 0 -0.4482042793974631 -0.048469206518556233 0 -0.44040077992863041 -0.065530055424459069 0 -0.43930772885040781 -0.077260015590782535 0 -0.45648515807038298 -0.076029704469431483 0 -0.43091692338442422 -0.082908749023534137 0 -0.43930772885040781 -0.077260015590782535 0 -0.443945382176128 -0.087384665721173704 0 -0.43708090167976638 -0.093600559107692008 0 -0.443945382176128 -0.087384665721173704 0 -0.45595305485401483 -0.09150989215800473 0 -0.43930772885040781 -0.077260015590782535 0 -0.443945382176128 -0.087384665721173704 0 -0.45648515807038298 -0.076029704469431483 0 -0.43708090167976638 -0.093600559107692008 0 -0.443945382176128 -0.087384665721173704 0 -0.443945382176128 -0.087384665721173704 0 -0.45595305485401483 -0.09150989215800473 0 -0.443945382176128 -0.087384665721173704 0 -0.45595305485401483 -0.09150989215800473 0 -0.45648515807038298 -0.076029704469431483 0 -0.443945382176128 -0.087384665721173704 0 -0.45648515807038298 -0.076029704469431483 0 -0.46518462616658202 -0.089223900612759116 0 -0.45648515807038298 -0.076029704469431483 0 -0.47258224420883699 -0.081311291802852528 0 -0.45595305485401483 -0.09150989215800473 0 -0.46518462616658202 -0.089223900612759116 0 -0.45648515807038298 -0.076029704469431483 0 -0.45648515807038298 -0.076029704469431483 0 -0.46902493396463729 -0.064674743217688568 0 -0.45648515807038298 -0.076029704469431483 0 -0.46902493396463729 -0.064674743217688568 0 -0.4482042793974631 -0.048469206518556233 0 -0.45648515807038298 -0.076029704469431483 0 -0.46902493396463729 -0.064674743217688568 0 -0.47258224420883699 -0.081311291802852528 0 -0.43176461769217711 -0.1266491510419108 0 -0.43394469257690949 -0.11135442778807141 0 -0.45142360993786879 -0.1184788934301879 0 -0.43708090167976638 -0.093600559107692008 0 -0.45142360993786879 -0.1184788934301879 0 -0.43708090167976638 -0.093600559107692008 0 -0.45595305485401483 -0.09150989215800473 0 -0.45793289415364008 -0.1041159874198755 0 -0.43394469257690949 -0.11135442778807141 0 -0.43708090167976638 -0.093600559107692008 0 -0.45142360993786879 -0.1184788934301879 0 -0.43708090167976638 -0.093600559107692008 0 -0.45142360993786879 -0.1184788934301879 0 -0.45793289415364008 -0.1041159874198755 0 -0.45595305485401483 -0.09150989215800473 0 -0.46518462616658202 -0.089223900612759116 0 -0.45793289415364008 -0.1041159874198755 0 -0.46518462616658202 -0.089223900612759116 0 -0.45793289415364008 -0.1041159874198755 0 -0.4721719423098758 -0.1008542836041665 0 -0.45793289415364008 -0.1041159874198755 0 -0.46691485169588748 -0.1130898749784299 0 -0.4721719423098758 -0.1008542836041665 0 -0.46998635133671418 -0.12672619219378239 0 -0.45142360993786879 -0.1184788934301879 0 -0.46691485169588748 -0.1130898749784299 0 -0.45142360993786879 -0.1184788934301879 0 -0.45793289415364008 -0.1041159874198755 0 -0.46691485169588748 -0.1130898749784299 0 -0.46998635133671418 -0.12672619219378239 0 -0.46691485169588748 -0.1130898749784299 0 -0.4830594607413386 -0.1152740182441373 0 -0.46691485169588748 -0.1130898749784299 0 -0.4830594607413386 -0.1152740182441373 0 -0.4721719423098758 -0.1008542836041665 0 -0.4830594607413386 -0.1152740182441373 0 -0.48453467788497218 -0.088793246328616002 0 -0.4830594607413386 -0.1152740182441373 0 -0.4721719423098758 -0.1008542836041665 0 -0.48453467788497218 -0.088793246328616002 0 -0.5 -0.10600426774923991 0 -0.48453467788497218 -0.088793246328616002 0 -0.49268200579952298 -0.086599655305160311 0 -0.4830594607413386 -0.1152740182441373 0 -0.5 -0.10600426774923991 0 -0.48453467788497218 -0.088793246328616002 0 -0.5 -0.1342701483083896 0 -0.4830594607413386 -0.1152740182441373 0 -0.5 -0.10600426774923991 0 -0.46902493396463729 -0.064674743217688568 0 -0.47258224420883699 -0.081311291802852528 0 -0.4858209738622572 -0.077747763572679138 0 -0.48396173109836482 -0.064067066793981678 0 -0.46902493396463729 -0.064674743217688568 0 -0.4858209738622572 -0.077747763572679138 0 -0.46902493396463729 -0.064674743217688568 0 -0.4858209738622572 -0.077747763572679138 0 -0.46518462616658202 -0.089223900612759116 0 -0.47258224420883699 -0.081311291802852528 0 -0.47361837264256668 -0.090045680587098553 0 -0.46518462616658202 -0.089223900612759116 0 -0.4721719423098758 -0.1008542836041665 0 -0.47361837264256668 -0.090045680587098553 0 -0.47258224420883699 -0.081311291802852528 0 -0.47361837264256668 -0.090045680587098553 0 -0.48453467788497218 -0.088793246328616002 0 -0.4721719423098758 -0.1008542836041665 0 -0.47361837264256668 -0.090045680587098553 0 -0.48453467788497218 -0.088793246328616002 0 -0.47258224420883699 -0.081311291802852528 0 -0.48453467788497218 -0.088793246328616002 0 -0.4858209738622572 -0.077747763572679138 0 -0.48453467788497218 -0.088793246328616002 0 -0.49268200579952298 -0.086599655305160311 0 -0.4858209738622572 -0.077747763572679138 0 -0.5 -0.10600426774923991 0 -0.49268200579952298 -0.086599655305160311 0 -0.5 -0.077738387190090186 0 -0.49268200579952298 -0.086599655305160311 0 -0.5 -0.077738387190090186 0 -0.4858209738622572 -0.077747763572679138 0 -0.5 -0.077738387190090186 0 -0.49313470705364842 -0.066591080345581449 0 -0.5 -0.049472506630940598 0 -0.5 -0.077738387190090186 0 -0.4858209738622572 -0.077747763572679138 0 -0.49313470705364842 -0.066591080345581449 0 -0.48396173109836482 -0.064067066793981678 0 -0.4858209738622572 -0.077747763572679138 0 -0.49313470705364842 -0.066591080345581449 0 -0.49313470705364842 -0.066591080345581449 0 -0.49365530896382598 -0.056573815236682222 0 -0.5 -0.049472506630940598 0 -0.49365530896382598 -0.056573815236682222 0 -0.5 -0.049472506630940598 0 -0.49184705009365309 -0.044008963660457458 0 -0.49365530896382598 -0.056573815236682222 0 -0.49184705009365309 -0.044008963660457458 0 -0.48412679063054559 -0.050999778153177293 0 -0.49365530896382598 -0.056573815236682222 0 -0.48412679063054559 -0.050999778153177293 0 -0.49184705009365309 -0.044008963660457458 0 -0.48412679063054559 -0.050999778153177293 0 -0.48396173109836482 -0.064067066793981678 0 -0.49365530896382598 -0.056573815236682222 0 -0.48412679063054559 -0.050999778153177293 0 -0.48396173109836482 -0.064067066793981678 0 -0.49313470705364842 -0.066591080345581449 0 -0.49365530896382598 -0.056573815236682222 0 -0.5 -0.049472506630940598 0 -0.49184705009365309 -0.044008963660457458 0 -0.5 -0.021206626071790909 0 -0.49184705009365309 -0.044008963660457458 0 -0.48041971696243457 -0.039147580190033358 0 -0.48412679063054559 -0.050999778153177293 0 -0.48041971696243457 -0.039147580190033358 0 -0.46145702931447841 -0.037738315475543488 0 -0.47956451355016189 -0.026758648885759889 0 -0.48412679063054559 -0.050999778153177293 0 -0.46145702931447841 -0.037738315475543488 0 -0.49184705009365309 -0.044008963660457458 0 -0.48041971696243457 -0.039147580190033358 0 -0.47956451355016189 -0.026758648885759889 0 -0.48041971696243457 -0.039147580190033358 0 -0.48412679063054559 -0.050999778153177293 0 -0.46145702931447841 -0.037738315475543488 0 -0.46902493396463729 -0.064674743217688568 0 -0.48412679063054559 -0.050999778153177293 0 -0.46145702931447841 -0.037738315475543488 0 -0.46902493396463729 -0.064674743217688568 0 -0.48412679063054559 -0.050999778153177293 0 -0.48396173109836482 -0.064067066793981678 0 -0.46902493396463729 -0.064674743217688568 0 -0.48412679063054559 -0.050999778153177293 0 -0.46902493396463729 -0.064674743217688568 0 -0.4482042793974631 -0.048469206518556233 0 -0.46902493396463729 -0.064674743217688568 0 -0.46145702931447841 -0.037738315475543488 0 -0.4482042793974631 -0.048469206518556233 0 -0.42738362483028791 -0.032263669819425141 0 -0.4482042793974631 -0.048469206518556233 0 -0.43878726799841128 -0.024476852797909319 0 -0.42738362483028791 -0.032263669819425141 0 -0.4482042793974631 -0.048469206518556233 0 -0.46145702931447841 -0.037738315475543488 0 -0.4482042793974631 -0.048469206518556233 0 -0.43878726799841128 -0.024476852797909319 0 -0.42928914131713142 -0.054564575609215918 0 -0.44040077992863041 -0.065530055424459069 0 -0.4482042793974631 -0.048469206518556233 0 -0.44578732100732571 -0.003346329288056523 0 -0.43878726799841128 -0.024476852797909319 0 -0.45767034937126549 -0.01941138669545037 0 -0.46145702931447841 -0.037738315475543488 0 -0.43878726799841128 -0.024476852797909319 0 -0.45767034937126549 -0.01941138669545037 0 -0.46145702931447841 -0.037738315475543488 0 -0.43878726799841128 -0.024476852797909319 0 -0.46145702931447841 -0.037738315475543488 0 -0.45767034937126549 -0.01941138669545037 0 -0.47956451355016189 -0.026758648885759889 0 -0.44578732100732571 -0.003346329288056523 0 -0.45767034937126549 -0.01941138669545037 0 -0.47317925608824418 -0.0040678687169552032 0 -0.45767034937126549 -0.01941138669545037 0 -0.47317925608824418 -0.0040678687169552032 0 -0.47956451355016189 -0.026758648885759889 0 -0.47317925608824418 -0.0040678687169552032 0 -0.47956451355016189 -0.026758648885759889 0 -0.5 -0.021206626071790909 0 -0.49184705009365309 -0.044008963660457458 0 -0.47956451355016189 -0.026758648885759889 0 -0.5 -0.021206626071790909 0 -0.47317925608824418 -0.0040678687169552032 0 -0.5 -0.021206626071790909 0 -0.5 0.0070592544873587793 0 -0.5 0.0070592544873587793 0 -0.47879286313642788 0.023712861178603321 0 -0.5 0.035325135046508471 0 -0.47317925608824418 -0.0040678687169552032 0 -0.5 0.0070592544873587793 0 -0.47879286313642788 0.023712861178603321 0 -0.47317925608824418 -0.0040678687169552032 0 -0.47879286313642788 0.023712861178603321 0 -0.45453431833862978 0.021098692000117259 0 -0.5 0.035325135046508471 0 -0.4819365304795456 0.051608734947912828 0 -0.5 0.063591015605658108 0 -0.47879286313642788 0.023712861178603321 0 -0.5 0.035325135046508471 0 -0.4819365304795456 0.051608734947912828 0 -0.47879286313642788 0.023712861178603321 0 -0.4819365304795456 0.051608734947912828 0 -0.45924325590972159 0.04577225783789525 0 -0.4819365304795456 0.051608734947912828 0 -0.45924325590972159 0.04577225783789525 0 -0.46641649723306511 0.068799647027864688 0 -0.45924325590972159 0.04577225783789525 0 -0.44788513677653452 0.05869714049935508 0 -0.46641649723306511 0.068799647027864688 0 -0.45924325590972159 0.04577225783789525 0 -0.45453431833862978 0.021098692000117259 0 -0.43667092968991861 0.040363233361226852 0 -0.45924325590972159 0.04577225783789525 0 -0.44788513677653452 0.05869714049935508 0 -0.43667092968991861 0.040363233361226852 0 -0.44788513677653452 0.05869714049935508 0 -0.43667092968991861 0.040363233361226852 0 -0.43266078622665127 0.055918814891880712 0 -0.44788513677653452 0.05869714049935508 0 -0.43266078622665127 0.055918814891880712 0 -0.43807501808865479 0.065745365447182458 0 -0.44578732100732571 -0.003346329288056523 0 -0.47317925608824418 -0.0040678687169552032 0 -0.45453431833862978 0.021098692000117259 0 -0.47879286313642788 0.023712861178603321 0 -0.45924325590972159 0.04577225783789525 0 -0.45453431833862978 0.021098692000117259 0 -0.45453431833862978 0.021098692000117259 0 -0.43101570308756609 0.01477518249427511 0 -0.43667092968991861 0.040363233361226852 0 -0.44578732100732571 -0.003346329288056523 0 -0.45453431833862978 0.021098692000117259 0 -0.43101570308756609 0.01477518249427511 0 -0.41611750668234432 -0.011215390120275131 0 -0.44578732100732571 -0.003346329288056523 0 -0.43101570308756609 0.01477518249427511 0 -0.41611750668234432 -0.011215390120275131 0 -0.43101570308756609 0.01477518249427511 0 -0.4116157544614989 0.0084241392466555074 0 -0.4116157544614989 0.0084241392466555074 0 -0.42106499042910323 0.029439241072939212 0 -0.4037618197185322 0.024095859435372721 0 -0.43101570308756609 0.01477518249427511 0 -0.4116157544614989 0.0084241392466555074 0 -0.42106499042910323 0.029439241072939212 0 -0.43101570308756609 0.01477518249427511 0 -0.42106499042910323 0.029439241072939212 0 -0.43667092968991861 0.040363233361226852 0 -0.42106499042910323 0.029439241072939212 0 -0.43667092968991861 0.040363233361226852 0 -0.41407589407078771 0.046145646313386267 0 -0.43266078622665127 0.055918814891880712 0 -0.41407589407078771 0.046145646313386267 0 -0.42438996842304322 0.068195433191399785 0 -0.43667092968991861 0.040363233361226852 0 -0.43266078622665127 0.055918814891880712 0 -0.41407589407078771 0.046145646313386267 0 -0.41407589407078771 0.046145646313386267 0 -0.42438996842304322 0.068195433191399785 0 -0.40654888010114321 0.061734631889719213 0 -0.41407589407078771 0.046145646313386267 0 -0.42438996842304322 0.068195433191399785 0 -0.42106499042910323 0.029439241072939212 0 -0.41407589407078771 0.046145646313386267 0 -0.4037618197185322 0.024095859435372721 0 -0.41407589407078771 0.046145646313386267 0 -0.4037618197185322 0.024095859435372721 0 -0.41407589407078771 0.046145646313386267 0 -0.39449011381926102 0.03716465902389867 0 -0.39579839954654422 0.052095761857081049 0 -0.41407589407078771 0.046145646313386267 0 -0.39449011381926102 0.03716465902389867 0 -0.4037618197185322 0.024095859435372721 0 -0.40654888010114321 0.061734631889719213 0 -0.41407589407078771 0.046145646313386267 0 -0.39579839954654422 0.052095761857081049 0 -0.40654888010114321 0.061734631889719213 0 -0.39579839954654422 0.052095761857081049 0 -0.38781790869739668 0.06476653840891701 0 -0.37694858801610842 0.046301121137365592 0 -0.38781790869739668 0.06476653840891701 0 -0.37060243904072609 0.06690150887218399 0 -0.39579839954654422 0.052095761857081049 0 -0.37694858801610842 0.046301121137365592 0 -0.38781790869739668 0.06476653840891701 0 -0.39449011381926102 0.03716465902389867 0 -0.37694858801610842 0.046301121137365592 0 -0.3832947369914913 0.025700733402547481 0 -0.39449011381926102 0.03716465902389867 0 -0.39579839954654422 0.052095761857081049 0 -0.37694858801610842 0.046301121137365592 0 -0.37694858801610842 0.046301121137365592 0 -0.37526307742339871 0.032576720824762817 0 -0.3832947369914913 0.025700733402547481 0 -0.37694858801610842 0.046301121137365592 0 -0.3832947369914913 0.025700733402547481 0 -0.37526307742339871 0.032576720824762817 0 -0.3832947369914913 0.025700733402547481 0 -0.37681662355095719 0.021135124808956379 0 -0.39449011381926102 0.03716465902389867 0 -0.3832947369914913 0.025700733402547481 0 -0.39293987329620123 0.017394320865734801 0 -0.3832947369914913 0.025700733402547481 0 -0.37681662355095719 0.021135124808956379 0 -0.38964088596687629 0.0051003456677300076 0 -0.3832947369914913 0.025700733402547481 0 -0.38964088596687629 0.0051003456677300076 0 -0.39293987329620123 0.017394320865734801 0 -0.37681662355095719 0.021135124808956379 0 -0.38964088596687629 0.0051003456677300076 0 -0.36478222522365078 0.01881496218995456 0 -0.3819240393544634 -0.00067374671502756106 0 -0.39088429665507018 0.003545650737108602 0 -0.37339714784049899 0.0058903068706234142 0 -0.39088429665507018 0.003545650737108602 0 -0.36478222522365078 0.01881496218995456 0 -0.37339714784049899 0.0058903068706234142 0 -0.38964088596687629 0.0051003456677300076 0 -0.39088429665507018 0.003545650737108602 0 -0.36478222522365078 0.01881496218995456 0 -0.37681662355095719 0.021135124808956379 0 -0.38964088596687629 0.0051003456677300076 0 -0.3832947369914913 0.025700733402547481 0 -0.38964088596687629 0.0051003456677300076 0 -0.39088429665507018 0.003545650737108602 0 -0.36478222522365078 0.01881496218995456 0 -0.37263588858309638 -0.0016113739078703301 0 -0.3819240393544634 -0.00067374671502756106 0 -0.37339714784049899 0.0058903068706234142 0 -0.38736768118614912 -0.00011237588612336 0 -0.3819240393544634 -0.00067374671502756106 0 -0.39088429665507018 0.003545650737108602 0 -0.38964088596687629 0.0051003456677300076 0 -0.39088429665507018 0.003545650737108602 0 -0.39171978545132718 -0.0016480202479848909 0 -0.38736768118614912 -0.00011237588612336 0 -0.39088429665507018 0.003545650737108602 0 -0.39344774536627719 0.002046072557359023 0 -0.4037618197185322 0.024095859435372721 0 -0.39344774536627719 0.002046072557359023 0 -0.4037618197185322 0.024095859435372721 0 -0.39293987329620123 0.017394320865734801 0 -0.38964088596687629 0.0051003456677300076 0 -0.39344774536627719 0.002046072557359023 0 -0.39293987329620123 0.017394320865734801 0 -0.4116157544614989 0.0084241392466555074 0 -0.39344774536627719 0.002046072557359023 0 -0.4037618197185322 0.024095859435372721 0 -0.39171978545132718 -0.0016480202479848909 0 -0.39088429665507018 0.003545650737108602 0 -0.39171978545132718 -0.0016480202479848909 0 -0.39088429665507018 0.003545650737108602 0 -0.39344774536627719 0.002046072557359023 0 -0.39171978545132718 -0.0016480202479848909 0 -0.39344774536627719 0.002046072557359023 0 -0.39088429665507018 0.003545650737108602 0 -0.39344774536627719 0.002046072557359023 0 -0.38964088596687629 0.0051003456677300076 0 -0.39088429665507018 0.003545650737108602 0 -0.39344774536627719 0.002046072557359023 0 -0.39449011381926102 0.03716465902389867 0 -0.4037618197185322 0.024095859435372721 0 -0.39293987329620123 0.017394320865734801 0 -0.39045671826244832 0.1002415481873915 0 -0.39315272806136109 0.089718342550801272 0 -0.40861002414169112 0.096270545785084677 0 -0.39387752716821101 0.1115331359540374 0 -0.39045671826244832 0.1002415481873915 0 -0.40861002414169112 0.096270545785084677 0 -0.39387752716821101 0.1115331359540374 0 -0.40861002414169112 0.096270545785084677 0 -0.39387752716821101 0.1115331359540374 0 -0.40861002414169112 0.096270545785084677 0 -0.40930680797757019 0.1105753616739998 0 -0.4035330937552305 0.1182189921481399 0 -0.39387752716821101 0.1115331359540374 0 -0.40930680797757019 0.1105753616739998 0 -0.4035330937552305 0.1182189921481399 0 -0.38798142183211581 0.1176413903456536 0 -0.40887548175880067 0.1316786714180633 0 -0.38798142183211581 0.1176413903456536 0 -0.40887548175880067 0.1316786714180633 0 -0.4035330937552305 0.1182189921481399 0 -0.39387752716821101 0.1115331359540374 0 -0.38904296692407397 0.123668081436722 0 -0.38798142183211581 0.1176413903456536 0 -0.39591589769908991 0.12839989016000189 0 -0.4035330937552305 0.1182189921481399 0 -0.39387752716821101 0.1115331359540374 0 -0.38798142183211581 0.1176413903456536 0 -0.39387752716821101 0.1115331359540374 0 -0.38798142183211581 0.1176413903456536 0 -0.39387752716821101 0.1115331359540374 0 -0.38798142183211581 0.1176413903456536 0 -0.38206722961240841 0.1136680515691996 0 -0.38798142183211581 0.1176413903456536 0 -0.38206722961240841 0.1136680515691996 0 -0.38904296692407397 0.123668081436722 0 -0.38488375690240573 0.1208505130346311 0 -0.38739079126268472 0.12778053220660129 0 -0.38904296692407397 0.123668081436722 0 -0.38798142183211581 0.1176413903456536 0 -0.38488375690240573 0.1208505130346311 0 -0.38798142183211581 0.1176413903456536 0 -0.38488375690240573 0.1208505130346311 0 -0.38206722961240841 0.1136680515691996 0 -0.38798142183211581 0.1176413903456536 0 -0.38488375690240573 0.1208505130346311 0 -0.38488375690240573 0.1208505130346311 0 -0.37699531245485329 0.11927853712628381 0 -0.37880739777133582 0.12693658828720311 0 -0.38488375690240573 0.1208505130346311 0 -0.37699531245485329 0.11927853712628381 0 -0.38206722961240841 0.1136680515691996 0 -0.37699531245485329 0.11927853712628381 0 -0.38206722961240841 0.1136680515691996 0 -0.37183821545043588 0.1116037975452429 0 -0.38206722961240841 0.1136680515691996 0 -0.37861998813221492 0.1009682756787532 0 -0.37183821545043588 0.1116037975452429 0 -0.39387752716821101 0.1115331359540374 0 -0.39045671826244832 0.1002415481873915 0 -0.37861998813221492 0.1009682756787532 0 -0.39387752716821101 0.1115331359540374 0 -0.38206722961240841 0.1136680515691996 0 -0.37861998813221492 0.1009682756787532 0 -0.39387752716821101 0.1115331359540374 0 -0.37861998813221492 0.1009682756787532 0 -0.39045671826244832 0.1002415481873915 0 -0.38465351460682201 0.09242070332121885 0 -0.39315272806136109 0.089718342550801272 0 -0.39045671826244832 0.1002415481873915 0 -0.37861998813221492 0.1009682756787532 0 -0.38465351460682201 0.09242070332121885 0 -0.37861998813221492 0.1009682756787532 0 -0.37598375682357971 0.091106248447464899 0 -0.38465351460682201 0.09242070332121885 0 -0.37598375682357971 0.091106248447464899 0 -0.3850543817545059 0.080069101741683468 0 -0.38465351460682201 0.09242070332121885 0 -0.37598375682357971 0.091106248447464899 0 -0.3850543817545059 0.080069101741683468 0 -0.37060243904072609 0.06690150887218399 0 -0.3850543817545059 0.080069101741683468 0 -0.38465351460682201 0.09242070332121885 0 -0.39315272806136109 0.089718342550801272 0 -0.3850543817545059 0.080069101741683468 0 -0.38781790869739668 0.06476653840891701 0 -0.37060243904072609 0.06690150887218399 0 -0.3850543817545059 0.080069101741683468 0 -0.38781790869739668 0.06476653840891701 0 -0.39888188063297447 0.077683004804340344 0 -0.40654888010114321 0.061734631889719213 0 -0.38781790869739668 0.06476653840891701 0 -0.39888188063297447 0.077683004804340344 0 -0.40654888010114321 0.061734631889719213 0 -0.39888188063297447 0.077683004804340344 0 -0.41244936154736428 0.073668343171398296 0 -0.39888188063297447 0.077683004804340344 0 -0.39315272806136109 0.089718342550801272 0 -0.40861002414169112 0.096270545785084677 0 -0.3850543817545059 0.080069101741683468 0 -0.39888188063297447 0.077683004804340344 0 -0.39315272806136109 0.089718342550801272 0 -0.42334252111517301 0.081007955616133581 0 -0.42959278850435612 0.09699611672809734 0 -0.40861002414169112 0.096270545785084677 0 -0.39888188063297447 0.077683004804340344 0 -0.41244936154736428 0.073668343171398296 0 -0.40861002414169112 0.096270545785084677 0 -0.41244936154736428 0.073668343171398296 0 -0.42334252111517301 0.081007955616133581 0 -0.40861002414169112 0.096270545785084677 0 -0.42334252111517301 0.081007955616133581 0 -0.40861002414169112 0.096270545785084677 0 -0.40654888010114321 0.061734631889719213 0 -0.41244936154736428 0.073668343171398296 0 -0.42438996842304322 0.068195433191399785 0 -0.41244936154736428 0.073668343171398296 0 -0.42438996842304322 0.068195433191399785 0 -0.42334252111517301 0.081007955616133581 0 -0.42438996842304322 0.068195433191399785 0 -0.42334252111517301 0.081007955616133581 0 -0.43807501808865479 0.065745365447182458 0 -0.42334252111517301 0.081007955616133581 0 -0.43807501808865479 0.065745365447182458 0 -0.42334252111517301 0.081007955616133581 0 -0.43729044378529602 0.079537423452333597 0 -0.43807501808865479 0.065745365447182458 0 -0.43266078622665127 0.055918814891880712 0 -0.42438996842304322 0.068195433191399785 0 -0.43807501808865479 0.065745365447182458 0 -0.42334252111517301 0.081007955616133581 0 -0.43306144102659838 0.086820204850516947 0 -0.42959278850435612 0.09699611672809734 0 -0.42334252111517301 0.081007955616133581 0 -0.43729044378529602 0.079537423452333597 0 -0.43306144102659838 0.086820204850516947 0 -0.43306144102659838 0.086820204850516947 0 -0.42959278850435612 0.09699611672809734 0 -0.44470176079663848 0.089377075244699788 0 -0.42959278850435612 0.09699611672809734 0 -0.43294894045283611 0.11433339965753241 0 -0.44428171603796079 0.10375932272422569 0 -0.42187920976901361 0.10717790799298629 0 -0.42959278850435612 0.09699611672809734 0 -0.43294894045283611 0.11433339965753241 0 -0.42187920976901361 0.10717790799298629 0 -0.42959278850435612 0.09699611672809734 0 -0.40861002414169112 0.096270545785084677 0 -0.42187920976901361 0.10717790799298629 0 -0.40861002414169112 0.096270545785084677 0 -0.40930680797757019 0.1105753616739998 0 -0.4035330937552305 0.1182189921481399 0 -0.41863418505370509 0.1196762264897509 0 -0.40887548175880067 0.1316786714180633 0 -0.4035330937552305 0.1182189921481399 0 -0.40930680797757019 0.1105753616739998 0 -0.41863418505370509 0.1196762264897509 0 -0.42187920976901361 0.10717790799298629 0 -0.40930680797757019 0.1105753616739998 0 -0.41863418505370509 0.1196762264897509 0 -0.41863418505370509 0.1196762264897509 0 -0.43294894045283611 0.11433339965753241 0 -0.4324183369364818 0.1278138719480752 0 -0.42187920976901361 0.10717790799298629 0 -0.41863418505370509 0.1196762264897509 0 -0.43294894045283611 0.11433339965753241 0 -0.43294894045283611 0.11433339965753241 0 -0.44906788252153312 0.11766763165909 0 -0.44428171603796079 0.10375932272422569 0 -0.43294894045283611 0.11433339965753241 0 -0.44906788252153312 0.11766763165909 0 -0.4324183369364818 0.1278138719480752 0 -0.44906788252153312 0.11766763165909 0 -0.44428171603796079 0.10375932272422569 0 -0.45957550568743388 0.1012408105420135 0 -0.42959278850435612 0.09699611672809734 0 -0.44428171603796079 0.10375932272422569 0 -0.44470176079663848 0.089377075244699788 0 -0.44428171603796079 0.10375932272422569 0 -0.45957550568743388 0.1012408105420135 0 -0.44470176079663848 0.089377075244699788 0 -0.44906788252153312 0.11766763165909 0 -0.45957550568743388 0.1012408105420135 0 -0.47607533362019677 0.1153048988094407 0 -0.44906788252153312 0.11766763165909 0 -0.47607533362019677 0.1153048988094407 0 -0.45649687412809248 0.13660501881814169 0 -0.44788513677653452 0.05869714049935508 0 -0.43807501808865479 0.065745365447182458 0 -0.44894757170883393 0.07451011087763304 0 -0.43729044378529602 0.079537423452333597 0 -0.43807501808865479 0.065745365447182458 0 -0.44894757170883393 0.07451011087763304 0 -0.44894757170883393 0.07451011087763304 0 -0.44470176079663848 0.089377075244699788 0 -0.45909192936163762 0.08519950331787772 0 -0.43729044378529602 0.079537423452333597 0 -0.44894757170883393 0.07451011087763304 0 -0.44470176079663848 0.089377075244699788 0 -0.43729044378529602 0.079537423452333597 0 -0.43306144102659838 0.086820204850516947 0 -0.44470176079663848 0.089377075244699788 0 -0.45957550568743388 0.1012408105420135 0 -0.44470176079663848 0.089377075244699788 0 -0.45909192936163762 0.08519950331787772 0 -0.45957550568743388 0.1012408105420135 0 -0.45909192936163762 0.08519950331787772 0 -0.475706256049301 0.090004859050257721 0 -0.45909192936163762 0.08519950331787772 0 -0.46641649723306511 0.068799647027864688 0 -0.475706256049301 0.090004859050257721 0 -0.44788513677653452 0.05869714049935508 0 -0.44894757170883393 0.07451011087763304 0 -0.46641649723306511 0.068799647027864688 0 -0.44894757170883393 0.07451011087763304 0 -0.45909192936163762 0.08519950331787772 0 -0.46641649723306511 0.068799647027864688 0 -0.46641649723306511 0.068799647027864688 0 -0.475706256049301 0.090004859050257721 0 -0.48481185675238231 0.073172230559300236 0 -0.4819365304795456 0.051608734947912828 0 -0.46641649723306511 0.068799647027864688 0 -0.48481185675238231 0.073172230559300236 0 -0.475706256049301 0.090004859050257721 0 -0.5 0.0918568961648078 0 -0.48481185675238231 0.073172230559300236 0 -0.4819365304795456 0.051608734947912828 0 -0.48481185675238231 0.073172230559300236 0 -0.5 0.063591015605658108 0 -0.5 0.0918568961648078 0 -0.48481185675238231 0.073172230559300236 0 -0.5 0.063591015605658108 0 -0.475706256049301 0.090004859050257721 0 -0.5 0.0918568961648078 0 -0.47607533362019677 0.1153048988094407 0 -0.45957550568743388 0.1012408105420135 0 -0.475706256049301 0.090004859050257721 0 -0.47607533362019677 0.1153048988094407 0 -0.5 0.0918568961648078 0 -0.47607533362019677 0.1153048988094407 0 -0.5 0.12012277672395739 0 -0.47607533362019677 0.1153048988094407 0 -0.5 0.12012277672395739 0 -0.48593612288505661 0.13463443497364799 0 -0.5 0.12012277672395739 0 -0.48593612288505661 0.13463443497364799 0 -0.49999999999999972 0.14838865728310699 0 -0.47607533362019677 0.1153048988094407 0 -0.48593612288505661 0.13463443497364799 0 -0.45649687412809248 0.13660501881814169 0 -0.48593612288505661 0.13463443497364799 0 -0.47492527648899491 0.15185554606321131 0 -0.45649687412809248 0.13660501881814169 0 -0.48593612288505661 0.13463443497364799 0 -0.47492527648899491 0.15185554606321131 0 -0.49999999999999972 0.14838865728310699 0 -0.49999999999999972 0.14838865728310699 0 -0.48571233279720177 0.17191735019918539 0 -0.5 0.17628175269069801 0 -0.49999999999999972 0.14838865728310699 0 -0.48571233279720177 0.17191735019918539 0 -0.47492527648899491 0.15185554606321131 0 -0.49999999999999972 0.14838865728310699 0 -0.48571233279720177 0.17191735019918539 0 -0.48571233279720177 0.17191735019918539 0 -0.5 0.17628175269069801 0 -0.48815155521123083 0.18950095383494181 0 -0.48571233279720177 0.17191735019918539 0 -0.47142466559440421 0.1954460431152639 0 -0.48571233279720177 0.17191735019918539 0 -0.4638594203881905 0.17593681240123021 0 -0.47142466559440421 0.1954460431152639 0 -0.48571233279720177 0.17191735019918539 0 -0.48815155521123083 0.18950095383494181 0 -0.47142466559440421 0.1954460431152639 0 -0.48571233279720177 0.17191735019918539 0 -0.4687901578216398 0.16486573555662681 0 -0.4638594203881905 0.17593681240123021 0 -0.47492527648899491 0.15185554606321131 0 -0.48571233279720177 0.17191735019918539 0 -0.4687901578216398 0.16486573555662681 0 -0.4687901578216398 0.16486573555662681 0 -0.4638594203881905 0.17593681240123021 0 -0.45066360161217212 0.1597532335628804 0 -0.47492527648899491 0.15185554606321131 0 -0.4687901578216398 0.16486573555662681 0 -0.45066360161217212 0.1597532335628804 0 -0.4638594203881905 0.17593681240123021 0 -0.43845526778063387 0.17822903832199169 0 -0.44639010957425279 0.1954875792788105 0 -0.43845526778063387 0.17822903832199169 0 -0.45066360161217212 0.1597532335628804 0 -0.42502288268176341 0.16500491339042109 0 -0.4638594203881905 0.17593681240123021 0 -0.43845526778063387 0.17822903832199169 0 -0.45066360161217212 0.1597532335628804 0 -0.45066360161217212 0.1597532335628804 0 -0.42976954168548648 0.1457159524904719 0 -0.45066360161217212 0.1597532335628804 0 -0.45649687412809248 0.13660501881814169 0 -0.42976954168548648 0.1457159524904719 0 -0.44906788252153312 0.11766763165909 0 -0.45649687412809248 0.13660501881814169 0 -0.4324183369364818 0.1278138719480752 0 -0.45649687412809248 0.13660501881814169 0 -0.4324183369364818 0.1278138719480752 0 -0.42976954168548648 0.1457159524904719 0 -0.47492527648899491 0.15185554606321131 0 -0.45066360161217212 0.1597532335628804 0 -0.45649687412809248 0.13660501881814169 0 -0.47836819706575567 0.2445104017574217 0 -0.47406430555027379 0.22934678543166959 0 -0.46210482232437339 0.23770592111285771 0 -0.47836819706575567 0.2445104017574217 0 -0.5 0.22838990408005061 0 -0.5 0.25260496006181221 0 -0.5 0.22838990408005061 0 -0.47406430555027379 0.22934678543166959 0 -0.47849755652695758 0.2148473851769058 0 -0.47406430555027379 0.22934678543166959 0 -0.47849755652695758 0.2148473851769058 0 -0.45699511305391433 0.22551992225552231 0 -0.47836819706575567 0.2445104017574217 0 -0.5 0.22838990408005061 0 -0.47406430555027379 0.22934678543166959 0 -0.47849755652695758 0.2148473851769058 0 -0.47142466559440421 0.1954460431152639 0 -0.45713699839160671 0.21897473603134229 0 -0.5 0.22838990408005061 0 -0.47849755652695758 0.2148473851769058 0 -0.50000000000000067 0.20417484809828901 0 -0.47849755652695758 0.2148473851769058 0 -0.50000000000000067 0.20417484809828901 0 -0.47849755652695758 0.2148473851769058 0 -0.50000000000000067 0.20417484809828901 0 -0.48815155521123083 0.18950095383494181 0 -0.5 0.17628175269069801 0 -0.50000000000000067 0.20417484809828901 0 -0.48815155521123083 0.18950095383494181 0 -0.47849755652695758 0.2148473851769058 0 -0.48815155521123083 0.18950095383494181 0 -0.47142466559440421 0.1954460431152639 0 -0.4638594203881905 0.17593681240123021 0 -0.47142466559440421 0.1954460431152639 0 -0.44639010957425279 0.1954875792788105 0 -0.47142466559440421 0.1954460431152639 0 -0.44639010957425279 0.1954875792788105 0 -0.45547850705647491 0.20527532260059159 0 -0.44696225466563583 0.2111929319769496 0 -0.44751222148096492 0.22029323764014919 0 -0.43137041182981622 0.2115158735197287 0 -0.44639010957425279 0.1954875792788105 0 -0.44696225466563583 0.2111929319769496 0 -0.45547850705647491 0.20527532260059159 0 -0.44639010957425279 0.1954875792788105 0 -0.44696225466563583 0.2111929319769496 0 -0.43137041182981622 0.2115158735197287 0 -0.44696225466563583 0.2111929319769496 0 -0.45713699839160671 0.21897473603134229 0 -0.44751222148096492 0.22029323764014919 0 -0.44696225466563583 0.2111929319769496 0 -0.45547850705647491 0.20527532260059159 0 -0.45713699839160671 0.21897473603134229 0 -0.47142466559440421 0.1954460431152639 0 -0.45713699839160671 0.21897473603134229 0 -0.47142466559440421 0.1954460431152639 0 -0.45547850705647491 0.20527532260059159 0 -0.45713699839160671 0.21897473603134229 0 -0.47849755652695758 0.2148473851769058 0 -0.45713699839160671 0.21897473603134229 0 -0.45699511305391433 0.22551992225552231 0 -0.47849755652695758 0.2148473851769058 0 -0.45699511305391433 0.22551992225552231 0 -0.47406430555027379 0.22934678543166959 0 -0.45699511305391433 0.22551992225552231 0 -0.46210482232437339 0.23770592111285771 0 -0.45699511305391433 0.22551992225552231 0 -0.4450963294638518 0.23426272441720281 0 -0.46210482232437339 0.23770592111285771 0 -0.45713699839160671 0.21897473603134229 0 -0.45699511305391433 0.22551992225552231 0 -0.44751222148096492 0.22029323764014919 0 -0.4450963294638518 0.23426272441720281 0 -0.43137041182981622 0.2115158735197287 0 -0.44751222148096492 0.22029323764014919 0 -0.4450963294638518 0.23426272441720281 0 -0.43137041182981622 0.2115158735197287 0 -0.45699511305391433 0.22551992225552231 0 -0.44751222148096492 0.22029323764014919 0 -0.4450963294638518 0.23426272441720281 0 -0.4450963294638518 0.23426272441720281 0 -0.45882224709788733 0.25700957531467689 0 -0.43605341546033999 0.25219629711660108 0 -0.4450963294638518 0.23426272441720281 0 -0.45882224709788733 0.25700957531467689 0 -0.47836819706575567 0.2445104017574217 0 -0.46210482232437339 0.23770592111285771 0 -0.45882224709788733 0.25700957531467689 0 -0.4450963294638518 0.23426272441720281 0 -0.46210482232437339 0.23770592111285771 0 -0.45882224709788733 0.25700957531467689 0 -0.41130696356271301 0.23861322924214731 0 -0.42806862089434772 0.22926747661979491 0 -0.43605341546033999 0.25219629711660108 0 -0.4450963294638518 0.23426272441720281 0 -0.42806862089434772 0.22926747661979491 0 -0.43605341546033999 0.25219629711660108 0 -0.4450963294638518 0.23426272441720281 0 -0.42806862089434772 0.22926747661979491 0 -0.43137041182981622 0.2115158735197287 0 -0.41130696356271301 0.23861322924214731 0 -0.42806862089434772 0.22926747661979491 0 -0.41193391009284169 0.21464672757471309 0 -0.41193391009284169 0.21464672757471309 0 -0.43137041182981622 0.2115158735197287 0 -0.41764449419578059 0.18876902262225459 0 -0.42806862089434772 0.22926747661979491 0 -0.41193391009284169 0.21464672757471309 0 -0.43137041182981622 0.2115158735197287 0 -0.43137041182981622 0.2115158735197287 0 -0.41764449419578059 0.18876902262225459 0 -0.44639010957425279 0.1954875792788105 0 -0.43137041182981622 0.2115158735197287 0 -0.41764449419578059 0.18876902262225459 0 -0.41193391009284169 0.21464672757471309 0 -0.41764449419578059 0.18876902262225459 0 -0.40013689876498248 0.19888568793212011 0 -0.41764449419578059 0.18876902262225459 0 -0.40013689876498248 0.19888568793212011 0 -0.39190774983114651 0.17703398867229039 0 -0.40013689876498248 0.19888568793212011 0 -0.38534326317633832 0.19581510886399439 0 -0.39190774983114651 0.17703398867229039 0 -0.38534326317633832 0.19581510886399439 0 -0.37728112477673559 0.18477334989498839 0 -0.36616785200349827 0.20484233948746081 0 -0.38534326317633832 0.19581510886399439 0 -0.39144636797993237 0.2175210223496413 0 -0.36616785200349827 0.20484233948746081 0 -0.41193391009284169 0.21464672757471309 0 -0.40013689876498248 0.19888568793212011 0 -0.39144636797993237 0.2175210223496413 0 -0.40013689876498248 0.19888568793212011 0 -0.38534326317633832 0.19581510886399439 0 -0.39144636797993237 0.2175210223496413 0 -0.41130696356271301 0.23861322924214731 0 -0.39144636797993237 0.2175210223496413 0 -0.386164779529799 0.23784764646163631 0 -0.41130696356271301 0.23861322924214731 0 -0.41193391009284169 0.21464672757471309 0 -0.39144636797993237 0.2175210223496413 0 -0.39144636797993237 0.2175210223496413 0 -0.386164779529799 0.23784764646163631 0 -0.36678057190247437 0.2330625843598271 0 -0.41130696356271301 0.23861322924214731 0 -0.386164779529799 0.23784764646163631 0 -0.39558672729883598 0.25600927527440281 0 -0.40968581425476241 0.15154006162014741 0 -0.42976954168548648 0.1457159524904719 0 -0.42502288268176341 0.16500491339042109 0 -0.40968581425476241 0.15154006162014741 0 -0.40887548175880067 0.1316786714180633 0 -0.42976954168548648 0.1457159524904719 0 -0.41863418505370509 0.1196762264897509 0 -0.40887548175880067 0.1316786714180633 0 -0.4324183369364818 0.1278138719480752 0 -0.40887548175880067 0.1316786714180633 0 -0.42976954168548648 0.1457159524904719 0 -0.40887548175880067 0.1316786714180633 0 -0.4324183369364818 0.1278138719480752 0 -0.42976954168548648 0.1457159524904719 0 -0.45066360161217212 0.1597532335628804 0 -0.42976954168548648 0.1457159524904719 0 -0.42502288268176341 0.16500491339042109 0 -0.43845526778063387 0.17822903832199169 0 -0.44639010957425279 0.1954875792788105 0 -0.41764449419578059 0.18876902262225459 0 -0.43845526778063387 0.17822903832199169 0 -0.41764449419578059 0.18876902262225459 0 -0.42502288268176341 0.16500491339042109 0 -0.41764449419578059 0.18876902262225459 0 -0.40391857656174512 0.16602217172478051 0 -0.41764449419578059 0.18876902262225459 0 -0.42502288268176341 0.16500491339042109 0 -0.40391857656174512 0.16602217172478051 0 -0.40968581425476241 0.15154006162014741 0 -0.42502288268176341 0.16500491339042109 0 -0.40391857656174512 0.16602217172478051 0 -0.40968581425476241 0.15154006162014741 0 -0.40391857656174512 0.16602217172478051 0 -0.3953090241577778 0.15639990870073761 0 -0.40391857656174512 0.16602217172478051 0 -0.3953090241577778 0.15639990870073761 0 -0.39190774983114651 0.17703398867229039 0 -0.41764449419578059 0.18876902262225459 0 -0.40391857656174512 0.16602217172478051 0 -0.39190774983114651 0.17703398867229039 0 -0.38534326317633832 0.19581510886399439 0 -0.39190774983114651 0.17703398867229039 0 -0.37728112477673559 0.18477334989498839 0 -0.39190774983114651 0.17703398867229039 0 -0.37728112477673559 0.18477334989498839 0 -0.37743162676817371 0.1695532178361015 0 -0.3953090241577778 0.15639990870073761 0 -0.39190774983114651 0.17703398867229039 0 -0.38149543247522971 0.1575641432928524 0 -0.39190774983114651 0.17703398867229039 0 -0.37743162676817371 0.1695532178361015 0 -0.38149543247522971 0.1575641432928524 0 -0.38149543247522971 0.1575641432928524 0 -0.38639088563420748 0.14502518090353109 0 -0.37318016004841459 0.1480190571383877 0 -0.37836085516912332 0.1408977811595368 0 -0.38639088563420748 0.14502518090353109 0 -0.37318016004841459 0.1480190571383877 0 -0.3953090241577778 0.15639990870073761 0 -0.38149543247522971 0.1575641432928524 0 -0.38639088563420748 0.14502518090353109 0 -0.40968581425476241 0.15154006162014741 0 -0.40887548175880067 0.1316786714180633 0 -0.39845568618957622 0.14121390599082381 0 -0.3953090241577778 0.15639990870073761 0 -0.38639088563420748 0.14502518090353109 0 -0.39845568618957622 0.14121390599082381 0 -0.40968581425476241 0.15154006162014741 0 -0.3953090241577778 0.15639990870073761 0 -0.39845568618957622 0.14121390599082381 0 -0.38798142183211581 0.1176413903456536 0 -0.40887548175880067 0.1316786714180633 0 -0.39591589769908991 0.12839989016000189 0 -0.40887548175880067 0.1316786714180633 0 -0.39845568618957622 0.14121390599082381 0 -0.39591589769908991 0.12839989016000189 0 -0.38639088563420748 0.14502518090353109 0 -0.39845568618957622 0.14121390599082381 0 -0.39086307749217591 0.13462747225258381 0 -0.39845568618957622 0.14121390599082381 0 -0.39086307749217591 0.13462747225258381 0 -0.39591589769908991 0.12839989016000189 0 -0.38904296692407397 0.123668081436722 0 -0.39591589769908991 0.12839989016000189 0 -0.38739079126268472 0.12778053220660129 0 -0.39086307749217591 0.13462747225258381 0 -0.39591589769908991 0.12839989016000189 0 -0.38739079126268472 0.12778053220660129 0 -0.38739079126268472 0.12778053220660129 0 -0.38359837569041838 0.13414143088287259 0 -0.37880739777133582 0.12693658828720311 0 -0.38488375690240573 0.1208505130346311 0 -0.38739079126268472 0.12778053220660129 0 -0.37880739777133582 0.12693658828720311 0 -0.39086307749217591 0.13462747225258381 0 -0.38739079126268472 0.12778053220660129 0 -0.38359837569041838 0.13414143088287259 0 -0.38639088563420748 0.14502518090353109 0 -0.39086307749217591 0.13462747225258381 0 -0.38359837569041838 0.13414143088287259 0 -0.37836085516912332 0.1408977811595368 0 -0.38359837569041838 0.13414143088287259 0 -0.37027399930345278 0.13640545571335591 0 -0.37836085516912332 0.1408977811595368 0 -0.38639088563420748 0.14502518090353109 0 -0.38359837569041838 0.13414143088287259 0 -0.38359837569041838 0.13414143088287259 0 -0.37880739777133582 0.12693658828720311 0 -0.37027399930345278 0.13640545571335591 0 -0.37027399930345278 0.13640545571335591 0 -0.34967997951426127 0.13481841096242919 0 -0.35912097041394431 0.1496698725475267 0 -0.37880739777133582 0.12693658828720311 0 -0.37027399930345278 0.13640545571335591 0 -0.36737996253768063 0.12333373519514269 0 -0.37027399930345278 0.13640545571335591 0 -0.34967997951426127 0.13481841096242919 0 -0.36737996253768063 0.12333373519514269 0 -0.34967997951426127 0.13481841096242919 0 -0.34283874472328357 0.1570259087419095 0 -0.34967997951426127 0.13481841096242919 0 -0.35912097041394431 0.1496698725475267 0 -0.34283874472328357 0.1570259087419095 0 -0.38149543247522971 0.1575641432928524 0 -0.37318016004841459 0.1480190571383877 0 -0.36517669635376149 0.1591923529455809 0 -0.35912097041394431 0.1496698725475267 0 -0.37318016004841459 0.1480190571383877 0 -0.36517669635376149 0.1591923529455809 0 -0.37027399930345278 0.13640545571335591 0 -0.35912097041394431 0.1496698725475267 0 -0.37318016004841459 0.1480190571383877 0 -0.37836085516912332 0.1408977811595368 0 -0.37027399930345278 0.13640545571335591 0 -0.37318016004841459 0.1480190571383877 0 -0.36517669635376149 0.1591923529455809 0 -0.35992769415562609 0.17454797778344441 0 -0.36555513210452101 0.17662209461509451 0 -0.37743162676817371 0.1695532178361015 0 -0.38149543247522971 0.1575641432928524 0 -0.36517669635376149 0.1591923529455809 0 -0.36517669635376149 0.1591923529455809 0 -0.36555513210452101 0.17662209461509451 0 -0.37743162676817371 0.1695532178361015 0 -0.36517669635376149 0.1591923529455809 0 -0.36555513210452101 0.17662209461509451 0 -0.36517669635376149 0.1591923529455809 0 -0.35992769415562609 0.17454797778344441 0 -0.35409381004785528 0.16459650904558989 0 -0.35912097041394431 0.1496698725475267 0 -0.36517669635376149 0.1591923529455809 0 -0.35409381004785528 0.16459650904558989 0 -0.37743162676817371 0.1695532178361015 0 -0.36555513210452101 0.17662209461509451 0 -0.37728112477673559 0.18477334989498839 0 -0.37743162676817371 0.1695532178361015 0 -0.36555513210452101 0.17662209461509451 0 -0.35992769415562609 0.17454797778344441 0 -0.36555513210452101 0.17662209461509451 0 -0.35439637847045879 0.1832637727095324 0 -0.36555513210452101 0.17662209461509451 0 -0.35439637847045879 0.1832637727095324 0 -0.35439637847045879 0.1832637727095324 0 -0.34177651236683759 0.1835438349711338 0 -0.33551294056076431 0.19450317453033419 0 -0.36555513210452101 0.17662209461509451 0 -0.35439637847045879 0.1832637727095324 0 -0.3546738028414802 0.19711248546690849 0 -0.35992769415562609 0.17454797778344441 0 -0.35439637847045879 0.1832637727095324 0 -0.35209359490761127 0.17568928402526721 0 -0.35992769415562609 0.17454797778344441 0 -0.35439637847045879 0.1832637727095324 0 -0.35209359490761127 0.17568928402526721 0 -0.34540515973290548 0.17145365822981079 0 -0.34177651236683759 0.1835438349711338 0 -0.35439637847045879 0.1832637727095324 0 -0.35209359490761127 0.17568928402526721 0 -0.34177651236683759 0.1835438349711338 0 -0.35912097041394431 0.1496698725475267 0 -0.35409381004785528 0.16459650904558989 0 -0.34283874472328357 0.1570259087419095 0 -0.35992769415562609 0.17454797778344441 0 -0.35209359490761127 0.17568928402526721 0 -0.35409381004785528 0.16459650904558989 0 -0.35409381004785528 0.16459650904558989 0 -0.34540515973290548 0.17145365822981079 0 -0.34283874472328357 0.1570259087419095 0 -0.35209359490761127 0.17568928402526721 0 -0.35409381004785528 0.16459650904558989 0 -0.34540515973290548 0.17145365822981079 0 -0.34540515973290548 0.17145365822981079 0 -0.34283874472328357 0.1570259087419095 0 -0.32730437669598189 0.16494625192608461 0 -0.34540515973290548 0.17145365822981079 0 -0.34177651236683759 0.1835438349711338 0 -0.32749320433027818 0.18266469469710761 0 -0.34540515973290548 0.17145365822981079 0 -0.32749320433027818 0.18266469469710761 0 -0.34540515973290548 0.17145365822981079 0 -0.32749320433027818 0.18266469469710761 0 -0.32730437669598189 0.16494625192608461 0 -0.34177651236683759 0.1835438349711338 0 -0.32749320433027818 0.18266469469710761 0 -0.33551294056076431 0.19450317453033419 0 -0.32749320433027818 0.18266469469710761 0 -0.3148248969858593 0.18000710997067801 0 -0.3096044275718452 0.19391276385467421 0 -0.32749320433027818 0.18266469469710761 0 -0.32077676410781042 0.1743360044555568 0 -0.32730437669598189 0.16494625192608461 0 -0.32749320433027818 0.18266469469710761 0 -0.32077676410781042 0.1743360044555568 0 -0.3148248969858593 0.18000710997067801 0 -0.32077676410781042 0.1743360044555568 0 -0.3148248969858593 0.18000710997067801 0 -0.3123015800218103 0.1703100413628186 0 -0.32730437669598189 0.16494625192608461 0 -0.31012401648703791 0.1583467993750548 0 -0.3123015800218103 0.1703100413628186 0 -0.32077676410781042 0.1743360044555568 0 -0.32730437669598189 0.16494625192608461 0 -0.3123015800218103 0.1703100413628186 0 -0.32661243655432842 0.1443507294179858 0 -0.30635072364074639 0.14068791117309429 0 -0.31012401648703791 0.1583467993750548 0 -0.32730437669598189 0.16494625192608461 0 -0.32661243655432842 0.1443507294179858 0 -0.31012401648703791 0.1583467993750548 0 -0.32661243655432842 0.1443507294179858 0 -0.33464736986527321 0.13007675972223509 0 -0.32299622886629259 0.1201752380107203 0 -0.32661243655432842 0.1443507294179858 0 -0.30635072364074639 0.14068791117309429 0 -0.32299622886629259 0.1201752380107203 0 -0.30635072364074639 0.14068791117309429 0 -0.32299622886629259 0.1201752380107203 0 -0.34967997951426127 0.13481841096242919 0 -0.32661243655432842 0.1443507294179858 0 -0.33464736986527321 0.13007675972223509 0 -0.34967997951426127 0.13481841096242919 0 -0.33464736986527321 0.13007675972223509 0 -0.34054214190609539 0.119634764362277 0 -0.34967997951426127 0.13481841096242919 0 -0.34283874472328357 0.1570259087419095 0 -0.32661243655432842 0.1443507294179858 0 -0.34283874472328357 0.1570259087419095 0 -0.32730437669598189 0.16494625192608461 0 -0.32661243655432842 0.1443507294179858 0 -0.3466896254702192 0.24680058240020239 0 -0.36678057190247437 0.2330625843598271 0 -0.36739329180145047 0.26128282923219343 0 -0.36678057190247437 0.2330625843598271 0 -0.36739329180145047 0.26128282923219343 0 -0.386164779529799 0.23784764646163631 0 -0.36678057190247437 0.2330625843598271 0 -0.36739329180145047 0.26128282923219343 0 -0.36678057190247437 0.2330625843598271 0 -0.36616785200349827 0.20484233948746081 0 -0.36678057190247437 0.2330625843598271 0 -0.35001037639231619 0.22149823056014559 0 -0.36616785200349827 0.20484233948746081 0 -0.3466896254702192 0.24680058240020239 0 -0.36678057190247437 0.2330625843598271 0 -0.35001037639231619 0.22149823056014559 0 -0.35001037639231619 0.22149823056014559 0 -0.35289094755152911 0.20792031979088019 0 -0.34202489527180302 0.2027577442396935 0 -0.35001037639231619 0.22149823056014559 0 -0.35289094755152911 0.20792031979088019 0 -0.36616785200349827 0.20484233948746081 0 -0.35289094755152911 0.20792031979088019 0 -0.36616785200349827 0.20484233948746081 0 -0.3546738028414802 0.19711248546690849 0 -0.39144636797993237 0.2175210223496413 0 -0.36678057190247437 0.2330625843598271 0 -0.36616785200349827 0.20484233948746081 0 -0.36555513210452101 0.17662209461509451 0 -0.36616785200349827 0.20484233948746081 0 -0.36555513210452101 0.17662209461509451 0 -0.36616785200349827 0.20484233948746081 0 -0.3546738028414802 0.19711248546690849 0 -0.37728112477673559 0.18477334989498839 0 -0.36555513210452101 0.17662209461509451 0 -0.36616785200349827 0.20484233948746081 0 -0.35439637847045879 0.1832637727095324 0 -0.34202489527180302 0.2027577442396935 0 -0.35439637847045879 0.1832637727095324 0 -0.34202489527180302 0.2027577442396935 0 -0.33551294056076431 0.19450317453033419 0 -0.35439637847045879 0.1832637727095324 0 -0.3546738028414802 0.19711248546690849 0 -0.34202489527180302 0.2027577442396935 0 -0.35439637847045879 0.1832637727095324 0 -0.33551294056076431 0.19450317453033419 0 -0.35289094755152911 0.20792031979088019 0 -0.3546738028414802 0.19711248546690849 0 -0.34202489527180302 0.2027577442396935 0 -0.34202489527180302 0.2027577442396935 0 -0.33551294056076431 0.19450317453033419 0 -0.32858870276371288 0.2084845336103886 0 -0.32749320433027818 0.18266469469710761 0 -0.33551294056076431 0.19450317453033419 0 -0.32231001877848919 0.1942058023583127 0 -0.33551294056076431 0.19450317453033419 0 -0.31662950265106898 0.2057425763511348 0 -0.32858870276371288 0.2084845336103886 0 -0.32749320433027818 0.18266469469710761 0 -0.32231001877848919 0.1942058023583127 0 -0.3096044275718452 0.19391276385467421 0 -0.33551294056076431 0.19450317453033419 0 -0.31662950265106898 0.2057425763511348 0 -0.33551294056076431 0.19450317453033419 0 -0.32231001877848919 0.1942058023583127 0 -0.31662950265106898 0.2057425763511348 0 -0.32749320433027818 0.18266469469710761 0 -0.3096044275718452 0.19391276385467421 0 -0.32231001877848919 0.1942058023583127 0 -0.31662950265106898 0.2057425763511348 0 -0.3096044275718452 0.19391276385467421 0 -0.31662950265106898 0.2057425763511348 0 -0.31912276326178002 0.21716745716092531 0 -0.32858870276371288 0.2084845336103886 0 -0.31912276326178002 0.21716745716092531 0 -0.32858870276371288 0.2084845336103886 0 -0.32965341207314819 0.2222517157698552 0 -0.34202489527180302 0.2027577442396935 0 -0.32965341207314819 0.2222517157698552 0 -0.35001037639231619 0.22149823056014559 0 -0.34202489527180302 0.2027577442396935 0 -0.32965341207314819 0.2222517157698552 0 -0.34202489527180302 0.2027577442396935 0 -0.32858870276371288 0.2084845336103886 0 -0.32965341207314819 0.2222517157698552 0 -0.35001037639231619 0.22149823056014559 0 -0.32965341207314819 0.2222517157698552 0 -0.33169033672257009 0.2372713838371153 0 -0.32965341207314819 0.2222517157698552 0 -0.31728192887449352 0.241745687300017 0 -0.31122191641356428 0.22578841239058989 0 -0.32965341207314819 0.2222517157698552 0 -0.31728192887449352 0.241745687300017 0 -0.33169033672257009 0.2372713838371153 0 -0.31912276326178002 0.21716745716092531 0 -0.32965341207314819 0.2222517157698552 0 -0.31122191641356428 0.22578841239058989 0 -0.32965341207314819 0.2222517157698552 0 -0.31728192887449352 0.241745687300017 0 -0.31728192887449352 0.241745687300017 0 -0.33169033672257009 0.2372713838371153 0 -0.32124125608202131 0.25861183835085882 0 -0.3466896254702192 0.24680058240020239 0 -0.35001037639231619 0.22149823056014559 0 -0.33169033672257009 0.2372713838371153 0 -0.3466896254702192 0.24680058240020239 0 -0.33169033672257009 0.2372713838371153 0 -0.32124125608202131 0.25861183835085882 0 -0.28819786691168731 0.23647683716420681 0 -0.27612628102505798 0.25968523937959359 0 -0.28819786691168731 0.23647683716420681 0 -0.29990475407085337 0.24206421549201351 0 -0.29263566241616029 0.25219599423725242 0 -0.28819786691168731 0.23647683716420681 0 -0.29263566241616029 0.25219599423725242 0 -0.27612628102505798 0.25968523937959359 0 -0.28819786691168731 0.23647683716420681 0 -0.28515412132919687 0.23154687456749451 0 -0.27756401976308681 0.24177589253819759 0 -0.28819786691168731 0.23647683716420681 0 -0.29581109125888361 0.2353360447719435 0 -0.29990475407085337 0.24206421549201351 0 -0.28819786691168731 0.23647683716420681 0 -0.29581109125888361 0.2353360447719435 0 -0.28515412132919687 0.23154687456749451 0 -0.31728192887449352 0.241745687300017 0 -0.30876568589552639 0.23585052984099419 0 -0.29990475407085337 0.24206421549201351 0 -0.31728192887449352 0.241745687300017 0 -0.30876568589552639 0.23585052984099419 0 -0.31122191641356428 0.22578841239058989 0 -0.31728192887449352 0.241745687300017 0 -0.29990475407085337 0.24206421549201351 0 -0.30491100017813 0.25498982890324351 0 -0.29990475407085337 0.24206421549201351 0 -0.30491100017813 0.25498982890324351 0 -0.29263566241616029 0.25219599423725242 0 -0.29581109125888361 0.2353360447719435 0 -0.30876568589552639 0.23585052984099419 0 -0.29990475407085337 0.24206421549201351 0 -0.29581109125888361 0.2353360447719435 0 -0.30876568589552639 0.23585052984099419 0 -0.30068208277946129 0.2293748340015172 0 -0.31912276326178002 0.21716745716092531 0 -0.31122191641356428 0.22578841239058989 0 -0.29774606474137388 0.21698197817193551 0 -0.30876568589552639 0.23585052984099419 0 -0.30068208277946129 0.2293748340015172 0 -0.31122191641356428 0.22578841239058989 0 -0.30068208277946129 0.2293748340015172 0 -0.31122191641356428 0.22578841239058989 0 -0.29774606474137388 0.21698197817193551 0 -0.31122191641356428 0.22578841239058989 0 -0.29774606474137388 0.21698197817193551 0 -0.29217046393200669 0.22629082805432221 0 -0.28368611231015312 0.22535044665270379 0 -0.29774606474137388 0.21698197817193551 0 -0.28368611231015312 0.22535044665270379 0 -0.29774606474137388 0.21698197817193551 0 -0.30068208277946129 0.2293748340015172 0 -0.29217046393200669 0.22629082805432221 0 -0.29774606474137388 0.21698197817193551 0 -0.30068208277946129 0.2293748340015172 0 -0.28515412132919687 0.23154687456749451 0 -0.29581109125888361 0.2353360447719435 0 -0.30068208277946129 0.2293748340015172 0 -0.28515412132919687 0.23154687456749451 0 -0.30068208277946129 0.2293748340015172 0 -0.29217046393200669 0.22629082805432221 0 -0.28515412132919687 0.23154687456749451 0 -0.29217046393200669 0.22629082805432221 0 -0.28515412132919687 0.23154687456749451 0 -0.28368611231015312 0.22535044665270379 0 -0.28547569356356428 0.20896332233893469 0 -0.29774606474137388 0.21698197817193551 0 -0.302363922131963 0.20640016017917001 0 -0.28368611231015312 0.22535044665270379 0 -0.28547569356356428 0.20896332233893469 0 -0.29774606474137388 0.21698197817193551 0 -0.28547569356356428 0.20896332233893469 0 -0.29774606474137388 0.21698197817193551 0 -0.31662950265106898 0.2057425763511348 0 -0.29774606474137388 0.21698197817193551 0 -0.302363922131963 0.20640016017917001 0 -0.31662950265106898 0.2057425763511348 0 -0.29774606474137388 0.21698197817193551 0 -0.31662950265106898 0.2057425763511348 0 -0.31912276326178002 0.21716745716092531 0 -0.29774606474137388 0.21698197817193551 0 -0.28547569356356428 0.20896332233893469 0 -0.3096044275718452 0.19391276385467421 0 -0.28547569356356428 0.20896332233893469 0 -0.302363922131963 0.20640016017917001 0 -0.3096044275718452 0.19391276385467421 0 -0.31662950265106898 0.2057425763511348 0 -0.302363922131963 0.20640016017917001 0 -0.3096044275718452 0.19391276385467421 0 -0.28547569356356428 0.20896332233893469 0 -0.29163104387487621 0.1919648337018941 0 -0.27828689293944509 0.18516081152961211 0 -0.28547569356356428 0.20896332233893469 0 -0.3096044275718452 0.19391276385467421 0 -0.29163104387487621 0.1919648337018941 0 -0.28547569356356428 0.20896332233893469 0 -0.26728744752529271 0.19707735058849829 0 -0.27828689293944509 0.18516081152961211 0 -0.28547569356356428 0.20896332233893469 0 -0.26728744752529271 0.19707735058849829 0 -0.26728744752529271 0.19707735058849829 0 -0.27828689293944509 0.18516081152961211 0 -0.26765876769254993 0.1831279972736658 0 -0.26728744752529271 0.19707735058849829 0 -0.25823652781237949 0.20744711729681059 0 -0.2490992014870253 0.1851913788380552 0 -0.26728744752529271 0.19707735058849829 0 -0.26765876769254993 0.1831279972736658 0 -0.2490992014870253 0.1851913788380552 0 -0.26728744752529271 0.19707735058849829 0 -0.2490992014870253 0.1851913788380552 0 -0.25823652781237949 0.20744711729681059 0 -0.2490992014870253 0.1851913788380552 0 -0.24381375781435391 0.21163011962052941 0 -0.26728744752529271 0.19707735058849829 0 -0.25823652781237949 0.20744711729681059 0 -0.27007539855664231 0.21860231847580369 0 -0.25823652781237949 0.20744711729681059 0 -0.25557888046928079 0.22193338844258101 0 -0.24381375781435391 0.21163011962052941 0 -0.25823652781237949 0.20744711729681059 0 -0.27007539855664231 0.21860231847580369 0 -0.25557888046928079 0.22193338844258101 0 -0.28368611231015312 0.22535044665270379 0 -0.28547569356356428 0.20896332233893469 0 -0.27007539855664231 0.21860231847580369 0 -0.28547569356356428 0.20896332233893469 0 -0.26728744752529271 0.19707735058849829 0 -0.27007539855664231 0.21860231847580369 0 -0.28547569356356428 0.20896332233893469 0 -0.27007539855664231 0.21860231847580369 0 -0.28368611231015312 0.22535044665270379 0 -0.27007539855664231 0.21860231847580369 0 -0.26962615987893229 0.23371891513347209 0 -0.28368611231015312 0.22535044665270379 0 -0.26962615987893229 0.23371891513347209 0 -0.28515412132919687 0.23154687456749451 0 -0.28368611231015312 0.22535044665270379 0 -0.26962615987893229 0.23371891513347209 0 -0.28515412132919687 0.23154687456749451 0 -0.26962615987893229 0.23371891513347209 0 -0.27007539855664231 0.21860231847580369 0 -0.26962615987893229 0.23371891513347209 0 -0.25557888046928079 0.22193338844258101 0 -0.26962615987893229 0.23371891513347209 0 -0.25557888046928079 0.22193338844258101 0 -0.25407723701030299 0.2358938877682307 0 -0.26962615987893229 0.23371891513347209 0 -0.25806352799056681 0.24060098112806641 0 -0.26290036062986039 0.24569953386769289 0 -0.26962615987893229 0.23371891513347209 0 -0.25806352799056681 0.24060098112806641 0 -0.25407723701030299 0.2358938877682307 0 -0.26962615987893229 0.23371891513347209 0 -0.25407723701030299 0.2358938877682307 0 -0.26962615987893229 0.23371891513347209 0 -0.25806352799056681 0.24060098112806641 0 -0.25806352799056681 0.24060098112806641 0 -0.25407723701030299 0.2358938877682307 0 -0.25100080036135147 0.24264522738084729 0 -0.25629622284860087 0.24993280446742899 0 -0.25100080036135147 0.24264522738084729 0 -0.24803869981560719 0.24872960313750719 0 -0.25806352799056681 0.24060098112806641 0 -0.25629622284860087 0.24993280446742899 0 -0.25100080036135147 0.24264522738084729 0 -0.26290036062986039 0.24569953386769289 0 -0.26978774039069642 0.24809988152494919 0 -0.26252056122028011 0.25518307875040258 0 -0.25806352799056681 0.24060098112806641 0 -0.25629622284860087 0.24993280446742899 0 -0.26290036062986039 0.24569953386769289 0 -0.28819786691168731 0.23647683716420681 0 -0.27756401976308681 0.24177589253819759 0 -0.27612628102505798 0.25968523937959359 0 -0.26962615987893229 0.23371891513347209 0 -0.26290036062986039 0.24569953386769289 0 -0.26978774039069642 0.24809988152494919 0 -0.26978774039069642 0.24809988152494919 0 -0.27756401976308681 0.24177589253819759 0 -0.27612628102505798 0.25968523937959359 0 -0.26962615987893229 0.23371891513347209 0 -0.26978774039069642 0.24809988152494919 0 -0.27756401976308681 0.24177589253819759 0 -0.28515412132919687 0.23154687456749451 0 -0.26962615987893229 0.23371891513347209 0 -0.27756401976308681 0.24177589253819759 0 -0.28326540987733179 0.14114766740123419 0 -0.28970521841520019 0.16120058433546841 0 -0.27977209984624779 0.15364311662160951 0 -0.28326540987733179 0.14114766740123419 0 -0.30635072364074639 0.14068791117309429 0 -0.28970521841520019 0.16120058433546841 0 -0.28326540987733179 0.14114766740123419 0 -0.29045160712284818 0.1290591785102562 0 -0.27861827090293573 0.1226446414139782 0 -0.28326540987733179 0.14114766740123419 0 -0.29045160712284818 0.1290591785102562 0 -0.30635072364074639 0.14068791117309429 0 -0.29045160712284818 0.1290591785102562 0 -0.30635072364074639 0.14068791117309429 0 -0.29933996393152063 0.1161266032067961 0 -0.30635072364074639 0.14068791117309429 0 -0.29933996393152063 0.1161266032067961 0 -0.32299622886629259 0.1201752380107203 0 -0.30635072364074639 0.14068791117309429 0 -0.31012401648703791 0.1583467993750548 0 -0.28970521841520019 0.16120058433546841 0 -0.30635072364074639 0.14068791117309429 0 -0.28970521841520019 0.16120058433546841 0 -0.31012401648703791 0.1583467993750548 0 -0.30075993741188339 0.16864020926884529 0 -0.28970521841520019 0.16120058433546841 0 -0.31012401648703791 0.1583467993750548 0 -0.3123015800218103 0.1703100413628186 0 -0.30075993741188339 0.16864020926884529 0 -0.3096044275718452 0.19391276385467421 0 -0.30519011584550693 0.17740733003212589 0 -0.28845973723613588 0.1741665257036133 0 -0.30075993741188339 0.16864020926884529 0 -0.30519011584550693 0.17740733003212589 0 -0.28845973723613588 0.1741665257036133 0 -0.3096044275718452 0.19391276385467421 0 -0.28845973723613588 0.1741665257036133 0 -0.3148248969858593 0.18000710997067801 0 -0.3096044275718452 0.19391276385467421 0 -0.30519011584550693 0.17740733003212589 0 -0.3148248969858593 0.18000710997067801 0 -0.3123015800218103 0.1703100413628186 0 -0.30519011584550693 0.17740733003212589 0 -0.3123015800218103 0.1703100413628186 0 -0.30075993741188339 0.16864020926884529 0 -0.30519011584550693 0.17740733003212589 0 -0.29163104387487621 0.1919648337018941 0 -0.28845973723613588 0.1741665257036133 0 -0.27828689293944509 0.18516081152961211 0 -0.3096044275718452 0.19391276385467421 0 -0.29163104387487621 0.1919648337018941 0 -0.28845973723613588 0.1741665257036133 0 -0.28845973723613588 0.1741665257036133 0 -0.27828689293944509 0.18516081152961211 0 -0.27726132663272463 0.17499909951582651 0 -0.28845973723613588 0.1741665257036133 0 -0.28970521841520019 0.16120058433546841 0 -0.27977209984624779 0.15364311662160951 0 -0.30075993741188339 0.16864020926884529 0 -0.28845973723613588 0.1741665257036133 0 -0.28970521841520019 0.16120058433546841 0 -0.26857130253049888 0.17194097594009211 0 -0.26248719874847498 0.1634616302136386 0 -0.26731504690042668 0.15442028755255241 0 -0.27726132663272463 0.17499909951582651 0 -0.26857130253049888 0.17194097594009211 0 -0.26731504690042668 0.15442028755255241 0 -0.28845973723613588 0.1741665257036133 0 -0.26731504690042668 0.15442028755255241 0 -0.28845973723613588 0.1741665257036133 0 -0.27726132663272463 0.17499909951582651 0 -0.26731504690042668 0.15442028755255241 0 -0.28845973723613588 0.1741665257036133 0 -0.26731504690042668 0.15442028755255241 0 -0.27977209984624779 0.15364311662160951 0 -0.27828689293944509 0.18516081152961211 0 -0.27726132663272463 0.17499909951582651 0 -0.26765876769254993 0.1831279972736658 0 -0.27726132663272463 0.17499909951582651 0 -0.26857130253049888 0.17194097594009211 0 -0.26765876769254993 0.1831279972736658 0 -0.26765876769254993 0.1831279972736658 0 -0.25860482601618717 0.17720216229588581 0 -0.2490992014870253 0.1851913788380552 0 -0.25860482601618717 0.17720216229588581 0 -0.25290133003927823 0.16617244732729211 0 -0.2490992014870253 0.1851913788380552 0 -0.25290133003927823 0.16617244732729211 0 -0.24867904554602149 0.1718252157911333 0 -0.2490992014870253 0.1851913788380552 0 -0.25290133003927823 0.16617244732729211 0 -0.2490992014870253 0.1851913788380552 0 -0.26857130253049888 0.17194097594009211 0 -0.25860482601618717 0.17720216229588581 0 -0.26064116433360979 0.1696943039442271 0 -0.26857130253049888 0.17194097594009211 0 -0.26765876769254993 0.1831279972736658 0 -0.25860482601618717 0.17720216229588581 0 -0.26248719874847498 0.1634616302136386 0 -0.25290133003927823 0.16617244732729211 0 -0.25670345859152849 0.14715351581652861 0 -0.25290133003927823 0.16617244732729211 0 -0.25670345859152849 0.14715351581652861 0 -0.26248719874847498 0.1634616302136386 0 -0.26064116433360979 0.1696943039442271 0 -0.25290133003927823 0.16617244732729211 0 -0.26857130253049888 0.17194097594009211 0 -0.26248719874847498 0.1634616302136386 0 -0.26064116433360979 0.1696943039442271 0 -0.25860482601618717 0.17720216229588581 0 -0.26064116433360979 0.1696943039442271 0 -0.25290133003927823 0.16617244732729211 0 -0.26731504690042668 0.15442028755255241 0 -0.24617035656471711 0.13467404940149219 0 -0.25670345859152849 0.14715351581652861 0 -0.24617035656471711 0.13467404940149219 0 -0.24742470105536901 0.1532496325963128 0 -0.25670345859152849 0.14715351581652861 0 -0.26731504690042668 0.15442028755255241 0 -0.24617035656471711 0.13467404940149219 0 -0.26731504690042668 0.15442028755255241 0 -0.2662338500835103 0.13623213411170909 0 -0.24617035656471711 0.13467404940149219 0 -0.25290133003927823 0.16617244732729211 0 -0.25670345859152849 0.14715351581652861 0 -0.24742470105536901 0.1532496325963128 0 -0.26248719874847498 0.1634616302136386 0 -0.25670345859152849 0.14715351581652861 0 -0.26731504690042668 0.15442028755255241 0 -0.28326540987733179 0.14114766740123419 0 -0.27414660167687921 0.14636080142177629 0 -0.2662338500835103 0.13623213411170909 0 -0.26731504690042668 0.15442028755255241 0 -0.27414660167687921 0.14636080142177629 0 -0.2662338500835103 0.13623213411170909 0 -0.28326540987733179 0.14114766740123419 0 -0.27414660167687921 0.14636080142177629 0 -0.27977209984624779 0.15364311662160951 0 -0.26731504690042668 0.15442028755255241 0 -0.27414660167687921 0.14636080142177629 0 -0.27977209984624779 0.15364311662160951 0 -0.28326540987733179 0.14114766740123419 0 -0.2662338500835103 0.13623213411170909 0 -0.27861827090293573 0.1226446414139782 0 -0.2662338500835103 0.13623213411170909 0 -0.25629690274402139 0.12232477356589321 0 -0.27861827090293573 0.1226446414139782 0 -0.2662338500835103 0.13623213411170909 0 -0.25629690274402139 0.12232477356589321 0 -0.24617035656471711 0.13467404940149219 0 -0.25629690274402139 0.12232477356589321 0 -0.26690565241324687 0.11266032242746341 0 -0.24460205120436529 0.1114490207804217 0 -0.25432004880133358 0.099476279807380746 0 -0.26690565241324687 0.11266032242746341 0 -0.24460205120436529 0.1114490207804217 0 -0.25432004880133358 0.099476279807380746 0 -0.2660790825580881 0.098333286180355764 0 -0.26690565241324687 0.11266032242746341 0 -0.25432004880133358 0.099476279807380746 0 -0.2660790825580881 0.098333286180355764 0 -0.25594925391619922 0.086799486035772339 0 -0.2660790825580881 0.098333286180355764 0 -0.26690565241324687 0.11266032242746341 0 -0.28208795559760369 0.1061885725884683 0 -0.2660790825580881 0.098333286180355764 0 -0.28208795559760369 0.1061885725884683 0 -0.28298893294088279 0.089484653870461422 0 -0.27861827090293573 0.1226446414139782 0 -0.26690565241324687 0.11266032242746341 0 -0.28208795559760369 0.1061885725884683 0 -0.25629690274402139 0.12232477356589321 0 -0.27861827090293573 0.1226446414139782 0 -0.26690565241324687 0.11266032242746341 0 -0.29045160712284818 0.1290591785102562 0 -0.27861827090293573 0.1226446414139782 0 -0.29933996393152063 0.1161266032067961 0 -0.27861827090293573 0.1226446414139782 0 -0.28208795559760369 0.1061885725884683 0 -0.29933996393152063 0.1161266032067961 0 -0.28208795559760369 0.1061885725884683 0 -0.30135941336018668 0.094262609001241393 0 -0.29933996393152063 0.1161266032067961 0 -0.28208795559760369 0.1061885725884683 0 -0.30135941336018668 0.094262609001241393 0 -0.28298893294088279 0.089484653870461422 0 -0.30135941336018668 0.094262609001241393 0 -0.29933996393152063 0.1161266032067961 0 -0.31323632076920532 0.1006325711160405 0 -0.29933996393152063 0.1161266032067961 0 -0.32299622886629259 0.1201752380107203 0 -0.31323632076920532 0.1006325711160405 0 -0.29445596559685377 0.062585013442720189 0 -0.31487661376502563 0.056830106208846473 0 -0.31632794909371548 0.072688648307661752 0 -0.30094083481917439 0.080005902489382594 0 -0.29445596559685377 0.062585013442720189 0 -0.31632794909371548 0.072688648307661752 0 -0.30135941336018668 0.094262609001241393 0 -0.30094083481917439 0.080005902489382594 0 -0.32480175899656383 0.086171759130709569 0 -0.30135941336018668 0.094262609001241393 0 -0.30094083481917439 0.080005902489382594 0 -0.28298893294088279 0.089484653870461422 0 -0.30094083481917439 0.080005902489382594 0 -0.28298893294088279 0.089484653870461422 0 -0.27934501896775382 0.075828276093213548 0 -0.29445596559685377 0.062585013442720189 0 -0.27727144814636773 0.062733739671005373 0 -0.27934501896775382 0.075828276093213548 0 -0.30094083481917439 0.080005902489382594 0 -0.29445596559685377 0.062585013442720189 0 -0.27934501896775382 0.075828276093213548 0 -0.27934501896775382 0.075828276093213548 0 -0.26904570845380138 0.084732169129821205 0 -0.26086625388608309 0.073215143469302926 0 -0.27727144814636773 0.062733739671005373 0 -0.26086625388608309 0.073215143469302926 0 -0.26487951124926967 0.057428987480066418 0 -0.27727144814636773 0.062733739671005373 0 -0.27934501896775382 0.075828276093213548 0 -0.26086625388608309 0.073215143469302926 0 -0.2660790825580881 0.098333286180355764 0 -0.28298893294088279 0.089484653870461422 0 -0.26904570845380138 0.084732169129821205 0 -0.28298893294088279 0.089484653870461422 0 -0.27934501896775382 0.075828276093213548 0 -0.26904570845380138 0.084732169129821205 0 -0.2660790825580881 0.098333286180355764 0 -0.26904570845380138 0.084732169129821205 0 -0.25594925391619922 0.086799486035772339 0 -0.26904570845380138 0.084732169129821205 0 -0.25594925391619922 0.086799486035772339 0 -0.26086625388608309 0.073215143469302926 0 -0.25432004880133358 0.099476279807380746 0 -0.25594925391619922 0.086799486035772339 0 -0.2430337458440141 0.088223992159351311 0 -0.26086625388608309 0.073215143469302926 0 -0.2532426392228585 0.065264178478199222 0 -0.26487951124926967 0.057428987480066418 0 -0.25594925391619922 0.086799486035772339 0 -0.26086625388608309 0.073215143469302926 0 -0.24643185974337969 0.073566996350783398 0 -0.26086625388608309 0.073215143469302926 0 -0.2532426392228585 0.065264178478199222 0 -0.24643185974337969 0.073566996350783398 0 -0.26487951124926967 0.057428987480066418 0 -0.25499410811335588 0.053906922831539812 0 -0.26413218122252452 0.04038308194609537 0 -0.2532426392228585 0.065264178478199222 0 -0.25499410811335588 0.053906922831539812 0 -0.24609177366225021 0.058087531758988682 0 -0.2532426392228585 0.065264178478199222 0 -0.26487951124926967 0.057428987480066418 0 -0.25499410811335588 0.053906922831539812 0 -0.25499410811335588 0.053906922831539812 0 -0.25055895697087183 0.045476799495868428 0 -0.2482913708390507 0.051762957954908408 0 -0.25055895697087183 0.045476799495868428 0 -0.25215879644776762 0.031834772299794367 0 -0.26413218122252452 0.04038308194609537 0 -0.25215879644776762 0.031834772299794367 0 -0.26413218122252452 0.04038308194609537 0 -0.26455458389334041 0.023600461746136989 0 -0.25499410811335588 0.053906922831539812 0 -0.25055895697087183 0.045476799495868428 0 -0.26413218122252452 0.04038308194609537 0 -0.26413218122252452 0.04038308194609537 0 -0.2787246574451161 0.048194860734759697 0 -0.28191435873642567 0.022354710531863269 0 -0.26487951124926967 0.057428987480066418 0 -0.26413218122252452 0.04038308194609537 0 -0.2787246574451161 0.048194860734759697 0 -0.27727144814636773 0.062733739671005373 0 -0.26487951124926967 0.057428987480066418 0 -0.2787246574451161 0.048194860734759697 0 -0.26196604515275917 0.0063026809159313687 0 -0.2516275062592469 0.018919839351225719 0 -0.2365251488916538 0.012281932688315849 0 -0.26196604515275917 0.0063026809159313687 0 -0.2516275062592469 0.018919839351225719 0 -0.26455458389334041 0.023600461746136989 0 -0.25215879644776762 0.031834772299794367 0 -0.2516275062592469 0.018919839351225719 0 -0.26455458389334041 0.023600461746136989 0 -0.26196604515275917 0.0063026809159313687 0 -0.26455458389334041 0.023600461746136989 0 -0.28191435873642567 0.022354710531863269 0 -0.26413218122252452 0.04038308194609537 0 -0.26455458389334041 0.023600461746136989 0 -0.28191435873642567 0.022354710531863269 0 -0.26196604515275917 0.0063026809159313687 0 -0.28740694141386441 0.00032342914354691749 0 -0.26196604515275917 0.0063026809159313687 0 -0.28740694141386441 0.00032342914354691749 0 -0.28191435873642567 0.022354710531863269 0 -0.28740694141386441 0.00032342914354691749 0 -0.28191435873642567 0.022354710531863269 0 -0.30638503700273362 0.015567495695315729 0 -0.28191435873642567 0.022354710531863269 0 -0.30638503700273362 0.015567495695315729 0 -0.29338603030612898 0.04194926527231449 0 -0.30638503700273362 0.015567495695315729 0 -0.29338603030612898 0.04194926527231449 0 -0.31246717069855701 0.035836718232639113 0 -0.31666736856865441 -0.0055691854636326348 0 -0.30638503700273362 0.015567495695315729 0 -0.31666736856865441 -0.0055691854636326348 0 -0.28740694141386441 0.00032342914354691749 0 -0.30638503700273362 0.015567495695315729 0 -0.29445596559685377 0.062585013442720189 0 -0.2787246574451161 0.048194860734759697 0 -0.29338603030612898 0.04194926527231449 0 -0.29445596559685377 0.062585013442720189 0 -0.27727144814636773 0.062733739671005373 0 -0.2787246574451161 0.048194860734759697 0 -0.2787246574451161 0.048194860734759697 0 -0.28191435873642567 0.022354710531863269 0 -0.29338603030612898 0.04194926527231449 0 -0.29338603030612898 0.04194926527231449 0 -0.31246717069855701 0.035836718232639113 0 -0.31487661376502563 0.056830106208846473 0 -0.29338603030612898 0.04194926527231449 0 -0.31487661376502563 0.056830106208846473 0 -0.29445596559685377 0.062585013442720189 0 -0.29338603030612898 0.04194926527231449 0 -0.31487661376502563 0.056830106208846473 0 -0.31487661376502563 0.056830106208846473 0 -0.33057015792665378 0.052109953132503252 0 -0.33636719722392222 0.071710947145378456 0 -0.31246717069855701 0.035836718232639113 0 -0.31487661376502563 0.056830106208846473 0 -0.33057015792665378 0.052109953132503252 0 -0.31246717069855701 0.035836718232639113 0 -0.33092976832301862 0.032021410573337163 0 -0.33057015792665378 0.052109953132503252 0 -0.33092976832301862 0.032021410573337163 0 -0.33057015792665378 0.052109953132503252 0 -0.35017977917947951 0.054440425547779968 0 -0.33092976832301862 0.032021410573337163 0 -0.34885158652974979 0.025666004890006072 0 -0.35017977917947951 0.054440425547779968 0 -0.33057015792665378 0.052109953132503252 0 -0.35017977917947951 0.054440425547779968 0 -0.33636719722392222 0.071710947145378456 0 -0.31666736856865441 -0.0055691854636326348 0 -0.30638503700273362 0.015567495695315729 0 -0.332597603982136 0.011137529677019749 0 -0.30638503700273362 0.015567495695315729 0 -0.31246717069855701 0.035836718232639113 0 -0.33092976832301862 0.032021410573337163 0 -0.30638503700273362 0.015567495695315729 0 -0.33092976832301862 0.032021410573337163 0 -0.332597603982136 0.011137529677019749 0 -0.33092976832301862 0.032021410573337163 0 -0.332597603982136 0.011137529677019749 0 -0.34885158652974979 0.025666004890006072 0 -0.33705954901322871 -0.006363166607892482 0 -0.332597603982136 0.011137529677019749 0 -0.3576918111719386 0.0088305311066376596 0 -0.332597603982136 0.011137529677019749 0 -0.3576918111719386 0.0088305311066376596 0 -0.34885158652974979 0.025666004890006072 0 -0.3576918111719386 0.0088305311066376596 0 -0.34885158652974979 0.025666004890006072 0 -0.36399236113503719 0.037169903950181937 0 -0.37681662355095719 0.021135124808956379 0 -0.36478222522365078 0.01881496218995456 0 -0.36399236113503719 0.037169903950181937 0 -0.3576918111719386 0.0088305311066376596 0 -0.36478222522365078 0.01881496218995456 0 -0.36399236113503719 0.037169903950181937 0 -0.37681662355095719 0.021135124808956379 0 -0.36399236113503719 0.037169903950181937 0 -0.37526307742339871 0.032576720824762817 0 -0.37681662355095719 0.021135124808956379 0 -0.36399236113503719 0.037169903950181937 0 -0.3576918111719386 0.0088305311066376596 0 -0.36399236113503719 0.037169903950181937 0 -0.3576918111719386 0.0088305311066376596 0 -0.36478222522365078 0.01881496218995456 0 -0.37339714784049899 0.0058903068706234142 0 -0.37263588858309638 -0.0016113739078703301 0 -0.3576918111719386 0.0088305311066376596 0 -0.37339714784049899 0.0058903068706234142 0 -0.35017977917947951 0.054440425547779968 0 -0.36729740008788231 0.052035706411182818 0 -0.35627901463138328 0.069424864109069534 0 -0.34885158652974979 0.025666004890006072 0 -0.35017977917947951 0.054440425547779968 0 -0.36399236113503719 0.037169903950181937 0 -0.35017977917947951 0.054440425547779968 0 -0.36399236113503719 0.037169903950181937 0 -0.36399236113503719 0.037169903950181937 0 -0.36729740008788231 0.052035706411182818 0 -0.37694858801610842 0.046301121137365592 0 -0.37526307742339871 0.032576720824762817 0 -0.36399236113503719 0.037169903950181937 0 -0.37694858801610842 0.046301121137365592 0 -0.36399236113503719 0.037169903950181937 0 -0.36729740008788231 0.052035706411182818 0 -0.37694858801610842 0.046301121137365592 0 -0.36729740008788231 0.052035706411182818 0 -0.37060243904072609 0.06690150887218399 0 -0.35017977917947951 0.054440425547779968 0 -0.36399236113503719 0.037169903950181937 0 -0.36729740008788231 0.052035706411182818 0 -0.37694858801610842 0.046301121137365592 0 -0.37060243904072609 0.06690150887218399 0 -0.36729740008788231 0.052035706411182818 0 -0.37060243904072609 0.06690150887218399 0 -0.36729740008788231 0.052035706411182818 0 -0.37060243904072609 0.06690150887218399 0 -0.35627901463138328 0.069424864109069534 0 -0.37060243904072609 0.06690150887218399 0 -0.35627901463138328 0.069424864109069534 0 -0.36336244909621851 0.090403415403469092 0 -0.35017977917947951 0.054440425547779968 0 -0.35627901463138328 0.069424864109069534 0 -0.33636719722392222 0.071710947145378456 0 -0.35627901463138328 0.069424864109069534 0 -0.3498648231600705 0.081057181274423559 0 -0.33636719722392222 0.071710947145378456 0 -0.35627901463138328 0.069424864109069534 0 -0.3498648231600705 0.081057181274423559 0 -0.36336244909621851 0.090403415403469092 0 -0.35042402232743042 0.093745715027500676 0 -0.3498648231600705 0.081057181274423559 0 -0.3388925856684456 0.085495217073023988 0 -0.3498648231600705 0.081057181274423559 0 -0.36336244909621851 0.090403415403469092 0 -0.35042402232743042 0.093745715027500676 0 -0.3498648231600705 0.081057181274423559 0 -0.36336244909621851 0.090403415403469092 0 -0.37060243904072609 0.06690150887218399 0 -0.36336244909621851 0.090403415403469092 0 -0.37598375682357971 0.091106248447464899 0 -0.37060243904072609 0.06690150887218399 0 -0.37598375682357971 0.091106248447464899 0 -0.37060243904072609 0.06690150887218399 0 -0.36336244909621851 0.090403415403469092 0 -0.37861998813221492 0.1009682756787532 0 -0.36336244909621851 0.090403415403469092 0 -0.36758546674602721 0.1038966004526034 0 -0.37861998813221492 0.1009682756787532 0 -0.37598375682357971 0.091106248447464899 0 -0.36336244909621851 0.090403415403469092 0 -0.36336244909621851 0.090403415403469092 0 -0.36758546674602721 0.1038966004526034 0 -0.35652121430523909 0.1126109131829489 0 -0.36336244909621851 0.090403415403469092 0 -0.35652121430523909 0.1126109131829489 0 -0.37861998813221492 0.1009682756787532 0 -0.36336244909621851 0.090403415403469092 0 -0.37861998813221492 0.1009682756787532 0 -0.36758546674602721 0.1038966004526034 0 -0.37183821545043588 0.1116037975452429 0 -0.36758546674602721 0.1038966004526034 0 -0.37183821545043588 0.1116037975452429 0 -0.35652121430523909 0.1126109131829489 0 -0.37699531245485329 0.11927853712628381 0 -0.37880739777133582 0.12693658828720311 0 -0.36737996253768063 0.12333373519514269 0 -0.37699531245485329 0.11927853712628381 0 -0.36737996253768063 0.12333373519514269 0 -0.37183821545043588 0.1116037975452429 0 -0.36737996253768063 0.12333373519514269 0 -0.37183821545043588 0.1116037975452429 0 -0.35652121430523909 0.1126109131829489 0 -0.34967997951426127 0.13481841096242919 0 -0.35652121430523909 0.1126109131829489 0 -0.34054214190609539 0.119634764362277 0 -0.34967997951426127 0.13481841096242919 0 -0.35652121430523909 0.1126109131829489 0 -0.35652121430523909 0.1126109131829489 0 -0.33964173409183868 0.099662564848346319 0 -0.34054214190609539 0.119634764362277 0 -0.34967997951426127 0.13481841096242919 0 -0.36737996253768063 0.12333373519514269 0 -0.35652121430523909 0.1126109131829489 0 -0.35042402232743042 0.093745715027500676 0 -0.36336244909621851 0.090403415403469092 0 -0.35652121430523909 0.1126109131829489 0 -0.35042402232743042 0.093745715027500676 0 -0.35652121430523909 0.1126109131829489 0 -0.33964173409183868 0.099662564848346319 0 -0.33464736986527321 0.13007675972223509 0 -0.34054214190609539 0.119634764362277 0 -0.32299622886629259 0.1201752380107203 0 -0.33964173409183868 0.099662564848346319 0 -0.34054214190609539 0.119634764362277 0 -0.32299622886629259 0.1201752380107203 0 -0.33964173409183868 0.099662564848346319 0 -0.32299622886629259 0.1201752380107203 0 -0.33964173409183868 0.099662564848346319 0 -0.31323632076920532 0.1006325711160405 0 -0.32480175899656383 0.086171759130709569 0 -0.33964173409183868 0.099662564848346319 0 -0.32299622886629259 0.1201752380107203 0 -0.31323632076920532 0.1006325711160405 0 -0.30094083481917439 0.080005902489382594 0 -0.32480175899656383 0.086171759130709569 0 -0.31632794909371548 0.072688648307661752 0 -0.30135941336018668 0.094262609001241393 0 -0.31323632076920532 0.1006325711160405 0 -0.32480175899656383 0.086171759130709569 0 -0.31323632076920532 0.1006325711160405 0 -0.32480175899656383 0.086171759130709569 0 -0.31487661376502563 0.056830106208846473 0 -0.33636719722392222 0.071710947145378456 0 -0.32480175899656383 0.086171759130709569 0 -0.31632794909371548 0.072688648307661752 0 -0.33636719722392222 0.071710947145378456 0 -0.31487661376502563 0.056830106208846473 0 -0.31632794909371548 0.072688648307661752 0 -0.33636719722392222 0.071710947145378456 0 -0.35017977917947951 0.054440425547779968 0 -0.33636719722392222 0.071710947145378456 0 -0.3498648231600705 0.081057181274423559 0 -0.33636719722392222 0.071710947145378456 0 -0.3498648231600705 0.081057181274423559 0 -0.33636719722392222 0.071710947145378456 0 -0.3388925856684456 0.085495217073023988 0 -0.35042402232743042 0.093745715027500676 0 -0.33964173409183868 0.099662564848346319 0 -0.3388925856684456 0.085495217073023988 0 -0.33964173409183868 0.099662564848346319 0 -0.32480175899656383 0.086171759130709569 0 -0.3388925856684456 0.085495217073023988 0 -0.32480175899656383 0.086171759130709569 0 -0.33636719722392222 0.071710947145378456 0 -0.3388925856684456 0.085495217073023988 0 -0.32480175899656383 0.086171759130709569 0 -0.33636719722392222 0.071710947145378456 0 -0.39087440279914232 0.48029044744842281 0 -0.40080807541178359 0.47323981765210432 0 -0.38640942681684443 0.46400845672143548 0 -0.4041369249884984 0.47537403266013112 0 -0.40268737591779741 0.49167603289954398 0 -0.40825345398484469 0.48395551412766702 0 -0.39087440279914232 0.48029044744842281 0 -0.4041369249884984 0.47537403266013112 0 -0.40268737591779741 0.49167603289954398 0 -0.4041369249884984 0.47537403266013112 0 -0.40268737591779741 0.49167603289954398 0 -0.39087440279914232 0.48029044744842281 0 -0.40080807541178359 0.47323981765210432 0 -0.40080807541178359 0.47323981765210432 0 -0.40456372146726249 0.47057417011006752 0 -0.39747919799214171 0.4645712438657687 0 -0.39087440279914232 0.48029044744842281 0 -0.40080807541178359 0.47323981765210432 0 -0.4041369249884984 0.47537403266013112 0 -0.40080807541178359 0.47323981765210432 0 -0.40456372146726249 0.47057417011006752 0 -0.40080807541178359 0.47323981765210432 0 -0.40456372146726249 0.47057417011006752 0 -0.4041369249884984 0.47537403266013112 0 -0.40456372146726249 0.47057417011006752 0 -0.4041369249884984 0.47537403266013112 0 -0.40080807541178359 0.47323981765210432 0 -0.4041369249884984 0.47537403266013112 0 -0.40233942693999858 0.49558915625215222 0 -0.38721465321194731 0.5 0 -0.41132380484983849 0.49999999999999628 0 -0.40268737591779741 0.49167603289954398 0 -0.40233942693999858 0.49558915625215222 0 -0.41132380484983849 0.49999999999999628 0 -0.40268737591779741 0.49167603289954398 0 -0.40233942693999858 0.49558915625215222 0 -0.39332501199558262 0.49281557696027822 0 -0.40268737591779741 0.49167603289954398 0 -0.40233942693999858 0.49558915625215222 0 -0.40233942693999858 0.49558915625215222 0 -0.39332501199558262 0.49281557696027822 0 -0.38721465321194731 0.5 0 -0.39087440279914232 0.48029044744842281 0 -0.40268737591779741 0.49167603289954398 0 -0.39087440279914232 0.48029044744842281 0 -0.40268737591779741 0.49167603289954398 0 -0.39332501199558262 0.49281557696027822 0 -0.39087440279914232 0.48029044744842281 0 -0.37698995218659531 0.49014522372419722 0 -0.39087440279914232 0.48029044744842281 0 -0.39332501199558262 0.49281557696027822 0 -0.37698995218659531 0.49014522372419722 0 -0.39332501199558262 0.49281557696027822 0 -0.38721465321194731 0.5 0 -0.37698995218659531 0.49014522372419722 0 -0.38721465321194731 0.5 0 -0.37698995218659531 0.49014522372419722 0 -0.36310550157405608 0.49999999999998268 0 -0.39087440279914232 0.48029044744842281 0 -0.37698995218659531 0.49014522372419722 0 -0.3618063254675401 0.47668811569127079 0 -0.39087440279914232 0.48029044744842281 0 -0.36965393114197592 0.45983772221668873 0 -0.38640942681684443 0.46400845672143548 0 -0.36965393114197592 0.45983772221668873 0 -0.3720107782219072 0.45477709579076347 0 -0.39087440279914232 0.48029044744842281 0 -0.38640942681684443 0.46400845672143548 0 -0.36965393114197592 0.45983772221668873 0 -0.38640942681684443 0.46400845672143548 0 -0.3720107782219072 0.45477709579076347 0 -0.38208205980800342 0.45491323048931831 0 -0.38640942681684443 0.46400845672143548 0 -0.3720107782219072 0.45477709579076347 0 -0.38208205980800342 0.45491323048931831 0 -0.38640942681684443 0.46400845672143548 0 -0.3910353013065066 0.45170267255240321 0 -0.38208205980800342 0.45491323048931831 0 -0.37549674741026712 0.44729201627721282 0 -0.3720107782219072 0.45477709579076347 0 -0.37549674741026712 0.44729201627721282 0 -0.39078871724609548 0.44080382980273242 0 -0.3910353013065066 0.45170267255240321 0 -0.38208205980800342 0.45491323048931831 0 -0.37549674741026712 0.44729201627721282 0 -0.3910353013065066 0.45170267255240321 0 -0.37549674741026712 0.44729201627721282 0 -0.39078871724609548 0.44080382980273242 0 -0.39078871724609548 0.44080382980273242 0 -0.4060806870819243 0.43431564332825229 0 -0.3910353013065066 0.45170267255240321 0 -0.39888544479170762 0.44517175838284379 0 -0.39972860364116658 0.45556203909563098 0 -0.39078871724609548 0.44080382980273242 0 -0.3910353013065066 0.45170267255240321 0 -0.39888544479170762 0.44517175838284379 0 -0.39888544479170762 0.44517175838284379 0 -0.39972860364116658 0.45556203909563098 0 -0.40713663279658302 0.44163855009252789 0 -0.39078871724609548 0.44080382980273242 0 -0.39888544479170762 0.44517175838284379 0 -0.4060806870819243 0.43431564332825229 0 -0.39888544479170762 0.44517175838284379 0 -0.40713663279658302 0.44163855009252789 0 -0.4060806870819243 0.43431564332825229 0 -0.40456372146726249 0.47057417011006752 0 -0.39972860364116658 0.45556203909563098 0 -0.40713663279658302 0.44163855009252789 0 -0.40456372146726249 0.47057417011006752 0 -0.40713663279658302 0.44163855009252789 0 -0.40080807541178359 0.47323981765210432 0 -0.38640942681684443 0.46400845672143548 0 -0.40080807541178359 0.47323981765210432 0 -0.38640942681684443 0.46400845672143548 0 -0.39747919799214171 0.4645712438657687 0 -0.38640942681684443 0.46400845672143548 0 -0.3910353013065066 0.45170267255240321 0 -0.39747919799214171 0.4645712438657687 0 -0.3910353013065066 0.45170267255240321 0 -0.39747919799214171 0.4645712438657687 0 -0.39972860364116658 0.45556203909563098 0 -0.40456372146726249 0.47057417011006752 0 -0.39747919799214171 0.4645712438657687 0 -0.39972860364116658 0.45556203909563098 0 -0.40456372146726249 0.47057417011006752 0 -0.42233087880025832 0.45796356235474128 0 -0.41470370708225629 0.47389470853295318 0 -0.40456372146726249 0.47057417011006752 0 -0.42233087880025832 0.45796356235474128 0 -0.40456372146726249 0.47057417011006752 0 -0.40713663279658302 0.44163855009252789 0 -0.42233087880025832 0.45796356235474128 0 -0.40713663279658302 0.44163855009252789 0 -0.42233087880025832 0.45796356235474128 0 -0.42451365661443491 0.43554184322402922 0 -0.42233087880025832 0.45796356235474128 0 -0.4400980361332486 0.44535295459940721 0 -0.42233087880025832 0.45796356235474128 0 -0.4400980361332486 0.44535295459940721 0 -0.42451365661443491 0.43554184322402922 0 -0.42233087880025832 0.45796356235474128 0 -0.44489011576178089 0.46144601017079417 0 -0.4400980361332486 0.44535295459940721 0 -0.42233087880025832 0.45796356235474128 0 -0.43181150447086508 0.47637586018595041 0 -0.44489011576178089 0.46144601017079417 0 -0.42233087880025832 0.45796356235474128 0 -0.43181150447086508 0.47637586018595041 0 -0.41470370708225629 0.47389470853295318 0 -0.43181150447086508 0.47637586018595041 0 -0.41470370708225629 0.47389470853295318 0 -0.4177698799340322 0.48411448679538582 0 -0.4041369249884984 0.47537403266013112 0 -0.4177698799340322 0.48411448679538582 0 -0.40825345398484469 0.48395551412766702 0 -0.4041369249884984 0.47537403266013112 0 -0.41470370708225629 0.47389470853295318 0 -0.4177698799340322 0.48411448679538582 0 -0.4041369249884984 0.47537403266013112 0 -0.4177698799340322 0.48411448679538582 0 -0.40456372146726249 0.47057417011006752 0 -0.4041369249884984 0.47537403266013112 0 -0.41470370708225629 0.47389470853295318 0 -0.40268737591779741 0.49167603289954398 0 -0.40825345398484469 0.48395551412766702 0 -0.41132380484983849 0.49999999999999628 0 -0.40825345398484469 0.48395551412766702 0 -0.41132380484983849 0.49999999999999628 0 -0.42126819065977278 0.49286142568545632 0 -0.40268737591779741 0.49167603289954398 0 -0.41132380484983849 0.49999999999999628 0 -0.4177698799340322 0.48411448679538582 0 -0.40825345398484469 0.48395551412766702 0 -0.42126819065977278 0.49286142568545632 0 -0.43181150447086508 0.47637586018595041 0 -0.43140283487956421 0.49285494093064341 0 -0.44116742547648452 0.48708109225883528 0 -0.43181150447086508 0.47637586018595041 0 -0.4177698799340322 0.48411448679538582 0 -0.43140283487956421 0.49285494093064341 0 -0.41132380484983849 0.49999999999999628 0 -0.42126819065977278 0.49286142568545632 0 -0.43873511230944567 0.5 0 -0.42126819065977278 0.49286142568545632 0 -0.43140283487956421 0.49285494093064341 0 -0.43873511230944567 0.5 0 -0.4177698799340322 0.48411448679538582 0 -0.43140283487956421 0.49285494093064341 0 -0.4177698799340322 0.48411448679538582 0 -0.42126819065977278 0.49286142568545632 0 -0.43140283487956421 0.49285494093064341 0 -0.43140283487956421 0.49285494093064341 0 -0.43873511230944567 0.5 0 -0.44116742547648452 0.48708109225883528 0 -0.43873511230944567 0.5 0 -0.45273849238950947 0.4891612854031635 0 -0.4661464197690528 0.50000000000000033 0 -0.43873511230944567 0.5 0 -0.44116742547648452 0.48708109225883528 0 -0.45273849238950947 0.4891612854031635 0 -0.44116742547648452 0.48708109225883528 0 -0.45273849238950947 0.4891612854031635 0 -0.44968219539032173 0.47753906574217869 0 -0.44968219539032173 0.47753906574217869 0 -0.44489011576178089 0.46144601017079417 0 -0.43181150447086508 0.47637586018595041 0 -0.44968219539032173 0.47753906574217869 0 -0.44489011576178089 0.46144601017079417 0 -0.43181150447086508 0.47637586018595041 0 -0.44116742547648452 0.48708109225883528 0 -0.44968219539032173 0.47753906574217869 0 -0.44968219539032173 0.47753906574217869 0 -0.46722781503088417 0.48144911449868227 0 -0.45893942163764878 0.46664130889678718 0 -0.46722781503088417 0.48144911449868227 0 -0.47388451895703509 0.46220449271839043 0 -0.45893942163764878 0.46664130889678718 0 -0.45273849238950947 0.4891612854031635 0 -0.44968219539032173 0.47753906574217869 0 -0.46722781503088417 0.48144911449868227 0 -0.45273849238950947 0.4891612854031635 0 -0.46722781503088417 0.48144911449868227 0 -0.4661464197690528 0.50000000000000033 0 -0.46722781503088417 0.48144911449868227 0 -0.4661464197690528 0.50000000000000033 0 -0.4830732098845264 0.49486781678293312 0 -0.46722781503088417 0.48144911449868227 0 -0.4830732098845264 0.49486781678293312 0 -0.4848371087744891 0.47780524902719068 0 -0.4661464197690528 0.50000000000000033 0 -0.4830732098845264 0.49486781678293312 0 -0.5 0.5 0 -0.4661464197690528 0.50000000000000033 0 -0.4830732098845264 0.49486781678293312 0 -0.46722781503088417 0.48144911449868227 0 -0.4848371087744891 0.47780524902719068 0 -0.47388451895703509 0.46220449271839043 0 -0.4848371087744891 0.47780524902719068 0 -0.49999999999999989 0.48973563356586558 0 -0.5 0.46076918757008228 0 -0.4830732098845264 0.49486781678293312 0 -0.49999999999999989 0.48973563356586558 0 -0.5 0.5 0 -0.4830732098845264 0.49486781678293312 0 -0.49999999999999989 0.48973563356586558 0 -0.4830732098845264 0.49486781678293312 0 -0.4848371087744891 0.47780524902719068 0 -0.49999999999999989 0.48973563356586558 0 -0.5 0.46076918757008228 0 -0.47960942558534392 0.44140975094935969 0 -0.5 0.4318027415742991 0 -0.5 0.46076918757008228 0 -0.47388451895703509 0.46220449271839043 0 -0.47960942558534392 0.44140975094935969 0 -0.4848371087744891 0.47780524902719068 0 -0.5 0.46076918757008228 0 -0.47388451895703509 0.46220449271839043 0 -0.47388451895703509 0.46220449271839043 0 -0.47960942558534392 0.44140975094935969 0 -0.45901246304822202 0.45056786135389021 0 -0.47960942558534392 0.44140975094935969 0 -0.45901246304822202 0.45056786135389021 0 -0.46006535742216231 0.43118073492577669 0 -0.45901246304822202 0.45056786135389021 0 -0.45893942163764878 0.46664130889678718 0 -0.44489011576178089 0.46144601017079417 0 -0.47388451895703509 0.46220449271839043 0 -0.45901246304822202 0.45056786135389021 0 -0.45893942163764878 0.46664130889678718 0 -0.44968219539032173 0.47753906574217869 0 -0.45893942163764878 0.46664130889678718 0 -0.44489011576178089 0.46144601017079417 0 -0.44489011576178089 0.46144601017079417 0 -0.4400980361332486 0.44535295459940721 0 -0.45901246304822202 0.45056786135389021 0 -0.4400980361332486 0.44535295459940721 0 -0.46006535742216231 0.43118073492577669 0 -0.4400980361332486 0.44535295459940721 0 -0.46006535742216231 0.43118073492577669 0 -0.45901246304822202 0.45056786135389021 0 -0.44489011576178089 0.46144601017079417 0 -0.4400980361332486 0.44535295459940721 0 -0.4400980361332486 0.44535295459940721 0 -0.44991727905633172 0.41646073063943778 0 -0.46006535742216231 0.43118073492577669 0 -0.4400980361332486 0.44535295459940721 0 -0.44991727905633172 0.41646073063943778 0 -0.43219235516346111 0.4188036121346993 0 -0.44991727905633172 0.41646073063943778 0 -0.4393618994721662 0.40246079741645269 0 -0.43219235516346111 0.4188036121346993 0 -0.44991727905633172 0.41646073063943778 0 -0.46006535742216231 0.43118073492577669 0 -0.48003267871107452 0.41700851525214377 0 -0.44991727905633172 0.41646073063943778 0 -0.48003267871107452 0.41700851525214377 0 -0.47026319147232543 0.40032121421297001 0 -0.46006535742216231 0.43118073492577669 0 -0.48003267871107452 0.41700851525214377 0 -0.47960942558534392 0.44140975094935969 0 -0.46006535742216231 0.43118073492577669 0 -0.48003267871107452 0.41700851525214377 0 -0.48003267871107452 0.41700851525214377 0 -0.49999999999999001 0.40283629557851558 0 -0.47026319147232543 0.40032121421297001 0 -0.48003267871107452 0.41700851525214377 0 -0.49999999999999001 0.40283629557851558 0 -0.48003267871107452 0.41700851525214377 0 -0.5 0.4318027415742991 0 -0.49999999999999001 0.40283629557851558 0 -0.47960942558534392 0.44140975094935969 0 -0.48003267871107452 0.41700851525214377 0 -0.5 0.4318027415742991 0 -0.5 0.37697423972137623 0 -0.49999999999999001 0.40283629557851558 0 -0.4813461992872915 0.38462876033657661 0 -0.5 0.37697423972137623 0 -0.4813461992872915 0.38462876033657661 0 -0.48423061324931882 0.36538026649675931 0 -0.49999999999999001 0.40283629557851558 0 -0.47026319147232543 0.40032121421297001 0 -0.4813461992872915 0.38462876033657661 0 -0.47026319147232543 0.40032121421297001 0 -0.4813461992872915 0.38462876033657661 0 -0.45732230839893012 0.38317635899596991 0 -0.4813461992872915 0.38462876033657661 0 -0.46627759988602308 0.367033952891478 0 -0.4813461992872915 0.38462876033657661 0 -0.45732230839893012 0.38317635899596991 0 -0.46627759988602308 0.367033952891478 0 -0.44991727905633172 0.41646073063943778 0 -0.47026319147232543 0.40032121421297001 0 -0.45067687459287681 0.39794826270362749 0 -0.47026319147232543 0.40032121421297001 0 -0.45732230839893012 0.38317635899596991 0 -0.45067687459287681 0.39794826270362749 0 -0.44991727905633172 0.41646073063943778 0 -0.45067687459287681 0.39794826270362749 0 -0.4393618994721662 0.40246079741645269 0 -0.45067687459287681 0.39794826270362749 0 -0.4393618994721662 0.40246079741645269 0 -0.43973631435447907 0.38683711193451009 0 -0.45732230839893012 0.38317635899596991 0 -0.43973631435447907 0.38683711193451009 0 -0.44160128916528602 0.37113631518246659 0 -0.45732230839893012 0.38317635899596991 0 -0.45067687459287681 0.39794826270362749 0 -0.43973631435447907 0.38683711193451009 0 -0.42918571713750198 0.37645514124072288 0 -0.4242866741936821 0.39225426966998889 0 -0.41638099322390298 0.36570492720527842 0 -0.43973631435447907 0.38683711193451009 0 -0.42918571713750198 0.37645514124072288 0 -0.4242866741936821 0.39225426966998889 0 -0.43973631435447907 0.38683711193451009 0 -0.42918571713750198 0.37645514124072288 0 -0.44160128916528602 0.37113631518246659 0 -0.41228245545523262 0.38376731005744968 0 -0.39832624320942212 0.39827248051036612 0 -0.40974099110899931 0.37376271262694238 0 -0.41228245545523262 0.38376731005744968 0 -0.4242866741936821 0.39225426966998889 0 -0.41638099322390298 0.36570492720527842 0 -0.4242866741936821 0.39225426966998889 0 -0.41638099322390298 0.36570492720527842 0 -0.41228245545523262 0.38376731005744968 0 -0.40970954412590782 0.41270293007498882 0 -0.41228245545523262 0.38376731005744968 0 -0.40970954412590782 0.41270293007498882 0 -0.39832624320942212 0.39827248051036612 0 -0.41228245545523262 0.38376731005744968 0 -0.4242866741936821 0.39225426966998889 0 -0.40970954412590782 0.41270293007498882 0 -0.4242866741936821 0.39225426966998889 0 -0.43219235516346111 0.4188036121346993 0 -0.4393618994721662 0.40246079741645269 0 -0.4242866741936821 0.39225426966998889 0 -0.43219235516346111 0.4188036121346993 0 -0.4393618994721662 0.40246079741645269 0 -0.43973631435447907 0.38683711193451009 0 -0.4242866741936821 0.39225426966998889 0 -0.4242866741936821 0.39225426966998889 0 -0.43219235516346111 0.4188036121346993 0 -0.40970954412590782 0.41270293007498882 0 -0.43219235516346111 0.4188036121346993 0 -0.42451365661443491 0.43554184322402922 0 -0.40970954412590782 0.41270293007498882 0 -0.4400980361332486 0.44535295459940721 0 -0.43219235516346111 0.4188036121346993 0 -0.42451365661443491 0.43554184322402922 0 -0.4400980361332486 0.44535295459940721 0 -0.43219235516346111 0.4188036121346993 0 -0.40713663279658302 0.44163855009252789 0 -0.40970954412590782 0.41270293007498882 0 -0.4060806870819243 0.43431564332825229 0 -0.40713663279658302 0.44163855009252789 0 -0.42451365661443491 0.43554184322402922 0 -0.40970954412590782 0.41270293007498882 0 -0.40713663279658302 0.44163855009252789 0 -0.40970954412590782 0.41270293007498882 0 -0.38691149530984481 0.42278224839378958 0 -0.39832624320942212 0.39827248051036612 0 -0.40970954412590782 0.41270293007498882 0 -0.40029594759814258 0.42223335738987722 0 -0.39832624320942212 0.39827248051036612 0 -0.40029594759814258 0.42223335738987722 0 -0.38691149530984481 0.42278224839378958 0 -0.39832624320942212 0.39827248051036612 0 -0.40970954412590782 0.41270293007498882 0 -0.4060806870819243 0.43431564332825229 0 -0.40029594759814258 0.42223335738987722 0 -0.39078871724609548 0.44080382980273242 0 -0.39601921180900179 0.43003376972866281 0 -0.38691149530984481 0.42278224839378958 0 -0.4060806870819243 0.43431564332825229 0 -0.40029594759814258 0.42223335738987722 0 -0.39601921180900179 0.43003376972866281 0 -0.40029594759814258 0.42223335738987722 0 -0.39601921180900179 0.43003376972866281 0 -0.38691149530984481 0.42278224839378958 0 -0.39078871724609548 0.44080382980273242 0 -0.4060806870819243 0.43431564332825229 0 -0.39601921180900179 0.43003376972866281 0 -0.37549674741026712 0.44729201627721282 0 -0.38691149530984481 0.42278224839378958 0 -0.37549674741026712 0.44729201627721282 0 -0.39078871724609548 0.44080382980273242 0 -0.38691149530984481 0.42278224839378958 0 -0.37549674741026712 0.44729201627721282 0 -0.38691149530984481 0.42278224839378958 0 -0.36653782646140448 0.43408779718540452 0 -0.38691149530984481 0.42278224839378958 0 -0.38005946415737779 0.40637326785702838 0 -0.3714036499462649 0.41731883609274523 0 -0.38691149530984481 0.42278224839378958 0 -0.38005946415737779 0.40637326785702838 0 -0.39832624320942212 0.39827248051036612 0 -0.38005946415737779 0.40637326785702838 0 -0.37714384653144389 0.39041890937197332 0 -0.39832624320942212 0.39827248051036612 0 -0.37714384653144389 0.39041890937197332 0 -0.38974130196529111 0.37953601398069359 0 -0.39832624320942212 0.39827248051036612 0 -0.37714384653144389 0.39041890937197332 0 -0.38974130196529111 0.37953601398069359 0 -0.36984417139735498 0.37416380872165877 0 -0.39832624320942212 0.39827248051036612 0 -0.40974099110899931 0.37376271262694238 0 -0.38974130196529111 0.37953601398069359 0 -0.39832624320942212 0.39827248051036612 0 -0.40974099110899931 0.37376271262694238 0 -0.40187960802850708 0.35174915686279817 0 -0.39008979721251352 0.3607224168769389 0 -0.39457291576383652 0.34108666825896072 0 -0.40187960802850708 0.35174915686279817 0 -0.40322112650896641 0.36221936311378727 0 -0.39008979721251352 0.3607224168769389 0 -0.40187960802850708 0.35174915686279817 0 -0.39457291576383652 0.34108666825896072 0 -0.40665883387266177 0.33988564602439331 0 -0.38974130196529111 0.37953601398069359 0 -0.39819830419894248 0.36906012664959048 0 -0.40974099110899931 0.37376271262694238 0 -0.38974130196529111 0.37953601398069359 0 -0.39819830419894248 0.36906012664959048 0 -0.39008979721251352 0.3607224168769389 0 -0.40322112650896641 0.36221936311378727 0 -0.39819830419894248 0.36906012664959048 0 -0.40974099110899931 0.37376271262694238 0 -0.40322112650896641 0.36221936311378727 0 -0.39819830419894248 0.36906012664959048 0 -0.39008979721251352 0.3607224168769389 0 -0.39008979721251352 0.3607224168769389 0 -0.36923145149837888 0.34594356384929242 0 -0.36984417139735498 0.37416380872165877 0 -0.38974130196529111 0.37953601398069359 0 -0.39008979721251352 0.3607224168769389 0 -0.36984417139735498 0.37416380872165877 0 -0.39008979721251352 0.3607224168769389 0 -0.39457291576383652 0.34108666825896072 0 -0.36923145149837888 0.34594356384929242 0 -0.38735433971083127 0.3236910604677416 0 -0.36861873159940278 0.31772331897692602 0 -0.36923145149837888 0.34594356384929242 0 -0.38735433971083127 0.3236910604677416 0 -0.39457291576383652 0.34108666825896072 0 -0.36923145149837888 0.34594356384929242 0 -0.38735433971083127 0.3236910604677416 0 -0.39119992030896439 0.30745194591733899 0 -0.36861873159940278 0.31772331897692602 0 -0.40104654149246088 0.32531006683289698 0 -0.40711573286481467 0.31108693301417678 0 -0.39119992030896439 0.30745194591733899 0 -0.38735433971083127 0.3236910604677416 0 -0.40104654149246088 0.32531006683289698 0 -0.39119992030896439 0.30745194591733899 0 -0.38735433971083127 0.3236910604677416 0 -0.40104654149246088 0.32531006683289698 0 -0.39457291576383652 0.34108666825896072 0 -0.40104654149246088 0.32531006683289698 0 -0.39457291576383652 0.34108666825896072 0 -0.40665883387266177 0.33988564602439331 0 -0.40104654149246088 0.32531006683289698 0 -0.40665883387266177 0.33988564602439331 0 -0.41742827811388222 0.32589607002237192 0 -0.41742827811388222 0.32589607002237192 0 -0.41485536678455742 0.35483169003991077 0 -0.41742827811388222 0.32589607002237192 0 -0.42489525106813392 0.34153759758478902 0 -0.41485536678455742 0.35483169003991077 0 -0.40665883387266177 0.33988564602439331 0 -0.41742827811388222 0.32589607002237192 0 -0.41485536678455742 0.35483169003991077 0 -0.40104654149246088 0.32531006683289698 0 -0.41742827811388222 0.32589607002237192 0 -0.40711573286481467 0.31108693301417678 0 -0.42107180168221781 0.31424953055618199 0 -0.43614040108348628 0.33184433800128083 0 -0.42107180168221781 0.31424953055618199 0 -0.41742827811388222 0.32589607002237192 0 -0.43614040108348628 0.33184433800128083 0 -0.42107180168221781 0.31424953055618199 0 -0.43743432119895609 0.31624775399006799 0 -0.43614040108348628 0.33184433800128083 0 -0.41742827811388222 0.32589607002237192 0 -0.42489525106813392 0.34153759758478902 0 -0.43614040108348628 0.33184433800128083 0 -0.42489525106813392 0.34153759758478902 0 -0.43614040108348628 0.33184433800128083 0 -0.43467555029440258 0.34576035452035309 0 -0.43467555029440258 0.34576035452035309 0 -0.43237152854093508 0.35776855093538817 0 -0.42578448210469128 0.35185071368512638 0 -0.43237152854093508 0.35776855093538817 0 -0.42578448210469128 0.35185071368512638 0 -0.42212471383542771 0.35935537534519119 0 -0.42489525106813392 0.34153759758478902 0 -0.43467555029440258 0.34576035452035309 0 -0.42578448210469128 0.35185071368512638 0 -0.42489525106813392 0.34153759758478902 0 -0.42578448210469128 0.35185071368512638 0 -0.41485536678455742 0.35483169003991077 0 -0.42578448210469128 0.35185071368512638 0 -0.42212471383542771 0.35935537534519119 0 -0.41485536678455742 0.35483169003991077 0 -0.40187960802850708 0.35174915686279817 0 -0.40322112650896641 0.36221936311378727 0 -0.41485536678455742 0.35483169003991077 0 -0.40187960802850708 0.35174915686279817 0 -0.40665883387266177 0.33988564602439331 0 -0.41485536678455742 0.35483169003991077 0 -0.40322112650896641 0.36221936311378727 0 -0.41485536678455742 0.35483169003991077 0 -0.40974099110899931 0.37376271262694238 0 -0.41228245545523262 0.38376731005744968 0 -0.41485536678455742 0.35483169003991077 0 -0.40974099110899931 0.37376271262694238 0 -0.41228245545523262 0.38376731005744968 0 -0.41485536678455742 0.35483169003991077 0 -0.41638099322390298 0.36570492720527842 0 -0.41228245545523262 0.38376731005744968 0 -0.41485536678455742 0.35483169003991077 0 -0.42212471383542771 0.35935537534519119 0 -0.41485536678455742 0.35483169003991077 0 -0.41638099322390298 0.36570492720527842 0 -0.42918571713750198 0.37645514124072288 0 -0.41638099322390298 0.36570492720527842 0 -0.42750945469755558 0.3664623491608433 0 -0.43237152854093508 0.35776855093538817 0 -0.42212471383542771 0.35935537534519119 0 -0.42750945469755558 0.3664623491608433 0 -0.42212471383542771 0.35935537534519119 0 -0.41638099322390298 0.36570492720527842 0 -0.42750945469755558 0.3664623491608433 0 -0.43237152854093508 0.35776855093538817 0 -0.42750945469755558 0.3664623491608433 0 -0.44160128916528602 0.37113631518246659 0 -0.42918571713750198 0.37645514124072288 0 -0.42750945469755558 0.3664623491608433 0 -0.44160128916528602 0.37113631518246659 0 -0.43237152854093508 0.35776855093538817 0 -0.44160128916528602 0.37113631518246659 0 -0.45120900048475471 0.34943914544637927 0 -0.44160128916528602 0.37113631518246659 0 -0.45120900048475471 0.34943914544637927 0 -0.46627759988602308 0.367033952891478 0 -0.43467555029440258 0.34576035452035309 0 -0.43237152854093508 0.35776855093538817 0 -0.45120900048475471 0.34943914544637927 0 -0.45120900048475471 0.34943914544637927 0 -0.46627759988602308 0.367033952891478 0 -0.47352926707327919 0.34715219567012912 0 -0.45120900048475471 0.34943914544637927 0 -0.47352926707327919 0.34715219567012912 0 -0.45666745504832168 0.33549795519745967 0 -0.45120900048475471 0.34943914544637927 0 -0.46627759988602308 0.367033952891478 0 -0.45732230839893012 0.38317635899596991 0 -0.44160128916528602 0.37113631518246659 0 -0.46627759988602308 0.367033952891478 0 -0.4813461992872915 0.38462876033657661 0 -0.46627759988602308 0.367033952891478 0 -0.48423061324931882 0.36538026649675931 0 -0.46627759988602308 0.367033952891478 0 -0.48423061324931882 0.36538026649675931 0 -0.47352926707327919 0.34715219567012912 0 -0.47352926707327919 0.34715219567012912 0 -0.5 0.3511121838642367 0 -0.48458407544656668 0.33320503871753349 0 -0.48423061324931882 0.36538026649675931 0 -0.47352926707327919 0.34715219567012912 0 -0.5 0.3511121838642367 0 -0.5 0.37697423972137623 0 -0.48423061324931882 0.36538026649675931 0 -0.5 0.3511121838642367 0 -0.49999999999999661 0.32525012800709752 0 -0.48458407544656668 0.33320503871753349 0 -0.48163325203240009 0.31979623842277882 0 -0.49999999999999661 0.32525012800709752 0 -0.48627408236595848 0.30250327710962499 0 -0.49999999999999661 0.32525012800709752 0 -0.48163325203240009 0.31979623842277882 0 -0.48627408236595848 0.30250327710962499 0 -0.5 0.3511121838642367 0 -0.49999999999999661 0.32525012800709752 0 -0.48458407544656668 0.33320503871753349 0 -0.47352926707327919 0.34715219567012912 0 -0.48458407544656668 0.33320503871753349 0 -0.47031818380459001 0.32728381379265081 0 -0.47031818380459001 0.32728381379265081 0 -0.48163325203240009 0.31979623842277882 0 -0.46717012164718252 0.31106053965092501 0 -0.48458407544656668 0.33320503871753349 0 -0.47031818380459001 0.32728381379265081 0 -0.48163325203240009 0.31979623842277882 0 -0.47031818380459001 0.32728381379265081 0 -0.45214042279549871 0.32177028307685879 0 -0.46717012164718252 0.31106053965092501 0 -0.47031818380459001 0.32728381379265081 0 -0.45666745504832168 0.33549795519745967 0 -0.45214042279549871 0.32177028307685879 0 -0.47352926707327919 0.34715219567012912 0 -0.47031818380459001 0.32728381379265081 0 -0.45666745504832168 0.33549795519745967 0 -0.43614040108348628 0.33184433800128083 0 -0.45120900048475471 0.34943914544637927 0 -0.45666745504832168 0.33549795519745967 0 -0.43614040108348628 0.33184433800128083 0 -0.43467555029440258 0.34576035452035309 0 -0.45120900048475471 0.34943914544637927 0 -0.43614040108348628 0.33184433800128083 0 -0.45666745504832168 0.33549795519745967 0 -0.45214042279549871 0.32177028307685879 0 -0.43614040108348628 0.33184433800128083 0 -0.45120900048475471 0.34943914544637927 0 -0.43743432119895609 0.31624775399006799 0 -0.43614040108348628 0.33184433800128083 0 -0.45214042279549871 0.32177028307685879 0 -0.43743432119895609 0.31624775399006799 0 -0.45214042279549871 0.32177028307685879 0 -0.44988750885080281 0.30441788424786392 0 -0.44988750885080281 0.30441788424786392 0 -0.4449953645452982 0.28224661069472151 0 -0.43464349304330102 0.30473142594528663 0 -0.43743432119895609 0.31624775399006799 0 -0.44988750885080281 0.30441788424786392 0 -0.43464349304330102 0.30473142594528663 0 -0.44988750885080281 0.30441788424786392 0 -0.4449953645452982 0.28224661069472151 0 -0.46417504842823298 0.29599694758305722 0 -0.4449953645452982 0.28224661069472151 0 -0.46417504842823298 0.29599694758305722 0 -0.47254816473192301 0.27975642621215102 0 -0.44988750885080281 0.30441788424786392 0 -0.46417504842823298 0.29599694758305722 0 -0.46717012164718252 0.31106053965092501 0 -0.45214042279549871 0.32177028307685879 0 -0.44988750885080281 0.30441788424786392 0 -0.46717012164718252 0.31106053965092501 0 -0.48163325203240009 0.31979623842277882 0 -0.46717012164718252 0.31106053965092501 0 -0.48627408236595848 0.30250327710962499 0 -0.46417504842823298 0.29599694758305722 0 -0.46717012164718252 0.31106053965092501 0 -0.48627408236595848 0.30250327710962499 0 -0.48627408236595848 0.30250327710962499 0 -0.47254816473192301 0.27975642621215102 0 -0.46417504842823298 0.29599694758305722 0 -0.48627408236595848 0.30250327710962499 0 -0.47254816473192301 0.27975642621215102 0 -0.49122774606717079 0.28921418340690808 0 -0.48627408236595848 0.30250327710962499 0 -0.47254816473192301 0.27975642621215102 0 -0.49122774606717079 0.28921418340690808 0 -0.5 0.30103507202533569 0 -0.5 0.27682001604357398 0 -0.49122774606717079 0.28921418340690808 0 -0.5 0.27682001604357398 0 -0.47254816473192301 0.27975642621215102 0 -0.49122774606717079 0.28921418340690808 0 -0.5 0.30103507202533569 0 -0.48627408236595848 0.30250327710962499 0 -0.49999999999999661 0.32525012800709752 0 -0.5 0.30103507202533569 0 -0.48627408236595848 0.30250327710962499 0 -0.5 0.25260496006181221 0 -0.5 0.27682001604357398 0 -0.48194772177911333 0.26214027587792721 0 -0.47836819706575567 0.2445104017574217 0 -0.5 0.25260496006181221 0 -0.48194772177911333 0.26214027587792721 0 -0.5 0.27682001604357398 0 -0.47254816473192301 0.27975642621215102 0 -0.48194772177911333 0.26214027587792721 0 -0.47254816473192301 0.27975642621215102 0 -0.48194772177911333 0.26214027587792721 0 -0.45882224709788733 0.25700957531467689 0 -0.47836819706575567 0.2445104017574217 0 -0.48194772177911333 0.26214027587792721 0 -0.45882224709788733 0.25700957531467689 0 -0.47254816473192301 0.27975642621215102 0 -0.45882224709788733 0.25700957531467689 0 -0.4449953645452982 0.28224661069472151 0 -0.47254816473192301 0.27975642621215102 0 -0.45882224709788733 0.25700957531467689 0 -0.4449953645452982 0.28224661069472151 0 -0.45882224709788733 0.25700957531467689 0 -0.43605341546033999 0.25219629711660108 0 -0.41130696356271301 0.23861322924214731 0 -0.43605341546033999 0.25219629711660108 0 -0.42257410077253171 0.26802482998729399 0 -0.41130696356271301 0.23861322924214731 0 -0.42257410077253171 0.26802482998729399 0 -0.39558672729883598 0.25600927527440281 0 -0.4449953645452982 0.28224661069472151 0 -0.43605341546033999 0.25219629711660108 0 -0.42257410077253171 0.26802482998729399 0 -0.4449953645452982 0.28224661069472151 0 -0.43464349304330102 0.30473142594528663 0 -0.42000118944320691 0.29696045000483301 0 -0.4449953645452982 0.28224661069472151 0 -0.42257410077253171 0.26802482998729399 0 -0.42000118944320691 0.29696045000483301 0 -0.42107180168221781 0.31424953055618199 0 -0.43743432119895609 0.31624775399006799 0 -0.43464349304330102 0.30473142594528663 0 -0.42107180168221781 0.31424953055618199 0 -0.43464349304330102 0.30473142594528663 0 -0.42000118944320691 0.29696045000483301 0 -0.42107180168221781 0.31424953055618199 0 -0.41742827811388222 0.32589607002237192 0 -0.42000118944320691 0.29696045000483301 0 -0.42000118944320691 0.29696045000483301 0 -0.40711573286481467 0.31108693301417678 0 -0.40362512657985788 0.29893994027041798 0 -0.41742827811388222 0.32589607002237192 0 -0.42000118944320691 0.29696045000483301 0 -0.40711573286481467 0.31108693301417678 0 -0.41742827811388222 0.32589607002237192 0 -0.42000118944320691 0.29696045000483301 0 -0.42257410077253171 0.26802482998729399 0 -0.42000118944320691 0.29696045000483301 0 -0.42257410077253171 0.26802482998729399 0 -0.42000118944320691 0.29696045000483301 0 -0.39618366370244551 0.28026043214532342 0 -0.42000118944320691 0.29696045000483301 0 -0.40362512657985788 0.29893994027041798 0 -0.39618366370244551 0.28026043214532342 0 -0.39119992030896439 0.30745194591733899 0 -0.40362512657985788 0.29893994027041798 0 -0.39618366370244551 0.28026043214532342 0 -0.40711573286481467 0.31108693301417678 0 -0.39119992030896439 0.30745194591733899 0 -0.40362512657985788 0.29893994027041798 0 -0.39119992030896439 0.30745194591733899 0 -0.36800601170042668 0.28950307410455961 0 -0.36861873159940278 0.31772331897692602 0 -0.39119992030896439 0.30745194591733899 0 -0.39618366370244551 0.28026043214532342 0 -0.36800601170042668 0.28950307410455961 0 -0.39558672729883598 0.25600927527440281 0 -0.39618366370244551 0.28026043214532342 0 -0.36739329180145047 0.26128282923219343 0 -0.39618366370244551 0.28026043214532342 0 -0.36739329180145047 0.26128282923219343 0 -0.36800601170042668 0.28950307410455961 0 -0.386164779529799 0.23784764646163631 0 -0.39558672729883598 0.25600927527440281 0 -0.36739329180145047 0.26128282923219343 0 -0.42257410077253171 0.26802482998729399 0 -0.39558672729883598 0.25600927527440281 0 -0.39618366370244551 0.28026043214532342 0 -0.3466896254702192 0.24680058240020239 0 -0.34513995181812562 0.27405142038417379 0 -0.36739329180145047 0.26128282923219343 0 -0.34513995181812562 0.27405142038417379 0 -0.36739329180145047 0.26128282923219343 0 -0.36800601170042668 0.28950307410455961 0 -0.36739329180145047 0.26128282923219343 0 -0.36800601170042668 0.28950307410455961 0 -0.36800601170042668 0.28950307410455961 0 -0.34558568654757271 0.30206826315261148 0 -0.36861873159940278 0.31772331897692602 0 -0.36800601170042668 0.28950307410455961 0 -0.36861873159940278 0.31772331897692602 0 -0.34513995181812562 0.27405142038417379 0 -0.36800601170042668 0.28950307410455961 0 -0.34558568654757271 0.30206826315261148 0 -0.34513995181812562 0.27405142038417379 0 -0.34558568654757271 0.30206826315261148 0 -0.32180981859073188 0.28584100085620889 0 -0.34558568654757271 0.30206826315261148 0 -0.32180981859073188 0.28584100085620889 0 -0.3223783810994425 0.31307016336155907 0 -0.32180981859073188 0.28584100085620889 0 -0.3223783810994425 0.31307016336155907 0 -0.32180981859073188 0.28584100085620889 0 -0.30499990701612678 0.29874236570034562 0 -0.3223783810994425 0.31307016336155907 0 -0.32180981859073188 0.28584100085620889 0 -0.32124125608202131 0.25861183835085882 0 -0.30793012705687789 0.27117468600999362 0 -0.32180981859073188 0.28584100085620889 0 -0.32124125608202131 0.25861183835085882 0 -0.34513995181812562 0.27405142038417379 0 -0.32180981859073188 0.28584100085620889 0 -0.32124125608202131 0.25861183835085882 0 -0.3466896254702192 0.24680058240020239 0 -0.34513995181812562 0.27405142038417379 0 -0.32124125608202131 0.25861183835085882 0 -0.31728192887449352 0.241745687300017 0 -0.32124125608202131 0.25861183835085882 0 -0.30491100017813 0.25498982890324351 0 -0.32124125608202131 0.25861183835085882 0 -0.30491100017813 0.25498982890324351 0 -0.30793012705687789 0.27117468600999362 0 -0.30491100017813 0.25498982890324351 0 -0.30793012705687789 0.27117468600999362 0 -0.2933705956954108 0.26673946727735792 0 -0.30491100017813 0.25498982890324351 0 -0.2933705956954108 0.26673946727735792 0 -0.29263566241616029 0.25219599423725242 0 -0.30793012705687789 0.27117468600999362 0 -0.2933705956954108 0.26673946727735792 0 -0.29314405072751959 0.28228789345664829 0 -0.2933705956954108 0.26673946727735792 0 -0.27612628102505798 0.25968523937959359 0 -0.28109655680644391 0.27589931361534598 0 -0.2933705956954108 0.26673946727735792 0 -0.28109655680644391 0.27589931361534598 0 -0.29314405072751959 0.28228789345664829 0 -0.2933705956954108 0.26673946727735792 0 -0.29263566241616029 0.25219599423725242 0 -0.27612628102505798 0.25968523937959359 0 -0.27612628102505798 0.25968523937959359 0 -0.2588320161996735 0.26924790418705408 0 -0.26252056122028011 0.25518307875040258 0 -0.26978774039069642 0.24809988152494919 0 -0.27612628102505798 0.25968523937959359 0 -0.26252056122028011 0.25518307875040258 0 -0.27612628102505798 0.25968523937959359 0 -0.28109655680644391 0.27589931361534598 0 -0.26405469513842877 0.28289364159498043 0 -0.27612628102505798 0.25968523937959359 0 -0.2588320161996735 0.26924790418705408 0 -0.26405469513842877 0.28289364159498043 0 -0.27612628102505798 0.25968523937959359 0 -0.26405469513842877 0.28289364159498043 0 -0.2588320161996735 0.26924790418705408 0 -0.26405469513842877 0.28289364159498043 0 -0.2470080920612911 0.276486788261812 0 -0.2588320161996735 0.26924790418705408 0 -0.24445102910473471 0.26607302909098618 0 -0.2470080920612911 0.276486788261812 0 -0.2588320161996735 0.26924790418705408 0 -0.25207695081767872 0.25795210490862408 0 -0.24445102910473471 0.26607302909098618 0 -0.2588320161996735 0.26924790418705408 0 -0.25207695081767872 0.25795210490862408 0 -0.26252056122028011 0.25518307875040258 0 -0.25629622284860087 0.24993280446742899 0 -0.25207695081767872 0.25795210490862408 0 -0.24803869981560719 0.24872960313750719 0 -0.25629622284860087 0.24993280446742899 0 -0.25207695081767872 0.25795210490862408 0 -0.26252056122028011 0.25518307875040258 0 -0.25629622284860087 0.24993280446742899 0 -0.26290036062986039 0.24569953386769289 0 -0.26252056122028011 0.25518307875040258 0 -0.25198310925179951 0.30610204381036721 0 -0.27209502752526032 0.30034805045682722 0 -0.26688625901847363 0.31934667761436031 0 -0.26405469513842877 0.28289364159498043 0 -0.2484915756804362 0.29000937924619941 0 -0.2470080920612911 0.276486788261812 0 -0.25198310925179951 0.30610204381036721 0 -0.26405469513842877 0.28289364159498043 0 -0.2484915756804362 0.29000937924619941 0 -0.25198310925179951 0.30610204381036721 0 -0.26405469513842877 0.28289364159498043 0 -0.25198310925179951 0.30610204381036721 0 -0.26405469513842877 0.28289364159498043 0 -0.27209502752526032 0.30034805045682722 0 -0.26405469513842877 0.28289364159498043 0 -0.27878716144580218 0.28789032636814971 0 -0.27209502752526032 0.30034805045682722 0 -0.28109655680644391 0.27589931361534598 0 -0.26405469513842877 0.28289364159498043 0 -0.27878716144580218 0.28789032636814971 0 -0.27878716144580218 0.28789032636814971 0 -0.27209502752526032 0.30034805045682722 0 -0.29040375326609308 0.29583730134486652 0 -0.27209502752526032 0.30034805045682722 0 -0.28670015999709531 0.30941607204392618 0 -0.26688625901847363 0.31934667761436031 0 -0.27209502752526032 0.30034805045682722 0 -0.28670015999709531 0.30941607204392618 0 -0.29040375326609308 0.29583730134486652 0 -0.28670015999709531 0.30941607204392618 0 -0.29040375326609308 0.29583730134486652 0 -0.30499990701612678 0.29874236570034562 0 -0.29040375326609308 0.29583730134486652 0 -0.29314405072751959 0.28228789345664829 0 -0.30499990701612678 0.29874236570034562 0 -0.28109655680644391 0.27589931361534598 0 -0.27878716144580218 0.28789032636814971 0 -0.29314405072751959 0.28228789345664829 0 -0.27878716144580218 0.28789032636814971 0 -0.29040375326609308 0.29583730134486652 0 -0.29314405072751959 0.28228789345664829 0 -0.32180981859073188 0.28584100085620889 0 -0.30793012705687789 0.27117468600999362 0 -0.30499990701612678 0.29874236570034562 0 -0.30793012705687789 0.27117468600999362 0 -0.29314405072751959 0.28228789345664829 0 -0.30499990701612678 0.29874236570034562 0 -0.28670015999709531 0.30941607204392618 0 -0.30499990701612678 0.29874236570034562 0 -0.30361856140864052 0.32023283946916309 0 -0.30499990701612678 0.29874236570034562 0 -0.30361856140864052 0.32023283946916309 0 -0.3223783810994425 0.31307016336155907 0 -0.30361856140864052 0.32023283946916309 0 -0.30289890928058522 0.34030064614225097 0 -0.32294694360815313 0.34029932586690909 0 -0.30361856140864052 0.32023283946916309 0 -0.30289890928058522 0.34030064614225097 0 -0.28795365349081292 0.32640000005129211 0 -0.28795365349081292 0.32640000005129211 0 -0.27405589609503489 0.33427691061530912 0 -0.28749304058192499 0.34751273690256612 0 -0.30289890928058522 0.34030064614225097 0 -0.28795365349081292 0.32640000005129211 0 -0.28749304058192499 0.34751273690256612 0 -0.28670015999709531 0.30941607204392618 0 -0.30361856140864052 0.32023283946916309 0 -0.28795365349081292 0.32640000005129211 0 -0.28795365349081292 0.32640000005129211 0 -0.26688625901847363 0.31934667761436031 0 -0.27405589609503489 0.33427691061530912 0 -0.28670015999709531 0.30941607204392618 0 -0.28795365349081292 0.32640000005129211 0 -0.26688625901847363 0.31934667761436031 0 -0.27405589609503489 0.33427691061530912 0 -0.26879550480561681 0.34867734442339082 0 -0.28749304058192499 0.34751273690256612 0 -0.27405589609503489 0.33427691061530912 0 -0.25982207617957093 0.33483766882453508 0 -0.26879550480561681 0.34867734442339082 0 -0.26688625901847363 0.31934667761436031 0 -0.27405589609503489 0.33427691061530912 0 -0.25982207617957093 0.33483766882453508 0 -0.25982207617957093 0.33483766882453508 0 -0.25332005796921309 0.35063613442814062 0 -0.2439410389364747 0.32793780068065048 0 -0.26688625901847363 0.31934667761436031 0 -0.25982207617957093 0.33483766882453508 0 -0.2439410389364747 0.32793780068065048 0 -0.25198310925179951 0.30610204381036721 0 -0.26688625901847363 0.31934667761436031 0 -0.2439410389364747 0.32793780068065048 0 -0.26269907700195178 0.37333446817563049 0 -0.24005925981169671 0.35849685206319559 0 -0.26269907700195178 0.37333446817563049 0 -0.25332005796921309 0.35063613442814062 0 -0.26269907700195178 0.37333446817563049 0 -0.25332005796921309 0.35063613442814062 0 -0.24005925981169671 0.35849685206319559 0 -0.26269907700195178 0.37333446817563049 0 -0.25332005796921309 0.35063613442814062 0 -0.26879550480561681 0.34867734442339082 0 -0.25982207617957093 0.33483766882453508 0 -0.25332005796921309 0.35063613442814062 0 -0.26879550480561681 0.34867734442339082 0 -0.26879550480561681 0.34867734442339082 0 -0.28749304058192499 0.34751273690256612 0 -0.28134732543499957 0.35793899179072619 0 -0.26269907700195178 0.37333446817563049 0 -0.28194346787234209 0.37225617415112261 0 -0.28134732543499957 0.35793899179072619 0 -0.26269907700195178 0.37333446817563049 0 -0.26879550480561681 0.34867734442339082 0 -0.28134732543499957 0.35793899179072619 0 -0.29183956731524879 0.36550166973542081 0 -0.30498043008207137 0.36070593142347052 0 -0.29364601804458862 0.37830861992394349 0 -0.28194346787234209 0.37225617415112261 0 -0.29183956731524879 0.36550166973542081 0 -0.28134732543499957 0.35793899179072619 0 -0.28194346787234209 0.37225617415112261 0 -0.29183956731524879 0.36550166973542081 0 -0.29364601804458862 0.37830861992394349 0 -0.29183956731524879 0.36550166973542081 0 -0.28749304058192499 0.34751273690256612 0 -0.28134732543499957 0.35793899179072619 0 -0.29183956731524879 0.36550166973542081 0 -0.28749304058192499 0.34751273690256612 0 -0.30498043008207137 0.36070593142347052 0 -0.30289890928058522 0.34030064614225097 0 -0.30498043008207137 0.36070593142347052 0 -0.32294694360815313 0.34029932586690909 0 -0.30289890928058522 0.34030064614225097 0 -0.30498043008207137 0.36070593142347052 0 -0.30289890928058522 0.34030064614225097 0 -0.28749304058192499 0.34751273690256612 0 -0.30498043008207137 0.36070593142347052 0 -0.30498043008207137 0.36070593142347052 0 -0.3070619508835577 0.38111121670469011 0 -0.30498043008207137 0.36070593142347052 0 -0.31863568471526899 0.37837421684585998 0 -0.3070619508835577 0.38111121670469011 0 -0.30498043008207137 0.36070593142347052 0 -0.3070619508835577 0.38111121670469011 0 -0.29364601804458862 0.37830861992394349 0 -0.30498043008207137 0.36070593142347052 0 -0.32351550611686369 0.36752848837225899 0 -0.31863568471526899 0.37837421684585998 0 -0.32351550611686369 0.36752848837225899 0 -0.33989819775586327 0.37508935374278968 0 -0.31863568471526899 0.37837421684585998 0 -0.32351550611686369 0.36752848837225899 0 -0.34482808616359178 0.35346295069963529 0 -0.33989819775586327 0.37508935374278968 0 -0.32351550611686369 0.36752848837225899 0 -0.32294694360815313 0.34029932586690909 0 -0.34482808616359178 0.35346295069963529 0 -0.32351550611686369 0.36752848837225899 0 -0.32294694360815313 0.34029932586690909 0 -0.30498043008207137 0.36070593142347052 0 -0.32351550611686369 0.36752848837225899 0 -0.32294694360815313 0.34029932586690909 0 -0.30361856140864052 0.32023283946916309 0 -0.32294694360815313 0.34029932586690909 0 -0.3223783810994425 0.31307016336155907 0 -0.32294694360815313 0.34029932586690909 0 -0.3223783810994425 0.31307016336155907 0 -0.34558568654757271 0.30206826315261148 0 -0.3223783810994425 0.31307016336155907 0 -0.34561721687214542 0.32879475335255698 0 -0.32294694360815313 0.34029932586690909 0 -0.3223783810994425 0.31307016336155907 0 -0.34561721687214542 0.32879475335255698 0 -0.32294694360815313 0.34029932586690909 0 -0.34561721687214542 0.32879475335255698 0 -0.34482808616359178 0.35346295069963529 0 -0.34561721687214542 0.32879475335255698 0 -0.36923145149837888 0.34594356384929242 0 -0.34482808616359178 0.35346295069963529 0 -0.34558568654757271 0.30206826315261148 0 -0.34561721687214542 0.32879475335255698 0 -0.36861873159940278 0.31772331897692602 0 -0.34561721687214542 0.32879475335255698 0 -0.36861873159940278 0.31772331897692602 0 -0.36923145149837888 0.34594356384929242 0 -0.36861873159940278 0.31772331897692602 0 -0.36923145149837888 0.34594356384929242 0 -0.36923145149837888 0.34594356384929242 0 -0.36984417139735498 0.37416380872165877 0 -0.34482808616359178 0.35346295069963529 0 -0.36923145149837888 0.34594356384929242 0 -0.36984417139735498 0.37416380872165877 0 -0.36984417139735498 0.37416380872165877 0 -0.34482808616359178 0.35346295069963529 0 -0.33989819775586327 0.37508935374278968 0 -0.35226197362282657 0.39124473085700268 0 -0.35057284183552501 0.41678142389683531 0 -0.33058743346688452 0.40515230716803929 0 -0.35226197362282657 0.39124473085700268 0 -0.36602567329920638 0.40280920878253079 0 -0.35057284183552501 0.41678142389683531 0 -0.36984417139735498 0.37416380872165877 0 -0.35226197362282657 0.39124473085700268 0 -0.33989819775586327 0.37508935374278968 0 -0.37714384653144389 0.39041890937197332 0 -0.36984417139735498 0.37416380872165877 0 -0.35226197362282657 0.39124473085700268 0 -0.38005946415737779 0.40637326785702838 0 -0.37714384653144389 0.39041890937197332 0 -0.36602567329920638 0.40280920878253079 0 -0.37714384653144389 0.39041890937197332 0 -0.35226197362282657 0.39124473085700268 0 -0.36602567329920638 0.40280920878253079 0 -0.38005946415737779 0.40637326785702838 0 -0.36602567329920638 0.40280920878253079 0 -0.3714036499462649 0.41731883609274523 0 -0.36602567329920638 0.40280920878253079 0 -0.3714036499462649 0.41731883609274523 0 -0.35057284183552501 0.41678142389683531 0 -0.3714036499462649 0.41731883609274523 0 -0.36653782646140448 0.43408779718540452 0 -0.35057284183552501 0.41678142389683531 0 -0.38691149530984481 0.42278224839378958 0 -0.3714036499462649 0.41731883609274523 0 -0.36653782646140448 0.43408779718540452 0 -0.36653782646140448 0.43408779718540452 0 -0.34628493008574968 0.43731420034286012 0 -0.35057284183552501 0.41678142389683531 0 -0.35057284183552501 0.41678142389683531 0 -0.33016801358798081 0.42178038610738211 0 -0.33058743346688452 0.40515230716803929 0 -0.34628493008574968 0.43731420034286012 0 -0.35057284183552501 0.41678142389683531 0 -0.33016801358798081 0.42178038610738211 0 -0.34628493008574968 0.43731420034286012 0 -0.33016801358798081 0.42178038610738211 0 -0.32936108497134559 0.43419326652144369 0 -0.34628493008574968 0.43731420034286012 0 -0.33016801358798081 0.42178038610738211 0 -0.32936108497134559 0.43419326652144369 0 -0.31897209688330758 0.42653066982573429 0 -0.32389309667640048 0.44681476777956619 0 -0.31897209688330758 0.42653066982573429 0 -0.31143033480699872 0.43492101578551517 0 -0.32389309667640048 0.44681476777956619 0 -0.31897209688330758 0.42653066982573429 0 -0.32389309667640048 0.44681476777956619 0 -0.33016801358798081 0.42178038610738211 0 -0.32936108497134559 0.43419326652144369 0 -0.31897209688330758 0.42653066982573429 0 -0.31897209688330758 0.42653066982573429 0 -0.31105785027210769 0.42028328114920283 0 -0.31143033480699872 0.43492101578551517 0 -0.33016801358798081 0.42178038610738211 0 -0.31405109709021323 0.40624657187190272 0 -0.33058743346688452 0.40515230716803929 0 -0.31897209688330758 0.42653066982573429 0 -0.31405109709021323 0.40624657187190272 0 -0.33016801358798081 0.42178038610738211 0 -0.31897209688330758 0.42653066982573429 0 -0.31405109709021323 0.40624657187190272 0 -0.33016801358798081 0.42178038610738211 0 -0.31405109709021323 0.40624657187190272 0 -0.31897209688330758 0.42653066982573429 0 -0.31405109709021323 0.40624657187190272 0 -0.31105785027210769 0.42028328114920283 0 -0.31405109709021323 0.40624657187190272 0 -0.31995646366186842 0.39372642513815781 0 -0.33058743346688452 0.40515230716803929 0 -0.31405109709021323 0.40624657187190272 0 -0.31995646366186842 0.39372642513815781 0 -0.3089703985849413 0.38530420436774188 0 -0.31995646366186842 0.39372642513815781 0 -0.33058743346688452 0.40515230716803929 0 -0.33004888924755421 0.3877660917584218 0 -0.35226197362282657 0.39124473085700268 0 -0.33058743346688452 0.40515230716803929 0 -0.33004888924755421 0.3877660917584218 0 -0.33989819775586327 0.37508935374278968 0 -0.33004888924755421 0.3877660917584218 0 -0.31863568471526899 0.37837421684585998 0 -0.35226197362282657 0.39124473085700268 0 -0.33989819775586327 0.37508935374278968 0 -0.33004888924755421 0.3877660917584218 0 -0.33004888924755421 0.3877660917584218 0 -0.31870664797955839 0.38628074501842891 0 -0.31863568471526899 0.37837421684585998 0 -0.31995646366186842 0.39372642513815781 0 -0.33004888924755421 0.3877660917584218 0 -0.31870664797955839 0.38628074501842891 0 -0.31995646366186842 0.39372642513815781 0 -0.31870664797955839 0.38628074501842891 0 -0.3089703985849413 0.38530420436774188 0 -0.31870664797955839 0.38628074501842891 0 -0.31863568471526899 0.37837421684585998 0 -0.3089703985849413 0.38530420436774188 0 -0.31863568471526899 0.37837421684585998 0 -0.3070619508835577 0.38111121670469011 0 -0.3089703985849413 0.38530420436774188 0 -0.3070619508835577 0.38111121670469011 0 -0.3089703985849413 0.38530420436774188 0 -0.30914347168504419 0.4015165019859096 0 -0.3070619508835577 0.38111121670469011 0 -0.30424639339942361 0.3868985014373596 0 -0.3064290780745007 0.39104108921491693 0 -0.30108202173309062 0.3857151945930658 0 -0.29650179327647458 0.39171333366501748 0 -0.29364601804458862 0.37830861992394349 0 -0.3070619508835577 0.38111121670469011 0 -0.30108202173309062 0.3857151945930658 0 -0.30424639339942361 0.3868985014373596 0 -0.30241252290654552 0.38972650523676589 0 -0.30424639339942361 0.3868985014373596 0 -0.3064290780745007 0.39104108921491693 0 -0.30108202173309062 0.3857151945930658 0 -0.30241252290654552 0.38972650523676589 0 -0.30424639339942361 0.3868985014373596 0 -0.30108202173309062 0.3857151945930658 0 -0.30241252290654552 0.38972650523676589 0 -0.29650179327647458 0.39171333366501748 0 -0.3070619508835577 0.38111121670469011 0 -0.30108202173309062 0.3857151945930658 0 -0.29364601804458862 0.37830861992394349 0 -0.31405109709021323 0.40624657187190272 0 -0.3089703985849413 0.38530420436774188 0 -0.30914347168504419 0.4015165019859096 0 -0.3070619508835577 0.38111121670469011 0 -0.30914347168504419 0.4015165019859096 0 -0.3064290780745007 0.39104108921491693 0 -0.31405109709021323 0.40624657187190272 0 -0.3089703985849413 0.38530420436774188 0 -0.3070619508835577 0.38111121670469011 0 -0.30914347168504419 0.4015165019859096 0 -0.30585672830361138 0.4046083206328398 0 -0.30914347168504419 0.4015165019859096 0 -0.30516457164706651 0.41226712758186779 0 -0.30585672830361138 0.4046083206328398 0 -0.30743427659863748 0.40192598544025399 0 -0.30341825029343272 0.40195093726430142 0 -0.30585672830361138 0.4046083206328398 0 -0.30914347168504419 0.4015165019859096 0 -0.30743427659863748 0.40192598544025399 0 -0.31405109709021323 0.40624657187190272 0 -0.30914347168504419 0.4015165019859096 0 -0.30743427659863748 0.40192598544025399 0 -0.30518762645894237 0.39925755578095828 0 -0.30341825029343272 0.40195093726430142 0 -0.30914347168504419 0.4015165019859096 0 -0.30726813153081889 0.39852877781312013 0 -0.30676811686866973 0.39604780167912518 0 -0.30914347168504419 0.4015165019859096 0 -0.30726813153081889 0.39852877781312013 0 -0.30743427659863748 0.40192598544025399 0 -0.30726813153081889 0.39852877781312013 0 -0.30743427659863748 0.40192598544025399 0 -0.30518762645894237 0.39925755578095828 0 -0.30914347168504419 0.4015165019859096 0 -0.30676811686866973 0.39604780167912518 0 -0.3064290780745007 0.39104108921491693 0 -0.30726813153081889 0.39852877781312013 0 -0.30518762645894237 0.39925755578095828 0 -0.30676811686866973 0.39604780167912518 0 -0.30676811686866973 0.39604780167912518 0 -0.3064290780745007 0.39104108921491693 0 -0.30348354116178222 0.39360486277277251 0 -0.30241252290654552 0.38972650523676589 0 -0.30348354116178222 0.39360486277277251 0 -0.29650179327647458 0.39171333366501748 0 -0.30241252290654552 0.38972650523676589 0 -0.3064290780745007 0.39104108921491693 0 -0.30348354116178222 0.39360486277277251 0 -0.30348354116178222 0.39360486277277251 0 -0.30161946138070772 0.39760658631390428 0 -0.29650179327647458 0.39171333366501748 0 -0.30161946138070772 0.39760658631390428 0 -0.29562063063488381 0.39799116703444792 0 -0.29650179327647458 0.39171333366501748 0 -0.30518762645894237 0.39925755578095828 0 -0.30676811686866973 0.39604780167912518 0 -0.30161946138070772 0.39760658631390428 0 -0.30676811686866973 0.39604780167912518 0 -0.30348354116178222 0.39360486277277251 0 -0.30161946138070772 0.39760658631390428 0 -0.30161946138070772 0.39760658631390428 0 -0.30341825029343272 0.40195093726430142 0 -0.29877992768214617 0.40297638021289878 0 -0.30518762645894237 0.39925755578095828 0 -0.30161946138070772 0.39760658631390428 0 -0.30341825029343272 0.40195093726430142 0 -0.30161946138070772 0.39760658631390428 0 -0.29877992768214617 0.40297638021289878 0 -0.29562063063488381 0.39799116703444792 0 -0.30341825029343272 0.40195093726430142 0 -0.29877992768214617 0.40297638021289878 0 -0.30272372539529802 0.40647264957769541 0 -0.30585672830361138 0.4046083206328398 0 -0.30341825029343272 0.40195093726430142 0 -0.30272372539529802 0.40647264957769541 0 -0.2913965479889184 0.40377473676558018 0 -0.29562063063488381 0.39799116703444792 0 -0.2872428636862473 0.39547187222990288 0 -0.29877992768214617 0.40297638021289878 0 -0.2913965479889184 0.40377473676558018 0 -0.29775757625225302 0.4098527971001234 0 -0.29877992768214617 0.40297638021289878 0 -0.2913965479889184 0.40377473676558018 0 -0.29562063063488381 0.39799116703444792 0 -0.29562063063488381 0.39799116703444792 0 -0.29650179327647458 0.39171333366501748 0 -0.2872428636862473 0.39547187222990288 0 -0.29650179327647458 0.39171333366501748 0 -0.2872428636862473 0.39547187222990288 0 -0.28253733291236088 0.38633600538175139 0 -0.2913965479889184 0.40377473676558018 0 -0.2872428636862473 0.39547187222990288 0 -0.2817641000946956 0.4048301378337652 0 -0.29650179327647458 0.39171333366501748 0 -0.29364601804458862 0.37830861992394349 0 -0.28253733291236088 0.38633600538175139 0 -0.28194346787234209 0.37225617415112261 0 -0.29364601804458862 0.37830861992394349 0 -0.28253733291236088 0.38633600538175139 0 -0.26269907700195178 0.37333446817563049 0 -0.28253733291236088 0.38633600538175139 0 -0.27307260491772217 0.39843963087432721 0 -0.26269907700195178 0.37333446817563049 0 -0.27307260491772217 0.39843963087432721 0 -0.26269907700195178 0.37333446817563049 0 -0.28194346787234209 0.37225617415112261 0 -0.28253733291236088 0.38633600538175139 0 -0.26269907700195178 0.37333446817563049 0 -0.28253733291236088 0.38633600538175139 0 -0.2872428636862473 0.39547187222990288 0 -0.28253733291236088 0.38633600538175139 0 -0.27307260491772217 0.39843963087432721 0 -0.2872428636862473 0.39547187222990288 0 -0.2817641000946956 0.4048301378337652 0 -0.27307260491772217 0.39843963087432721 0 -0.2817641000946956 0.4048301378337652 0 -0.27307260491772217 0.39843963087432721 0 -0.27329454660184338 0.41160032741786029 0 -0.2563668417329969 0.39094304646724648 0 -0.25708479127401701 0.41106925061492627 0 -0.24332176982101481 0.39689473231821309 0 -0.27307260491772217 0.39843963087432721 0 -0.2563668417329969 0.39094304646724648 0 -0.25708479127401701 0.41106925061492627 0 -0.26269907700195178 0.37333446817563049 0 -0.27307260491772217 0.39843963087432721 0 -0.2563668417329969 0.39094304646724648 0 -0.26269907700195178 0.37333446817563049 0 -0.2563668417329969 0.39094304646724648 0 -0.23938712108321711 0.38021147508781122 0 -0.2620575048888753 0.42669840220049671 0 -0.25568053088647119 0.4419136179475896 0 -0.2460741292361521 0.42928957067224749 0 -0.2620575048888753 0.42669840220049671 0 -0.25708479127401701 0.41106925061492627 0 -0.2460741292361521 0.42928957067224749 0 -0.2620575048888753 0.42669840220049671 0 -0.26694499634736968 0.44040962642475973 0 -0.25568053088647119 0.4419136179475896 0 -0.2620575048888753 0.42669840220049671 0 -0.25708479127401701 0.41106925061492627 0 -0.27329454660184338 0.41160032741786029 0 -0.2620575048888753 0.42669840220049671 0 -0.27329454660184338 0.41160032741786029 0 -0.27629237259175721 0.42318851731792329 0 -0.27307260491772217 0.39843963087432721 0 -0.25708479127401701 0.41106925061492627 0 -0.27329454660184338 0.41160032741786029 0 -0.2817641000946956 0.4048301378337652 0 -0.27329454660184338 0.41160032741786029 0 -0.28692372537681282 0.41409600201368768 0 -0.27329454660184338 0.41160032741786029 0 -0.27629237259175721 0.42318851731792329 0 -0.28692372537681282 0.41409600201368768 0 -0.2620575048888753 0.42669840220049671 0 -0.27629237259175721 0.42318851731792329 0 -0.27126739851706178 0.43161974777809581 0 -0.27126739851706178 0.43161974777809581 0 -0.27977472024024519 0.43618244516920363 0 -0.26694499634736968 0.44040962642475973 0 -0.2620575048888753 0.42669840220049671 0 -0.27126739851706178 0.43161974777809581 0 -0.26694499634736968 0.44040962642475973 0 -0.27629237259175721 0.42318851731792329 0 -0.27126739851706178 0.43161974777809581 0 -0.27977472024024519 0.43618244516920363 0 -0.27977472024024519 0.43618244516920363 0 -0.29172244110706808 0.42690840998479163 0 -0.29312761412675348 0.43735023159517239 0 -0.27629237259175721 0.42318851731792329 0 -0.27977472024024519 0.43618244516920363 0 -0.29172244110706808 0.42690840998479163 0 -0.29172244110706808 0.42690840998479163 0 -0.29312761412675348 0.43735023159517239 0 -0.3016426675652884 0.42903023751267322 0 -0.2913965479889184 0.40377473676558018 0 -0.2817641000946956 0.4048301378337652 0 -0.28692372537681282 0.41409600201368768 0 -0.27629237259175721 0.42318851731792329 0 -0.29172244110706808 0.42690840998479163 0 -0.28692372537681282 0.41409600201368768 0 -0.29172244110706808 0.42690840998479163 0 -0.28692372537681282 0.41409600201368768 0 -0.30028143469875801 0.41959409423458222 0 -0.28692372537681282 0.41409600201368768 0 -0.29775757625225302 0.4098527971001234 0 -0.30028143469875801 0.41959409423458222 0 -0.2913965479889184 0.40377473676558018 0 -0.28692372537681282 0.41409600201368768 0 -0.29775757625225302 0.4098527971001234 0 -0.30914347168504419 0.4015165019859096 0 -0.31105785027210769 0.42028328114920283 0 -0.30914347168504419 0.4015165019859096 0 -0.31105785027210769 0.42028328114920283 0 -0.30516457164706651 0.41226712758186779 0 -0.31405109709021323 0.40624657187190272 0 -0.30914347168504419 0.4015165019859096 0 -0.31105785027210769 0.42028328114920283 0 -0.29775757625225302 0.4098527971001234 0 -0.30028143469875801 0.41959409423458222 0 -0.30516457164706651 0.41226712758186779 0 -0.30585672830361138 0.4046083206328398 0 -0.30272372539529802 0.40647264957769541 0 -0.30516457164706651 0.41226712758186779 0 -0.30272372539529802 0.40647264957769541 0 -0.29775757625225302 0.4098527971001234 0 -0.30516457164706651 0.41226712758186779 0 -0.29877992768214617 0.40297638021289878 0 -0.30272372539529802 0.40647264957769541 0 -0.29775757625225302 0.4098527971001234 0 -0.30028143469875801 0.41959409423458222 0 -0.31105785027210769 0.42028328114920283 0 -0.30516457164706651 0.41226712758186779 0 -0.29312761412675348 0.43735023159517239 0 -0.3016426675652884 0.42903023751267322 0 -0.30275695416607268 0.43842876954938642 0 -0.30028143469875801 0.41959409423458222 0 -0.31105785027210769 0.42028328114920283 0 -0.3016426675652884 0.42903023751267322 0 -0.29172244110706808 0.42690840998479163 0 -0.30028143469875801 0.41959409423458222 0 -0.3016426675652884 0.42903023751267322 0 -0.31105785027210769 0.42028328114920283 0 -0.3016426675652884 0.42903023751267322 0 -0.31143033480699872 0.43492101578551517 0 -0.3016426675652884 0.42903023751267322 0 -0.31143033480699872 0.43492101578551517 0 -0.30275695416607268 0.43842876954938642 0 -0.31143033480699872 0.43492101578551517 0 -0.30808674418046261 0.44816230685263292 0 -0.30275695416607268 0.43842876954938642 0 -0.30808674418046261 0.44816230685263292 0 -0.29692651667820402 0.44772392056828969 0 -0.30000963987128509 0.46094637338103528 0 -0.29312761412675348 0.43735023159517239 0 -0.29692651667820402 0.44772392056828969 0 -0.30275695416607268 0.43842876954938642 0 -0.30808674418046261 0.44816230685263292 0 -0.29692651667820402 0.44772392056828969 0 -0.30275695416607268 0.43842876954938642 0 -0.30000963987128509 0.46094637338103528 0 -0.30454343812307871 0.47739659446949512 0 -0.31350392288381462 0.4601389940520047 0 -0.30808674418046261 0.44816230685263292 0 -0.30000963987128509 0.46094637338103528 0 -0.31350392288381462 0.4601389940520047 0 -0.28398142549481348 0.45800746401377812 0 -0.27290289477614238 0.47151154560469638 0 -0.28826456655379018 0.47597010203423301 0 -0.30000963987128509 0.46094637338103528 0 -0.28398142549481348 0.45800746401377812 0 -0.28826456655379018 0.47597010203423301 0 -0.29692651667820402 0.44772392056828969 0 -0.30000963987128509 0.46094637338103528 0 -0.28398142549481348 0.45800746401377812 0 -0.29312761412675348 0.43735023159517239 0 -0.29692651667820402 0.44772392056828969 0 -0.2852130343809714 0.44560840026589882 0 -0.29692651667820402 0.44772392056828969 0 -0.28398142549481348 0.45800746401377812 0 -0.2852130343809714 0.44560840026589882 0 -0.28398142549481348 0.45800746401377812 0 -0.2852130343809714 0.44560840026589882 0 -0.2747678886521645 0.44812141419361079 0 -0.27977472024024519 0.43618244516920363 0 -0.29312761412675348 0.43735023159517239 0 -0.2852130343809714 0.44560840026589882 0 -0.27977472024024519 0.43618244516920363 0 -0.26694499634736968 0.44040962642475973 0 -0.2747678886521645 0.44812141419361079 0 -0.27977472024024519 0.43618244516920363 0 -0.2852130343809714 0.44560840026589882 0 -0.2747678886521645 0.44812141419361079 0 -0.2747678886521645 0.44812141419361079 0 -0.26797051219822071 0.45888116812201052 0 -0.26222584202380628 0.44924481802312849 0 -0.26694499634736968 0.44040962642475973 0 -0.2747678886521645 0.44812141419361079 0 -0.26222584202380628 0.44924481802312849 0 -0.28398142549481348 0.45800746401377812 0 -0.2747678886521645 0.44812141419361079 0 -0.26797051219822071 0.45888116812201052 0 -0.28398142549481348 0.45800746401377812 0 -0.26797051219822071 0.45888116812201052 0 -0.27290289477614238 0.47151154560469638 0 -0.26797051219822071 0.45888116812201052 0 -0.25759447607833752 0.46478809225207218 0 -0.27290289477614238 0.47151154560469638 0 -0.26797051219822071 0.45888116812201052 0 -0.25989818867541892 0.45652587102836978 0 -0.26222584202380628 0.44924481802312849 0 -0.26797051219822071 0.45888116812201052 0 -0.25989818867541892 0.45652587102836978 0 -0.25759447607833752 0.46478809225207218 0 -0.25989818867541892 0.45652587102836978 0 -0.25759447607833752 0.46478809225207218 0 -0.25180192440131127 0.4531894057162682 0 -0.25759447607833752 0.46478809225207218 0 -0.25180192440131127 0.4531894057162682 0 -0.2449787884213131 0.45264988464863731 0 -0.25180192440131127 0.4531894057162682 0 -0.25568053088647119 0.4419136179475896 0 -0.26222584202380628 0.44924481802312849 0 -0.25180192440131127 0.4531894057162682 0 -0.25568053088647119 0.4419136179475896 0 -0.2449787884213131 0.45264988464863731 0 -0.26694499634736968 0.44040962642475973 0 -0.25568053088647119 0.4419136179475896 0 -0.26222584202380628 0.44924481802312849 0 -0.25989818867541892 0.45652587102836978 0 -0.25180192440131127 0.4531894057162682 0 -0.26222584202380628 0.44924481802312849 0 -0.26029421510037742 0.48343053581957962 0 -0.26626795247661073 0.5 0 -0.24275859078252701 0.49999999999999828 0 -0.25759447607833752 0.46478809225207218 0 -0.26029421510037742 0.48343053581957962 0 -0.27290289477614238 0.47151154560469638 0 -0.25759447607833752 0.46478809225207218 0 -0.26029421510037742 0.48343053581957962 0 -0.24386868960192001 0.47632494232431782 0 -0.26029421510037742 0.48343053581957962 0 -0.27290289477614238 0.47151154560469638 0 -0.27550138861552298 0.4861824366917018 0 -0.27290289477614238 0.47151154560469638 0 -0.27550138861552298 0.4861824366917018 0 -0.28826456655379018 0.47597010203423301 0 -0.26029421510037742 0.48343053581957962 0 -0.27550138861552298 0.4861824366917018 0 -0.26626795247661073 0.5 0 -0.27550138861552298 0.4861824366917018 0 -0.26626795247661073 0.5 0 -0.28977731417069452 0.5 0 -0.27550138861552298 0.4861824366917018 0 -0.28977731417069452 0.5 0 -0.28826456655379018 0.47597010203423301 0 -0.28977731417069452 0.5 0 -0.28826456655379018 0.47597010203423301 0 -0.30454343812307871 0.47739659446949512 0 -0.30000963987128509 0.46094637338103528 0 -0.28826456655379018 0.47597010203423301 0 -0.30454343812307871 0.47739659446949512 0 -0.30454343812307871 0.47739659446949512 0 -0.31328667586477821 0.5 0 -0.31908253830298361 0.48540452312941917 0 -0.28977731417069452 0.5 0 -0.30454343812307871 0.47739659446949512 0 -0.31328667586477821 0.5 0 -0.31328667586477821 0.5 0 -0.31908253830298361 0.48540452312941917 0 -0.33679603755886189 0.49999999999999928 0 -0.33679603755886189 0.49999999999999928 0 -0.33280506701417778 0.48354943286669871 0 -0.34776132587653202 0.48695231381635612 0 -0.33679603755886189 0.49999999999999928 0 -0.33280506701417778 0.48354943286669871 0 -0.31908253830298361 0.48540452312941917 0 -0.33679603755886189 0.49999999999999928 0 -0.33280506701417778 0.48354943286669871 0 -0.33280506701417778 0.48354943286669871 0 -0.32881409646949461 0.46709886573339793 0 -0.33280506701417778 0.48354943286669871 0 -0.32881409646949461 0.46709886573339793 0 -0.34500792171548739 0.47383006935472638 0 -0.33280506701417778 0.48354943286669871 0 -0.34776132587653202 0.48695231381635612 0 -0.34500792171548739 0.47383006935472638 0 -0.30454343812307871 0.47739659446949512 0 -0.32881409646949461 0.46709886573339793 0 -0.31908253830298361 0.48540452312941917 0 -0.33280506701417778 0.48354943286669871 0 -0.32881409646949461 0.46709886573339793 0 -0.30454343812307871 0.47739659446949512 0 -0.31908253830298361 0.48540452312941917 0 -0.32881409646949461 0.46709886573339793 0 -0.31350392288381462 0.4601389940520047 0 -0.32389309667640048 0.44681476777956619 0 -0.32881409646949461 0.46709886573339793 0 -0.30454343812307871 0.47739659446949512 0 -0.31350392288381462 0.4601389940520047 0 -0.32881409646949461 0.46709886573339793 0 -0.32389309667640048 0.44681476777956619 0 -0.32881409646949461 0.46709886573339793 0 -0.31143033480699872 0.43492101578551517 0 -0.30808674418046261 0.44816230685263292 0 -0.32389309667640048 0.44681476777956619 0 -0.30808674418046261 0.44816230685263292 0 -0.31350392288381462 0.4601389940520047 0 -0.32389309667640048 0.44681476777956619 0 -0.34628493008574968 0.43731420034286012 0 -0.32389309667640048 0.44681476777956619 0 -0.34560797152650591 0.45997344015586961 0 -0.34628493008574968 0.43731420034286012 0 -0.32936108497134559 0.43419326652144369 0 -0.32389309667640048 0.44681476777956619 0 -0.32881409646949461 0.46709886573339793 0 -0.34560797152650591 0.45997344015586961 0 -0.34500792171548739 0.47383006935472638 0 -0.32881409646949461 0.46709886573339793 0 -0.34560797152650591 0.45997344015586961 0 -0.32389309667640048 0.44681476777956619 0 -0.32881409646949461 0.46709886573339793 0 -0.34560797152650591 0.45997344015586961 0 -0.34560797152650591 0.45997344015586961 0 -0.35736667387601712 0.46472108913066812 0 -0.34500792171548739 0.47383006935472638 0 -0.34560797152650591 0.45997344015586961 0 -0.35736667387601712 0.46472108913066812 0 -0.3624018465835166 0.45284801457834012 0 -0.34560797152650591 0.45997344015586961 0 -0.3624018465835166 0.45284801457834012 0 -0.34628493008574968 0.43731420034286012 0 -0.3624018465835166 0.45284801457834012 0 -0.34628493008574968 0.43731420034286012 0 -0.3624018465835166 0.45284801457834012 0 -0.3663735074537271 0.45116288986151648 0 -0.34628493008574968 0.43731420034286012 0 -0.34560797152650591 0.45997344015586961 0 -0.3624018465835166 0.45284801457834012 0 -0.36653782646140448 0.43408779718540452 0 -0.3663735074537271 0.45116288986151648 0 -0.36852468641367908 0.44581695102261371 0 -0.36653782646140448 0.43408779718540452 0 -0.34628493008574968 0.43731420034286012 0 -0.3663735074537271 0.45116288986151648 0 -0.3624018465835166 0.45284801457834012 0 -0.3663735074537271 0.45116288986151648 0 -0.37549674741026712 0.44729201627721282 0 -0.3663735074537271 0.45116288986151648 0 -0.37549674741026712 0.44729201627721282 0 -0.3663735074537271 0.45116288986151648 0 -0.3720107782219072 0.45477709579076347 0 -0.37549674741026712 0.44729201627721282 0 -0.3663735074537271 0.45116288986151648 0 -0.36852468641367908 0.44581695102261371 0 -0.3663735074537271 0.45116288986151648 0 -0.3720107782219072 0.45477709579076347 0 -0.37549674741026712 0.44729201627721282 0 -0.3720107782219072 0.45477709579076347 0 -0.37549674741026712 0.44729201627721282 0 -0.36653782646140448 0.43408779718540452 0 -0.36852468641367908 0.44581695102261371 0 -0.35736667387601712 0.46472108913066812 0 -0.36965393114197592 0.45983772221668873 0 -0.3618063254675401 0.47668811569127079 0 -0.36965393114197592 0.45983772221668873 0 -0.3618063254675401 0.47668811569127079 0 -0.3624018465835166 0.45284801457834012 0 -0.3663735074537271 0.45116288986151648 0 -0.36965393114197592 0.45983772221668873 0 -0.35736667387601712 0.46472108913066812 0 -0.3624018465835166 0.45284801457834012 0 -0.36965393114197592 0.45983772221668873 0 -0.3624018465835166 0.45284801457834012 0 -0.36965393114197592 0.45983772221668873 0 -0.36965393114197592 0.45983772221668873 0 -0.3720107782219072 0.45477709579076347 0 -0.3663735074537271 0.45116288986151648 0 -0.36965393114197592 0.45983772221668873 0 -0.3720107782219072 0.45477709579076347 0 -0.39087440279914232 0.48029044744842281 0 -0.36965393114197592 0.45983772221668873 0 -0.3618063254675401 0.47668811569127079 0 -0.37698995218659531 0.49014522372419722 0 -0.3618063254675401 0.47668811569127079 0 -0.36310550157405608 0.49999999999998268 0 -0.37698995218659531 0.49014522372419722 0 -0.36310550157405608 0.49999999999998268 0 -0.3618063254675401 0.47668811569127079 0 -0.36310550157405608 0.49999999999998268 0 -0.34776132587653202 0.48695231381635612 0 -0.33679603755886189 0.49999999999999928 0 -0.36310550157405608 0.49999999999998268 0 -0.34776132587653202 0.48695231381635612 0 -0.3618063254675401 0.47668811569127079 0 -0.34776132587653202 0.48695231381635612 0 -0.34500792171548739 0.47383006935472638 0 -0.35736667387601712 0.46472108913066812 0 -0.3618063254675401 0.47668811569127079 0 -0.34500792171548739 0.47383006935472638 0 -0.14095182282844679 0.46433953461322902 0 -0.16465842771554279 0.47666708005341007 0 -0.1513847650827925 0.4858004344173586 0 -0.137035085266005 0.48216976730661598 0 -0.14095182282844679 0.46433953461322902 0 -0.1513847650827925 0.4858004344173586 0 -0.14095182282844679 0.46433953461322902 0 -0.16465842771554279 0.47666708005341007 0 -0.1513847650827925 0.4858004344173586 0 -0.13311834770356221 0.50000000000000289 0 -0.15964163233399201 0.5 0 -0.13311834770356221 0.50000000000000289 0 -0.137035085266005 0.48216976730661598 0 -0.11518162280931479 0.48120456984211241 0 -0.13311834770356221 0.50000000000000289 0 -0.137035085266005 0.48216976730661598 0 -0.1513847650827925 0.4858004344173586 0 -0.13311834770356221 0.50000000000000289 0 -0.137035085266005 0.48216976730661598 0 -0.137035085266005 0.48216976730661598 0 -0.14095182282844679 0.46433953461322902 0 -0.137035085266005 0.48216976730661598 0 -0.13723955828398671 0.46240913968422798 0 -0.11518162280931479 0.48120456984211241 0 -0.137035085266005 0.48216976730661598 0 -0.13723955828398671 0.46240913968422798 0 -0.14095182282844679 0.46433953461322902 0 -0.13723955828398671 0.46240913968422798 0 -0.11518162280931479 0.48120456984211241 0 -0.1263608341545735 0.45675215224654597 0 -0.13723955828398671 0.46240913968422798 0 -0.1423283862626481 0.45807298089147702 0 -0.1263608341545735 0.45675215224654597 0 -0.13420329262077041 0.445194737454773 0 -0.1423283862626481 0.45807298089147702 0 -0.1263608341545735 0.45675215224654597 0 -0.13723955828398671 0.46240913968422798 0 -0.11518162280931479 0.48120456984211241 0 -0.1263608341545735 0.45675215224654597 0 -0.13723955828398671 0.46240913968422798 0 -0.13723955828398671 0.46240913968422798 0 -0.1423283862626481 0.45807298089147702 0 -0.13723955828398671 0.46240913968422798 0 -0.14095182282844679 0.46433953461322902 0 -0.1423283862626481 0.45807298089147702 0 -0.13723955828398671 0.46240913968422798 0 -0.14095182282844679 0.46433953461322902 0 -0.13420329262077041 0.445194737454773 0 -0.14715365047648529 0.4361068464828935 0 -0.12219377721114941 0.43176197840898373 0 -0.13420329262077041 0.445194737454773 0 -0.12219377721114941 0.43176197840898373 0 -0.1228166191574358 0.44470635706624573 0 -0.1263608341545735 0.45675215224654597 0 -0.13420329262077041 0.445194737454773 0 -0.1228166191574358 0.44470635706624573 0 -0.1423283862626481 0.45807298089147702 0 -0.14715365047648529 0.4361068464828935 0 -0.1423283862626481 0.45807298089147702 0 -0.16363309001772181 0.43991937481520571 0 -0.13420329262077041 0.445194737454773 0 -0.1423283862626481 0.45807298089147702 0 -0.14715365047648529 0.4361068464828935 0 -0.1423283862626481 0.45807298089147702 0 -0.16363309001772181 0.43991937481520571 0 -0.14715365047648529 0.4361068464828935 0 -0.1423283862626481 0.45807298089147702 0 -0.15723632900648579 0.45399045294823898 0 -0.16363309001772181 0.43991937481520571 0 -0.14095182282844679 0.46433953461322902 0 -0.15723632900648579 0.45399045294823898 0 -0.16465842771554279 0.47666708005341007 0 -0.14095182282844679 0.46433953461322902 0 -0.1423283862626481 0.45807298089147702 0 -0.15723632900648579 0.45399045294823898 0 -0.14095182282844679 0.46433953461322902 0 -0.1423283862626481 0.45807298089147702 0 -0.15723632900648579 0.45399045294823898 0 -0.1714157375769261 0.45938522426513528 0 -0.16465842771554279 0.47666708005341007 0 -0.15723632900648579 0.45399045294823898 0 -0.1714157375769261 0.45938522426513528 0 -0.16495546001590311 0.44945869357057289 0 -0.15723632900648579 0.45399045294823898 0 -0.16363309001772181 0.43991937481520571 0 -0.16495546001590311 0.44945869357057289 0 -0.16363309001772181 0.43991937481520571 0 -0.16495546001590311 0.44945869357057289 0 -0.17091543789423611 0.44679352504128511 0 -0.1714157375769261 0.45938522426513528 0 -0.16495546001590311 0.44945869357057289 0 -0.17091543789423611 0.44679352504128511 0 -0.17091543789423611 0.44679352504128511 0 -0.19639874519493841 0.44880854880776538 0 -0.183225031653383 0.43737613220088772 0 -0.17091543789423611 0.44679352504128511 0 -0.19639874519493841 0.44880854880776538 0 -0.17091543789423611 0.44679352504128511 0 -0.18297456860499139 0.45535869432550807 0 -0.19639874519493841 0.44880854880776538 0 -0.16363309001772181 0.43991937481520571 0 -0.17091543789423611 0.44679352504128511 0 -0.183225031653383 0.43737613220088772 0 -0.1714157375769261 0.45938522426513528 0 -0.18297456860499139 0.45535869432550807 0 -0.19238188889878821 0.46890158715067798 0 -0.1714157375769261 0.45938522426513528 0 -0.16465842771554279 0.47666708005341007 0 -0.19238188889878821 0.46890158715067798 0 -0.1714157375769261 0.45938522426513528 0 -0.17091543789423611 0.44679352504128511 0 -0.18297456860499139 0.45535869432550807 0 -0.16465842771554279 0.47666708005341007 0 -0.18836503260263901 0.48899462549359057 0 -0.19238188889878821 0.46890158715067798 0 -0.16465842771554279 0.47666708005341007 0 -0.18836503260263901 0.48899462549359057 0 -0.1513847650827925 0.4858004344173586 0 -0.15964163233399201 0.5 0 -0.17290327464920571 0.49162622453089327 0 -0.1513847650827925 0.4858004344173586 0 -0.16465842771554279 0.47666708005341007 0 -0.17290327464920571 0.49162622453089327 0 -0.16465842771554279 0.47666708005341007 0 -0.17290327464920571 0.49162622453089327 0 -0.18836503260263901 0.48899462549359057 0 -0.15964163233399201 0.5 0 -0.17290327464920571 0.49162622453089327 0 -0.18616491696442181 0.49999999999999739 0 -0.18616491696442181 0.49999999999999739 0 -0.18836503260263901 0.48899462549359057 0 -0.17290327464920571 0.49162622453089327 0 -0.18616491696442181 0.49999999999999739 0 -0.18836503260263901 0.48899462549359057 0 -0.18616491696442181 0.49999999999999739 0 -0.18836503260263901 0.48899462549359057 0 -0.20952902395225939 0.50000000000000022 0 -0.18836503260263901 0.48899462549359057 0 -0.20952902395225939 0.50000000000000022 0 -0.18836503260263901 0.48899462549359057 0 -0.20447624452228971 0.48368307285766232 0 -0.20952902395225939 0.50000000000000022 0 -0.18836503260263901 0.48899462549359057 0 -0.19238188889878821 0.46890158715067798 0 -0.19238188889878821 0.46890158715067798 0 -0.20447624452228971 0.48368307285766232 0 -0.20863470195082101 0.46296296738249493 0 -0.18836503260263901 0.48899462549359057 0 -0.19238188889878821 0.46890158715067798 0 -0.20447624452228971 0.48368307285766232 0 -0.20447624452228971 0.48368307285766232 0 -0.2178364156598257 0.47598238674986371 0 -0.20863470195082101 0.46296296738249493 0 -0.20447624452228971 0.48368307285766232 0 -0.2178364156598257 0.47598238674986371 0 -0.2175786791916926 0.48881366441115032 0 -0.20952902395225939 0.50000000000000022 0 -0.2175786791916926 0.48881366441115032 0 -0.22614380736739309 0.5 0 -0.20447624452228971 0.48368307285766232 0 -0.20952902395225939 0.50000000000000022 0 -0.2175786791916926 0.48881366441115032 0 -0.22614380736739309 0.5 0 -0.2299079044566954 0.48440286244822539 0 -0.24275859078252701 0.49999999999999828 0 -0.2175786791916926 0.48881366441115032 0 -0.22614380736739309 0.5 0 -0.2299079044566954 0.48440286244822539 0 -0.2178364156598257 0.47598238674986371 0 -0.2299079044566954 0.48440286244822539 0 -0.2310035076686808 0.46468194085130732 0 -0.2178364156598257 0.47598238674986371 0 -0.2175786791916926 0.48881366441115032 0 -0.2299079044566954 0.48440286244822539 0 -0.2299079044566954 0.48440286244822539 0 -0.24386868960192001 0.47632494232431782 0 -0.2310035076686808 0.46468194085130732 0 -0.26029421510037742 0.48343053581957962 0 -0.24386868960192001 0.47632494232431782 0 -0.24275859078252701 0.49999999999999828 0 -0.24386868960192001 0.47632494232431782 0 -0.24275859078252701 0.49999999999999828 0 -0.2299079044566954 0.48440286244822539 0 -0.24386868960192001 0.47632494232431782 0 -0.24275859078252701 0.49999999999999828 0 -0.2449787884213131 0.45264988464863731 0 -0.2293573419765966 0.43484215473140908 0 -0.2460741292361521 0.42928957067224749 0 -0.2449787884213131 0.45264988464863731 0 -0.2460741292361521 0.42928957067224749 0 -0.25568053088647119 0.4419136179475896 0 -0.2449787884213131 0.45264988464863731 0 -0.2460741292361521 0.42928957067224749 0 -0.25180192440131127 0.4531894057162682 0 -0.2449787884213131 0.45264988464863731 0 -0.24386868960192001 0.47632494232431782 0 -0.2449787884213131 0.45264988464863731 0 -0.2310035076686808 0.46468194085130732 0 -0.24386868960192001 0.47632494232431782 0 -0.2449787884213131 0.45264988464863731 0 -0.25759447607833752 0.46478809225207218 0 -0.24386868960192001 0.47632494232431782 0 -0.2449787884213131 0.45264988464863731 0 -0.2178364156598257 0.47598238674986371 0 -0.2310035076686808 0.46468194085130732 0 -0.20863470195082101 0.46296296738249493 0 -0.2449787884213131 0.45264988464863731 0 -0.2310035076686808 0.46468194085130732 0 -0.2206887668081256 0.45072921672820337 0 -0.2310035076686808 0.46468194085130732 0 -0.2206887668081256 0.45072921672820337 0 -0.20863470195082101 0.46296296738249493 0 -0.2449787884213131 0.45264988464863731 0 -0.2206887668081256 0.45072921672820337 0 -0.2293573419765966 0.43484215473140908 0 -0.2449787884213131 0.45264988464863731 0 -0.2206887668081256 0.45072921672820337 0 -0.2206887668081256 0.45072921672820337 0 -0.21202085170920951 0.43974225056550259 0 -0.2293573419765966 0.43484215473140908 0 -0.2206887668081256 0.45072921672820337 0 -0.19639874519493841 0.44880854880776538 0 -0.2206887668081256 0.45072921672820337 0 -0.21202085170920951 0.43974225056550259 0 -0.19639874519493841 0.44880854880776538 0 -0.2206887668081256 0.45072921672820337 0 -0.20863470195082101 0.46296296738249493 0 -0.19639874519493841 0.44880854880776538 0 -0.19238188889878821 0.46890158715067798 0 -0.20863470195082101 0.46296296738249493 0 -0.19639874519493841 0.44880854880776538 0 -0.19238188889878821 0.46890158715067798 0 -0.19639874519493841 0.44880854880776538 0 -0.18297456860499139 0.45535869432550807 0 -0.19238188889878821 0.46890158715067798 0 -0.19639874519493841 0.44880854880776538 0 -0.19639874519493841 0.44880854880776538 0 -0.20024009138722229 0.42959344360124641 0 -0.183225031653383 0.43737613220088772 0 -0.21202085170920951 0.43974225056550259 0 -0.19639874519493841 0.44880854880776538 0 -0.20024009138722229 0.42959344360124641 0 -0.19639874519493841 0.44880854880776538 0 -0.20024009138722229 0.42959344360124641 0 -0.20024009138722229 0.42959344360124641 0 -0.18493779377279659 0.42176576873893568 0 -0.183225031653383 0.43737613220088772 0 -0.20024009138722229 0.42959344360124641 0 -0.18493779377279659 0.42176576873893568 0 -0.17852213514568821 0.4108840106334864 0 -0.20024009138722229 0.42959344360124641 0 -0.17852213514568821 0.4108840106334864 0 -0.20024009138722229 0.42959344360124641 0 -0.20596654179862811 0.40094870771775187 0 -0.17852213514568821 0.4108840106334864 0 -0.20024009138722229 0.42959344360124641 0 -0.20596654179862811 0.40094870771775187 0 -0.20024009138722229 0.42959344360124641 0 -0.2177601752604427 0.41816793315138201 0 -0.20596654179862811 0.40094870771775187 0 -0.21202085170920951 0.43974225056550259 0 -0.20024009138722229 0.42959344360124641 0 -0.2177601752604427 0.41816793315138201 0 -0.21202085170920951 0.43974225056550259 0 -0.20024009138722229 0.42959344360124641 0 -0.2177601752604427 0.41816793315138201 0 -0.2293573419765966 0.43484215473140908 0 -0.23692877537248649 0.41434296312759572 0 -0.21202085170920951 0.43974225056550259 0 -0.2177601752604427 0.41816793315138201 0 -0.2293573419765966 0.43484215473140908 0 -0.2177601752604427 0.41816793315138201 0 -0.23692877537248649 0.41434296312759572 0 -0.2231355425862008 0.39133898671864448 0 -0.25708479127401701 0.41106925061492627 0 -0.23692877537248649 0.41434296312759572 0 -0.2460741292361521 0.42928957067224749 0 -0.25708479127401701 0.41106925061492627 0 -0.23692877537248649 0.41434296312759572 0 -0.24332176982101481 0.39689473231821309 0 -0.2293573419765966 0.43484215473140908 0 -0.23692877537248649 0.41434296312759572 0 -0.2460741292361521 0.42928957067224749 0 -0.23938712108321711 0.38021147508781122 0 -0.24332176982101481 0.39689473231821309 0 -0.2231355425862008 0.39133898671864448 0 -0.2563668417329969 0.39094304646724648 0 -0.23938712108321711 0.38021147508781122 0 -0.24332176982101481 0.39689473231821309 0 -0.23692877537248649 0.41434296312759572 0 -0.24332176982101481 0.39689473231821309 0 -0.2231355425862008 0.39133898671864448 0 -0.23938712108321711 0.38021147508781122 0 -0.2231355425862008 0.39133898671864448 0 -0.21169299221003349 0.37230397183425751 0 -0.2231355425862008 0.39133898671864448 0 -0.20596654179862811 0.40094870771775187 0 -0.21169299221003349 0.37230397183425751 0 -0.20596654179862811 0.40094870771775187 0 -0.19534005447971739 0.37634178483683828 0 -0.21169299221003349 0.37230397183425751 0 -0.20596654179862811 0.40094870771775187 0 -0.21169299221003349 0.37230397183425751 0 -0.2177601752604427 0.41816793315138201 0 -0.2231355425862008 0.39133898671864448 0 -0.20596654179862811 0.40094870771775187 0 -0.20596654179862811 0.40094870771775187 0 -0.18451813048772631 0.38711828784807312 0 -0.17852213514568821 0.4108840106334864 0 -0.19534005447971739 0.37634178483683828 0 -0.18451813048772631 0.38711828784807312 0 -0.1841192094137776 0.36244969038879232 0 -0.20596654179862811 0.40094870771775187 0 -0.19534005447971739 0.37634178483683828 0 -0.18451813048772631 0.38711828784807312 0 -0.18451813048772631 0.38711828784807312 0 -0.17108757426993679 0.3867927086403844 0 -0.1841192094137776 0.36244969038879232 0 -0.17108757426993679 0.3867927086403844 0 -0.15992042230183939 0.37798844851509261 0 -0.1841192094137776 0.36244969038879232 0 -0.15992042230183939 0.37798844851509261 0 -0.15680417890415471 0.39217457766572561 0 -0.17108757426993679 0.3867927086403844 0 -0.15992042230183939 0.37798844851509261 0 -0.15680417890415471 0.39217457766572561 0 -0.15680417890415471 0.39217457766572561 0 -0.17852213514568821 0.4108840106334864 0 -0.17108757426993679 0.3867927086403844 0 -0.15680417890415471 0.39217457766572561 0 -0.17852213514568821 0.4108840106334864 0 -0.15680417890415471 0.39217457766572561 0 -0.17852213514568821 0.4108840106334864 0 -0.16355778857612621 0.40959712176254931 0 -0.15680417890415471 0.39217457766572561 0 -0.16355778857612621 0.40959712176254931 0 -0.1519789146903204 0.41414071207430969 0 -0.18451813048772631 0.38711828784807312 0 -0.17108757426993679 0.3867927086403844 0 -0.17852213514568821 0.4108840106334864 0 -0.18493779377279659 0.42176576873893568 0 -0.17852213514568821 0.4108840106334864 0 -0.1669259255643416 0.42118918667667521 0 -0.16363309001772181 0.43991937481520571 0 -0.18493779377279659 0.42176576873893568 0 -0.16363309001772181 0.43991937481520571 0 -0.18493779377279659 0.42176576873893568 0 -0.183225031653383 0.43737613220088772 0 -0.16363309001772181 0.43991937481520571 0 -0.18493779377279659 0.42176576873893568 0 -0.1669259255643416 0.42118918667667521 0 -0.16363309001772181 0.43991937481520571 0 -0.15742289518721719 0.42783903001227103 0 -0.1669259255643416 0.42118918667667521 0 -0.17852213514568821 0.4108840106334864 0 -0.1669259255643416 0.42118918667667521 0 -0.16355778857612621 0.40959712176254931 0 -0.15742289518721719 0.42783903001227103 0 -0.1669259255643416 0.42118918667667521 0 -0.1519789146903204 0.41414071207430969 0 -0.1669259255643416 0.42118918667667521 0 -0.16355778857612621 0.40959712176254931 0 -0.1519789146903204 0.41414071207430969 0 -0.1519789146903204 0.41414071207430969 0 -0.13344306362812769 0.41679312353423442 0 -0.1431285216710311 0.40095929476853609 0 -0.16363309001772181 0.43991937481520571 0 -0.15742289518721719 0.42783903001227103 0 -0.14715365047648529 0.4361068464828935 0 -0.1519789146903204 0.41414071207430969 0 -0.14715365047648529 0.4361068464828935 0 -0.15742289518721719 0.42783903001227103 0 -0.1519789146903204 0.41414071207430969 0 -0.14715365047648529 0.4361068464828935 0 -0.1519789146903204 0.41414071207430969 0 -0.14715365047648529 0.4361068464828935 0 -0.13344306362812769 0.41679312353423442 0 -0.14715365047648529 0.4361068464828935 0 -0.13344306362812769 0.41679312353423442 0 -0.12219377721114941 0.43176197840898373 0 -0.12668246113114459 0.39933152810224959 0 -0.1487002445868735 0.38519325703877361 0 -0.1431285216710311 0.40095929476853609 0 -0.13344306362812769 0.41679312353423442 0 -0.12668246113114459 0.39933152810224959 0 -0.1431285216710311 0.40095929476853609 0 -0.12668246113114459 0.39933152810224959 0 -0.1487002445868735 0.38519325703877361 0 -0.12668246113114459 0.39933152810224959 0 -0.12790961240459681 0.38318696892604431 0 -0.1487002445868735 0.38519325703877361 0 -0.1487002445868735 0.38519325703877361 0 -0.12723617242807531 0.36670253835400829 0 -0.12790961240459681 0.38318696892604431 0 -0.1487002445868735 0.38519325703877361 0 -0.12723617242807531 0.36670253835400829 0 -0.15992042230183939 0.37798844851509261 0 -0.1487002445868735 0.38519325703877361 0 -0.14525520332911909 0.36748913601497168 0 -0.15992042230183939 0.37798844851509261 0 -0.1487002445868735 0.38519325703877361 0 -0.15680417890415471 0.39217457766572561 0 -0.1487002445868735 0.38519325703877361 0 -0.15992042230183939 0.37798844851509261 0 -0.15680417890415471 0.39217457766572561 0 -0.1487002445868735 0.38519325703877361 0 -0.15680417890415471 0.39217457766572561 0 -0.1519789146903204 0.41414071207430969 0 -0.15680417890415471 0.39217457766572561 0 -0.1519789146903204 0.41414071207430969 0 -0.1431285216710311 0.40095929476853609 0 -0.15680417890415471 0.39217457766572561 0 -0.1487002445868735 0.38519325703877361 0 -0.1431285216710311 0.40095929476853609 0 -0.12723617242807531 0.36670253835400829 0 -0.1388996593651064 0.33970780564902558 0 -0.1198994759967887 0.33446875216113858 0 -0.14949125306985739 0.35190240843039322 0 -0.1535832043472164 0.33825394476077242 0 -0.16564331373678259 0.35193603005783047 0 -0.14949125306985739 0.35190240843039322 0 -0.14525520332911909 0.36748913601497168 0 -0.16564331373678259 0.35193603005783047 0 -0.14949125306985739 0.35190240843039322 0 -0.14525520332911909 0.36748913601497168 0 -0.12723617242807531 0.36670253835400829 0 -0.1487002445868735 0.38519325703877361 0 -0.14525520332911909 0.36748913601497168 0 -0.12723617242807531 0.36670253835400829 0 -0.14949125306985739 0.35190240843039322 0 -0.12723617242807531 0.36670253835400829 0 -0.1388996593651064 0.33970780564902558 0 -0.1388996593651064 0.33970780564902558 0 -0.14251559039261039 0.32183986806604442 0 -0.1198994759967887 0.33446875216113858 0 -0.14251559039261039 0.32183986806604442 0 -0.1214189212483379 0.31051108492626273 0 -0.1198994759967887 0.33446875216113858 0 -0.14251559039261039 0.32183986806604442 0 -0.17136620517172541 0.32588361160056828 0 -0.15184801626939909 0.30571108020790128 0 -0.1388996593651064 0.33970780564902558 0 -0.14251559039261039 0.32183986806604442 0 -0.1535832043472164 0.33825394476077242 0 -0.14251559039261039 0.32183986806604442 0 -0.1535832043472164 0.33825394476077242 0 -0.17136620517172541 0.32588361160056828 0 -0.14949125306985739 0.35190240843039322 0 -0.1388996593651064 0.33970780564902558 0 -0.1535832043472164 0.33825394476077242 0 -0.17136620517172541 0.32588361160056828 0 -0.16564331373678259 0.35193603005783047 0 -0.1535832043472164 0.33825394476077242 0 -0.17136620517172541 0.32588361160056828 0 -0.16564331373678259 0.35193603005783047 0 -0.17136620517172541 0.32588361160056828 0 -0.19108640283948669 0.32391838350444141 0 -0.1897025022931379 0.30472046678612907 0 -0.17136620517172541 0.32588361160056828 0 -0.1899477259789821 0.34491456196065112 0 -0.19108640283948669 0.32391838350444141 0 -0.17136620517172541 0.32588361160056828 0 -0.16564331373678259 0.35193603005783047 0 -0.1899477259789821 0.34491456196065112 0 -0.16564331373678259 0.35193603005783047 0 -0.1841192094137776 0.36244969038879232 0 -0.1899477259789821 0.34491456196065112 0 -0.15992042230183939 0.37798844851509261 0 -0.14525520332911909 0.36748913601497168 0 -0.16564331373678259 0.35193603005783047 0 -0.15992042230183939 0.37798844851509261 0 -0.16564331373678259 0.35193603005783047 0 -0.15992042230183939 0.37798844851509261 0 -0.16564331373678259 0.35193603005783047 0 -0.1841192094137776 0.36244969038879232 0 -0.15992042230183939 0.37798844851509261 0 -0.1841192094137776 0.36244969038879232 0 -0.19534005447971739 0.37634178483683828 0 -0.19939904015390081 0.3642237072842941 0 -0.21169299221003349 0.37230397183425751 0 -0.19534005447971739 0.37634178483683828 0 -0.1841192094137776 0.36244969038879232 0 -0.19939904015390081 0.3642237072842941 0 -0.1841192094137776 0.36244969038879232 0 -0.19939904015390081 0.3642237072842941 0 -0.208317996525716 0.34691093226249209 0 -0.1841192094137776 0.36244969038879232 0 -0.1899477259789821 0.34491456196065112 0 -0.208317996525716 0.34691093226249209 0 -0.1841192094137776 0.36244969038879232 0 -0.208317996525716 0.34691093226249209 0 -0.21169299221003349 0.37230397183425751 0 -0.21741944262143989 0.34365923595076309 0 -0.208317996525716 0.34691093226249209 0 -0.21169299221003349 0.37230397183425751 0 -0.21741944262143989 0.34365923595076309 0 -0.208317996525716 0.34691093226249209 0 -0.21407356992096671 0.34146642784310149 0 -0.21741944262143989 0.34365923595076309 0 -0.19939904015390081 0.3642237072842941 0 -0.208317996525716 0.34691093226249209 0 -0.21169299221003349 0.37230397183425751 0 -0.23938712108321711 0.38021147508781122 0 -0.21169299221003349 0.37230397183425751 0 -0.24005925981169671 0.35849685206319559 0 -0.21169299221003349 0.37230397183425751 0 -0.24005925981169671 0.35849685206319559 0 -0.21741944262143989 0.34365923595076309 0 -0.24005925981169671 0.35849685206319559 0 -0.21741944262143989 0.34365923595076309 0 -0.24005925981169671 0.35849685206319559 0 -0.2321424785329867 0.33954846912385628 0 -0.21741944262143989 0.34365923595076309 0 -0.25332005796921309 0.35063613442814062 0 -0.24005925981169671 0.35849685206319559 0 -0.24080144847006379 0.34086798600569512 0 -0.24005925981169671 0.35849685206319559 0 -0.24080144847006379 0.34086798600569512 0 -0.2321424785329867 0.33954846912385628 0 -0.26269907700195178 0.37333446817563049 0 -0.23938712108321711 0.38021147508781122 0 -0.24005925981169671 0.35849685206319559 0 -0.2439410389364747 0.32793780068065048 0 -0.2345620199037369 0.30523946693316018 0 -0.24071984846659561 0.33142392990209252 0 -0.2345620199037369 0.30523946693316018 0 -0.25198310925179951 0.30610204381036721 0 -0.2439410389364747 0.32793780068065048 0 -0.2345620199037369 0.30523946693316018 0 -0.24071984846659561 0.33142392990209252 0 -0.22981280541431259 0.32645468765915753 0 -0.2345620199037369 0.30523946693316018 0 -0.2439410389364747 0.32793780068065048 0 -0.24071984846659561 0.33142392990209252 0 -0.2345620199037369 0.30523946693316018 0 -0.25332005796921309 0.35063613442814062 0 -0.2439410389364747 0.32793780068065048 0 -0.24080144847006379 0.34086798600569512 0 -0.25332005796921309 0.35063613442814062 0 -0.2439410389364747 0.32793780068065048 0 -0.24080144847006379 0.34086798600569512 0 -0.23686079307851751 0.33601084315371132 0 -0.2321424785329867 0.33954846912385628 0 -0.24080144847006379 0.34086798600569512 0 -0.23686079307851751 0.33601084315371132 0 -0.24071984846659561 0.33142392990209252 0 -0.23686079307851751 0.33601084315371132 0 -0.2348839813731031 0.33335948245970443 0 -0.2321424785329867 0.33954846912385628 0 -0.24071984846659561 0.33142392990209252 0 -0.2348839813731031 0.33335948245970443 0 -0.22981280541431259 0.32645468765915753 0 -0.2439410389364747 0.32793780068065048 0 -0.24080144847006379 0.34086798600569512 0 -0.24071984846659561 0.33142392990209252 0 -0.23686079307851751 0.33601084315371132 0 -0.24071984846659561 0.33142392990209252 0 -0.2348839813731031 0.33335948245970443 0 -0.2228023327459612 0.31673305047298261 0 -0.21741944262143989 0.34365923595076309 0 -0.2348839813731031 0.33335948245970443 0 -0.2321424785329867 0.33954846912385628 0 -0.22981280541431259 0.32645468765915753 0 -0.2321424785329867 0.33954846912385628 0 -0.22981280541431259 0.32645468765915753 0 -0.21741944262143989 0.34365923595076309 0 -0.2228023327459612 0.31673305047298261 0 -0.22981280541431259 0.32645468765915753 0 -0.21741944262143989 0.34365923595076309 0 -0.2228023327459612 0.31673305047298261 0 -0.22981280541431259 0.32645468765915753 0 -0.2345620199037369 0.30523946693316018 0 -0.2228023327459612 0.31673305047298261 0 -0.20349529047962531 0.31398253524726011 0 -0.2046172726431314 0.33216390402162888 0 -0.2228023327459612 0.31673305047298261 0 -0.21407356992096671 0.34146642784310149 0 -0.2046172726431314 0.33216390402162888 0 -0.2228023327459612 0.31673305047298261 0 -0.21407356992096671 0.34146642784310149 0 -0.21741944262143989 0.34365923595076309 0 -0.21407356992096671 0.34146642784310149 0 -0.21741944262143989 0.34365923595076309 0 -0.208317996525716 0.34691093226249209 0 -0.21407356992096671 0.34146642784310149 0 -0.2046172726431314 0.33216390402162888 0 -0.1899477259789821 0.34491456196065112 0 -0.2046172726431314 0.33216390402162888 0 -0.19108640283948669 0.32391838350444141 0 -0.1899477259789821 0.34491456196065112 0 -0.208317996525716 0.34691093226249209 0 -0.2046172726431314 0.33216390402162888 0 -0.20349529047962531 0.31398253524726011 0 -0.19108640283948669 0.32391838350444141 0 -0.1897025022931379 0.30472046678612907 0 -0.20349529047962531 0.31398253524726011 0 -0.2046172726431314 0.33216390402162888 0 -0.19108640283948669 0.32391838350444141 0 -0.20349529047962531 0.31398253524726011 0 -0.1897025022931379 0.30472046678612907 0 -0.20926794187640901 0.29237687145111868 0 -0.1897025022931379 0.30472046678612907 0 -0.20926794187640901 0.29237687145111868 0 -0.19409933830494741 0.27819514402200418 0 -0.20926794187640901 0.29237687145111868 0 -0.22300161697688761 0.27726192653441378 0 -0.19409933830494741 0.27819514402200418 0 -0.2228023327459612 0.31673305047298261 0 -0.20349529047962531 0.31398253524726011 0 -0.20926794187640901 0.29237687145111868 0 -0.2228023327459612 0.31673305047298261 0 -0.20926794187640901 0.29237687145111868 0 -0.22818522287048329 0.28980686499520208 0 -0.2228023327459612 0.31673305047298261 0 -0.22818522287048329 0.28980686499520208 0 -0.2228023327459612 0.31673305047298261 0 -0.22818522287048329 0.28980686499520208 0 -0.2345620199037369 0.30523946693316018 0 -0.22818522287048329 0.28980686499520208 0 -0.2345620199037369 0.30523946693316018 0 -0.20926794187640901 0.29237687145111868 0 -0.22818522287048329 0.28980686499520208 0 -0.22300161697688761 0.27726192653441378 0 -0.22944764501691661 0.28349200214645698 0 -0.2345620199037369 0.30523946693316018 0 -0.22944764501691661 0.28349200214645698 0 -0.23629947439166599 0.29049714318674341 0 -0.2345620199037369 0.30523946693316018 0 -0.22944764501691661 0.28349200214645698 0 -0.22818522287048329 0.28980686499520208 0 -0.2345620199037369 0.30523946693316018 0 -0.22818522287048329 0.28980686499520208 0 -0.22300161697688761 0.27726192653441378 0 -0.22944764501691661 0.28349200214645698 0 -0.23629947439166599 0.29049714318674341 0 -0.2349796476939825 0.27687517129414801 0 -0.22944764501691661 0.28349200214645698 0 -0.22818522287048329 0.28980686499520208 0 -0.22300161697688761 0.27726192653441378 0 -0.22944764501691661 0.28349200214645698 0 -0.22818522287048329 0.28980686499520208 0 -0.23629947439166599 0.29049714318674341 0 -0.24169469745684399 0.28346712049722572 0 -0.2484915756804362 0.29000937924619941 0 -0.23629947439166599 0.29049714318674341 0 -0.2349796476939825 0.27687517129414801 0 -0.23629947439166599 0.29049714318674341 0 -0.24169469745684399 0.28346712049722572 0 -0.2349796476939825 0.27687517129414801 0 -0.24169469745684399 0.28346712049722572 0 -0.2484915756804362 0.29000937924619941 0 -0.2470080920612911 0.276486788261812 0 -0.23629947439166599 0.29049714318674341 0 -0.2484915756804362 0.29000937924619941 0 -0.24360256376066619 0.29883139335545822 0 -0.25198310925179951 0.30610204381036721 0 -0.2484915756804362 0.29000937924619941 0 -0.24360256376066619 0.29883139335545822 0 -0.25198310925179951 0.30610204381036721 0 -0.24360256376066619 0.29883139335545822 0 -0.2345620199037369 0.30523946693316018 0 -0.23629947439166599 0.29049714318674341 0 -0.24360256376066619 0.29883139335545822 0 -0.2345620199037369 0.30523946693316018 0 -0.24284444918897469 0.25499796420522253 0 -0.2336055725864668 0.26269329989713119 0 -0.2385283141416755 0.23806886040300251 0 -0.2336055725864668 0.26269329989713119 0 -0.2385283141416755 0.23806886040300251 0 -0.24284444918897469 0.25499796420522253 0 -0.24445102910473471 0.26607302909098618 0 -0.2336055725864668 0.26269329989713119 0 -0.25207695081767872 0.25795210490862408 0 -0.24284444918897469 0.25499796420522253 0 -0.24803869981560719 0.24872960313750719 0 -0.25207695081767872 0.25795210490862408 0 -0.24284444918897469 0.25499796420522253 0 -0.24445102910473471 0.26607302909098618 0 -0.24169469745684399 0.28346712049722572 0 -0.2470080920612911 0.276486788261812 0 -0.2349796476939825 0.27687517129414801 0 -0.2470080920612911 0.276486788261812 0 -0.2349796476939825 0.27687517129414801 0 -0.24445102910473471 0.26607302909098618 0 -0.2470080920612911 0.276486788261812 0 -0.2349796476939825 0.27687517129414801 0 -0.24445102910473471 0.26607302909098618 0 -0.2349796476939825 0.27687517129414801 0 -0.2336055725864668 0.26269329989713119 0 -0.2349796476939825 0.27687517129414801 0 -0.23074308775015551 0.27701196437789449 0 -0.2336055725864668 0.26269329989713119 0 -0.2349796476939825 0.27687517129414801 0 -0.2336055725864668 0.26269329989713119 0 -0.23074308775015551 0.27701196437789449 0 -0.22794497462033159 0.27710231185999651 0 -0.2336055725864668 0.26269329989713119 0 -0.23074308775015551 0.27701196437789449 0 -0.2336055725864668 0.26269329989713119 0 -0.22944764501691661 0.28349200214645698 0 -0.2349796476939825 0.27687517129414801 0 -0.23074308775015551 0.27701196437789449 0 -0.2349796476939825 0.27687517129414801 0 -0.23074308775015551 0.27701196437789449 0 -0.23074308775015551 0.27701196437789449 0 -0.22794497462033159 0.27710231185999651 0 -0.22944764501691661 0.28349200214645698 0 -0.22794497462033159 0.27710231185999651 0 -0.22944764501691661 0.28349200214645698 0 -0.23074308775015551 0.27701196437789449 0 -0.22944764501691661 0.28349200214645698 0 -0.23074308775015551 0.27701196437789449 0 -0.22794497462033159 0.27710231185999651 0 -0.22944764501691661 0.28349200214645698 0 -0.22794497462033159 0.27710231185999651 0 -0.22300161697688761 0.27726192653441378 0 -0.22794497462033159 0.27710231185999651 0 -0.22300161697688761 0.27726192653441378 0 -0.22300161697688761 0.27726192653441378 0 -0.2180162386042632 0.26519672208559292 0 -0.22794497462033159 0.27710231185999651 0 -0.22300161697688761 0.27726192653441378 0 -0.2180162386042632 0.26519672208559292 0 -0.22794497462033159 0.27710231185999651 0 -0.2336055725864668 0.26269329989713119 0 -0.22153032856908481 0.249825803546535 0 -0.22794497462033159 0.27710231185999651 0 -0.2180162386042632 0.26519672208559292 0 -0.22153032856908481 0.249825803546535 0 -0.2336055725864668 0.26269329989713119 0 -0.23131744949611999 0.23907751118925541 0 -0.2336055725864668 0.26269329989713119 0 -0.22153032856908481 0.249825803546535 0 -0.23131744949611999 0.23907751118925541 0 -0.22794497462033159 0.27710231185999651 0 -0.22153032856908481 0.249825803546535 0 -0.21274404513284251 0.25562464449530398 0 -0.22153032856908481 0.249825803546535 0 -0.2083987359728901 0.24727119879500239 0 -0.21274404513284251 0.25562464449530398 0 -0.2180162386042632 0.26519672208559292 0 -0.22153032856908481 0.249825803546535 0 -0.21274404513284251 0.25562464449530398 0 -0.2180162386042632 0.26519672208559292 0 -0.20265225063617409 0.25967093511734018 0 -0.21274404513284251 0.25562464449530398 0 -0.20265225063617409 0.25967093511734018 0 -0.2083987359728901 0.24727119879500239 0 -0.22300161697688761 0.27726192653441378 0 -0.2180162386042632 0.26519672208559292 0 -0.19409933830494741 0.27819514402200418 0 -0.22300161697688761 0.27726192653441378 0 -0.19409933830494741 0.27819514402200418 0 -0.2180162386042632 0.26519672208559292 0 -0.19409933830494741 0.27819514402200418 0 -0.20265225063617409 0.25967093511734018 0 -0.19409933830494741 0.27819514402200418 0 -0.20265225063617409 0.25967093511734018 0 -0.18626205399543719 0.26349059201082697 0 -0.20265225063617409 0.25967093511734018 0 -0.18626205399543719 0.26349059201082697 0 -0.19480395922677551 0.24933181214922981 0 -0.20265225063617409 0.25967093511734018 0 -0.19480395922677551 0.24933181214922981 0 -0.2083987359728901 0.24727119879500239 0 -0.17455766217628191 0.25112670725596881 0 -0.18626205399543719 0.26349059201082697 0 -0.19480395922677551 0.24933181214922981 0 -0.17455766217628191 0.25112670725596881 0 -0.18626205399543719 0.26349059201082697 0 -0.1651970596330071 0.27912836150959192 0 -0.17455766217628191 0.25112670725596881 0 -0.15744975426494409 0.25962002705003701 0 -0.1651970596330071 0.27912836150959192 0 -0.17455766217628191 0.25112670725596881 0 -0.15744975426494409 0.25962002705003701 0 -0.155276860567574 0.24419427542254449 0 -0.19409933830494741 0.27819514402200418 0 -0.18626205399543719 0.26349059201082697 0 -0.1651970596330071 0.27912836150959192 0 -0.19409933830494741 0.27819514402200418 0 -0.1651970596330071 0.27912836150959192 0 -0.19409933830494741 0.27819514402200418 0 -0.1651970596330071 0.27912836150959192 0 -0.17085987448225221 0.29720382736037498 0 -0.1897025022931379 0.30472046678612907 0 -0.19409933830494741 0.27819514402200418 0 -0.17085987448225221 0.29720382736037498 0 -0.17136620517172541 0.32588361160056828 0 -0.1897025022931379 0.30472046678612907 0 -0.17085987448225221 0.29720382736037498 0 -0.17136620517172541 0.32588361160056828 0 -0.17085987448225221 0.29720382736037498 0 -0.15184801626939909 0.30571108020790128 0 -0.17085987448225221 0.29720382736037498 0 -0.15235028544070139 0.29248026825470402 0 -0.15184801626939909 0.30571108020790128 0 -0.1651970596330071 0.27912836150959192 0 -0.17085987448225221 0.29720382736037498 0 -0.15235028544070139 0.29248026825470402 0 -0.1651970596330071 0.27912836150959192 0 -0.15235028544070139 0.29248026825470402 0 -0.13629478096106681 0.28006157899717959 0 -0.15235028544070139 0.29248026825470402 0 -0.13755169585778179 0.30029649319847218 0 -0.13629478096106681 0.28006157899717959 0 -0.14251559039261039 0.32183986806604442 0 -0.15184801626939909 0.30571108020790128 0 -0.13755169585778179 0.30029649319847218 0 -0.15235028544070139 0.29248026825470402 0 -0.15184801626939909 0.30571108020790128 0 -0.13755169585778179 0.30029649319847218 0 -0.14251559039261039 0.32183986806604442 0 -0.13755169585778179 0.30029649319847218 0 -0.1214189212483379 0.31051108492626273 0 -0.13755169585778179 0.30029649319847218 0 -0.1223023248390359 0.29473386889005188 0 -0.1214189212483379 0.31051108492626273 0 -0.13755169585778179 0.30029649319847218 0 -0.13629478096106681 0.28006157899717959 0 -0.1223023248390359 0.29473386889005188 0 -0.13629478096106681 0.28006157899717959 0 -0.1250081951318428 0.27210334672069308 0 -0.13859112369487381 0.25931217237250681 0 -0.1250081951318428 0.27210334672069308 0 -0.13859112369487381 0.25931217237250681 0 -0.12316148006640409 0.25829415015194301 0 -0.13859112369487381 0.25931217237250681 0 -0.12316148006640409 0.25829415015194301 0 -0.13382409817703389 0.2420122431064673 0 -0.15744975426494409 0.25962002705003701 0 -0.13859112369487381 0.25931217237250681 0 -0.155276860567574 0.24419427542254449 0 -0.15744975426494409 0.25962002705003701 0 -0.1651970596330071 0.27912836150959192 0 -0.13629478096106681 0.28006157899717959 0 -0.1651970596330071 0.27912836150959192 0 -0.13629478096106681 0.28006157899717959 0 -0.15744975426494409 0.25962002705003701 0 -0.13629478096106681 0.28006157899717959 0 -0.13859112369487381 0.25931217237250681 0 -0.09588831780292667 0.27454412632779462 0 -0.1028697082337371 0.26305851029623439 0 -0.11123239419804221 0.26533290518887809 0 -0.09588831780292667 0.27454412632779462 0 -0.1028697082337371 0.26305851029623439 0 -0.090652163559778731 0.25982022202125371 0 -0.1021699770064249 0.25603787260001809 0 -0.1028697082337371 0.26305851029623439 0 -0.090652163559778731 0.25982022202125371 0 -0.090652163559778731 0.25982022202125371 0 -0.098735973162726309 0.24932888935710559 0 -0.1021699770064249 0.25603787260001809 0 -0.090652163559778731 0.25982022202125371 0 -0.098735973162726309 0.24932888935710559 0 -0.1021699770064249 0.25603787260001809 0 -0.098735973162726309 0.24932888935710559 0 -0.10263644161255921 0.24851555584761839 0 -0.1092342697553004 0.25866439244772532 0 -0.10263644161255921 0.24851555584761839 0 -0.1021699770064249 0.25603787260001809 0 -0.1092342697553004 0.25866439244772532 0 -0.10263644161255921 0.24851555584761839 0 -0.1028697082337371 0.26305851029623439 0 -0.1092342697553004 0.25866439244772532 0 -0.11123239419804221 0.26533290518887809 0 -0.1021699770064249 0.25603787260001809 0 -0.1028697082337371 0.26305851029623439 0 -0.1092342697553004 0.25866439244772532 0 -0.1092342697553004 0.25866439244772532 0 -0.11123239419804221 0.26533290518887809 0 -0.12316148006640409 0.25829415015194301 0 -0.1092342697553004 0.25866439244772532 0 -0.10263644161255921 0.24851555584761839 0 -0.1182302698947966 0.24526389947704311 0 -0.1092342697553004 0.25866439244772532 0 -0.12316148006640409 0.25829415015194301 0 -0.1182302698947966 0.24526389947704311 0 -0.1250081951318428 0.27210334672069308 0 -0.11123239419804221 0.26533290518887809 0 -0.12316148006640409 0.25829415015194301 0 -0.1250081951318428 0.27210334672069308 0 -0.1073925022891265 0.28099479648476727 0 -0.09588831780292667 0.27454412632779462 0 -0.1250081951318428 0.27210334672069308 0 -0.09588831780292667 0.27454412632779462 0 -0.1250081951318428 0.27210334672069308 0 -0.09588831780292667 0.27454412632779462 0 -0.11123239419804221 0.26533290518887809 0 -0.13629478096106681 0.28006157899717959 0 -0.1250081951318428 0.27210334672069308 0 -0.1073925022891265 0.28099479648476727 0 -0.13629478096106681 0.28006157899717959 0 -0.1073925022891265 0.28099479648476727 0 -0.1073925022891265 0.28099479648476727 0 -0.1223023248390359 0.29473386889005188 0 -0.1060149969184058 0.29933260042989251 0 -0.13629478096106681 0.28006157899717959 0 -0.1073925022891265 0.28099479648476727 0 -0.1223023248390359 0.29473386889005188 0 -0.1223023248390359 0.29473386889005188 0 -0.1214189212483379 0.31051108492626273 0 -0.1060149969184058 0.29933260042989251 0 -0.1214189212483379 0.31051108492626273 0 -0.1060149969184058 0.29933260042989251 0 -0.1042897646572923 0.32131132456036982 0 -0.1060149969184058 0.29933260042989251 0 -0.095390407268422225 0.28960903122629772 0 -0.088325065400467112 0.30562258919120111 0 -0.1060149969184058 0.29933260042989251 0 -0.088325065400467112 0.30562258919120111 0 -0.1042897646572923 0.32131132456036982 0 -0.1073925022891265 0.28099479648476727 0 -0.1060149969184058 0.29933260042989251 0 -0.095390407268422225 0.28960903122629772 0 -0.1073925022891265 0.28099479648476727 0 -0.09588831780292667 0.27454412632779462 0 -0.095390407268422225 0.28960903122629772 0 -0.09588831780292667 0.27454412632779462 0 -0.095390407268422225 0.28960903122629772 0 -0.078345702674044712 0.29043006769243163 0 -0.095390407268422225 0.28960903122629772 0 -0.078345702674044712 0.29043006769243163 0 -0.088325065400467112 0.30562258919120111 0 -0.078345702674044712 0.29043006769243163 0 -0.088325065400467112 0.30562258919120111 0 -0.062843955951679062 0.31123038229971578 0 -0.078345702674044712 0.29043006769243163 0 -0.062843955951679062 0.31123038229971578 0 -0.058492946129626008 0.2914990287617204 0 -0.078345702674044712 0.29043006769243163 0 -0.066768440474010537 0.27698490593489611 0 -0.058492946129626008 0.2914990287617204 0 -0.066768440474010537 0.27698490593489611 0 -0.08123302704241013 0.26698760056642862 0 -0.075536809924525938 0.25416642543677709 0 -0.09588831780292667 0.27454412632779462 0 -0.066768440474010537 0.27698490593489611 0 -0.09588831780292667 0.27454412632779462 0 -0.066768440474010537 0.27698490593489611 0 -0.08123302704241013 0.26698760056642862 0 -0.09588831780292667 0.27454412632779462 0 -0.078345702674044712 0.29043006769243163 0 -0.066768440474010537 0.27698490593489611 0 -0.09588831780292667 0.27454412632779462 0 -0.08123302704241013 0.26698760056642862 0 -0.090652163559778731 0.25982022202125371 0 -0.090652163559778731 0.25982022202125371 0 -0.075536809924525938 0.25416642543677709 0 -0.098735973162726309 0.24932888935710559 0 -0.075536809924525938 0.25416642543677709 0 -0.098735973162726309 0.24932888935710559 0 -0.08123302704241013 0.26698760056642862 0 -0.090652163559778731 0.25982022202125371 0 -0.075536809924525938 0.25416642543677709 0 -0.075536809924525938 0.25416642543677709 0 -0.052337646686325512 0.25900396151644839 0 -0.064683427713709774 0.24159546573999521 0 -0.075536809924525938 0.25416642543677709 0 -0.052337646686325512 0.25900396151644839 0 -0.066768440474010537 0.27698490593489611 0 -0.075536809924525938 0.25416642543677709 0 -0.052337646686325512 0.25900396151644839 0 -0.066768440474010537 0.27698490593489611 0 -0.037648563145094377 0.27942568554199748 0 -0.066768440474010537 0.27698490593489611 0 -0.052337646686325512 0.25900396151644839 0 -0.037648563145094377 0.27942568554199748 0 -0.052337646686325512 0.25900396151644839 0 -0.037648563145094377 0.27942568554199748 0 -0.034511884059906628 0.26167581611866481 0 -0.052337646686325512 0.25900396151644839 0 -0.034511884059906628 0.26167581611866481 0 -0.046543650833338772 0.24342517367774341 0 -0.034511884059906628 0.26167581611866481 0 -0.046543650833338772 0.24342517367774341 0 -0.030953842645404149 0.24517393807931431 0 -0.034511884059906628 0.26167581611866481 0 -0.01719542379391149 0.2506967966615416 0 -0.020406909277880639 0.27382320786926317 0 -0.034511884059906628 0.26167581611866481 0 -0.01719542379391149 0.2506967966615416 0 -0.030953842645404149 0.24517393807931431 0 -0.037648563145094377 0.27942568554199748 0 -0.020406909277880639 0.27382320786926317 0 -0.030864119829358081 0.28847158023227959 0 -0.037648563145094377 0.27942568554199748 0 -0.034511884059906628 0.26167581611866481 0 -0.020406909277880639 0.27382320786926317 0 -0.020406909277880639 0.27382320786926317 0 -0.0025825883053692562 0.26225928622967221 0 -0.0023521959977934122 0.28309489312778618 0 -0.01719542379391149 0.2506967966615416 0 -0.020406909277880639 0.27382320786926317 0 -0.0025825883053692562 0.26225928622967221 0 -0.01719542379391149 0.2506967966615416 0 -0.0025825883053692562 0.26225928622967221 0 -0.003016964063370512 0.2415134021912286 0 -0.013195268979453169 0.3031721572925854 0 -0.0023521959977934122 0.28309489312778618 0 0.00081843167122650027 0.31151972636143688 0 -0.020406909277880639 0.27382320786926317 0 -0.0023521959977934122 0.28309489312778618 0 -0.019401877690812801 0.29090125715964549 0 -0.013195268979453169 0.3031721572925854 0 -0.0023521959977934122 0.28309489312778618 0 -0.019401877690812801 0.29090125715964549 0 -0.019401877690812801 0.29090125715964549 0 -0.030864119829358081 0.28847158023227959 0 -0.030143842361293478 0.30665638313049121 0 -0.020406909277880639 0.27382320786926317 0 -0.019401877690812801 0.29090125715964549 0 -0.030864119829358081 0.28847158023227959 0 -0.013195268979453169 0.3031721572925854 0 -0.019401877690812801 0.29090125715964549 0 -0.030143842361293478 0.30665638313049121 0 -0.013195268979453169 0.3031721572925854 0 -0.030143842361293478 0.30665638313049121 0 -0.015724861844132701 0.32299938474833112 0 -0.062843955951679062 0.31123038229971578 0 -0.030143842361293478 0.30665638313049121 0 -0.041379883792880302 0.29273966361495157 0 -0.037648563145094377 0.27942568554199748 0 -0.041379883792880302 0.29273966361495157 0 -0.058492946129626008 0.2914990287617204 0 -0.030864119829358081 0.28847158023227959 0 -0.030143842361293478 0.30665638313049121 0 -0.041379883792880302 0.29273966361495157 0 -0.037648563145094377 0.27942568554199748 0 -0.030864119829358081 0.28847158023227959 0 -0.041379883792880302 0.29273966361495157 0 -0.066768440474010537 0.27698490593489611 0 -0.037648563145094377 0.27942568554199748 0 -0.058492946129626008 0.2914990287617204 0 -0.062843955951679062 0.31123038229971578 0 -0.041379883792880302 0.29273966361495157 0 -0.062843955951679062 0.31123038229971578 0 -0.041379883792880302 0.29273966361495157 0 -0.058492946129626008 0.2914990287617204 0 -0.062843955951679062 0.31123038229971578 0 -0.030143842361293478 0.30665638313049121 0 -0.035775255995377918 0.32562835424208503 0 -0.062843955951679062 0.31123038229971578 0 -0.051681598530586667 0.33808969901174879 0 -0.035775255995377918 0.32562835424208503 0 -0.051681598530586667 0.33808969901174879 0 -0.035775255995377918 0.32562835424208503 0 -0.02212285361469097 0.34701835704112433 0 -0.030143842361293478 0.30665638313049121 0 -0.035775255995377918 0.32562835424208503 0 -0.015724861844132701 0.32299938474833112 0 -0.035775255995377918 0.32562835424208503 0 -0.015724861844132701 0.32299938474833112 0 -0.02212285361469097 0.34701835704112433 0 -0.015724861844132701 0.32299938474833112 0 -0.0025945876556584179 0.33679014921195449 0 -0.02212285361469097 0.34701835704112433 0 -0.015724861844132701 0.32299938474833112 0 -0.0025945876556584179 0.33679014921195449 0 0.00081843167122650027 0.31151972636143688 0 -0.0025945876556584179 0.33679014921195449 0 0.00081843167122650027 0.31151972636143688 0 -0.013195268979453169 0.3031721572925854 0 -0.015724861844132701 0.32299938474833112 0 0.00081843167122650027 0.31151972636143688 0 -0.0060076069825433353 0.36206057206247222 0 -0.0094206263094282761 0.38733099491298989 0 -0.0060076069825433353 0.36206057206247222 0 -0.019873401011762069 0.36999980107943897 0 -0.0094206263094282761 0.38733099491298989 0 -0.0025945876556584179 0.33679014921195449 0 -0.0060076069825433353 0.36206057206247222 0 -0.02212285361469097 0.34701835704112433 0 -0.0025945876556584179 0.33679014921195449 0 -0.0060076069825433353 0.36206057206247222 0 -0.02212285361469097 0.34701835704112433 0 -0.019873401011762069 0.36999980107943897 0 -0.040077604872416343 0.35980883451605111 0 -0.0060076069825433353 0.36206057206247222 0 -0.02212285361469097 0.34701835704112433 0 -0.019873401011762069 0.36999980107943897 0 -0.019873401011762069 0.36999980107943897 0 -0.040077604872416343 0.35980883451605111 0 -0.034094430121421618 0.37772725369606319 0 -0.040077604872416343 0.35980883451605111 0 -0.051852408168095318 0.37581850949199369 0 -0.034094430121421618 0.37772725369606319 0 -0.051681598530586667 0.33808969901174879 0 -0.02212285361469097 0.34701835704112433 0 -0.040077604872416343 0.35980883451605111 0 -0.051681598530586667 0.33808969901174879 0 -0.040077604872416343 0.35980883451605111 0 -0.064961892638877944 0.3551311649870369 0 -0.064961892638877944 0.3551311649870369 0 -0.068852822940986685 0.37647245592367479 0 -0.051852408168095318 0.37581850949199369 0 -0.040077604872416343 0.35980883451605111 0 -0.064961892638877944 0.3551311649870369 0 -0.051852408168095318 0.37581850949199369 0 -0.08592480207908576 0.36417721395602981 0 -0.064961892638877944 0.3551311649870369 0 -0.084308028110477801 0.32972110098447999 0 -0.08592480207908576 0.36417721395602981 0 -0.064961892638877944 0.3551311649870369 0 -0.068852822940986685 0.37647245592367479 0 -0.08592480207908576 0.36417721395602981 0 -0.084308028110477801 0.32972110098447999 0 -0.10577210026927659 0.34821181966924419 0 -0.062843955951679062 0.31123038229971578 0 -0.051681598530586667 0.33808969901174879 0 -0.084308028110477801 0.32972110098447999 0 -0.051681598530586667 0.33808969901174879 0 -0.064961892638877944 0.3551311649870369 0 -0.084308028110477801 0.32972110098447999 0 -0.062843955951679062 0.31123038229971578 0 -0.084308028110477801 0.32972110098447999 0 -0.088325065400467112 0.30562258919120111 0 -0.062843955951679062 0.31123038229971578 0 -0.084308028110477801 0.32972110098447999 0 -0.088325065400467112 0.30562258919120111 0 -0.084308028110477801 0.32972110098447999 0 -0.1042897646572923 0.32131132456036982 0 -0.084308028110477801 0.32972110098447999 0 -0.10577210026927659 0.34821181966924419 0 -0.084308028110477801 0.32972110098447999 0 -0.1042897646572923 0.32131132456036982 0 -0.10577210026927659 0.34821181966924419 0 -0.1214189212483379 0.31051108492626273 0 -0.1042897646572923 0.32131132456036982 0 -0.1198994759967887 0.33446875216113858 0 -0.1042897646572923 0.32131132456036982 0 -0.1198994759967887 0.33446875216113858 0 -0.10577210026927659 0.34821181966924419 0 -0.12723617242807531 0.36670253835400829 0 -0.1198994759967887 0.33446875216113858 0 -0.10577210026927659 0.34821181966924419 0 -0.12723617242807531 0.36670253835400829 0 -0.10577210026927659 0.34821181966924419 0 -0.1090195714722932 0.38152055220914682 0 -0.08592480207908576 0.36417721395602981 0 -0.10577210026927659 0.34821181966924419 0 -0.1090195714722932 0.38152055220914682 0 -0.12723617242807531 0.36670253835400829 0 -0.10577210026927659 0.34821181966924419 0 -0.12668246113114459 0.39933152810224959 0 -0.1090195714722932 0.38152055220914682 0 -0.1046646776754136 0.41346979916572241 0 -0.1090195714722932 0.38152055220914682 0 -0.1046646776754136 0.41346979916572241 0 -0.082634397042602406 0.3940061899625959 0 -0.12790961240459681 0.38318696892604431 0 -0.12723617242807531 0.36670253835400829 0 -0.1090195714722932 0.38152055220914682 0 -0.12668246113114459 0.39933152810224959 0 -0.12790961240459681 0.38318696892604431 0 -0.1090195714722932 0.38152055220914682 0 -0.12668246113114459 0.39933152810224959 0 -0.1046646776754136 0.41346979916572241 0 -0.13344306362812769 0.41679312353423442 0 -0.12668246113114459 0.39933152810224959 0 -0.1046646776754136 0.41346979916572241 0 -0.13344306362812769 0.41679312353423442 0 -0.12219377721114941 0.43176197840898373 0 -0.1046646776754136 0.41346979916572241 0 -0.12219377721114941 0.43176197840898373 0 -0.1021231497618707 0.43368830865833491 0 -0.1046646776754136 0.41346979916572241 0 -0.12219377721114941 0.43176197840898373 0 -0.1021231497618707 0.43368830865833491 0 -0.1103994879579436 0.44657116114342749 0 -0.1021231497618707 0.43368830865833491 0 -0.1046646776754136 0.41346979916572241 0 -0.082646894219682576 0.42760807022919511 0 -0.1046646776754136 0.41346979916572241 0 -0.082646894219682576 0.42760807022919511 0 -0.1046646776754136 0.41346979916572241 0 -0.082646894219682576 0.42760807022919511 0 -0.082634397042602406 0.3940061899625959 0 -0.082646894219682576 0.42760807022919511 0 -0.066690046646058793 0.40914043702140701 0 -0.082634397042602406 0.3940061899625959 0 -0.082646894219682576 0.42760807022919511 0 -0.062910515530977873 0.42465282133552817 0 -0.060629110763951513 0.44174634129266788 0 -0.082646894219682576 0.42760807022919511 0 -0.060629110763951513 0.44174634129266788 0 -0.082646894219682576 0.42760807022919511 0 -0.062910515530977873 0.42465282133552817 0 -0.066690046646058793 0.40914043702140701 0 -0.066690046646058793 0.40914043702140701 0 -0.082634397042602406 0.3940061899625959 0 -0.06021611013490262 0.39410452806808188 0 -0.08592480207908576 0.36417721395602981 0 -0.1090195714722932 0.38152055220914682 0 -0.082634397042602406 0.3940061899625959 0 -0.08592480207908576 0.36417721395602981 0 -0.082634397042602406 0.3940061899625959 0 -0.068852822940986685 0.37647245592367479 0 -0.082634397042602406 0.3940061899625959 0 -0.068852822940986685 0.37647245592367479 0 -0.06021611013490262 0.39410452806808188 0 -0.068852822940986685 0.37647245592367479 0 -0.051852408168095318 0.37581850949199369 0 -0.06021611013490262 0.39410452806808188 0 -0.051852408168095318 0.37581850949199369 0 -0.06021611013490262 0.39410452806808188 0 -0.043889122113923748 0.39270380751927109 0 -0.06021611013490262 0.39410452806808188 0 -0.043889122113923748 0.39270380751927109 0 -0.047377863897748833 0.41648576848954899 0 -0.043889122113923748 0.39270380751927109 0 -0.030117747484049589 0.39185414973739041 0 -0.024470693741724212 0.41111612966427141 0 -0.051852408168095318 0.37581850949199369 0 -0.043889122113923748 0.39270380751927109 0 -0.034094430121421618 0.37772725369606319 0 -0.043889122113923748 0.39270380751927109 0 -0.034094430121421618 0.37772725369606319 0 -0.030117747484049589 0.39185414973739041 0 -0.019873401011762069 0.36999980107943897 0 -0.034094430121421618 0.37772725369606319 0 -0.018016743959128789 0.38586940806995568 0 -0.034094430121421618 0.37772725369606319 0 -0.018016743959128789 0.38586940806995568 0 -0.030117747484049589 0.39185414973739041 0 -0.019873401011762069 0.36999980107943897 0 -0.018016743959128789 0.38586940806995568 0 -0.0094206263094282761 0.38733099491298989 0 -0.018016743959128789 0.38586940806995568 0 -0.024470693741724212 0.41111612966427141 0 -0.018016743959128789 0.38586940806995568 0 -0.009565215242672561 0.4038935459916681 0 -0.024470693741724212 0.41111612966427141 0 -0.018016743959128789 0.38586940806995568 0 -0.030117747484049589 0.39185414973739041 0 -0.024470693741724212 0.41111612966427141 0 -0.018016743959128789 0.38586940806995568 0 -0.009565215242672561 0.4038935459916681 0 -0.0094206263094282761 0.38733099491298989 0 -0.009565215242672561 0.4038935459916681 0 -0.0094206263094282761 0.38733099491298989 0 0.0094324154655470692 0.39595836782202548 0 -0.0060076069825433353 0.36206057206247222 0 -0.0094206263094282761 0.38733099491298989 0 0.0096039622264710717 0.37703476049044532 0 -0.009565215242672561 0.4038935459916681 0 -0.0053789581149880587 0.42854188731010101 0 -0.024470693741724212 0.41111612966427141 0 -0.009565215242672561 0.4038935459916681 0 -0.0053789581149880587 0.42854188731010101 0 0.0079430538249404721 0.41715511797524929 0 -0.024470693741724212 0.41111612966427141 0 -0.030924643524319631 0.43636285125858693 0 -0.01807907761566941 0.439912738797198 0 -0.0053789581149880587 0.42854188731010101 0 -0.024470693741724212 0.41111612966427141 0 -0.01807907761566941 0.439912738797198 0 -0.024470693741724212 0.41111612966427141 0 -0.030924643524319631 0.43636285125858693 0 -0.030924643524319631 0.43636285125858693 0 -0.047377863897748833 0.41648576848954899 0 -0.048217260360546223 0.43493287831765398 0 -0.024470693741724212 0.41111612966427141 0 -0.030924643524319631 0.43636285125858693 0 -0.047377863897748833 0.41648576848954899 0 -0.043889122113923748 0.39270380751927109 0 -0.024470693741724212 0.41111612966427141 0 -0.047377863897748833 0.41648576848954899 0 -0.066690046646058793 0.40914043702140701 0 -0.06021611013490262 0.39410452806808188 0 -0.047377863897748833 0.41648576848954899 0 -0.062910515530977873 0.42465282133552817 0 -0.066690046646058793 0.40914043702140701 0 -0.047377863897748833 0.41648576848954899 0 -0.062910515530977873 0.42465282133552817 0 -0.047377863897748833 0.41648576848954899 0 -0.048217260360546223 0.43493287831765398 0 -0.062910515530977873 0.42465282133552817 0 -0.048217260360546223 0.43493287831765398 0 -0.060629110763951513 0.44174634129266788 0 -0.060629110763951513 0.44174634129266788 0 -0.048244462240849773 0.4609540789298851 0 -0.038611327308220457 0.45588461235614069 0 -0.048217260360546223 0.43493287831765398 0 -0.060629110763951513 0.44174634129266788 0 -0.038611327308220457 0.45588461235614069 0 -0.060629110763951513 0.44174634129266788 0 -0.038611327308220457 0.45588461235614069 0 -0.060629110763951513 0.44174634129266788 0 -0.062349261543435043 0.46489755826685047 0 -0.048244462240849773 0.4609540789298851 0 -0.062349261543435043 0.46489755826685047 0 -0.048244462240849773 0.4609540789298851 0 -0.046772637518641462 0.47313747743599888 0 -0.037378593306915051 0.46160957285290249 0 -0.034151606155405342 0.4711946888943826 0 -0.046772637518641462 0.47313747743599888 0 -0.048244462240849773 0.4609540789298851 0 -0.037378593306915051 0.46160957285290249 0 -0.046772637518641462 0.47313747743599888 0 -0.048244462240849773 0.4609540789298851 0 -0.038611327308220457 0.45588461235614069 0 -0.037378593306915051 0.46160957285290249 0 -0.037378593306915051 0.46160957285290249 0 -0.026823245346921681 0.46419906871001831 0 -0.034151606155405342 0.4711946888943826 0 -0.030924643524319631 0.43636285125858693 0 -0.038611327308220457 0.45588461235614069 0 -0.037378593306915051 0.46160957285290249 0 -0.030924643524319631 0.43636285125858693 0 -0.037378593306915051 0.46160957285290249 0 -0.026306892245757919 0.45180607277525192 0 -0.030924643524319631 0.43636285125858693 0 -0.037378593306915051 0.46160957285290249 0 -0.030924643524319631 0.43636285125858693 0 -0.048217260360546223 0.43493287831765398 0 -0.038611327308220457 0.45588461235614069 0 -0.030924643524319631 0.43636285125858693 0 -0.01807907761566941 0.439912738797198 0 -0.026306892245757919 0.45180607277525192 0 -0.01807907761566941 0.439912738797198 0 -0.026306892245757919 0.45180607277525192 0 -0.018471473056039221 0.45540030122793362 0 -0.037378593306915051 0.46160957285290249 0 -0.026306892245757919 0.45180607277525192 0 -0.026823245346921681 0.46419906871001831 0 -0.026823245346921681 0.46419906871001831 0 -0.018471473056039221 0.45540030122793362 0 -0.018223219883434699 0.47277168229274852 0 -0.026306892245757919 0.45180607277525192 0 -0.026823245346921681 0.46419906871001831 0 -0.018471473056039221 0.45540030122793362 0 -0.018471473056039221 0.45540030122793362 0 -0.0029218050111873999 0.45624919054704338 0 -0.018223219883434699 0.47277168229274852 0 -0.01807907761566941 0.439912738797198 0 -0.018471473056039221 0.45540030122793362 0 -0.0029218050111873999 0.45624919054704338 0 -0.0053789581149880587 0.42854188731010101 0 -0.01807907761566941 0.439912738797198 0 -0.0029218050111873999 0.45624919054704338 0 -0.015615562970687219 0.5 0 0.0038141287463968631 0.47979790165342401 0 0.01022047848396518 0.5 0 -0.015615562970687219 0.5 0 -0.018223219883434699 0.47277168229274852 0 0.0038141287463968631 0.47979790165342401 0 -0.0029218050111873999 0.45624919054704338 0 -0.018223219883434699 0.47277168229274852 0 0.0038141287463968631 0.47979790165342401 0 -0.026823245346921681 0.46419906871001831 0 -0.018223219883434699 0.47277168229274852 0 -0.034151606155405342 0.4711946888943826 0 -0.018223219883434699 0.47277168229274852 0 -0.034151606155405342 0.4711946888943826 0 -0.034243480072641982 0.48388559747202292 0 -0.015615562970687219 0.5 0 -0.018223219883434699 0.47277168229274852 0 -0.034243480072641982 0.48388559747202292 0 -0.015615562970687219 0.5 0 -0.041451604425339683 0.5 0 -0.034243480072641982 0.48388559747202292 0 -0.041451604425339683 0.5 0 -0.034243480072641982 0.48388559747202292 0 -0.050428515762261157 0.48792249229818918 0 -0.034243480072641982 0.48388559747202292 0 -0.046772637518641462 0.47313747743599888 0 -0.050428515762261157 0.48792249229818918 0 -0.034151606155405342 0.4711946888943826 0 -0.034243480072641982 0.48388559747202292 0 -0.046772637518641462 0.47313747743599888 0 -0.062349261543435043 0.46489755826685047 0 -0.046772637518641462 0.47313747743599888 0 -0.062387210914690558 0.48258938658292388 0 -0.046772637518641462 0.47313747743599888 0 -0.062387210914690558 0.48258938658292388 0 -0.050428515762261157 0.48792249229818918 0 -0.041451604425339683 0.5 0 -0.050428515762261157 0.48792249229818918 0 -0.067287645879992142 0.5 0 -0.062387210914690558 0.48258938658292388 0 -0.050428515762261157 0.48792249229818918 0 -0.067287645879992142 0.5 0 -0.062387210914690558 0.48258938658292388 0 -0.067287645879992142 0.5 0 -0.079183527047254246 0.4764962969195764 0 -0.067287645879992142 0.5 0 -0.0931236873346446 0.49999999999999889 0 -0.079183527047254246 0.4764962969195764 0 -0.0931236873346446 0.49999999999999889 0 -0.079183527047254246 0.4764962969195764 0 -0.098025007437938225 0.47493141433590341 0 -0.062349261543435043 0.46489755826685047 0 -0.062387210914690558 0.48258938658292388 0 -0.079183527047254246 0.4764962969195764 0 -0.062349261543435043 0.46489755826685047 0 -0.079183527047254246 0.4764962969195764 0 -0.075743669717968684 0.45293721961961197 0 -0.060629110763951513 0.44174634129266788 0 -0.062349261543435043 0.46489755826685047 0 -0.075743669717968684 0.45293721961961197 0 -0.082646894219682576 0.42760807022919511 0 -0.060629110763951513 0.44174634129266788 0 -0.075743669717968684 0.45293721961961197 0 -0.082646894219682576 0.42760807022919511 0 -0.075743669717968684 0.45293721961961197 0 -0.093909555015520035 0.45393783138977067 0 -0.1021231497618707 0.43368830865833491 0 -0.082646894219682576 0.42760807022919511 0 -0.093909555015520035 0.45393783138977067 0 -0.079183527047254246 0.4764962969195764 0 -0.075743669717968684 0.45293721961961197 0 -0.093909555015520035 0.45393783138977067 0 -0.079183527047254246 0.4764962969195764 0 -0.093909555015520035 0.45393783138977067 0 -0.098025007437938225 0.47493141433590341 0 -0.10872664498295791 0.46301837352805891 0 -0.093909555015520035 0.45393783138977067 0 -0.098025007437938225 0.47493141433590341 0 -0.10872664498295791 0.46301837352805891 0 -0.093909555015520035 0.45393783138977067 0 -0.1103994879579436 0.44657116114342749 0 -0.1021231497618707 0.43368830865833491 0 -0.093909555015520035 0.45393783138977067 0 -0.1103994879579436 0.44657116114342749 0 -0.1263608341545735 0.45675215224654597 0 -0.1103994879579436 0.44657116114342749 0 -0.1228166191574358 0.44470635706624573 0 -0.12219377721114941 0.43176197840898373 0 -0.1103994879579436 0.44657116114342749 0 -0.1228166191574358 0.44470635706624573 0 -0.1263608341545735 0.45675215224654597 0 -0.10872664498295791 0.46301837352805891 0 -0.11518162280931479 0.48120456984211241 0 -0.1263608341545735 0.45675215224654597 0 -0.10872664498295791 0.46301837352805891 0 -0.1103994879579436 0.44657116114342749 0 -0.13311834770356221 0.50000000000000289 0 -0.11518162280931479 0.48120456984211241 0 -0.1131210175191034 0.5 0 -0.0931236873346446 0.49999999999999889 0 -0.11518162280931479 0.48120456984211241 0 -0.0931236873346446 0.49999999999999889 0 -0.11518162280931479 0.48120456984211241 0 -0.098025007437938225 0.47493141433590341 0 -0.0931236873346446 0.49999999999999889 0 -0.11518162280931479 0.48120456984211241 0 -0.1131210175191034 0.5 0 -0.10872664498295791 0.46301837352805891 0 -0.11518162280931479 0.48120456984211241 0 -0.098025007437938225 0.47493141433590341 0 -0.16788897291654731 0.069945057782824477 0 -0.17165833524891699 0.0974792966333419 0 -0.1598874731804876 0.085109171532680092 0 -0.16788897291654731 0.069945057782824477 0 -0.17165833524891699 0.0974792966333419 0 -0.1598874731804876 0.085109171532680092 0 -0.15911925873931851 0.097625547833328899 0 -0.15089850912220051 0.08801138308258262 0 -0.1598874731804876 0.085109171532680092 0 -0.17165833524891699 0.0974792966333419 0 -0.15911925873931851 0.097625547833328899 0 -0.1598874731804876 0.085109171532680092 0 -0.16788897291654731 0.069945057782824477 0 -0.14582805782466371 0.075736382111498649 0 -0.16788897291654731 0.069945057782824477 0 -0.1906021148760968 0.077669432012547529 0 -0.19043356289645291 0.062884886011389057 0 -0.16788897291654731 0.069945057782824477 0 -0.18279709197870639 0.089168356010054753 0 -0.1906021148760968 0.077669432012547529 0 -0.16788897291654731 0.069945057782824477 0 -0.18279709197870639 0.089168356010054753 0 -0.17165833524891699 0.0974792966333419 0 -0.18279709197870639 0.089168356010054753 0 -0.17363658823652661 0.11192993455685669 0 -0.17165833524891699 0.0974792966333419 0 -0.18279709197870639 0.089168356010054753 0 -0.17363658823652661 0.11192993455685669 0 -0.1956048298541995 0.09456330606004304 0 -0.17363658823652661 0.11192993455685669 0 -0.1956048298541995 0.09456330606004304 0 -0.17363658823652661 0.11192993455685669 0 -0.17165833524891699 0.0974792966333419 0 -0.17363658823652661 0.11192993455685669 0 -0.19225148543410339 0.1160577922268074 0 -0.17542769758128551 0.12501353548385949 0 -0.19225148543410339 0.1160577922268074 0 -0.18777772323542699 0.13376869349721759 0 -0.17542769758128551 0.12501353548385949 0 -0.17363658823652661 0.11192993455685669 0 -0.17542769758128551 0.12501353548385949 0 -0.16105994138094659 0.1104802455407861 0 -0.16242871133876399 0.12047876402394821 0 -0.17542769758128551 0.12501353548385949 0 -0.16105994138094659 0.1104802455407861 0 -0.17542769758128551 0.12501353548385949 0 -0.17363658823652661 0.11192993455685669 0 -0.16105994138094659 0.1104802455407861 0 -0.17542769758128551 0.12501353548385949 0 -0.16105994138094659 0.1104802455407861 0 -0.16242871133876399 0.12047876402394821 0 -0.14669218518060859 0.09594695559771195 0 -0.17363658823652661 0.11192993455685669 0 -0.16105994138094659 0.1104802455407861 0 -0.17165833524891699 0.0974792966333419 0 -0.16105994138094659 0.1104802455407861 0 -0.17165833524891699 0.0974792966333419 0 -0.15911925873931851 0.097625547833328899 0 -0.16105994138094659 0.1104802455407861 0 -0.15911925873931851 0.097625547833328899 0 -0.14669218518060859 0.09594695559771195 0 -0.16242871133876399 0.12047876402394821 0 -0.14669218518060859 0.09594695559771195 0 -0.16242871133876399 0.12047876402394821 0 -0.14669218518060859 0.09594695559771195 0 -0.1384695843070044 0.10999119502911681 0 -0.15911925873931851 0.097625547833328899 0 -0.14669218518060859 0.09594695559771195 0 -0.15089850912220051 0.08801138308258262 0 -0.16105994138094659 0.1104802455407861 0 -0.14669218518060859 0.09594695559771195 0 -0.14669218518060859 0.09594695559771195 0 -0.144534974380087 0.092584060790971062 0 -0.16242871133876399 0.12047876402394821 0 -0.1384695843070044 0.10999119502911681 0 -0.1418160371844612 0.12697877899868329 0 -0.13257072674167369 0.121014259673571 0 -0.1418160371844612 0.12697877899868329 0 -0.1211674449051999 0.1063464447050583 0 -0.1418160371844612 0.12697877899868329 0 -0.1211674449051999 0.1063464447050583 0 -0.1384695843070044 0.10999119502911681 0 -0.1418160371844612 0.12697877899868329 0 -0.1211674449051999 0.1063464447050583 0 -0.13257072674167369 0.121014259673571 0 -0.1211674449051999 0.1063464447050583 0 -0.13257072674167369 0.121014259673571 0 -0.1249092863724191 0.1291970054427006 0 -0.1182939396737577 0.11994366483382821 0 -0.14669218518060859 0.09594695559771195 0 -0.1384695843070044 0.10999119502911681 0 -0.13097575585842389 0.093896190759650944 0 -0.1384695843070044 0.10999119502911681 0 -0.13097575585842389 0.093896190759650944 0 -0.1211674449051999 0.1063464447050583 0 -0.14669218518060859 0.09594695559771195 0 -0.12910515462425129 0.07815730140611124 0 -0.14669218518060859 0.09594695559771195 0 -0.13097575585842389 0.093896190759650944 0 -0.12910515462425129 0.07815730140611124 0 -0.12910515462425129 0.07815730140611124 0 -0.144534974380087 0.092584060790971062 0 -0.14582805782466371 0.075736382111498649 0 -0.14669218518060859 0.09594695559771195 0 -0.12910515462425129 0.07815730140611124 0 -0.144534974380087 0.092584060790971062 0 -0.14669218518060859 0.09594695559771195 0 -0.144534974380087 0.092584060790971062 0 -0.15089850912220051 0.08801138308258262 0 -0.144534974380087 0.092584060790971062 0 -0.15089850912220051 0.08801138308258262 0 -0.14582805782466371 0.075736382111498649 0 -0.1598874731804876 0.085109171532680092 0 -0.15089850912220051 0.08801138308258262 0 -0.14582805782466371 0.075736382111498649 0 -0.16788897291654731 0.069945057782824477 0 -0.14582805782466371 0.075736382111498649 0 -0.14747300292967419 0.054210654001240408 0 -0.14582805782466371 0.075736382111498649 0 -0.1357378888741137 0.064139599866413821 0 -0.14747300292967419 0.054210654001240408 0 -0.12910515462425129 0.07815730140611124 0 -0.14582805782466371 0.075736382111498649 0 -0.1357378888741137 0.064139599866413821 0 -0.12910515462425129 0.07815730140611124 0 -0.1357378888741137 0.064139599866413821 0 -0.1143801088273138 0.068154224893069895 0 -0.1357378888741137 0.064139599866413821 0 -0.14747300292967419 0.054210654001240408 0 -0.1246420523158083 0.053501024822643628 0 -0.14747300292967419 0.054210654001240408 0 -0.1246420523158083 0.053501024822643628 0 -0.1425945996026966 0.03320981994477145 0 -0.14747300292967419 0.054210654001240408 0 -0.1246420523158083 0.053501024822643628 0 -0.1425945996026966 0.03320981994477145 0 -0.1210943312358304 0.024030109409973709 0 -0.1246420523158083 0.053501024822643628 0 -0.1425945996026966 0.03320981994477145 0 -0.14747300292967419 0.054210654001240408 0 -0.16411961058417759 0.042410818932307012 0 -0.1229846482582518 -0.0055933252605166392 0 -0.14750110570290759 -0.002059166847461874 0 -0.13575722351213351 0.01140985292457323 0 -0.1425945996026966 0.03320981994477145 0 -0.13575722351213351 0.01140985292457323 0 -0.1210943312358304 0.024030109409973709 0 -0.1425945996026966 0.03320981994477145 0 -0.16035024825180791 0.014876580081789549 0 -0.16411961058417759 0.042410818932307012 0 -0.1425945996026966 0.03320981994477145 0 -0.13575722351213351 0.01140985292457323 0 -0.16035024825180791 0.014876580081789549 0 -0.14750110570290759 -0.002059166847461874 0 -0.13575722351213351 0.01140985292457323 0 -0.16035024825180791 0.014876580081789549 0 -0.14750110570290759 -0.002059166847461874 0 -0.17188684792672981 -0.0080234740798620328 0 -0.16035024825180791 0.014876580081789549 0 -0.16035024825180791 0.014876580081789549 0 -0.16411961058417759 0.042410818932307012 0 -0.16035024825180791 0.014876580081789549 0 -0.16411961058417759 0.042410818932307012 0 -0.17946354672132361 0.035884134782563651 0 -0.16035024825180791 0.014876580081789549 0 -0.1850113069148196 0.02022207669212206 0 -0.17946354672132361 0.035884134782563651 0 -0.1850113069148196 0.02022207669212206 0 -0.17946354672132361 0.035884134782563651 0 -0.196297860644013 0.034291812860446649 0 -0.17188684792672981 -0.0080234740798620328 0 -0.1850113069148196 0.02022207669212206 0 -0.196142535214333 0.002272681728797563 0 -0.17188684792672981 -0.0080234740798620328 0 -0.16035024825180791 0.014876580081789549 0 -0.1850113069148196 0.02022207669212206 0 -0.16788897291654731 0.069945057782824477 0 -0.16411961058417759 0.042410818932307012 0 -0.178069219696528 0.053825747862927979 0 -0.16788897291654731 0.069945057782824477 0 -0.16411961058417759 0.042410818932307012 0 -0.16788897291654731 0.069945057782824477 0 -0.14747300292967419 0.054210654001240408 0 -0.16411961058417759 0.042410818932307012 0 -0.16411961058417759 0.042410818932307012 0 -0.17946354672132361 0.035884134782563651 0 -0.178069219696528 0.053825747862927979 0 -0.17946354672132361 0.035884134782563651 0 -0.178069219696528 0.053825747862927979 0 -0.19293303423659541 0.049677772265788678 0 -0.16788897291654731 0.069945057782824477 0 -0.178069219696528 0.053825747862927979 0 -0.19043356289645291 0.062884886011389057 0 -0.178069219696528 0.053825747862927979 0 -0.19293303423659541 0.049677772265788678 0 -0.19043356289645291 0.062884886011389057 0 -0.19293303423659541 0.049677772265788678 0 -0.2113827167179595 0.040320340524527098 0 -0.20479915030116411 0.066383615601942558 0 -0.19293303423659541 0.049677772265788678 0 -0.20479915030116411 0.066383615601942558 0 -0.19043356289645291 0.062884886011389057 0 -0.19293303423659541 0.049677772265788678 0 -0.196297860644013 0.034291812860446649 0 -0.2113827167179595 0.040320340524527098 0 -0.17946354672132361 0.035884134782563651 0 -0.19293303423659541 0.049677772265788678 0 -0.196297860644013 0.034291812860446649 0 -0.2113827167179595 0.040320340524527098 0 -0.20479915030116411 0.066383615601942558 0 -0.2113827167179595 0.040320340524527098 0 -0.21927172651074769 0.049773606520156902 0 -0.20479915030116411 0.066383615601942558 0 -0.2204800758920939 0.060086458569199468 0 -0.21927172651074769 0.049773606520156902 0 -0.20479915030116411 0.066383615601942558 0 -0.1850113069148196 0.02022207669212206 0 -0.196142535214333 0.002272681728797563 0 -0.21033311692923021 0.01843772028032372 0 -0.1850113069148196 0.02022207669212206 0 -0.196297860644013 0.034291812860446649 0 -0.21033311692923021 0.01843772028032372 0 -0.196297860644013 0.034291812860446649 0 -0.2113827167179595 0.040320340524527098 0 -0.21033311692923021 0.01843772028032372 0 -0.2113827167179595 0.040320340524527098 0 -0.21033311692923021 0.01843772028032372 0 -0.22632531129473379 0.027944087821601429 0 -0.21782897871155019 -0.0003940275126071017 0 -0.196142535214333 0.002272681728797563 0 -0.21033311692923021 0.01843772028032372 0 -0.21033311692923021 0.01843772028032372 0 -0.2365251488916538 0.012281932688315849 0 -0.21782897871155019 -0.0003940275126071017 0 -0.21033311692923021 0.01843772028032372 0 -0.2365251488916538 0.012281932688315849 0 -0.22632531129473379 0.027944087821601429 0 -0.2389151582729041 0.022006160790378908 0 -0.2365251488916538 0.012281932688315849 0 -0.21033311692923021 0.01843772028032372 0 -0.22632531129473379 0.027944087821601429 0 -0.2365251488916538 0.012281932688315849 0 -0.22632531129473379 0.027944087821601429 0 -0.2389151582729041 0.022006160790378908 0 -0.23390900092781269 0.033063635663041123 0 -0.2389151582729041 0.022006160790378908 0 -0.23390900092781269 0.033063635663041123 0 -0.2418929739992928 0.031949796757456482 0 -0.25215879644776762 0.031834772299794367 0 -0.2516275062592469 0.018919839351225719 0 -0.24614860874480279 0.026177642299713869 0 -0.24614860874480279 0.026177642299713869 0 -0.2389151582729041 0.022006160790378908 0 -0.2418929739992928 0.031949796757456482 0 -0.25215879644776762 0.031834772299794367 0 -0.24614860874480279 0.026177642299713869 0 -0.2418929739992928 0.031949796757456482 0 -0.2516275062592469 0.018919839351225719 0 -0.2389151582729041 0.022006160790378908 0 -0.2365251488916538 0.012281932688315849 0 -0.2516275062592469 0.018919839351225719 0 -0.24614860874480279 0.026177642299713869 0 -0.2389151582729041 0.022006160790378908 0 -0.2389151582729041 0.022006160790378908 0 -0.2365251488916538 0.012281932688315849 0 -0.24622706090199109 -0.0057462285065727151 0 -0.26196604515275917 0.0063026809159313687 0 -0.2365251488916538 0.012281932688315849 0 -0.26196604515275917 0.0063026809159313687 0 -0.2365251488916538 0.012281932688315849 0 -0.23014693126037791 0.050590791027741208 0 -0.2268154754638709 0.061691675964690808 0 -0.23835140184055131 0.059910672614762087 0 -0.23014693126037791 0.050590791027741208 0 -0.2268154754638709 0.061691675964690808 0 -0.2204800758920939 0.060086458569199468 0 -0.23014693126037791 0.050590791027741208 0 -0.21927172651074769 0.049773606520156902 0 -0.2277372121961618 0.040641004740980743 0 -0.23014693126037791 0.050590791027741208 0 -0.2204800758920939 0.060086458569199468 0 -0.21927172651074769 0.049773606520156902 0 -0.2113827167179595 0.040320340524527098 0 -0.22632531129473379 0.027944087821601429 0 -0.2277372121961618 0.040641004740980743 0 -0.2113827167179595 0.040320340524527098 0 -0.21927172651074769 0.049773606520156902 0 -0.2277372121961618 0.040641004740980743 0 -0.23390900092781269 0.033063635663041123 0 -0.2277372121961618 0.040641004740980743 0 -0.23637532121061039 0.040949663720705687 0 -0.22632531129473379 0.027944087821601429 0 -0.23390900092781269 0.033063635663041123 0 -0.2277372121961618 0.040641004740980743 0 -0.23014693126037791 0.050590791027741208 0 -0.2277372121961618 0.040641004740980743 0 -0.23637532121061039 0.040949663720705687 0 -0.23637532121061039 0.040949663720705687 0 -0.24586260723078349 0.038482502583381747 0 -0.24152064460972489 0.049580577733236708 0 -0.23637532121061039 0.040949663720705687 0 -0.2418929739992928 0.031949796757456482 0 -0.24586260723078349 0.038482502583381747 0 -0.23390900092781269 0.033063635663041123 0 -0.23637532121061039 0.040949663720705687 0 -0.2418929739992928 0.031949796757456482 0 -0.25055895697087183 0.045476799495868428 0 -0.25215879644776762 0.031834772299794367 0 -0.24586260723078349 0.038482502583381747 0 -0.25215879644776762 0.031834772299794367 0 -0.2418929739992928 0.031949796757456482 0 -0.24586260723078349 0.038482502583381747 0 -0.25055895697087183 0.045476799495868428 0 -0.24586260723078349 0.038482502583381747 0 -0.24152064460972489 0.049580577733236708 0 -0.2482913708390507 0.051762957954908408 0 -0.24152064460972489 0.049580577733236708 0 -0.24609177366225021 0.058087531758988682 0 -0.25499410811335588 0.053906922831539812 0 -0.2482913708390507 0.051762957954908408 0 -0.24609177366225021 0.058087531758988682 0 -0.25055895697087183 0.045476799495868428 0 -0.2482913708390507 0.051762957954908408 0 -0.24152064460972489 0.049580577733236708 0 -0.23014693126037791 0.050590791027741208 0 -0.24152064460972489 0.049580577733236708 0 -0.23835140184055131 0.059910672614762087 0 -0.23014693126037791 0.050590791027741208 0 -0.23637532121061039 0.040949663720705687 0 -0.24152064460972489 0.049580577733236708 0 -0.24152064460972489 0.049580577733236708 0 -0.23835140184055131 0.059910672614762087 0 -0.24609177366225021 0.058087531758988682 0 -0.24609177366225021 0.058087531758988682 0 -0.24643185974337969 0.073566996350783398 0 -0.23133400031214529 0.077240470435525316 0 -0.24609177366225021 0.058087531758988682 0 -0.23133400031214529 0.077240470435525316 0 -0.23835140184055131 0.059910672614762087 0 -0.24609177366225021 0.058087531758988682 0 -0.23133400031214529 0.077240470435525316 0 -0.2532426392228585 0.065264178478199222 0 -0.24609177366225021 0.058087531758988682 0 -0.24643185974337969 0.073566996350783398 0 -0.25594925391619922 0.086799486035772339 0 -0.24643185974337969 0.073566996350783398 0 -0.2430337458440141 0.088223992159351311 0 -0.2430337458440141 0.088223992159351311 0 -0.2307709827574034 0.090776033873280898 0 -0.23133400031214529 0.077240470435525316 0 -0.24643185974337969 0.073566996350783398 0 -0.2430337458440141 0.088223992159351311 0 -0.23133400031214529 0.077240470435525316 0 -0.2430337458440141 0.088223992159351311 0 -0.2307709827574034 0.090776033873280898 0 -0.23213995791141359 0.10124626378618511 0 -0.2307709827574034 0.090776033873280898 0 -0.23133400031214529 0.077240470435525316 0 -0.2165762269620406 0.096393409112061915 0 -0.23133400031214529 0.077240470435525316 0 -0.21828349286246049 0.076178781647060462 0 -0.2165762269620406 0.096393409112061915 0 -0.23133400031214529 0.077240470435525316 0 -0.2165762269620406 0.096393409112061915 0 -0.23835140184055131 0.059910672614762087 0 -0.23133400031214529 0.077240470435525316 0 -0.21828349286246049 0.076178781647060462 0 -0.2268154754638709 0.061691675964690808 0 -0.23835140184055131 0.059910672614762087 0 -0.21828349286246049 0.076178781647060462 0 -0.23835140184055131 0.059910672614762087 0 -0.21828349286246049 0.076178781647060462 0 -0.2268154754638709 0.061691675964690808 0 -0.2204800758920939 0.060086458569199468 0 -0.21828349286246049 0.076178781647060462 0 -0.2204800758920939 0.060086458569199468 0 -0.21828349286246049 0.076178781647060462 0 -0.20479915030116411 0.066383615601942558 0 -0.21828349286246049 0.076178781647060462 0 -0.19821558388436941 0.092446890679358393 0 -0.21828349286246049 0.076178781647060462 0 -0.19821558388436941 0.092446890679358393 0 -0.20668562230098689 0.097724646026547193 0 -0.21828349286246049 0.076178781647060462 0 -0.20479915030116411 0.066383615601942558 0 -0.19821558388436941 0.092446890679358393 0 -0.21828349286246049 0.076178781647060462 0 -0.20668562230098689 0.097724646026547193 0 -0.2165762269620406 0.096393409112061915 0 -0.19821558388436941 0.092446890679358393 0 -0.1906021148760968 0.077669432012547529 0 -0.1956048298541995 0.09456330606004304 0 -0.20479915030116411 0.066383615601942558 0 -0.19821558388436941 0.092446890679358393 0 -0.1906021148760968 0.077669432012547529 0 -0.1956048298541995 0.09456330606004304 0 -0.20479915030116411 0.066383615601942558 0 -0.19821558388436941 0.092446890679358393 0 -0.1906021148760968 0.077669432012547529 0 -0.18279709197870639 0.089168356010054753 0 -0.1906021148760968 0.077669432012547529 0 -0.1956048298541995 0.09456330606004304 0 -0.19821558388436941 0.092446890679358393 0 -0.1956048298541995 0.09456330606004304 0 -0.20479915030116411 0.066383615601942558 0 -0.1906021148760968 0.077669432012547529 0 -0.19043356289645291 0.062884886011389057 0 -0.19225148543410339 0.1160577922268074 0 -0.18777772323542699 0.13376869349721759 0 -0.20181845361193279 0.11554634778859629 0 -0.18777772323542699 0.13376869349721759 0 -0.20181845361193279 0.11554634778859629 0 -0.19225148543410339 0.1160577922268074 0 -0.19672524763278079 0.098346890956397551 0 -0.20181845361193279 0.11554634778859629 0 -0.19225148543410339 0.1160577922268074 0 -0.18777772323542699 0.13376869349721759 0 -0.19225148543410339 0.1160577922268074 0 -0.19672524763278079 0.098346890956397551 0 -0.20181845361193279 0.11554634778859629 0 -0.19672524763278079 0.098346890956397551 0 -0.20668562230098689 0.097724646026547193 0 -0.17363658823652661 0.11192993455685669 0 -0.19225148543410339 0.1160577922268074 0 -0.19672524763278079 0.098346890956397551 0 -0.20181845361193279 0.11554634778859629 0 -0.19672524763278079 0.098346890956397551 0 -0.17363658823652661 0.11192993455685669 0 -0.1956048298541995 0.09456330606004304 0 -0.19672524763278079 0.098346890956397551 0 -0.19821558388436941 0.092446890679358393 0 -0.19672524763278079 0.098346890956397551 0 -0.20668562230098689 0.097724646026547193 0 -0.19821558388436941 0.092446890679358393 0 -0.19672524763278079 0.098346890956397551 0 -0.19821558388436941 0.092446890679358393 0 -0.1956048298541995 0.09456330606004304 0 -0.19672524763278079 0.098346890956397551 0 -0.1956048298541995 0.09456330606004304 0 -0.19672524763278079 0.098346890956397551 0 -0.20181845361193279 0.11554634778859629 0 -0.2165762269620406 0.096393409112061915 0 -0.22146992585824371 0.11355135203945869 0 -0.20181845361193279 0.11554634778859629 0 -0.20668562230098689 0.097724646026547193 0 -0.2165762269620406 0.096393409112061915 0 -0.20181845361193279 0.11554634778859629 0 -0.2165762269620406 0.096393409112061915 0 -0.20181845361193279 0.11554634778859629 0 -0.22146992585824371 0.11355135203945869 0 -0.22319605752181521 0.1297407444781653 0 -0.22146992585824371 0.11355135203945869 0 -0.23342104139119529 0.1155738482960486 0 -0.22319605752181521 0.1297407444781653 0 -0.22146992585824371 0.11355135203945869 0 -0.23342104139119529 0.1155738482960486 0 -0.23213995791141359 0.10124626378618511 0 -0.23342104139119529 0.1155738482960486 0 -0.237648997933152 0.1267162702031211 0 -0.22319605752181521 0.1297407444781653 0 -0.2165762269620406 0.096393409112061915 0 -0.22146992585824371 0.11355135203945869 0 -0.23213995791141359 0.10124626378618511 0 -0.2307709827574034 0.090776033873280898 0 -0.2165762269620406 0.096393409112061915 0 -0.23213995791141359 0.10124626378618511 0 -0.2430337458440141 0.088223992159351311 0 -0.24460205120436529 0.1114490207804217 0 -0.25432004880133358 0.099476279807380746 0 -0.2430337458440141 0.088223992159351311 0 -0.24460205120436529 0.1114490207804217 0 -0.2430337458440141 0.088223992159351311 0 -0.23213995791141359 0.10124626378618511 0 -0.24460205120436529 0.1114490207804217 0 -0.25629690274402139 0.12232477356589321 0 -0.24460205120436529 0.1114490207804217 0 -0.24617035656471711 0.13467404940149219 0 -0.24460205120436529 0.1114490207804217 0 -0.24617035656471711 0.13467404940149219 0 -0.24460205120436529 0.1114490207804217 0 -0.24617035656471711 0.13467404940149219 0 -0.237648997933152 0.1267162702031211 0 -0.23342104139119529 0.1155738482960486 0 -0.24460205120436529 0.1114490207804217 0 -0.237648997933152 0.1267162702031211 0 -0.23342104139119529 0.1155738482960486 0 -0.23213995791141359 0.10124626378618511 0 -0.24460205120436529 0.1114490207804217 0 -0.24617035656471711 0.13467404940149219 0 -0.2338630681251809 0.13640047101208949 0 -0.23606028133492971 0.14753382129510259 0 -0.24617035656471711 0.13467404940149219 0 -0.237648997933152 0.1267162702031211 0 -0.2338630681251809 0.13640047101208949 0 -0.24617035656471711 0.13467404940149219 0 -0.237648997933152 0.1267162702031211 0 -0.22319605752181521 0.1297407444781653 0 -0.22623964727129039 0.14333746968256611 0 -0.20946233875628609 0.14135929804210209 0 -0.237648997933152 0.1267162702031211 0 -0.2338630681251809 0.13640047101208949 0 -0.22319605752181521 0.1297407444781653 0 -0.2338630681251809 0.13640047101208949 0 -0.22319605752181521 0.1297407444781653 0 -0.22623964727129039 0.14333746968256611 0 -0.22623964727129039 0.14333746968256611 0 -0.225223031372388 0.15652031897759441 0 -0.20946233875628609 0.14135929804210209 0 -0.2338630681251809 0.13640047101208949 0 -0.22623964727129039 0.14333746968256611 0 -0.23606028133492971 0.14753382129510259 0 -0.23606028133492971 0.14753382129510259 0 -0.235130878245571 0.16058342042833751 0 -0.225223031372388 0.15652031897759441 0 -0.22623964727129039 0.14333746968256611 0 -0.23606028133492971 0.14753382129510259 0 -0.225223031372388 0.15652031897759441 0 -0.23606028133492971 0.14753382129510259 0 -0.24742470105536901 0.1532496325963128 0 -0.235130878245571 0.16058342042833751 0 -0.24617035656471711 0.13467404940149219 0 -0.23606028133492971 0.14753382129510259 0 -0.24742470105536901 0.1532496325963128 0 -0.24617035656471711 0.13467404940149219 0 -0.24742470105536901 0.1532496325963128 0 -0.25290133003927823 0.16617244732729211 0 -0.24742470105536901 0.1532496325963128 0 -0.24867904554602149 0.1718252157911333 0 -0.24742470105536901 0.1532496325963128 0 -0.24867904554602149 0.1718252157911333 0 -0.24057032607843629 0.16771729737738861 0 -0.24742470105536901 0.1532496325963128 0 -0.24867904554602149 0.1718252157911333 0 -0.24867904554602149 0.1718252157911333 0 -0.24057032607843629 0.16771729737738861 0 -0.2436460931949167 0.1753797677553319 0 -0.24057032607843629 0.16771729737738861 0 -0.23623579966818101 0.17678517901474991 0 -0.23275146572439459 0.16769204110126229 0 -0.24057032607843629 0.16771729737738861 0 -0.235130878245571 0.16058342042833751 0 -0.23275146572439459 0.16769204110126229 0 -0.24742470105536901 0.1532496325963128 0 -0.24057032607843629 0.16771729737738861 0 -0.235130878245571 0.16058342042833751 0 -0.2490992014870253 0.1851913788380552 0 -0.23623579966818101 0.17678517901474991 0 -0.24867904554602149 0.1718252157911333 0 -0.2490992014870253 0.1851913788380552 0 -0.2436460931949167 0.1753797677553319 0 -0.2490992014870253 0.1851913788380552 0 -0.2436460931949167 0.1753797677553319 0 -0.23623579966818101 0.17678517901474991 0 -0.24057032607843629 0.16771729737738861 0 -0.2436460931949167 0.1753797677553319 0 -0.23623579966818101 0.17678517901474991 0 -0.2490992014870253 0.1851913788380552 0 -0.23623579966818101 0.17678517901474991 0 -0.23641292691124541 0.1880673096158928 0 -0.21710622390064141 0.1671722482956074 0 -0.22245167127694879 0.18975595083608221 0 -0.22919179924779351 0.17939706393139171 0 -0.2224898837917709 0.18535255089397079 0 -0.21710622390064141 0.1671722482956074 0 -0.2224898837917709 0.18535255089397079 0 -0.21710622390064141 0.1671722482956074 0 -0.22245167127694879 0.18975595083608221 0 -0.2224898837917709 0.18535255089397079 0 -0.21710622390064141 0.1671722482956074 0 -0.22949490250930449 0.18648684862388831 0 -0.22919179924779351 0.17939706393139171 0 -0.23641292691124541 0.1880673096158928 0 -0.23623579966818101 0.17678517901474991 0 -0.22919179924779351 0.17939706393139171 0 -0.23641292691124541 0.1880673096158928 0 -0.22949490250930449 0.18648684862388831 0 -0.22919179924779351 0.17939706393139171 0 -0.2224898837917709 0.18535255089397079 0 -0.23623579966818101 0.17678517901474991 0 -0.22919179924779351 0.17939706393139171 0 -0.22337239784934071 0.1683789791914386 0 -0.23623579966818101 0.17678517901474991 0 -0.22337239784934071 0.1683789791914386 0 -0.22919179924779351 0.17939706393139171 0 -0.21710622390064141 0.1671722482956074 0 -0.235130878245571 0.16058342042833751 0 -0.2289158810987684 0.16322089954296851 0 -0.225223031372388 0.15652031897759441 0 -0.235130878245571 0.16058342042833751 0 -0.2289158810987684 0.16322089954296851 0 -0.23275146572439459 0.16769204110126229 0 -0.2289158810987684 0.16322089954296851 0 -0.23275146572439459 0.16769204110126229 0 -0.22337239784934071 0.1683789791914386 0 -0.23623579966818101 0.17678517901474991 0 -0.23275146572439459 0.16769204110126229 0 -0.22337239784934071 0.1683789791914386 0 -0.22919179924779351 0.17939706393139171 0 -0.22337239784934071 0.1683789791914386 0 -0.21710622390064141 0.1671722482956074 0 -0.22337239784934071 0.1683789791914386 0 -0.225223031372388 0.15652031897759441 0 -0.21710622390064141 0.1671722482956074 0 -0.2289158810987684 0.16322089954296851 0 -0.22337239784934071 0.1683789791914386 0 -0.225223031372388 0.15652031897759441 0 -0.225223031372388 0.15652031897759441 0 -0.21710622390064141 0.1671722482956074 0 -0.21121363200749679 0.14727331227950671 0 -0.21710622390064141 0.1671722482956074 0 -0.20155066477533681 0.15143747051664119 0 -0.21710622390064141 0.1671722482956074 0 -0.19993503962516729 0.16224335096929751 0 -0.20155066477533681 0.15143747051664119 0 -0.21710622390064141 0.1671722482956074 0 -0.20618628610329881 0.17454739705814529 0 -0.19993503962516729 0.16224335096929751 0 -0.21710622390064141 0.1671722482956074 0 -0.21121363200749679 0.14727331227950671 0 -0.20618628610329881 0.17454739705814529 0 -0.20471688402155139 0.18681832804815021 0 -0.22245167127694879 0.18975595083608221 0 -0.21710622390064141 0.1671722482956074 0 -0.20618628610329881 0.17454739705814529 0 -0.22245167127694879 0.18975595083608221 0 -0.20471688402155139 0.18681832804815021 0 -0.19844339206724251 0.17882869515742941 0 -0.1911919551992213 0.1847172670300499 0 -0.20618628610329881 0.17454739705814529 0 -0.20471688402155139 0.18681832804815021 0 -0.19844339206724251 0.17882869515742941 0 -0.20618628610329881 0.17454739705814529 0 -0.19844339206724251 0.17882869515742941 0 -0.19528337610102189 0.17169618861661959 0 -0.19107866849262559 0.17620262261898231 0 -0.1911919551992213 0.1847172670300499 0 -0.18267019353835931 0.17791813736928691 0 -0.19844339206724251 0.17882869515742941 0 -0.19107866849262559 0.17620262261898231 0 -0.19528337610102189 0.17169618861661959 0 -0.19844339206724251 0.17882869515742941 0 -0.19107866849262559 0.17620262261898231 0 -0.1911919551992213 0.1847172670300499 0 -0.19993503962516729 0.16224335096929751 0 -0.19400018621742671 0.15511630486767369 0 -0.20155066477533681 0.15143747051664119 0 -0.20618628610329881 0.17454739705814529 0 -0.19993503962516729 0.16224335096929751 0 -0.19528337610102189 0.17169618861661959 0 -0.19993503962516729 0.16224335096929751 0 -0.19528337610102189 0.17169618861661959 0 -0.18694018318592209 0.15868991212336131 0 -0.19107866849262559 0.17620262261898231 0 -0.19528337610102189 0.17169618861661959 0 -0.18106567149545619 0.16619750950848039 0 -0.19528337610102189 0.17169618861661959 0 -0.18694018318592209 0.15868991212336131 0 -0.19528337610102189 0.17169618861661959 0 -0.18694018318592209 0.15868991212336131 0 -0.18106567149545619 0.16619750950848039 0 -0.19993503962516729 0.16224335096929751 0 -0.19400018621742671 0.15511630486767369 0 -0.18694018318592209 0.15868991212336131 0 -0.18839762166734381 0.14928686689848281 0 -0.19400018621742671 0.15511630486767369 0 -0.18694018318592209 0.15868991212336131 0 -0.20155066477533681 0.15143747051664119 0 -0.197527003081441 0.1357714214392301 0 -0.20946233875628609 0.14135929804210209 0 -0.20155066477533681 0.15143747051664119 0 -0.197527003081441 0.1357714214392301 0 -0.18615944606555149 0.13586892655141791 0 -0.18839762166734381 0.14928686689848281 0 -0.19400018621742671 0.15511630486767369 0 -0.20155066477533681 0.15143747051664119 0 -0.18839762166734381 0.14928686689848281 0 -0.20155066477533681 0.15143747051664119 0 -0.1863906914488852 0.1392597280983921 0 -0.20155066477533681 0.15143747051664119 0 -0.18615944606555149 0.13586892655141791 0 -0.1863906914488852 0.1392597280983921 0 -0.20155066477533681 0.15143747051664119 0 -0.18615944606555149 0.13586892655141791 0 -0.20181845361193279 0.11554634778859629 0 -0.18777772323542699 0.13376869349721759 0 -0.197527003081441 0.1357714214392301 0 -0.18777772323542699 0.13376869349721759 0 -0.197527003081441 0.1357714214392301 0 -0.18615944606555149 0.13586892655141791 0 -0.20181845361193279 0.11554634778859629 0 -0.197527003081441 0.1357714214392301 0 -0.20946233875628609 0.14135929804210209 0 -0.20181845361193279 0.11554634778859629 0 -0.20946233875628609 0.14135929804210209 0 -0.20181845361193279 0.11554634778859629 0 -0.22319605752181521 0.1297407444781653 0 -0.20946233875628609 0.14135929804210209 0 -0.21710622390064141 0.1671722482956074 0 -0.20155066477533681 0.15143747051664119 0 -0.21121363200749679 0.14727331227950671 0 -0.225223031372388 0.15652031897759441 0 -0.21121363200749679 0.14727331227950671 0 -0.20946233875628609 0.14135929804210209 0 -0.20155066477533681 0.15143747051664119 0 -0.21121363200749679 0.14727331227950671 0 -0.20946233875628609 0.14135929804210209 0 -0.21121363200749679 0.14727331227950671 0 -0.20946233875628609 0.14135929804210209 0 -0.22153032856908481 0.249825803546535 0 -0.22040599193271621 0.24060379836723189 0 -0.23131744949611999 0.23907751118925541 0 -0.22040599193271621 0.24060379836723189 0 -0.23131744949611999 0.23907751118925541 0 -0.22040599193271621 0.24060379836723189 0 -0.23131744949611999 0.23907751118925541 0 -0.21897795363440331 0.2261144808282182 0 -0.24284444918897469 0.25499796420522253 0 -0.24803869981560719 0.24872960313750719 0 -0.2385283141416755 0.23806886040300251 0 -0.2336055725864668 0.26269329989713119 0 -0.23131744949611999 0.23907751118925541 0 -0.2385283141416755 0.23806886040300251 0 -0.25100080036135147 0.24264522738084729 0 -0.24803869981560719 0.24872960313750719 0 -0.2385283141416755 0.23806886040300251 0 -0.25407723701030299 0.2358938877682307 0 -0.25100080036135147 0.24264522738084729 0 -0.2385283141416755 0.23806886040300251 0 -0.25407723701030299 0.2358938877682307 0 -0.2385283141416755 0.23806886040300251 0 -0.23131744949611999 0.23907751118925541 0 -0.2385283141416755 0.23806886040300251 0 -0.25557888046928079 0.22193338844258101 0 -0.25407723701030299 0.2358938877682307 0 -0.2385283141416755 0.23806886040300251 0 -0.2385283141416755 0.23806886040300251 0 -0.23110071329894549 0.2218041407264657 0 -0.24381375781435391 0.21163011962052941 0 -0.25557888046928079 0.22193338844258101 0 -0.2385283141416755 0.23806886040300251 0 -0.24381375781435391 0.21163011962052941 0 -0.2385283141416755 0.23806886040300251 0 -0.24381375781435391 0.21163011962052941 0 -0.23131744949611999 0.23907751118925541 0 -0.23110071329894549 0.2218041407264657 0 -0.2288278480314507 0.21338225799047361 0 -0.23131744949611999 0.23907751118925541 0 -0.21897795363440331 0.2261144808282182 0 -0.2288278480314507 0.21338225799047361 0 -0.23131744949611999 0.23907751118925541 0 -0.2385283141416755 0.23806886040300251 0 -0.23110071329894549 0.2218041407264657 0 -0.23131744949611999 0.23907751118925541 0 -0.2288278480314507 0.21338225799047361 0 -0.21897795363440331 0.2261144808282182 0 -0.2288278480314507 0.21338225799047361 0 -0.21163342351461559 0.20622190828383041 0 -0.2278735436829005 0.20353285349233399 0 -0.2288278480314507 0.21338225799047361 0 -0.2288284476104154 0.20675750785491659 0 -0.2346543231658362 0.21054863964745951 0 -0.23763545909580261 0.2010540921666942 0 -0.2278735436829005 0.20353285349233399 0 -0.2288284476104154 0.20675750785491659 0 -0.23763545909580261 0.2010540921666942 0 -0.2278735436829005 0.20353285349233399 0 -0.2288284476104154 0.20675750785491659 0 -0.2288278480314507 0.21338225799047361 0 -0.2278735436829005 0.20353285349233399 0 -0.2288284476104154 0.20675750785491659 0 -0.2288284476104154 0.20675750785491659 0 -0.2288278480314507 0.21338225799047361 0 -0.2346543231658362 0.21054863964745951 0 -0.23110071329894549 0.2218041407264657 0 -0.2288278480314507 0.21338225799047361 0 -0.2346543231658362 0.21054863964745951 0 -0.23110071329894549 0.2218041407264657 0 -0.2288278480314507 0.21338225799047361 0 -0.23110071329894549 0.2218041407264657 0 -0.24381375781435391 0.21163011962052941 0 -0.2346543231658362 0.21054863964745951 0 -0.24381375781435391 0.21163011962052941 0 -0.2346543231658362 0.21054863964745951 0 -0.23763545909580261 0.2010540921666942 0 -0.2490992014870253 0.1851913788380552 0 -0.24381375781435391 0.21163011962052941 0 -0.23763545909580261 0.2010540921666942 0 -0.2490992014870253 0.1851913788380552 0 -0.24381375781435391 0.21163011962052941 0 -0.2490992014870253 0.1851913788380552 0 -0.23763545909580261 0.2010540921666942 0 -0.23641292691124541 0.1880673096158928 0 -0.23763545909580261 0.2010540921666942 0 -0.23641292691124541 0.1880673096158928 0 -0.23250445075892659 0.19492734969257619 0 -0.2224898837917709 0.18535255089397079 0 -0.2278735436829005 0.20353285349233399 0 -0.2288278480314507 0.21338225799047361 0 -0.22245167127694879 0.18975595083608221 0 -0.21163342351461559 0.20622190828383041 0 -0.2224898837917709 0.18535255089397079 0 -0.2278735436829005 0.20353285349233399 0 -0.22697414451876519 0.19425012708925291 0 -0.2278735436829005 0.20353285349233399 0 -0.2288278480314507 0.21338225799047361 0 -0.22245167127694879 0.18975595083608221 0 -0.22949490250930449 0.18648684862388831 0 -0.22697414451876519 0.19425012708925291 0 -0.23250445075892659 0.19492734969257619 0 -0.22949490250930449 0.18648684862388831 0 -0.23641292691124541 0.1880673096158928 0 -0.23250445075892659 0.19492734969257619 0 -0.2288278480314507 0.21338225799047361 0 -0.22245167127694879 0.18975595083608221 0 -0.2224898837917709 0.18535255089397079 0 -0.2278735436829005 0.20353285349233399 0 -0.22245167127694879 0.18975595083608221 0 -0.2278735436829005 0.20353285349233399 0 -0.23763545909580261 0.2010540921666942 0 -0.23250445075892659 0.19492734969257619 0 -0.2278735436829005 0.20353285349233399 0 -0.22697414451876519 0.19425012708925291 0 -0.2278735436829005 0.20353285349233399 0 -0.22697414451876519 0.19425012708925291 0 -0.23250445075892659 0.19492734969257619 0 -0.22949490250930449 0.18648684862388831 0 -0.2224898837917709 0.18535255089397079 0 -0.22697414451876519 0.19425012708925291 0 -0.20471688402155139 0.18681832804815021 0 -0.22245167127694879 0.18975595083608221 0 -0.21163342351461559 0.20622190828383041 0 -0.20471688402155139 0.18681832804815021 0 -0.1911919551992213 0.1847172670300499 0 -0.19134744364318559 0.19994618497119721 0 -0.20471688402155139 0.18681832804815021 0 -0.19134744364318559 0.19994618497119721 0 -0.21163342351461559 0.20622190828383041 0 -0.19134744364318559 0.19994618497119721 0 -0.2008655245871078 0.22137181257143301 0 -0.18468973869350741 0.21731530028516871 0 -0.19134744364318559 0.19994618497119721 0 -0.21163342351461559 0.20622190828383041 0 -0.2008655245871078 0.22137181257143301 0 -0.21897795363440331 0.2261144808282182 0 -0.21163342351461559 0.20622190828383041 0 -0.2008655245871078 0.22137181257143301 0 -0.21897795363440331 0.2261144808282182 0 -0.2008655245871078 0.22137181257143301 0 -0.20576536070046669 0.23636117409229759 0 -0.22040599193271621 0.24060379836723189 0 -0.21897795363440331 0.2261144808282182 0 -0.20576536070046669 0.23636117409229759 0 -0.1889528198521204 0.2342525639158819 0 -0.2008655245871078 0.22137181257143301 0 -0.20576536070046669 0.23636117409229759 0 -0.1889528198521204 0.2342525639158819 0 -0.2008655245871078 0.22137181257143301 0 -0.18468973869350741 0.21731530028516871 0 -0.1889528198521204 0.2342525639158819 0 -0.19480395922677551 0.24933181214922981 0 -0.20576536070046669 0.23636117409229759 0 -0.19480395922677551 0.24933181214922981 0 -0.2083987359728901 0.24727119879500239 0 -0.20576536070046669 0.23636117409229759 0 -0.22040599193271621 0.24060379836723189 0 -0.2083987359728901 0.24727119879500239 0 -0.20576536070046669 0.23636117409229759 0 -0.22153032856908481 0.249825803546535 0 -0.22040599193271621 0.24060379836723189 0 -0.2083987359728901 0.24727119879500239 0 -0.17455766217628191 0.25112670725596881 0 -0.17303467372858319 0.2300085771411938 0 -0.155276860567574 0.24419427542254449 0 -0.17455766217628191 0.25112670725596881 0 -0.1889528198521204 0.2342525639158819 0 -0.17303467372858319 0.2300085771411938 0 -0.17455766217628191 0.25112670725596881 0 -0.1889528198521204 0.2342525639158819 0 -0.19480395922677551 0.24933181214922981 0 -0.1889528198521204 0.2342525639158819 0 -0.17303467372858319 0.2300085771411938 0 -0.18468973869350741 0.21731530028516871 0 -0.17303467372858319 0.2300085771411938 0 -0.14729782577332429 0.22308972679305061 0 -0.155276860567574 0.24419427542254449 0 -0.17303467372858319 0.2300085771411938 0 -0.17020816273865769 0.20797486268598611 0 -0.14729782577332429 0.22308972679305061 0 -0.17303467372858319 0.2300085771411938 0 -0.17020816273865769 0.20797486268598611 0 -0.17020816273865769 0.20797486268598611 0 -0.1517821257020405 0.20325345388889071 0 -0.14729782577332429 0.22308972679305061 0 -0.19134744364318559 0.19994618497119721 0 -0.17020816273865769 0.20797486268598611 0 -0.18468973869350741 0.21731530028516871 0 -0.17303467372858319 0.2300085771411938 0 -0.17020816273865769 0.20797486268598611 0 -0.18468973869350741 0.21731530028516871 0 -0.17020816273865769 0.20797486268598611 0 -0.17959333140608799 0.1888099146076164 0 -0.1673816517487321 0.1859411482307782 0 -0.19134744364318559 0.19994618497119721 0 -0.17020816273865769 0.20797486268598611 0 -0.17959333140608799 0.1888099146076164 0 -0.1911919551992213 0.1847172670300499 0 -0.19134744364318559 0.19994618497119721 0 -0.17959333140608799 0.1888099146076164 0 -0.17020816273865769 0.20797486268598611 0 -0.1517821257020405 0.20325345388889071 0 -0.1673816517487321 0.1859411482307782 0 -0.17020816273865769 0.20797486268598611 0 -0.1673816517487321 0.1859411482307782 0 -0.1328467202536954 0.2050592673927904 0 -0.14870093050624941 0.18448335058417989 0 -0.1328467202536954 0.2050592673927904 0 -0.1517821257020405 0.20325345388889071 0 -0.14870093050624941 0.18448335058417989 0 -0.1517821257020405 0.20325345388889071 0 -0.1673816517487321 0.1859411482307782 0 -0.14870093050624941 0.18448335058417989 0 -0.1328467202536954 0.2050592673927904 0 -0.14870093050624941 0.18448335058417989 0 -0.1287141736261708 0.18323961355764659 0 -0.1328467202536954 0.2050592673927904 0 -0.1287141736261708 0.18323961355764659 0 -0.12003394262236999 0.19586417607020851 0 -0.1328467202536954 0.2050592673927904 0 -0.14729782577332429 0.22308972679305061 0 -0.13192320011980541 0.22712800304841929 0 -0.1328467202536954 0.2050592673927904 0 -0.1517821257020405 0.20325345388889071 0 -0.14729782577332429 0.22308972679305061 0 -0.14729782577332429 0.22308972679305061 0 -0.13192320011980541 0.22712800304841929 0 -0.13382409817703389 0.2420122431064673 0 -0.1328467202536954 0.2050592673927904 0 -0.13192320011980541 0.22712800304841929 0 -0.1169925100011414 0.2256351842014008 0 -0.12316148006640409 0.25829415015194301 0 -0.13382409817703389 0.2420122431064673 0 -0.1182302698947966 0.24526389947704311 0 -0.13192320011980541 0.22712800304841929 0 -0.13382409817703389 0.2420122431064673 0 -0.1182302698947966 0.24526389947704311 0 -0.13382409817703389 0.2420122431064673 0 -0.1182302698947966 0.24526389947704311 0 -0.14729782577332429 0.22308972679305061 0 -0.13382409817703389 0.2420122431064673 0 -0.155276860567574 0.24419427542254449 0 -0.13859112369487381 0.25931217237250681 0 -0.13382409817703389 0.2420122431064673 0 -0.155276860567574 0.24419427542254449 0 -0.162464629463722 0.14761111329230869 0 -0.16455514075880509 0.16390743377557071 0 -0.162464629463722 0.14761111329230869 0 -0.16455514075880509 0.16390743377557071 0 -0.15116505086304791 0.15697498780269911 0 -0.17074027403129649 0.15588024190428229 0 -0.162464629463722 0.14761111329230869 0 -0.16455514075880509 0.16390743377557071 0 -0.16976826471124609 0.14570709609468191 0 -0.17074027403129649 0.15588024190428229 0 -0.162464629463722 0.14761111329230869 0 -0.17074027403129649 0.15588024190428229 0 -0.162464629463722 0.14761111329230869 0 -0.16242871133876399 0.12047876402394821 0 -0.16976826471124609 0.14570709609468191 0 -0.162464629463722 0.14761111329230869 0 -0.16242871133876399 0.12047876402394821 0 -0.16976826471124609 0.14570709609468191 0 -0.17816523749691959 0.14501057245018409 0 -0.16242871133876399 0.12047876402394821 0 -0.17816523749691959 0.14501057245018409 0 -0.17542769758128551 0.12501353548385949 0 -0.18615944606555149 0.13586892655141791 0 -0.17816523749691959 0.14501057245018409 0 -0.16242871133876399 0.12047876402394821 0 -0.17542769758128551 0.12501353548385949 0 -0.17816523749691959 0.14501057245018409 0 -0.17542769758128551 0.12501353548385949 0 -0.17816523749691959 0.14501057245018409 0 -0.17542769758128551 0.12501353548385949 0 -0.18615944606555149 0.13586892655141791 0 -0.18777772323542699 0.13376869349721759 0 -0.17542769758128551 0.12501353548385949 0 -0.18615944606555149 0.13586892655141791 0 -0.18615944606555149 0.13586892655141791 0 -0.17816523749691959 0.14501057245018409 0 -0.18615944606555149 0.13586892655141791 0 -0.1863906914488852 0.1392597280983921 0 -0.17816523749691959 0.14501057245018409 0 -0.18777772323542699 0.13376869349721759 0 -0.18615944606555149 0.13586892655141791 0 -0.18615944606555149 0.13586892655141791 0 -0.1863906914488852 0.1392597280983921 0 -0.18839762166734381 0.14928686689848281 0 -0.1863906914488852 0.1392597280983921 0 -0.17816523749691959 0.14501057245018409 0 -0.17816523749691959 0.14501057245018409 0 -0.18106567149545619 0.16619750950848039 0 -0.17074027403129649 0.15588024190428229 0 -0.17816523749691959 0.14501057245018409 0 -0.18106567149545619 0.16619750950848039 0 -0.17074027403129649 0.15588024190428229 0 -0.17816523749691959 0.14501057245018409 0 -0.16976826471124609 0.14570709609468191 0 -0.17074027403129649 0.15588024190428229 0 -0.17816523749691959 0.14501057245018409 0 -0.18839762166734381 0.14928686689848281 0 -0.17816523749691959 0.14501057245018409 0 -0.18694018318592209 0.15868991212336131 0 -0.17816523749691959 0.14501057245018409 0 -0.18694018318592209 0.15868991212336131 0 -0.17816523749691959 0.14501057245018409 0 -0.18694018318592209 0.15868991212336131 0 -0.18106567149545619 0.16619750950848039 0 -0.18106567149545619 0.16619750950848039 0 -0.17476058156837199 0.17636188735840011 0 -0.16455514075880509 0.16390743377557071 0 -0.17074027403129649 0.15588024190428229 0 -0.18106567149545619 0.16619750950848039 0 -0.16455514075880509 0.16390743377557071 0 -0.19107866849262559 0.17620262261898231 0 -0.18106567149545619 0.16619750950848039 0 -0.17074027403129649 0.15588024190428229 0 -0.18106567149545619 0.16619750950848039 0 -0.1911919551992213 0.1847172670300499 0 -0.17959333140608799 0.1888099146076164 0 -0.18267019353835931 0.17791813736928691 0 -0.18106567149545619 0.16619750950848039 0 -0.18267019353835931 0.17791813736928691 0 -0.19107866849262559 0.17620262261898231 0 -0.18106567149545619 0.16619750950848039 0 -0.18267019353835931 0.17791813736928691 0 -0.18106567149545619 0.16619750950848039 0 -0.18267019353835931 0.17791813736928691 0 -0.17476058156837199 0.17636188735840011 0 -0.17959333140608799 0.1888099146076164 0 -0.17476058156837199 0.17636188735840011 0 -0.1673816517487321 0.1859411482307782 0 -0.17959333140608799 0.1888099146076164 0 -0.18267019353835931 0.17791813736928691 0 -0.17476058156837199 0.17636188735840011 0 -0.1673816517487321 0.1859411482307782 0 -0.16455514075880509 0.16390743377557071 0 -0.14870093050624941 0.18448335058417989 0 -0.16455514075880509 0.16390743377557071 0 -0.14870093050624941 0.18448335058417989 0 -0.1673816517487321 0.1859411482307782 0 -0.16455514075880509 0.16390743377557071 0 -0.17476058156837199 0.17636188735840011 0 -0.1673816517487321 0.1859411482307782 0 -0.16455514075880509 0.16390743377557071 0 -0.17074027403129649 0.15588024190428229 0 -0.16455514075880509 0.16390743377557071 0 -0.16455514075880509 0.16390743377557071 0 -0.15116505086304791 0.15697498780269911 0 -0.1421644337309807 0.16781346088337609 0 -0.15116505086304791 0.15697498780269911 0 -0.1421644337309807 0.16781346088337609 0 -0.13237023292758429 0.1557550304018212 0 -0.16455514075880509 0.16390743377557071 0 -0.1421644337309807 0.16781346088337609 0 -0.14870093050624941 0.18448335058417989 0 -0.1421644337309807 0.16781346088337609 0 -0.14870093050624941 0.18448335058417989 0 -0.1287141736261708 0.18323961355764659 0 -0.1421644337309807 0.16781346088337609 0 -0.1287141736261708 0.18323961355764659 0 -0.1172750999047109 0.1617153062499683 0 -0.1421644337309807 0.16781346088337609 0 -0.1172750999047109 0.1617153062499683 0 -0.1421644337309807 0.16781346088337609 0 -0.13237023292758429 0.1557550304018212 0 -0.1172750999047109 0.1617153062499683 0 -0.13237023292758429 0.1557550304018212 0 -0.1251872203253864 0.1426017118705811 0 -0.14276263003403561 0.1460371225879771 0 -0.15116505086304791 0.15697498780269911 0 -0.13237023292758429 0.1557550304018212 0 -0.14276263003403561 0.1460371225879771 0 -0.162464629463722 0.14761111329230869 0 -0.15116505086304791 0.15697498780269911 0 -0.14276263003403561 0.1460371225879771 0 -0.16242871133876399 0.12047876402394821 0 -0.162464629463722 0.14761111329230869 0 -0.1418160371844612 0.12697877899868329 0 -0.162464629463722 0.14761111329230869 0 -0.14276263003403561 0.1460371225879771 0 -0.1418160371844612 0.12697877899868329 0 -0.162464629463722 0.14761111329230869 0 -0.1418160371844612 0.12697877899868329 0 -0.1251872203253864 0.1426017118705811 0 -0.1418160371844612 0.12697877899868329 0 -0.1249092863724191 0.1291970054427006 0 -0.13257072674167369 0.121014259673571 0 -0.1418160371844612 0.12697877899868329 0 -0.1249092863724191 0.1291970054427006 0 -0.1251872203253864 0.1426017118705811 0 -0.14276263003403561 0.1460371225879771 0 -0.1418160371844612 0.12697877899868329 0 -0.1249092863724191 0.1291970054427006 0 -0.10621647305476629 0.1316836506407067 0 -0.1182939396737577 0.11994366483382821 0 -0.1251872203253864 0.1426017118705811 0 -0.1249092863724191 0.1291970054427006 0 -0.10621647305476629 0.1316836506407067 0 -0.10621647305476629 0.1316836506407067 0 -0.1102661398408262 0.14790445509445421 0 -0.092385766078441248 0.15561715161656051 0 -0.1102661398408262 0.14790445509445421 0 -0.1172750999047109 0.1617153062499683 0 -0.092385766078441248 0.15561715161656051 0 -0.13237023292758429 0.1557550304018212 0 -0.1251872203253864 0.1426017118705811 0 -0.1172750999047109 0.1617153062499683 0 -0.1251872203253864 0.1426017118705811 0 -0.1102661398408262 0.14790445509445421 0 -0.1172750999047109 0.1617153062499683 0 -0.1251872203253864 0.1426017118705811 0 -0.10621647305476629 0.1316836506407067 0 -0.1102661398408262 0.14790445509445421 0 -0.1287141736261708 0.18323961355764659 0 -0.1172750999047109 0.1617153062499683 0 -0.1103837702100872 0.18363190425248291 0 -0.1172750999047109 0.1617153062499683 0 -0.1103837702100872 0.18363190425248291 0 -0.098247527034113658 0.17159487816446761 0 -0.1103837702100872 0.18363190425248291 0 -0.098247527034113658 0.17159487816446761 0 -0.092154137601116265 0.18682524142413351 0 -0.1172750999047109 0.1617153062499683 0 -0.092385766078441248 0.15561715161656051 0 -0.1172750999047109 0.1617153062499683 0 -0.098247527034113658 0.17159487816446761 0 -0.092385766078441248 0.15561715161656051 0 -0.098247527034113658 0.17159487816446761 0 -0.079038861376212646 0.1701847872791929 0 -0.092385766078441248 0.15561715161656051 0 -0.079038861376212646 0.1701847872791929 0 -0.06749643225217157 0.14951899698315271 0 -0.092385766078441248 0.15561715161656051 0 -0.079038861376212646 0.1701847872791929 0 -0.092154137601116265 0.18682524142413351 0 -0.076629112645511366 0.18484710879711561 0 -0.098247527034113658 0.17159487816446761 0 -0.079038861376212646 0.1701847872791929 0 -0.092154137601116265 0.18682524142413351 0 -0.079038861376212646 0.1701847872791929 0 -0.076629112645511366 0.18484710879711561 0 -0.063605499780670441 0.17883794188649721 0 -0.076629112645511366 0.18484710879711561 0 -0.063605499780670441 0.17883794188649721 0 -0.066837896440498701 0.19344992248878171 0 -0.079038861376212646 0.1701847872791929 0 -0.06749643225217157 0.14951899698315271 0 -0.059860098652112108 0.1619523884955533 0 -0.079038861376212646 0.1701847872791929 0 -0.063605499780670441 0.17883794188649721 0 -0.059860098652112108 0.1619523884955533 0 -0.06749643225217157 0.14951899698315271 0 -0.080853217727700322 0.1319277094887048 0 -0.057318589936539828 0.13388842662022091 0 -0.080853217727700322 0.1319277094887048 0 -0.057318589936539828 0.13388842662022091 0 -0.068764376541146116 0.1209654347132413 0 -0.10621647305476629 0.1316836506407067 0 -0.080853217727700322 0.1319277094887048 0 -0.092103115789512358 0.11935361619367239 0 -0.10621647305476629 0.1316836506407067 0 -0.080853217727700322 0.1319277094887048 0 -0.092385766078441248 0.15561715161656051 0 -0.06749643225217157 0.14951899698315271 0 -0.080853217727700322 0.1319277094887048 0 -0.092385766078441248 0.15561715161656051 0 -0.06749643225217157 0.14951899698315271 0 -0.092385766078441248 0.15561715161656051 0 -0.1011382997485865 0.2462111010100104 0 -0.1169925100011414 0.2256351842014008 0 -0.1011382997485865 0.2462111010100104 0 -0.089026504263378339 0.22758063191412711 0 -0.1011382997485865 0.2462111010100104 0 -0.10263644161255921 0.24851555584761839 0 -0.1182302698947966 0.24526389947704311 0 -0.1011382997485865 0.2462111010100104 0 -0.098735973162726309 0.24932888935710559 0 -0.085175028255402435 0.2423416320270998 0 -0.1011382997485865 0.2462111010100104 0 -0.098735973162726309 0.24932888935710559 0 -0.1011382997485865 0.2462111010100104 0 -0.098735973162726309 0.24932888935710559 0 -0.10263644161255921 0.24851555584761839 0 -0.098735973162726309 0.24932888935710559 0 -0.10263644161255921 0.24851555584761839 0 -0.1011382997485865 0.2462111010100104 0 -0.10263644161255921 0.24851555584761839 0 -0.10263644161255921 0.24851555584761839 0 -0.1182302698947966 0.24526389947704311 0 -0.1011382997485865 0.2462111010100104 0 -0.1182302698947966 0.24526389947704311 0 -0.1169925100011414 0.2256351842014008 0 -0.13192320011980541 0.22712800304841929 0 -0.1182302698947966 0.24526389947704311 0 -0.1169925100011414 0.2256351842014008 0 -0.1130290529278898 0.22044029689604869 0 -0.1169925100011414 0.2256351842014008 0 -0.1030316495588052 0.22691248877574671 0 -0.1130290529278898 0.22044029689604869 0 -0.1030316495588052 0.22691248877574671 0 -0.094971880853030238 0.21469522985714609 0 -0.1011382997485865 0.2462111010100104 0 -0.1169925100011414 0.2256351842014008 0 -0.1030316495588052 0.22691248877574671 0 -0.1011382997485865 0.2462111010100104 0 -0.1030316495588052 0.22691248877574671 0 -0.089026504263378339 0.22758063191412711 0 -0.1030316495588052 0.22691248877574671 0 -0.094971880853030238 0.21469522985714609 0 -0.089026504263378339 0.22758063191412711 0 -0.1130290529278898 0.22044029689604869 0 -0.094971880853030238 0.21469522985714609 0 -0.1130290529278898 0.22044029689604869 0 -0.094971880853030238 0.21469522985714609 0 -0.10708319386111149 0.20928040379329971 0 -0.094971880853030238 0.21469522985714609 0 -0.10708319386111149 0.20928040379329971 0 -0.094068804696155195 0.20123104660291599 0 -0.1130290529278898 0.22044029689604869 0 -0.10708319386111149 0.20928040379329971 0 -0.1198947966531404 0.20882891689842811 0 -0.1328467202536954 0.2050592673927904 0 -0.1169925100011414 0.2256351842014008 0 -0.1198947966531404 0.20882891689842811 0 -0.1130290529278898 0.22044029689604869 0 -0.1169925100011414 0.2256351842014008 0 -0.1198947966531404 0.20882891689842811 0 -0.1328467202536954 0.2050592673927904 0 -0.1169925100011414 0.2256351842014008 0 -0.1328467202536954 0.2050592673927904 0 -0.1198947966531404 0.20882891689842811 0 -0.12003394262236999 0.19586417607020851 0 -0.10708319386111149 0.20928040379329971 0 -0.1198947966531404 0.20882891689842811 0 -0.10833025236875631 0.1985611782496941 0 -0.1287141736261708 0.18323961355764659 0 -0.1103837702100872 0.18363190425248291 0 -0.12003394262236999 0.19586417607020851 0 -0.1198947966531404 0.20882891689842811 0 -0.12003394262236999 0.19586417607020851 0 -0.10833025236875631 0.1985611782496941 0 -0.1103837702100872 0.18363190425248291 0 -0.12003394262236999 0.19586417607020851 0 -0.10833025236875631 0.1985611782496941 0 -0.092154137601116265 0.18682524142413351 0 -0.10833025236875631 0.1985611782496941 0 -0.094068804696155195 0.20123104660291599 0 -0.1103837702100872 0.18363190425248291 0 -0.092154137601116265 0.18682524142413351 0 -0.10833025236875631 0.1985611782496941 0 -0.10708319386111149 0.20928040379329971 0 -0.10833025236875631 0.1985611782496941 0 -0.094068804696155195 0.20123104660291599 0 -0.094068804696155195 0.20123104660291599 0 -0.08150916802905879 0.1949376509069726 0 -0.07691470877817061 0.2089501628182435 0 -0.092154137601116265 0.18682524142413351 0 -0.094068804696155195 0.20123104660291599 0 -0.08150916802905879 0.1949376509069726 0 -0.092154137601116265 0.18682524142413351 0 -0.076629112645511366 0.18484710879711561 0 -0.08150916802905879 0.1949376509069726 0 -0.066837896440498701 0.19344992248878171 0 -0.07691470877817061 0.2089501628182435 0 -0.057366640716292022 0.2027307525456413 0 -0.076629112645511366 0.18484710879711561 0 -0.08150916802905879 0.1949376509069726 0 -0.066837896440498701 0.19344992248878171 0 -0.066837896440498701 0.19344992248878171 0 -0.07691470877817061 0.2089501628182435 0 -0.08150916802905879 0.1949376509069726 0 -0.066837896440498701 0.19344992248878171 0 -0.07691470877817061 0.2089501628182435 0 -0.07691470877817061 0.2089501628182435 0 -0.057366640716292022 0.2027307525456413 0 -0.07691470877817061 0.2089501628182435 0 -0.071248063905439918 0.22490649672192239 0 -0.057366640716292022 0.2027307525456413 0 -0.07691470877817061 0.2089501628182435 0 -0.089026504263378339 0.22758063191412711 0 -0.094971880853030238 0.21469522985714609 0 -0.094068804696155195 0.20123104660291599 0 -0.07691470877817061 0.2089501628182435 0 -0.094971880853030238 0.21469522985714609 0 -0.07691470877817061 0.2089501628182435 0 -0.094971880853030238 0.21469522985714609 0 -0.07691470877817061 0.2089501628182435 0 -0.089026504263378339 0.22758063191412711 0 -0.07691470877817061 0.2089501628182435 0 -0.089026504263378339 0.22758063191412711 0 -0.071248063905439918 0.22490649672192239 0 -0.089026504263378339 0.22758063191412711 0 -0.071248063905439918 0.22490649672192239 0 -0.085175028255402435 0.2423416320270998 0 -0.071248063905439918 0.22490649672192239 0 -0.064683427713709774 0.24159546573999521 0 -0.054322073705686473 0.2262403352864274 0 -0.075536809924525938 0.25416642543677709 0 -0.064683427713709774 0.24159546573999521 0 -0.085175028255402435 0.2423416320270998 0 -0.071248063905439918 0.22490649672192239 0 -0.064683427713709774 0.24159546573999521 0 -0.085175028255402435 0.2423416320270998 0 -0.075536809924525938 0.25416642543677709 0 -0.098735973162726309 0.24932888935710559 0 -0.085175028255402435 0.2423416320270998 0 -0.1011382997485865 0.2462111010100104 0 -0.089026504263378339 0.22758063191412711 0 -0.085175028255402435 0.2423416320270998 0 -0.046543650833338772 0.24342517367774341 0 -0.035214950344073057 0.2303428519826887 0 -0.030953842645404149 0.24517393807931431 0 -0.064683427713709774 0.24159546573999521 0 -0.046543650833338772 0.24342517367774341 0 -0.054322073705686473 0.2262403352864274 0 -0.052337646686325512 0.25900396151644839 0 -0.064683427713709774 0.24159546573999521 0 -0.046543650833338772 0.24342517367774341 0 -0.046543650833338772 0.24342517367774341 0 -0.054322073705686473 0.2262403352864274 0 -0.035214950344073057 0.2303428519826887 0 -0.054322073705686473 0.2262403352864274 0 -0.035214950344073057 0.2303428519826887 0 -0.041296092396318297 0.21330438727485401 0 -0.035214950344073057 0.2303428519826887 0 -0.041296092396318297 0.21330438727485401 0 -0.02175822456112661 0.21069665428647349 0 -0.041296092396318297 0.21330438727485401 0 -0.057366640716292022 0.2027307525456413 0 -0.037818572654413338 0.19651134227303921 0 -0.041296092396318297 0.21330438727485401 0 -0.037818572654413338 0.19651134227303921 0 -0.02175822456112661 0.21069665428647349 0 -0.071248063905439918 0.22490649672192239 0 -0.054322073705686473 0.2262403352864274 0 -0.057366640716292022 0.2027307525456413 0 -0.054322073705686473 0.2262403352864274 0 -0.041296092396318297 0.21330438727485401 0 -0.057366640716292022 0.2027307525456413 0 -0.066837896440498701 0.19344992248878171 0 -0.057366640716292022 0.2027307525456413 0 -0.050823174881066732 0.1864230187256869 0 -0.057366640716292022 0.2027307525456413 0 -0.037818572654413338 0.19651134227303921 0 -0.050823174881066732 0.1864230187256869 0 -0.057366640716292022 0.2027307525456413 0 -0.037818572654413338 0.19651134227303921 0 -0.037818572654413338 0.19651134227303921 0 -0.018270504592536759 0.1902919320004306 0 -0.02175822456112661 0.21069665428647349 0 -0.037818572654413338 0.19651134227303921 0 -0.018270504592536759 0.1902919320004306 0 -0.032222297428385283 0.17691755954275529 0 -0.037818572654413338 0.19651134227303921 0 -0.018270504592536759 0.1902919320004306 0 -0.018270504592536759 0.1902919320004306 0 -0.02175822456112661 0.21069665428647349 0 -0.018270504592536759 0.1902919320004306 0 -0.0049466766937072849 0.20258005026630521 0 -0.02175822456112661 0.21069665428647349 0 -0.018270504592536759 0.1902919320004306 0 -0.0049466766937072849 0.20258005026630521 0 0.0047573847998705074 0.18296538231838599 0 -0.0049466766937072849 0.20258005026630521 0 -0.02175822456112661 0.21069665428647349 0 -0.003494964378184928 0.22071353275294039 0 -0.035214950344073057 0.2303428519826887 0 -0.02175822456112661 0.21069665428647349 0 -0.017812017968824631 0.23217890239472841 0 -0.017812017968824631 0.23217890239472841 0 -0.003494964378184928 0.22071353275294039 0 -0.003016964063370512 0.2415134021912286 0 -0.02175822456112661 0.21069665428647349 0 -0.017812017968824631 0.23217890239472841 0 -0.003494964378184928 0.22071353275294039 0 -0.01719542379391149 0.2506967966615416 0 -0.017812017968824631 0.23217890239472841 0 -0.003016964063370512 0.2415134021912286 0 -0.035214950344073057 0.2303428519826887 0 -0.017812017968824631 0.23217890239472841 0 -0.030953842645404149 0.24517393807931431 0 -0.01719542379391149 0.2506967966615416 0 -0.017812017968824631 0.23217890239472841 0 -0.030953842645404149 0.24517393807931431 0 -0.0426070984259019 0.14342084234974489 0 -0.046552601425604023 0.16779937397917849 0 -0.02555336007183755 0.15332588962652199 0 -0.0426070984259019 0.14342084234974489 0 -0.033533713081940843 0.13183890825523009 0 -0.01771776459963223 0.13732268771633721 0 -0.0426070984259019 0.14342084234974489 0 -0.033533713081940843 0.13183890825523009 0 -0.057318589936539828 0.13388842662022091 0 -0.033533713081940843 0.13183890825523009 0 -0.057318589936539828 0.13388842662022091 0 -0.052614321462284293 0.1152082380256521 0 -0.06749643225217157 0.14951899698315271 0 -0.0426070984259019 0.14342084234974489 0 -0.06749643225217157 0.14951899698315271 0 -0.0426070984259019 0.14342084234974489 0 -0.057318589936539828 0.13388842662022091 0 -0.06749643225217157 0.14951899698315271 0 -0.0426070984259019 0.14342084234974489 0 -0.059860098652112108 0.1619523884955533 0 -0.063605499780670441 0.17883794188649721 0 -0.059860098652112108 0.1619523884955533 0 -0.046552601425604023 0.16779937397917849 0 -0.0426070984259019 0.14342084234974489 0 -0.059860098652112108 0.1619523884955533 0 -0.046552601425604023 0.16779937397917849 0 -0.063605499780670441 0.17883794188649721 0 -0.050823174881066732 0.1864230187256869 0 -0.046552601425604023 0.16779937397917849 0 -0.063605499780670441 0.17883794188649721 0 -0.066837896440498701 0.19344992248878171 0 -0.050823174881066732 0.1864230187256869 0 -0.037818572654413338 0.19651134227303921 0 -0.050823174881066732 0.1864230187256869 0 -0.032222297428385283 0.17691755954275529 0 -0.050823174881066732 0.1864230187256869 0 -0.032222297428385283 0.17691755954275529 0 -0.046552601425604023 0.16779937397917849 0 -0.032222297428385283 0.17691755954275529 0 -0.046552601425604023 0.16779937397917849 0 -0.02555336007183755 0.15332588962652199 0 -0.032222297428385283 0.17691755954275529 0 -0.01431557094485025 0.16715380065167529 0 -0.02555336007183755 0.15332588962652199 0 -0.018270504592536759 0.1902919320004306 0 -0.032222297428385283 0.17691755954275529 0 -0.01431557094485025 0.16715380065167529 0 -0.018270504592536759 0.1902919320004306 0 -0.01431557094485025 0.16715380065167529 0 -0.018270504592536759 0.1902919320004306 0 0.0047573847998705074 0.18296538231838599 0 -0.018270504592536759 0.1902919320004306 0 -0.01431557094485025 0.16715380065167529 0 0.0047573847998705074 0.18296538231838599 0 -0.01431557094485025 0.16715380065167529 0 0.0005372958881126724 0.16164109956220679 0 0.0047573847998705074 0.18296538231838599 0 -0.01431557094485025 0.16715380065167529 0 -0.010360637297160649 0.14401566930292051 0 0.0005372958881126724 0.16164109956220679 0 -0.010360637297160649 0.14401566930292051 0 0.0049610225062176024 0.14705309905088329 0 0.0005372958881126724 0.16164109956220679 0 -0.01431557094485025 0.16715380065167529 0 -0.010360637297160649 0.14401566930292051 0 -0.010360637297160649 0.14401566930292051 0 0.001136375120173527 0.1368585993861598 0 0.0049610225062176024 0.14705309905088329 0 -0.0426070984259019 0.14342084234974489 0 -0.02555336007183755 0.15332588962652199 0 -0.01771776459963223 0.13732268771633721 0 -0.01431557094485025 0.16715380065167529 0 -0.010360637297160649 0.14401566930292051 0 -0.02555336007183755 0.15332588962652199 0 -0.010360637297160649 0.14401566930292051 0 -0.02555336007183755 0.15332588962652199 0 -0.01771776459963223 0.13732268771633721 0 -0.033533713081940843 0.13183890825523009 0 -0.01771776459963223 0.13732268771633721 0 -0.022445693275200129 0.13005597284598069 0 -0.0426070984259019 0.14342084234974489 0 -0.01771776459963223 0.13732268771633721 0 -0.033533713081940843 0.13183890825523009 0 -0.022445693275200129 0.13005597284598069 0 -0.023269061830583991 0.1218600058170948 0 -0.022445693275200129 0.13005597284598069 0 -0.01526223358864345 0.12920228959526081 0 -0.023269061830583991 0.1218600058170948 0 -0.01771776459963223 0.13732268771633721 0 -0.022445693275200129 0.13005597284598069 0 -0.01526223358864345 0.12920228959526081 0 -0.010360637297160649 0.14401566930292051 0 -0.0064057036494700129 0.120877537954166 0 -0.010360637297160649 0.14401566930292051 0 -0.01526223358864345 0.12920228959526081 0 -0.0064057036494700129 0.120877537954166 0 -0.010360637297160649 0.14401566930292051 0 -0.0064057036494700129 0.120877537954166 0 0.001136375120173527 0.1368585993861598 0 -0.010360637297160649 0.14401566930292051 0 -0.01771776459963223 0.13732268771633721 0 -0.01526223358864345 0.12920228959526081 0 -0.01526223358864345 0.12920228959526081 0 -0.0064057036494700129 0.120877537954166 0 -0.023269061830583991 0.1218600058170948 0 -0.0064057036494700129 0.120877537954166 0 -0.0042497074669885964 0.10826399565444041 0 0.01062283059608147 0.1236846757350398 0 -0.0064057036494700129 0.120877537954166 0 -0.0042497074669885964 0.10826399565444041 0 -0.028185276797120171 0.1058503759738422 0 -0.0064057036494700129 0.120877537954166 0 -0.0042497074669885964 0.10826399565444041 0 -0.0042497074669885964 0.10826399565444041 0 -0.022510754962139921 0.089329919294035415 0 -0.0042497074669885964 0.10826399565444041 0 -0.00033187314373134621 0.085342911952544176 0 -0.022510754962139921 0.089329919294035415 0 -0.0042497074669885964 0.10826399565444041 0 -0.00033187314373134621 0.085342911952544176 0 -0.0042497074669885964 0.10826399565444041 0 -0.028185276797120171 0.1058503759738422 0 -0.022510754962139921 0.089329919294035415 0 -0.0064057036494700129 0.120877537954166 0 -0.028185276797120171 0.1058503759738422 0 -0.023269061830583991 0.1218600058170948 0 -0.0064057036494700129 0.120877537954166 0 -0.028185276797120171 0.1058503759738422 0 -0.028185276797120171 0.1058503759738422 0 -0.023269061830583991 0.1218600058170948 0 -0.037556803857237822 0.1176867967667132 0 -0.00033187314373134621 0.085342911952544176 0 -0.018479023147915309 0.067463028371944164 0 0.0035859611795239412 0.062421828250647557 0 -0.00033187314373134621 0.085342911952544176 0 -0.022510754962139921 0.089329919294035415 0 -0.018479023147915309 0.067463028371944164 0 -0.022510754962139921 0.089329919294035415 0 -0.018479023147915309 0.067463028371944164 0 -0.040771802457288842 0.070395842933628036 0 -0.018479023147915309 0.067463028371944164 0 -0.040771802457288842 0.070395842933628036 0 -0.034998293557944662 0.057743134189794751 0 -0.022510754962139921 0.089329919294035415 0 -0.040771802457288842 0.070395842933628036 0 -0.022510754962139921 0.089329919294035415 0 -0.040771802457288842 0.070395842933628036 0 -0.049964849944771912 0.090823213993520349 0 -0.049964849944771912 0.090823213993520349 0 -0.071744423092423598 0.075796052013198542 0 -0.049964849944771912 0.090823213993520349 0 -0.057159212203731623 0.067927738177466113 0 -0.071744423092423598 0.075796052013198542 0 -0.040771802457288842 0.070395842933628036 0 -0.049964849944771912 0.090823213993520349 0 -0.057159212203731623 0.067927738177466113 0 -0.040771802457288842 0.070395842933628036 0 -0.057159212203731623 0.067927738177466113 0 -0.059032849952437683 0.051461766573220408 0 -0.033533713081940843 0.13183890825523009 0 -0.037556803857237822 0.1176867967667132 0 -0.052614321462284293 0.1152082380256521 0 -0.033533713081940843 0.13183890825523009 0 -0.023269061830583991 0.1218600058170948 0 -0.037556803857237822 0.1176867967667132 0 -0.028185276797120171 0.1058503759738422 0 -0.049964849944771912 0.090823213993520349 0 -0.037556803857237822 0.1176867967667132 0 -0.049964849944771912 0.090823213993520349 0 -0.037556803857237822 0.1176867967667132 0 -0.052614321462284293 0.1152082380256521 0 -0.028185276797120171 0.1058503759738422 0 -0.049964849944771912 0.090823213993520349 0 -0.028185276797120171 0.1058503759738422 0 -0.022510754962139921 0.089329919294035415 0 -0.049964849944771912 0.090823213993520349 0 -0.049964849944771912 0.090823213993520349 0 -0.052614321462284293 0.1152082380256521 0 -0.06828129080061468 0.096220772923138187 0 -0.057318589936539828 0.13388842662022091 0 -0.052614321462284293 0.1152082380256521 0 -0.068764376541146116 0.1209654347132413 0 -0.052614321462284293 0.1152082380256521 0 -0.068764376541146116 0.1209654347132413 0 -0.06828129080061468 0.096220772923138187 0 -0.080853217727700322 0.1319277094887048 0 -0.068764376541146116 0.1209654347132413 0 -0.081570405090591422 0.1107093391367979 0 -0.092103115789512358 0.11935361619367239 0 -0.081570405090591422 0.1107093391367979 0 -0.092844883430150876 0.103309644455868 0 -0.080853217727700322 0.1319277094887048 0 -0.092103115789512358 0.11935361619367239 0 -0.081570405090591422 0.1107093391367979 0 -0.081570405090591422 0.1107093391367979 0 -0.081244041177829796 0.094470341547112424 0 -0.092844883430150876 0.103309644455868 0 -0.081244041177829796 0.094470341547112424 0 -0.092844883430150876 0.103309644455868 0 -0.091779203475368387 0.086315899206559521 0 -0.081570405090591422 0.1107093391367979 0 -0.081244041177829796 0.094470341547112424 0 -0.06828129080061468 0.096220772923138187 0 -0.068764376541146116 0.1209654347132413 0 -0.081570405090591422 0.1107093391367979 0 -0.06828129080061468 0.096220772923138187 0 -0.049964849944771912 0.090823213993520349 0 -0.06828129080061468 0.096220772923138187 0 -0.071744423092423598 0.075796052013198542 0 -0.081244041177829796 0.094470341547112424 0 -0.06828129080061468 0.096220772923138187 0 -0.071744423092423598 0.075796052013198542 0 -0.057159212203731623 0.067927738177466113 0 -0.071744423092423598 0.075796052013198542 0 -0.078980151088076628 0.052081766465450499 0 -0.071744423092423598 0.075796052013198542 0 -0.093042582360450599 0.070169992545320109 0 -0.091779203475368387 0.086315899206559521 0 -0.071744423092423598 0.075796052013198542 0 -0.093042582360450599 0.070169992545320109 0 -0.078980151088076628 0.052081766465450499 0 -0.081244041177829796 0.094470341547112424 0 -0.071744423092423598 0.075796052013198542 0 -0.091779203475368387 0.086315899206559521 0 -0.093042582360450599 0.070169992545320109 0 -0.1071050136328251 0.088258218625189358 0 -0.091779203475368387 0.086315899206559521 0 -0.1071050136328251 0.088258218625189358 0 -0.1020655757644853 0.097170438328673614 0 -0.093042582360450599 0.070169992545320109 0 -0.091779203475368387 0.086315899206559521 0 -0.1071050136328251 0.088258218625189358 0 -0.093042582360450599 0.070169992545320109 0 -0.1143801088273138 0.068154224893069895 0 -0.10181110170194251 0.052791395644046869 0 -0.093042582360450599 0.070169992545320109 0 -0.1071050136328251 0.088258218625189358 0 -0.1143801088273138 0.068154224893069895 0 -0.12910515462425129 0.07815730140611124 0 -0.1071050136328251 0.088258218625189358 0 -0.1143801088273138 0.068154224893069895 0 -0.13097575585842389 0.093896190759650944 0 -0.12910515462425129 0.07815730140611124 0 -0.1071050136328251 0.088258218625189358 0 -0.1071050136328251 0.088258218625189358 0 -0.11208926825644661 0.097275415897840473 0 -0.1211674449051999 0.1063464447050583 0 -0.13097575585842389 0.093896190759650944 0 -0.1071050136328251 0.088258218625189358 0 -0.1211674449051999 0.1063464447050583 0 -0.1071050136328251 0.088258218625189358 0 -0.1211674449051999 0.1063464447050583 0 -0.11208926825644661 0.097275415897840473 0 -0.1211674449051999 0.1063464447050583 0 -0.1065095100276356 0.1106930134579107 0 -0.11208926825644661 0.097275415897840473 0 -0.1211674449051999 0.1063464447050583 0 -0.13257072674167369 0.121014259673571 0 -0.1211674449051999 0.1063464447050583 0 -0.1182939396737577 0.11994366483382821 0 -0.10621647305476629 0.1316836506407067 0 -0.1182939396737577 0.11994366483382821 0 -0.1065095100276356 0.1106930134579107 0 -0.1211674449051999 0.1063464447050583 0 -0.1182939396737577 0.11994366483382821 0 -0.1065095100276356 0.1106930134579107 0 -0.10621647305476629 0.1316836506407067 0 -0.092103115789512358 0.11935361619367239 0 -0.1065095100276356 0.1106930134579107 0 -0.092103115789512358 0.11935361619367239 0 -0.092844883430150876 0.103309644455868 0 -0.1065095100276356 0.1106930134579107 0 -0.092844883430150876 0.103309644455868 0 -0.091779203475368387 0.086315899206559521 0 -0.1020655757644853 0.097170438328673614 0 -0.092844883430150876 0.103309644455868 0 -0.1065095100276356 0.1106930134579107 0 -0.1020655757644853 0.097170438328673614 0 -0.1071050136328251 0.088258218625189358 0 -0.11208926825644661 0.097275415897840473 0 -0.1020655757644853 0.097170438328673614 0 -0.11208926825644661 0.097275415897840473 0 -0.1065095100276356 0.1106930134579107 0 -0.1020655757644853 0.097170438328673614 0 -0.098144266564471533 0.030712184013318111 0 -0.1104540955244408 0.01018848165599631 0 -0.091918791884082557 0.01556065325032008 0 -0.094088428313765265 -0.01080549152202971 0 -0.1104540955244408 0.01018848165599631 0 -0.091918791884082557 0.01556065325032008 0 -0.1229846482582518 -0.0055933252605166392 0 -0.13575722351213351 0.01140985292457323 0 -0.1104540955244408 0.01018848165599631 0 -0.13575722351213351 0.01140985292457323 0 -0.1104540955244408 0.01018848165599631 0 -0.1210943312358304 0.024030109409973709 0 -0.098144266564471533 0.030712184013318111 0 -0.1104540955244408 0.01018848165599631 0 -0.1210943312358304 0.024030109409973709 0 -0.098144266564471533 0.030712184013318111 0 -0.1210943312358304 0.024030109409973709 0 -0.1114229379545132 0.040258678472495583 0 -0.1210943312358304 0.024030109409973709 0 -0.1114229379545132 0.040258678472495583 0 -0.1246420523158083 0.053501024822643628 0 -0.1357378888741137 0.064139599866413821 0 -0.1143801088273138 0.068154224893069895 0 -0.1246420523158083 0.053501024822643628 0 -0.1114229379545132 0.040258678472495583 0 -0.1246420523158083 0.053501024822643628 0 -0.10181110170194251 0.052791395644046869 0 -0.1143801088273138 0.068154224893069895 0 -0.1246420523158083 0.053501024822643628 0 -0.10181110170194251 0.052791395644046869 0 -0.1246420523158083 0.053501024822643628 0 -0.10181110170194251 0.052791395644046869 0 -0.098144266564471533 0.030712184013318111 0 -0.1114229379545132 0.040258678472495583 0 -0.10181110170194251 0.052791395644046869 0 -0.098144266564471533 0.030712184013318111 0 -0.10181110170194251 0.052791395644046869 0 -0.085791669897947245 0.042389228165984422 0 -0.098144266564471533 0.030712184013318111 0 -0.085791669897947245 0.042389228165984422 0 -0.082380785956087013 0.031800939667669913 0 -0.085791669897947245 0.042389228165984422 0 -0.075676370666356532 0.040316929318105862 0 -0.078023279261560774 0.046467883078000587 0 -0.085791669897947245 0.042389228165984422 0 -0.082380785956087013 0.031800939667669913 0 -0.075676370666356532 0.040316929318105862 0 -0.10181110170194251 0.052791395644046869 0 -0.085791669897947245 0.042389228165984422 0 -0.078980151088076628 0.052081766465450499 0 -0.093042582360450599 0.070169992545320109 0 -0.078980151088076628 0.052081766465450499 0 -0.093042582360450599 0.070169992545320109 0 -0.10181110170194251 0.052791395644046869 0 -0.078980151088076628 0.052081766465450499 0 -0.10181110170194251 0.052791395644046869 0 -0.078980151088076628 0.052081766465450499 0 -0.085791669897947245 0.042389228165984422 0 -0.078980151088076628 0.052081766465450499 0 -0.078023279261560774 0.046467883078000587 0 -0.078980151088076628 0.052081766465450499 0 -0.059032849952437683 0.051461766573220408 0 -0.057159212203731623 0.067927738177466113 0 -0.078980151088076628 0.052081766465450499 0 -0.059032849952437683 0.051461766573220408 0 -0.078980151088076628 0.052081766465450499 0 -0.07147209948857218 0.046478227673117267 0 -0.059032849952437683 0.051461766573220408 0 -0.078980151088076628 0.052081766465450499 0 -0.078023279261560774 0.046467883078000587 0 -0.07147209948857218 0.046478227673117267 0 -0.07147209948857218 0.046478227673117267 0 -0.066614985126626086 0.043600184350122577 0 -0.059032849952437683 0.051461766573220408 0 -0.066614985126626086 0.043600184350122577 0 -0.059032849952437683 0.051461766573220408 0 -0.075676370666356532 0.040316929318105862 0 -0.066614985126626086 0.043600184350122577 0 -0.070217321081443046 0.032100735593114528 0 -0.082380785956087013 0.031800939667669913 0 -0.075676370666356532 0.040316929318105862 0 -0.070217321081443046 0.032100735593114528 0 -0.075676370666356532 0.040316929318105862 0 -0.07147209948857218 0.046478227673117267 0 -0.066614985126626086 0.043600184350122577 0 -0.075676370666356532 0.040316929318105862 0 -0.078023279261560774 0.046467883078000587 0 -0.07147209948857218 0.046478227673117267 0 -0.066614985126626086 0.043600184350122577 0 -0.070217321081443046 0.032100735593114528 0 -0.060213120746678638 0.03504303207149409 0 -0.070217321081443046 0.032100735593114528 0 -0.063134280674815607 0.023092162013012271 0 -0.060213120746678638 0.03504303207149409 0 -0.070217321081443046 0.032100735593114528 0 -0.063134280674815607 0.023092162013012271 0 -0.076288090877342118 0.019133810666836119 0 -0.063134280674815607 0.023092162013012271 0 -0.076288090877342118 0.019133810666836119 0 -0.067039779668521232 0.010105980640848271 0 -0.082380785956087013 0.031800939667669913 0 -0.070217321081443046 0.032100735593114528 0 -0.076288090877342118 0.019133810666836119 0 -0.098144266564471533 0.030712184013318111 0 -0.082380785956087013 0.031800939667669913 0 -0.091918791884082557 0.01556065325032008 0 -0.082380785956087013 0.031800939667669913 0 -0.076288090877342118 0.019133810666836119 0 -0.091918791884082557 0.01556065325032008 0 -0.076288090877342118 0.019133810666836119 0 -0.091918791884082557 0.01556065325032008 0 -0.081085172306247816 0.0025859021146267891 0 -0.094088428313765265 -0.01080549152202971 0 -0.091918791884082557 0.01556065325032008 0 -0.081085172306247816 0.0025859021146267891 0 -0.068742186924726043 -0.0086194903703009189 0 -0.081085172306247816 0.0025859021146267891 0 -0.067039779668521232 0.010105980640848271 0 -0.068742186924726043 -0.0086194903703009189 0 -0.067039779668521232 0.010105980640848271 0 -0.054869737487993592 0.0029178759522425 0 -0.076288090877342118 0.019133810666836119 0 -0.081085172306247816 0.0025859021146267891 0 -0.067039779668521232 0.010105980640848271 0 -0.054869737487993592 0.0029178759522425 0 -0.052681354255752058 0.01564353569769604 0 -0.042652874009903703 0.0099066848102834365 0 -0.067039779668521232 0.010105980640848271 0 -0.054869737487993592 0.0029178759522425 0 -0.052681354255752058 0.01564353569769604 0 -0.063134280674815607 0.023092162013012271 0 -0.05310258864489148 0.025123532257866319 0 -0.052681354255752058 0.01564353569769604 0 -0.063134280674815607 0.023092162013012271 0 -0.067039779668521232 0.010105980640848271 0 -0.052681354255752058 0.01564353569769604 0 -0.063134280674815607 0.023092162013012271 0 -0.05310258864489148 0.025123532257866319 0 -0.060213120746678638 0.03504303207149409 0 -0.05310258864489148 0.025123532257866319 0 -0.043205828922975337 0.02411714780212668 0 -0.051218880622311488 0.034453861710231813 0 -0.05310258864489148 0.025123532257866319 0 -0.052681354255752058 0.01564353569769604 0 -0.043205828922975337 0.02411714780212668 0 -0.052681354255752058 0.01564353569769604 0 -0.043205828922975337 0.02411714780212668 0 -0.042652874009903703 0.0099066848102834365 0 -0.043205828922975337 0.02411714780212668 0 -0.031199434195007231 0.017837563642848449 0 -0.030849966771977589 0.029717449981441511 0 -0.043205828922975337 0.02411714780212668 0 -0.042652874009903703 0.0099066848102834365 0 -0.031199434195007231 0.017837563642848449 0 -0.042652874009903703 0.0099066848102834365 0 -0.030866146421930661 0.0051013618911337584 0 -0.031199434195007231 0.017837563642848449 0 -0.041481366433000169 -0.00038453264990213708 0 -0.042652874009903703 0.0099066848102834365 0 -0.030866146421930661 0.0051013618911337584 0 -0.041481366433000169 -0.00038453264990213708 0 -0.054869737487993592 0.0029178759522425 0 -0.042652874009903703 0.0099066848102834365 0 -0.040771802457288842 0.070395842933628036 0 -0.059032849952437683 0.051461766573220408 0 -0.040771802457288842 0.070395842933628036 0 -0.059032849952437683 0.051461766573220408 0 -0.046264087049259058 0.0510648892427958 0 -0.059032849952437683 0.051461766573220408 0 -0.052866050792052387 0.044263037200196448 0 -0.046264087049259058 0.0510648892427958 0 -0.059032849952437683 0.051461766573220408 0 -0.046264087049259058 0.0510648892427958 0 -0.052866050792052387 0.044263037200196448 0 -0.051218880622311488 0.034453861710231813 0 -0.039216228544449103 0.040838845471513813 0 -0.066614985126626086 0.043600184350122577 0 -0.059032849952437683 0.051461766573220408 0 -0.052866050792052387 0.044263037200196448 0 -0.066614985126626086 0.043600184350122577 0 -0.052866050792052387 0.044263037200196448 0 -0.060213120746678638 0.03504303207149409 0 -0.05310258864489148 0.025123532257866319 0 -0.060213120746678638 0.03504303207149409 0 -0.051218880622311488 0.034453861710231813 0 -0.052866050792052387 0.044263037200196448 0 -0.060213120746678638 0.03504303207149409 0 -0.051218880622311488 0.034453861710231813 0 -0.043205828922975337 0.02411714780212668 0 -0.051218880622311488 0.034453861710231813 0 -0.039216228544449103 0.040838845471513813 0 -0.043205828922975337 0.02411714780212668 0 -0.039216228544449103 0.040838845471513813 0 -0.030849966771977589 0.029717449981441511 0 -0.052866050792052387 0.044263037200196448 0 -0.039216228544449103 0.040838845471513813 0 -0.046264087049259058 0.0510648892427958 0 -0.039216228544449103 0.040838845471513813 0 -0.034998293557944662 0.057743134189794751 0 -0.046264087049259058 0.0510648892427958 0 -0.040771802457288842 0.070395842933628036 0 -0.034998293557944662 0.057743134189794751 0 -0.046264087049259058 0.0510648892427958 0 -0.039216228544449103 0.040838845471513813 0 -0.034998293557944662 0.057743134189794751 0 -0.02431357577902574 0.052322380870141232 0 -0.018479023147915309 0.067463028371944164 0 -0.034998293557944662 0.057743134189794751 0 -0.02431357577902574 0.052322380870141232 0 -0.018479023147915309 0.067463028371944164 0 -0.02431357577902574 0.052322380870141232 0 -0.0095044115204761075 0.052878811926969853 0 -0.02431357577902574 0.052322380870141232 0 -0.020794920970270778 0.039157540060757369 0 -0.0095044115204761075 0.052878811926969853 0 -0.039216228544449103 0.040838845471513813 0 -0.020794920970270778 0.039157540060757369 0 -0.030849966771977589 0.029717449981441511 0 -0.039216228544449103 0.040838845471513813 0 -0.02431357577902574 0.052322380870141232 0 -0.020794920970270778 0.039157540060757369 0 -0.020794920970270778 0.039157540060757369 0 -0.030849966771977589 0.029717449981441511 0 -0.018724030570990809 0.025824553449652961 0 -0.020794920970270778 0.039157540060757369 0 -0.0074877499501458528 0.038573985522885809 0 -0.018724030570990809 0.025824553449652961 0 -0.0074877499501458528 0.038573985522885809 0 -0.0095044115204761075 0.052878811926969853 0 0.0075037955027792277 0.039500744548750952 0 -0.020794920970270778 0.039157540060757369 0 -0.0074877499501458528 0.038573985522885809 0 -0.0095044115204761075 0.052878811926969853 0 -0.018479023147915309 0.067463028371944164 0 -0.0095044115204761075 0.052878811926969853 0 0.0035859611795239412 0.062421828250647557 0 -0.02096228291030559 0.012911857796594669 0 -0.017914414946056188 0.0017887383250859701 0 -0.0082164264281279105 0.0154690652578163 0 -0.02096228291030559 0.012911857796594669 0 -0.017914414946056188 0.0017887383250859701 0 -0.030866146421930661 0.0051013618911337584 0 -0.02096228291030559 0.012911857796594669 0 -0.030866146421930661 0.0051013618911337584 0 -0.031199434195007231 0.017837563642848449 0 -0.02096228291030559 0.012911857796594669 0 -0.031199434195007231 0.017837563642848449 0 -0.018724030570990809 0.025824553449652961 0 -0.031199434195007231 0.017837563642848449 0 -0.030849966771977589 0.029717449981441511 0 -0.018724030570990809 0.025824553449652961 0 -0.02096228291030559 0.012911857796594669 0 -0.018724030570990809 0.025824553449652961 0 -0.0082164264281279105 0.0154690652578163 0 -0.0074877499501458528 0.038573985522885809 0 -0.018724030570990809 0.025824553449652961 0 -0.0082164264281279105 0.0154690652578163 0 -0.0074877499501458528 0.038573985522885809 0 -0.0082164264281279105 0.0154690652578163 0 0.0114216298260333 0.016579660846854079 0 -0.0016637341516267971 -0.002949234294761292 0 -0.017914414946056188 0.0017887383250859701 0 -0.0082164264281279105 0.0154690652578163 0 -0.0016637341516267971 -0.002949234294761292 0 0.0114216298260333 0.016579660846854079 0 0.01479436547087698 -0.013131158263312249 0 0.0114216298260333 0.016579660846854079 0 0.016445881501026369 -0.012814459394094471 0 -0.0016637341516267971 -0.002949234294761292 0 -0.0082164264281279105 0.0154690652578163 0 0.0114216298260333 0.016579660846854079 0 0.0114216298260333 0.016579660846854079 0 0.024081433051412238 0.031201223447984559 0 0.0075037955027792277 0.039500744548750952 0 -0.0074877499501458528 0.038573985522885809 0 0.0114216298260333 0.016579660846854079 0 0.0114216298260333 0.016579660846854079 0 0.0075037955027792277 0.039500744548750952 0 0.024081433051412238 0.031201223447984559 0 0.03115177297572894 0.023938034917283999 0 0.026385097097448209 0.01524066562568456 0 0.0114216298260333 0.016579660846854079 0 0.024081433051412238 0.031201223447984559 0 0.026385097097448209 0.01524066562568456 0 0.024081433051412238 0.031201223447984559 0 0.03115177297572894 0.023938034917283999 0 0.037830662139376747 0.031258064610770971 0 0.03115177297572894 0.023938034917283999 0 0.026385097097448209 0.01524066562568456 0 0.035039612110262609 0.015737806390555619 0 0.026385097097448209 0.01524066562568456 0 0.035231158369571837 0.0081362343681430777 0 0.029042560596205781 -0.0039160125723961998 0 0.0114216298260333 0.016579660846854079 0 0.026385097097448209 0.01524066562568456 0 0.029042560596205781 -0.0039160125723961998 0 0.0114216298260333 0.016579660846854079 0 0.029042560596205781 -0.0039160125723961998 0 -0.0095044115204761075 0.052878811926969853 0 0.0035859611795239412 0.062421828250647557 0 0.0075037955027792277 0.039500744548750952 0 0.0035859611795239412 0.062421828250647557 0 0.021341092351896011 0.051425978817730068 0 0.020226695747622741 0.069015316985678893 0 0.0035859611795239412 0.062421828250647557 0 0.0075037955027792277 0.039500744548750952 0 0.021341092351896011 0.051425978817730068 0 0.0035859611795239412 0.062421828250647557 0 0.0075037955027792277 0.039500744548750952 0 -0.0074877499501458528 0.038573985522885809 0 0.0114216298260333 0.016579660846854079 0 0.0075037955027792277 0.039500744548750952 0 0.024081433051412238 0.031201223447984559 0 0.021341092351896011 0.051425978817730068 0 0.036356252894396188 0.046191921209878591 0 0.024081433051412238 0.031201223447984559 0 0.0075037955027792277 0.039500744548750952 0 0.021341092351896011 0.051425978817730068 0 0.021341092351896011 0.051425978817730068 0 0.036330918067910493 0.060724803845620817 0 0.020226695747622741 0.069015316985678893 0 0.045823946419174449 0.056159656707527587 0 0.036356252894396188 0.046191921209878591 0 0.053901800273969527 0.044497167007617827 0 0.045823946419174449 0.056159656707527587 0 0.036330918067910493 0.060724803845620817 0 0.049034533572194387 0.068136680121121465 0 0.021341092351896011 0.051425978817730068 0 0.036330918067910493 0.060724803845620817 0 0.036356252894396188 0.046191921209878591 0 0.045823946419174449 0.056159656707527587 0 0.036330918067910493 0.060724803845620817 0 0.036356252894396188 0.046191921209878591 0 0.037830662139376747 0.031258064610770971 0 0.053901800273969527 0.044497167007617827 0 0.043207398941342977 0.023669902017677571 0 0.036356252894396188 0.046191921209878591 0 0.037830662139376747 0.031258064610770971 0 0.053901800273969527 0.044497167007617827 0 0.024081433051412238 0.031201223447984559 0 0.036356252894396188 0.046191921209878591 0 0.037830662139376747 0.031258064610770971 0 0.053901800273969527 0.044497167007617827 0 0.043207398941342977 0.023669902017677571 0 0.05523588927050066 0.025630984872937818 0 0.053901800273969527 0.044497167007617827 0 0.043207398941342977 0.023669902017677571 0 0.053901800273969527 0.044497167007617827 0 0.05523588927050066 0.025630984872937818 0 0.065288723747561297 0.045585391028061903 0 0.05523588927050066 0.025630984872937818 0 0.065288723747561297 0.045585391028061903 0 0.053901800273969527 0.044497167007617827 0 0.065288723747561297 0.045585391028061903 0 0.064596201606597917 0.06532443199755722 0 0.053901800273969527 0.044497167007617827 0 0.064596201606597917 0.06532443199755722 0 0.045823946419174449 0.056159656707527587 0 0.053901800273969527 0.044497167007617827 0 0.053496227287401603 0.061247711353399313 0 0.053901800273969527 0.044497167007617827 0 0.064596201606597917 0.06532443199755722 0 0.062386001630036027 0.065280133781578764 0 0.053901800273969527 0.044497167007617827 0 0.053496227287401603 0.061247711353399313 0 0.062386001630036027 0.065280133781578764 0 0.045823946419174449 0.056159656707527587 0 0.053496227287401603 0.061247711353399313 0 0.049034533572194387 0.068136680121121465 0 0.035231158369571837 0.0081362343681430777 0 0.049526999433650652 0.0076288011374604676 0 0.035666204931526668 -0.0091287218140131271 0 0.046745225363403232 0.01491590660570884 0 0.035231158369571837 0.0081362343681430777 0 0.049526999433650652 0.0076288011374604676 0 0.046745225363403232 0.01491590660570884 0 0.035231158369571837 0.0081362343681430777 0 0.043207398941342977 0.023669902017677571 0 0.035231158369571837 0.0081362343681430777 0 0.029042560596205781 -0.0039160125723961998 0 0.026385097097448209 0.01524066562568456 0 0.035231158369571837 0.0081362343681430777 0 0.035039612110262609 0.015737806390555619 0 0.035231158369571837 0.0081362343681430777 0 0.035039612110262609 0.015737806390555619 0 0.035231158369571837 0.0081362343681430777 0 0.035039612110262609 0.015737806390555619 0 0.043207398941342977 0.023669902017677571 0 0.03115177297572894 0.023938034917283999 0 0.035039612110262609 0.015737806390555619 0 0.035542033283833367 0.021877581588168889 0 0.035542033283833367 0.021877581588168889 0 0.036179903598588678 0.025063118995900111 0 0.040195145995415682 0.023178794867376611 0 0.035039612110262609 0.015737806390555619 0 0.035542033283833367 0.021877581588168889 0 0.040195145995415682 0.023178794867376611 0 0.037830662139376747 0.031258064610770971 0 0.036179903598588678 0.025063118995900111 0 0.040195145995415682 0.023178794867376611 0 0.03115177297572894 0.023938034917283999 0 0.035542033283833367 0.021877581588168889 0 0.036179903598588678 0.025063118995900111 0 0.03115177297572894 0.023938034917283999 0 0.037830662139376747 0.031258064610770971 0 0.036179903598588678 0.025063118995900111 0 0.037830662139376747 0.031258064610770971 0 0.043207398941342977 0.023669902017677571 0 0.040195145995415682 0.023178794867376611 0 0.035039612110262609 0.015737806390555619 0 0.043207398941342977 0.023669902017677571 0 0.040195145995415682 0.023178794867376611 0 0.035231158369571837 0.0081362343681430777 0 0.043207398941342977 0.023669902017677571 0 0.043207398941342977 0.023669902017677571 0 0.040195145995415682 0.023178794867376611 0 0.043207398941342977 0.023669902017677571 0 0.052442516235453679 0.020086270075205821 0 0.05523588927050066 0.025630984872937818 0 0.046745225363403232 0.01491590660570884 0 0.043207398941342977 0.023669902017677571 0 0.052442516235453679 0.020086270075205821 0 0.052442516235453679 0.020086270075205821 0 0.05523588927050066 0.025630984872937818 0 0.043207398941342977 0.023669902017677571 0 0.05523588927050066 0.025630984872937818 0 0.052442516235453679 0.020086270075205821 0 0.05523588927050066 0.025630984872937818 0 0.067025248939001844 0.016215626490506431 0 0.052442516235453679 0.020086270075205821 0 0.049526999433650652 0.0076288011374604676 0 0.067025248939001844 0.016215626490506431 0 0.049526999433650652 0.0076288011374604676 0 0.067025248939001844 0.016215626490506431 0 0.060051642762946361 -0.0044525089007890492 0 0.046745225363403232 0.01491590660570884 0 0.052442516235453679 0.020086270075205821 0 0.049526999433650652 0.0076288011374604676 0 0.084437080594366276 0.00022370401243423409 0 0.067025248939001844 0.016215626490506431 0 0.060051642762946361 -0.0044525089007890492 0 0.084437080594366276 0.00022370401243423409 0 0.089631283469907411 0.017406868755316891 0 0.067025248939001844 0.016215626490506431 0 0.075213492014426619 0.028888063122846142 0 0.095191094758352593 0.032145141372754267 0 0.089631283469907411 0.017406868755316891 0 0.075213492014426619 0.028888063122846142 0 0.095191094758352593 0.032145141372754267 0 0.05523588927050066 0.025630984872937818 0 0.075213492014426619 0.028888063122846142 0 0.05523588927050066 0.025630984872937818 0 0.075213492014426619 0.028888063122846142 0 0.067025248939001844 0.016215626490506431 0 0.089631283469907411 0.017406868755316891 0 0.075213492014426619 0.028888063122846142 0 0.067025248939001844 0.016215626490506431 0 0.05523588927050066 0.025630984872937818 0 0.075213492014426619 0.028888063122846142 0 0.065288723747561297 0.045585391028061903 0 0.075213492014426619 0.028888063122846142 0 0.065288723747561297 0.045585391028061903 0 0.083241627782679739 0.045590313544218081 0 0.065288723747561297 0.045585391028061903 0 0.083241627782679739 0.045590313544218081 0 0.075341558224623573 0.065539797183185089 0 0.065288723747561297 0.045585391028061903 0 0.075341558224623573 0.065539797183185089 0 0.064596201606597917 0.06532443199755722 0 0.065288723747561297 0.045585391028061903 0 0.075341558224623573 0.065539797183185089 0 0.091213859032650113 0.054855996288888757 0 0.083241627782679739 0.045590313544218081 0 0.075341558224623573 0.065539797183185089 0 0.091213859032650113 0.054855996288888757 0 0.098506382213651711 0.06600408113352299 0 0.075341558224623573 0.065539797183185089 0 0.091213859032650113 0.054855996288888757 0 0.083241627782679739 0.045590313544218081 0 0.095392391714292021 0.044919029515622592 0 0.075213492014426619 0.028888063122846142 0 0.083241627782679739 0.045590313544218081 0 0.095191094758352593 0.032145141372754267 0 0.083241627782679739 0.045590313544218081 0 0.095191094758352593 0.032145141372754267 0 0.095392391714292021 0.044919029515622592 0 0.095191094758352593 0.032145141372754267 0 0.10351432607525959 0.040326868951808911 0 0.1151686975022785 0.035402219622662601 0 0.10351432607525959 0.040326868951808911 0 0.1038010509225181 0.051676827420442932 0 0.1151686975022785 0.035402219622662601 0 0.095191094758352593 0.032145141372754267 0 0.1151686975022785 0.035402219622662601 0 0.095392391714292021 0.044919029515622592 0 0.10351432607525959 0.040326868951808911 0 0.1038010509225181 0.051676827420442932 0 0.095191094758352593 0.032145141372754267 0 0.095392391714292021 0.044919029515622592 0 0.10351432607525959 0.040326868951808911 0 0.1038010509225181 0.051676827420442932 0 0.1122548441033026 0.047613049962560591 0 0.098506382213651711 0.06600408113352299 0 0.1122548441033026 0.047613049962560591 0 0.098506382213651711 0.06600408113352299 0 0.091213859032650113 0.054855996288888757 0 0.1038010509225181 0.051676827420442932 0 0.098506382213651711 0.06600408113352299 0 0.091213859032650113 0.054855996288888757 0 0.095392391714292021 0.044919029515622592 0 0.1038010509225181 0.051676827420442932 0 0.1122548441033026 0.047613049962560591 0 0.1211257190628785 0.066457432088030316 0 0.098506382213651711 0.06600408113352299 0 0.1122548441033026 0.047613049962560591 0 0.1211257190628785 0.066457432088030316 0 0.13424546126977871 0.050519135706838997 0 0.1122548441033026 0.047613049962560591 0 0.1196316558717337 0.036129844694685498 0 0.12600330599295401 0.02922201879159848 0 0.1038010509225181 0.051676827420442932 0 0.1122548441033026 0.047613049962560591 0 0.1151686975022785 0.035402219622662601 0 0.1038010509225181 0.051676827420442932 0 0.1151686975022785 0.035402219622662601 0 0.1122548441033026 0.047613049962560591 0 0.12600330599295401 0.02922201879159848 0 0.131610691090042 0.037859561177888343 0 0.1122548441033026 0.047613049962560591 0 0.12600330599295401 0.02922201879159848 0 0.1122548441033026 0.047613049962560591 0 0.1151686975022785 0.035402219622662601 0 0.1196316558717337 0.036129844694685498 0 0.1151686975022785 0.035402219622662601 0 0.1196316558717337 0.036129844694685498 0 0.12600330599295401 0.02922201879159848 0 0.1151686975022785 0.035402219622662601 0 0.1196316558717337 0.036129844694685498 0 0.1151686975022785 0.035402219622662601 0 0.1241883268797441 0.022489174730773769 0 0.10709826608751109 0.022068760607702801 0 0.1151686975022785 0.035402219622662601 0 0.1241883268797441 0.022489174730773769 0 0.12600330599295401 0.02922201879159848 0 0.1151686975022785 0.035402219622662601 0 0.1241883268797441 0.022489174730773769 0 0.1241883268797441 0.022489174730773769 0 0.1088225184257862 0.0048999169256575097 0 0.10709826608751109 0.022068760607702801 0 0.1088225184257862 0.0048999169256575097 0 0.13320795625720591 0.0095761298388824297 0 0.1251470615708736 -0.00050432347332847721 0 0.1088225184257862 0.0048999169256575097 0 0.13320795625720591 0.0095761298388824297 0 0.1241883268797441 0.022489174730773769 0 0.1088225184257862 0.0048999169256575097 0 0.13320795625720591 0.0095761298388824297 0 0.089631283469907411 0.017406868755316891 0 0.1088225184257862 0.0048999169256575097 0 0.10709826608751109 0.022068760607702801 0 0.084437080594366276 0.00022370401243423409 0 0.1088225184257862 0.0048999169256575097 0 0.084437080594366276 0.00022370401243423409 0 0.089631283469907411 0.017406868755316891 0 0.1088225184257862 0.0048999169256575097 0 0.095191094758352593 0.032145141372754267 0 0.1151686975022785 0.035402219622662601 0 0.10709826608751109 0.022068760607702801 0 0.089631283469907411 0.017406868755316891 0 0.095191094758352593 0.032145141372754267 0 0.10709826608751109 0.022068760607702801 0 0.10687521336026749 0.1027017700659625 0 0.1002164422711051 0.095013086396148139 0 0.1052568201108826 0.086186276426882563 0 0.1002164422711051 0.095013086396148139 0 0.094287473018207418 0.1031465517392542 0 0.095136574078912461 0.087249981394191906 0 0.10687521336026749 0.1027017700659625 0 0.1002164422711051 0.095013086396148139 0 0.094287473018207418 0.1031465517392542 0 0.10687521336026749 0.1027017700659625 0 0.094287473018207418 0.1031465517392542 0 0.10006519058042181 0.11406059317400399 0 0.094287473018207418 0.1031465517392542 0 0.10006519058042181 0.11406059317400399 0 0.090004185647161977 0.11480628703684261 0 0.10006519058042181 0.11406059317400399 0 0.10886971182943821 0.1174106351694956 0 0.10139750075742281 0.1369946812755492 0 0.10006519058042181 0.11406059317400399 0 0.090004185647161977 0.11480628703684261 0 0.10139750075742281 0.1369946812755492 0 0.10687521336026749 0.1027017700659625 0 0.10006519058042181 0.11406059317400399 0 0.10886971182943821 0.1174106351694956 0 0.1178902138897903 0.1112794477941655 0 0.12690579221140899 0.1050942499853325 0 0.12662492251817839 0.1229029434758243 0 0.10687521336026749 0.1027017700659625 0 0.10886971182943821 0.1174106351694956 0 0.1178902138897903 0.1112794477941655 0 0.10886971182943821 0.1174106351694956 0 0.1178902138897903 0.1112794477941655 0 0.1151251205789172 0.1255217161929999 0 0.1178902138897903 0.1112794477941655 0 0.1151251205789172 0.1255217161929999 0 0.12662492251817839 0.1229029434758243 0 0.10687521336026749 0.1027017700659625 0 0.1182499720176939 0.09708088954641543 0 0.1052568201108826 0.086186276426882563 0 0.1178902138897903 0.1112794477941655 0 0.1182499720176939 0.09708088954641543 0 0.12690579221140899 0.1050942499853325 0 0.10687521336026749 0.1027017700659625 0 0.1178902138897903 0.1112794477941655 0 0.1182499720176939 0.09708088954641543 0 0.1182499720176939 0.09708088954641543 0 0.1206961788848588 0.084642225325637754 0 0.13045298779972361 0.092405662763910712 0 0.1206961788848588 0.084642225325637754 0 0.1211257190628785 0.066457432088030316 0 0.1052568201108826 0.086186276426882563 0 0.1182499720176939 0.09708088954641543 0 0.1206961788848588 0.084642225325637754 0 0.1052568201108826 0.086186276426882563 0 0.1206961788848588 0.084642225325637754 0 0.1211257190628785 0.066457432088030316 0 0.130970104713407 0.0800604943328517 0 0.1211257190628785 0.066457432088030316 0 0.098506382213651711 0.06600408113352299 0 0.1211257190628785 0.066457432088030316 0 0.098506382213651711 0.06600408113352299 0 0.1052568201108826 0.086186276426882563 0 0.098506382213651711 0.06600408113352299 0 0.1052568201108826 0.086186276426882563 0 0.095136574078912461 0.087249981394191906 0 0.1002164422711051 0.095013086396148139 0 0.1052568201108826 0.086186276426882563 0 0.095136574078912461 0.087249981394191906 0 0.098506382213651711 0.06600408113352299 0 0.095136574078912461 0.087249981394191906 0 0.084807362104348472 0.084328975064490372 0 0.094287473018207418 0.1031465517392542 0 0.084807362104348472 0.084328975064490372 0 0.078610870536903646 0.09261789279813476 0 0.094287473018207418 0.1031465517392542 0 0.084807362104348472 0.084328975064490372 0 0.094287473018207418 0.1031465517392542 0 0.095136574078912461 0.087249981394191906 0 0.084807362104348472 0.084328975064490372 0 0.084807362104348472 0.084328975064490372 0 0.078610870536903646 0.09261789279813476 0 0.071603536071749102 0.07897116239784685 0 0.084807362104348472 0.084328975064490372 0 0.078610870536903646 0.09261789279813476 0 0.098506382213651711 0.06600408113352299 0 0.084807362104348472 0.084328975064490372 0 0.075341558224623573 0.065539797183185089 0 0.098506382213651711 0.06600408113352299 0 0.084807362104348472 0.084328975064490372 0 0.084807362104348472 0.084328975064490372 0 0.075341558224623573 0.065539797183185089 0 0.098506382213651711 0.06600408113352299 0 0.075341558224623573 0.065539797183185089 0 0.084807362104348472 0.084328975064490372 0 0.075341558224623573 0.065539797183185089 0 0.071603536071749102 0.07897116239784685 0 0.075341558224623573 0.065539797183185089 0 0.064596201606597917 0.06532443199755722 0 0.071603536071749102 0.07897116239784685 0 0.064596201606597917 0.06532443199755722 0 0.071603536071749102 0.07897116239784685 0 0.063304548456353887 0.074610102292354319 0 0.064596201606597917 0.06532443199755722 0 0.071603536071749102 0.07897116239784685 0 0.075341558224623573 0.065539797183185089 0 0.064596201606597917 0.06532443199755722 0 0.063304548456353887 0.074610102292354319 0 0.064596201606597917 0.06532443199755722 0 0.062386001630036027 0.065280133781578764 0 0.064596201606597917 0.06532443199755722 0 0.062386001630036027 0.065280133781578764 0 0.078610870536903646 0.09261789279813476 0 0.071603536071749102 0.07897116239784685 0 0.064518553802425951 0.088350140201262153 0 0.078610870536903646 0.09261789279813476 0 0.071603536071749102 0.07897116239784685 0 0.063304548456353887 0.074610102292354319 0 0.071603536071749102 0.07897116239784685 0 0.064518553802425951 0.088350140201262153 0 0.078610870536903646 0.09261789279813476 0 0.064518553802425951 0.088350140201262153 0 0.067175191687166347 0.1079151622581436 0 0.078610870536903646 0.09261789279813476 0 0.067175191687166347 0.1079151622581436 0 0.078610870536903646 0.09261789279813476 0 0.067175191687166347 0.1079151622581436 0 0.090004185647161977 0.11480628703684261 0 0.078610870536903646 0.09261789279813476 0 0.090004185647161977 0.11480628703684261 0 0.094287473018207418 0.1031465517392542 0 0.078610870536903646 0.09261789279813476 0 0.090004185647161977 0.11480628703684261 0 0.067175191687166347 0.1079151622581436 0 0.090004185647161977 0.11480628703684261 0 0.080584627778505113 0.1275611178956953 0 0.067175191687166347 0.1079151622581436 0 0.080584627778505113 0.1275611178956953 0 0.065979224416497131 0.1259649336123333 0 0.067175191687166347 0.1079151622581436 0 0.05058807846224516 0.1148604176446419 0 0.065979224416497131 0.1259649336123333 0 0.05058807846224516 0.1148604176446419 0 0.05275042000624211 0.12821761571000581 0 0.065979224416497131 0.1259649336123333 0 0.05058807846224516 0.1148604176446419 0 0.038182112214774008 0.12234216219425401 0 0.05275042000624211 0.12821761571000581 0 0.05058807846224516 0.1148604176446419 0 0.054221435091592801 0.097066413378897431 0 0.042140268166830162 0.1024861238912564 0 0.067175191687166347 0.1079151622581436 0 0.05058807846224516 0.1148604176446419 0 0.054221435091592801 0.097066413378897431 0 0.064518553802425951 0.088350140201262153 0 0.067175191687166347 0.1079151622581436 0 0.054221435091592801 0.097066413378897431 0 0.054221435091592801 0.097066413378897431 0 0.042140268166830162 0.1024861238912564 0 0.041589736901272961 0.090049126362016244 0 0.042140268166830162 0.1024861238912564 0 0.041589736901272961 0.090049126362016244 0 0.030291619275258821 0.098622855160756709 0 0.042140268166830162 0.1024861238912564 0 0.031605751060895498 0.1113650802191645 0 0.030291619275258821 0.098622855160756709 0 0.05058807846224516 0.1148604176446419 0 0.042140268166830162 0.1024861238912564 0 0.031605751060895498 0.1113650802191645 0 0.05058807846224516 0.1148604176446419 0 0.031605751060895498 0.1113650802191645 0 0.038182112214774008 0.12234216219425401 0 0.031605751060895498 0.1113650802191645 0 0.038182112214774008 0.12234216219425401 0 0.025649070683847419 0.1237899799840556 0 0.053496227287401603 0.061247711353399313 0 0.049034533572194387 0.068136680121121465 0 0.056610824285364403 0.0705589073494199 0 0.063304548456353887 0.074610102292354319 0 0.062386001630036027 0.065280133781578764 0 0.056610824285364403 0.0705589073494199 0 0.053496227287401603 0.061247711353399313 0 0.062386001630036027 0.065280133781578764 0 0.056610824285364403 0.0705589073494199 0 0.063304548456353887 0.074610102292354319 0 0.056610824285364403 0.0705589073494199 0 0.053559653827117998 0.080724575909181806 0 0.049034533572194387 0.068136680121121465 0 0.056610824285364403 0.0705589073494199 0 0.053559653827117998 0.080724575909181806 0 0.064518553802425951 0.088350140201262153 0 0.054221435091592801 0.097066413378897431 0 0.053559653827117998 0.080724575909181806 0 0.054221435091592801 0.097066413378897431 0 0.053559653827117998 0.080724575909181806 0 0.041589736901272961 0.090049126362016244 0 0.063304548456353887 0.074610102292354319 0 0.064518553802425951 0.088350140201262153 0 0.053559653827117998 0.080724575909181806 0 0.053559653827117998 0.080724575909181806 0 0.041589736901272961 0.090049126362016244 0 0.037399080168319429 0.075835875238428607 0 0.041589736901272961 0.090049126362016244 0 0.037399080168319429 0.075835875238428607 0 0.023691445226066761 0.086864713589133308 0 0.041589736901272961 0.090049126362016244 0 0.023691445226066761 0.086864713589133308 0 0.030291619275258821 0.098622855160756709 0 0.049034533572194387 0.068136680121121465 0 0.053559653827117998 0.080724575909181806 0 0.037399080168319429 0.075835875238428607 0 0.036330918067910493 0.060724803845620817 0 0.037399080168319429 0.075835875238428607 0 0.020226695747622741 0.069015316985678893 0 0.036330918067910493 0.060724803845620817 0 0.049034533572194387 0.068136680121121465 0 0.037399080168319429 0.075835875238428607 0 0.037399080168319429 0.075835875238428607 0 0.020226695747622741 0.069015316985678893 0 0.023691445226066761 0.086864713589133308 0 -0.00033187314373134621 0.085342911952544176 0 0.023691445226066761 0.086864713589133308 0 0.01405156558595072 0.10549553806589861 0 -0.00033187314373134621 0.085342911952544176 0 0.020226695747622741 0.069015316985678893 0 0.023691445226066761 0.086864713589133308 0 -0.00033187314373134621 0.085342911952544176 0 0.0035859611795239412 0.062421828250647557 0 -0.00033187314373134621 0.085342911952544176 0 0.0035859611795239412 0.062421828250647557 0 0.020226695747622741 0.069015316985678893 0 0.031605751060895498 0.1113650802191645 0 0.02000975999566967 0.1160066496968656 0 0.01405156558595072 0.10549553806589861 0 0.02000975999566967 0.1160066496968656 0 0.025649070683847419 0.1237899799840556 0 0.01062283059608147 0.1236846757350398 0 0.031605751060895498 0.1113650802191645 0 0.02000975999566967 0.1160066496968656 0 0.025649070683847419 0.1237899799840556 0 0.023691445226066761 0.086864713589133308 0 0.030291619275258821 0.098622855160756709 0 0.01405156558595072 0.10549553806589861 0 0.031605751060895498 0.1113650802191645 0 0.030291619275258821 0.098622855160756709 0 0.01405156558595072 0.10549553806589861 0 -0.0042497074669885964 0.10826399565444041 0 -0.00033187314373134621 0.085342911952544176 0 0.01405156558595072 0.10549553806589861 0 0.02000975999566967 0.1160066496968656 0 0.01405156558595072 0.10549553806589861 0 0.01062283059608147 0.1236846757350398 0 -0.0042497074669885964 0.10826399565444041 0 0.01062283059608147 0.1236846757350398 0 -0.0042497074669885964 0.10826399565444041 0 0.01405156558595072 0.10549553806589861 0 0.01062283059608147 0.1236846757350398 0 -0.0064057036494700129 0.120877537954166 0 0.01062283059608147 0.1236846757350398 0 0.015021332590232431 0.1356614615025889 0 -0.0064057036494700129 0.120877537954166 0 0.001136375120173527 0.1368585993861598 0 0.015021332590232431 0.1356614615025889 0 -0.0064057036494700129 0.120877537954166 0 0.015021332590232431 0.1356614615025889 0 0.001136375120173527 0.1368585993861598 0 0.015021332590232431 0.1356614615025889 0 0.0049610225062176024 0.14705309905088329 0 0.025649070683847419 0.1237899799840556 0 0.01062283059608147 0.1236846757350398 0 0.015021332590232431 0.1356614615025889 0 0.025649070683847419 0.1237899799840556 0 0.015021332590232431 0.1356614615025889 0 0.040378809168632457 0.13406064886914021 0 0.015021332590232431 0.1356614615025889 0 0.040378809168632457 0.13406064886914021 0 0.036448368829933547 0.15044538505101401 0 0.015021332590232431 0.1356614615025889 0 0.036448368829933547 0.15044538505101401 0 0.015021332590232431 0.1356614615025889 0 0.01581177356797844 0.15743540603237871 0 0.036448368829933547 0.15044538505101401 0 0.015021332590232431 0.1356614615025889 0 0.0049610225062176024 0.14705309905088329 0 0.01581177356797844 0.15743540603237871 0 0.0049610225062176024 0.14705309905088329 0 0.0005372958881126724 0.16164109956220679 0 0.01581177356797844 0.15743540603237871 0 0.0005372958881126724 0.16164109956220679 0 0.0047573847998705074 0.18296538231838599 0 0.01581177356797844 0.15743540603237871 0 0.0047573847998705074 0.18296538231838599 0 0.027785274192275711 0.17563883263633501 0 0.0047573847998705074 0.18296538231838599 0 0.027785274192275711 0.17563883263633501 0 0.01581177356797844 0.15743540603237871 0 0.0047573847998705074 0.18296538231838599 0 0.027785274192275711 0.17563883263633501 0 0.026625322756392299 0.19738343983540521 0 0.027785274192275711 0.17563883263633501 0 0.01581177356797844 0.15743540603237871 0 0.036448368829933547 0.15044538505101401 0 0.050813163584680868 0.16831228295428391 0 0.051557676972084583 0.1504117150888461 0 0.036448368829933547 0.15044538505101401 0 0.027785274192275711 0.17563883263633501 0 0.050813163584680868 0.16831228295428391 0 0.036448368829933547 0.15044538505101401 0 0.027785274192275711 0.17563883263633501 0 0.050813163584680868 0.16831228295428391 0 0.027785274192275711 0.17563883263633501 0 0.050813163584680868 0.16831228295428391 0 0.044536090394527918 0.199401516843837 0 0.050813163584680868 0.16831228295428391 0 0.044536090394527918 0.199401516843837 0 0.064710077107411862 0.18248483828211279 0 0.050813163584680868 0.16831228295428391 0 0.061524167508114243 0.15538034234013279 0 0.073841052977086027 0.16098573327223289 0 0.050813163584680868 0.16831228295428391 0 0.073841052977086027 0.16098573327223289 0 0.050813163584680868 0.16831228295428391 0 0.051557676972084583 0.1504117150888461 0 0.061524167508114243 0.15538034234013279 0 0.051557676972084583 0.1504117150888461 0 0.040378809168632457 0.13406064886914021 0 0.068623875769061773 0.14385991622965971 0 0.051557676972084583 0.1504117150888461 0 0.061524167508114243 0.15538034234013279 0 0.068623875769061773 0.14385991622965971 0 0.05275042000624211 0.12821761571000581 0 0.040378809168632457 0.13406064886914021 0 0.068623875769061773 0.14385991622965971 0 0.05275042000624211 0.12821761571000581 0 0.065979224416497131 0.1259649336123333 0 0.068623875769061773 0.14385991622965971 0 0.040378809168632457 0.13406064886914021 0 0.068623875769061773 0.14385991622965971 0 0.038182112214774008 0.12234216219425401 0 0.05275042000624211 0.12821761571000581 0 0.040378809168632457 0.13406064886914021 0 0.038182112214774008 0.12234216219425401 0 0.025649070683847419 0.1237899799840556 0 0.040378809168632457 0.13406064886914021 0 0.051557676972084583 0.1504117150888461 0 0.040378809168632457 0.13406064886914021 0 0.036448368829933547 0.15044538505101401 0 0.02757432341419273 0.24851232677057111 0 0.01210965891559849 0.23195265245171021 0 0.01087355115046874 0.25127924265677892 0 0.02757432341419273 0.24851232677057111 0 0.01210965891559849 0.23195265245171021 0 0.02745135157717243 0.2229252644987037 0 -0.003016964063370512 0.2415134021912286 0 0.01210965891559849 0.23195265245171021 0 0.01087355115046874 0.25127924265677892 0 -0.003494964378184928 0.22071353275294039 0 0.01210965891559849 0.23195265245171021 0 0.01353087873301009 0.20716749853149721 0 -0.003494964378184928 0.22071353275294039 0 -0.003016964063370512 0.2415134021912286 0 0.01210965891559849 0.23195265245171021 0 0.01210965891559849 0.23195265245171021 0 0.02745135157717243 0.2229252644987037 0 0.01353087873301009 0.20716749853149721 0 0.02745135157717243 0.2229252644987037 0 0.01353087873301009 0.20716749853149721 0 0.02745135157717243 0.2229252644987037 0 0.01353087873301009 0.20716749853149721 0 0.026625322756392299 0.19738343983540521 0 -0.0049466766937072849 0.20258005026630521 0 -0.003494964378184928 0.22071353275294039 0 0.01353087873301009 0.20716749853149721 0 0.0047573847998705074 0.18296538231838599 0 0.01353087873301009 0.20716749853149721 0 0.026625322756392299 0.19738343983540521 0 -0.0049466766937072849 0.20258005026630521 0 0.0047573847998705074 0.18296538231838599 0 0.01353087873301009 0.20716749853149721 0 0.027785274192275711 0.17563883263633501 0 0.026625322756392299 0.19738343983540521 0 0.044536090394527918 0.199401516843837 0 0.044536090394527918 0.199401516843837 0 0.072566412321396365 0.202832947363946 0 0.064710077107411862 0.18248483828211279 0 0.044536090394527918 0.199401516843837 0 0.056502932814282078 0.21775583759382969 0 0.072566412321396365 0.202832947363946 0 0.044536090394527918 0.199401516843837 0 0.056502932814282078 0.21775583759382969 0 0.040989824930082477 0.21479194222027961 0 0.02745135157717243 0.2229252644987037 0 0.026625322756392299 0.19738343983540521 0 0.040989824930082477 0.21479194222027961 0 0.026625322756392299 0.19738343983540521 0 0.044536090394527918 0.199401516843837 0 0.040989824930082477 0.21479194222027961 0 0.02745135157717243 0.2229252644987037 0 0.041371824421334809 0.23868303046591041 0 0.056502932814282078 0.21775583759382969 0 0.040989824930082477 0.21479194222027961 0 0.041371824421334809 0.23868303046591041 0 0.02745135157717243 0.2229252644987037 0 0.040989824930082477 0.21479194222027961 0 0.041371824421334809 0.23868303046591041 0 0.056502932814282078 0.21775583759382969 0 0.062117897249489247 0.23599403118928219 0 0.041371824421334809 0.23868303046591041 0 0.041371824421334809 0.23868303046591041 0 0.055292297265498828 0.25444079643311551 0 0.062117897249489247 0.23599403118928219 0 0.041371824421334809 0.23868303046591041 0 0.055292297265498828 0.25444079643311551 0 0.041371824421334809 0.23868303046591041 0 0.040662600338095108 0.25159025897392229 0 0.055292297265498828 0.25444079643311551 0 0.02757432341419273 0.24851232677057111 0 0.02745135157717243 0.2229252644987037 0 0.041371824421334809 0.23868303046591041 0 0.02757432341419273 0.24851232677057111 0 0.041371824421334809 0.23868303046591041 0 0.040662600338095108 0.25159025897392229 0 0.084577475888514095 0.24477061795757421 0 0.081046380894305575 0.23194077721121389 0 0.1074681547105299 0.22786196184772001 0 0.084577475888514095 0.24477061795757421 0 0.071484012278383913 0.24639217042623321 0 0.081046380894305575 0.23194077721121389 0 0.062117897249489247 0.23599403118928219 0 0.071484012278383913 0.24639217042623321 0 0.081046380894305575 0.23194077721121389 0 0.062117897249489247 0.23599403118928219 0 0.071484012278383913 0.24639217042623321 0 0.055292297265498828 0.25444079643311551 0 0.056502932814282078 0.21775583759382969 0 0.062117897249489247 0.23599403118928219 0 0.071108453876637584 0.22185484169098871 0 0.062117897249489247 0.23599403118928219 0 0.071108453876637584 0.22185484169098871 0 0.081046380894305575 0.23194077721121389 0 0.071108453876637584 0.22185484169098871 0 0.081046380894305575 0.23194077721121389 0 0.089522291362278822 0.2147710401554852 0 0.081046380894305575 0.23194077721121389 0 0.089522291362278822 0.2147710401554852 0 0.1074681547105299 0.22786196184772001 0 0.089522291362278822 0.2147710401554852 0 0.072566412321396365 0.202832947363946 0 0.095347947744241601 0.194325352452803 0 0.056502932814282078 0.21775583759382969 0 0.071108453876637584 0.22185484169098871 0 0.072566412321396365 0.202832947363946 0 0.071108453876637584 0.22185484169098871 0 0.089522291362278822 0.2147710401554852 0 0.072566412321396365 0.202832947363946 0 0.072566412321396365 0.202832947363946 0 0.064710077107411862 0.18248483828211279 0 0.081793666259368042 0.18089171097626419 0 0.072566412321396365 0.202832947363946 0 0.095347947744241601 0.194325352452803 0 0.081793666259368042 0.18089171097626419 0 0.095347947744241601 0.194325352452803 0 0.11040626468546511 0.20402885088465761 0 0.111692276896889 0.18736495659554089 0 0.11040626468546511 0.20402885088465761 0 0.13035883353254571 0.21095330573786569 0 0.12804808386630559 0.18889648851853069 0 0.11040626468546511 0.20402885088465761 0 0.111692276896889 0.18736495659554089 0 0.12804808386630559 0.18889648851853069 0 0.11040626468546511 0.20402885088465761 0 0.1074681547105299 0.22786196184772001 0 0.13035883353254571 0.21095330573786569 0 0.089522291362278822 0.2147710401554852 0 0.11040626468546511 0.20402885088465761 0 0.1074681547105299 0.22786196184772001 0 0.089522291362278822 0.2147710401554852 0 0.095347947744241601 0.194325352452803 0 0.11040626468546511 0.20402885088465761 0 0.1074681547105299 0.22786196184772001 0 0.1333345149716626 0.22977716241396609 0 0.13035883353254571 0.21095330573786569 0 0.1074681547105299 0.22786196184772001 0 0.13035883353254571 0.21095330573786569 0 0.1074681547105299 0.22786196184772001 0 0.12358662914375811 0.24562408341310979 0 0.1032656199459439 0.25052158303601452 0 0.1074681547105299 0.22786196184772001 0 0.12358662914375811 0.24562408341310979 0 0.1333345149716626 0.22977716241396609 0 0.084577475888514095 0.24477061795757421 0 0.1074681547105299 0.22786196184772001 0 0.084577475888514095 0.24477061795757421 0 0.1074681547105299 0.22786196184772001 0 0.1032656199459439 0.25052158303601452 0 0.068623875769061773 0.14385991622965971 0 0.073841052977086027 0.16098573327223289 0 0.096868942369490715 0.15365918359018041 0 0.085246545135618565 0.14155324487649651 0 0.068623875769061773 0.14385991622965971 0 0.096868942369490715 0.15365918359018041 0 0.068623875769061773 0.14385991622965971 0 0.096868942369490715 0.15365918359018041 0 0.085246545135618565 0.14155324487649651 0 0.095159999367695786 0.14644604670685249 0 0.096868942369490715 0.15365918359018041 0 0.085246545135618565 0.14155324487649651 0 0.080584627778505113 0.1275611178956953 0 0.10139750075742281 0.1369946812755492 0 0.085246545135618565 0.14155324487649651 0 0.080584627778505113 0.1275611178956953 0 0.068623875769061773 0.14385991622965971 0 0.090004185647161977 0.11480628703684261 0 0.080584627778505113 0.1275611178956953 0 0.10139750075742281 0.1369946812755492 0 0.080584627778505113 0.1275611178956953 0 0.065979224416497131 0.1259649336123333 0 0.068623875769061773 0.14385991622965971 0 0.061524167508114243 0.15538034234013279 0 0.068623875769061773 0.14385991622965971 0 0.073841052977086027 0.16098573327223289 0 0.050813163584680868 0.16831228295428391 0 0.073841052977086027 0.16098573327223289 0 0.064710077107411862 0.18248483828211279 0 0.073841052977086027 0.16098573327223289 0 0.064710077107411862 0.18248483828211279 0 0.081793666259368042 0.18089171097626419 0 0.081793666259368042 0.18089171097626419 0 0.08836366198319473 0.16754654019420409 0 0.1009509863268338 0.17464953293814009 0 0.095347947744241601 0.194325352452803 0 0.081793666259368042 0.18089171097626419 0 0.1009509863268338 0.17464953293814009 0 0.073841052977086027 0.16098573327223289 0 0.096868942369490715 0.15365918359018041 0 0.073841052977086027 0.16098573327223289 0 0.081793666259368042 0.18089171097626419 0 0.08836366198319473 0.16754654019420409 0 0.073841052977086027 0.16098573327223289 0 0.08836366198319473 0.16754654019420409 0 0.096868942369490715 0.15365918359018041 0 0.1009509863268338 0.17464953293814009 0 0.1127908158676826 0.15918307551425609 0 0.096868942369490715 0.15365918359018041 0 0.08836366198319473 0.16754654019420409 0 0.1009509863268338 0.17464953293814009 0 0.096868942369490715 0.15365918359018041 0 0.1127908158676826 0.15918307551425609 0 0.096868942369490715 0.15365918359018041 0 0.095347947744241601 0.194325352452803 0 0.1009509863268338 0.17464953293814009 0 0.111692276896889 0.18736495659554089 0 0.111692276896889 0.18736495659554089 0 0.1204194498669946 0.1740397820163932 0 0.12804808386630559 0.18889648851853069 0 0.1009509863268338 0.17464953293814009 0 0.111692276896889 0.18736495659554089 0 0.1204194498669946 0.1740397820163932 0 0.1204194498669946 0.1740397820163932 0 0.12804808386630559 0.18889648851853069 0 0.1009509863268338 0.17464953293814009 0 0.1204194498669946 0.1740397820163932 0 0.1127908158676826 0.15918307551425609 0 0.1127908158676826 0.15918307551425609 0 0.12642561631786911 0.1522845150615684 0 0.12885862867471889 0.16475759922922439 0 0.1127908158676826 0.15918307551425609 0 0.12885862867471889 0.16475759922922439 0 0.1204194498669946 0.1740397820163932 0 0.1127908158676826 0.15918307551425609 0 0.12885862867471889 0.16475759922922439 0 0.1204194498669946 0.1740397820163932 0 0.1127908158676826 0.15918307551425609 0 0.1127908158676826 0.15918307551425609 0 0.10139750075742281 0.1369946812755492 0 0.1208432538997562 0.13902087324996501 0 0.1127908158676826 0.15918307551425609 0 0.1208432538997562 0.13902087324996501 0 0.12642561631786911 0.1522845150615684 0 0.085246545135618565 0.14155324487649651 0 0.095159999367695786 0.14644604670685249 0 0.10139750075742281 0.1369946812755492 0 0.095159999367695786 0.14644604670685249 0 0.096868942369490715 0.15365918359018041 0 0.10139750075742281 0.1369946812755492 0 0.1127908158676826 0.15918307551425609 0 0.10139750075742281 0.1369946812755492 0 0.1127908158676826 0.15918307551425609 0 0.096868942369490715 0.15365918359018041 0 0.10139750075742281 0.1369946812755492 0 0.090004185647161977 0.11480628703684261 0 0.10139750075742281 0.1369946812755492 0 0.10886971182943821 0.1174106351694956 0 0.10139750075742281 0.1369946812755492 0 0.1151251205789172 0.1255217161929999 0 0.1151251205789172 0.1255217161929999 0 0.1208432538997562 0.13902087324996501 0 0.12662492251817839 0.1229029434758243 0 0.10139750075742281 0.1369946812755492 0 0.1151251205789172 0.1255217161929999 0 0.1208432538997562 0.13902087324996501 0 0.13511122102867851 0.13320371421178659 0 0.12662492251817839 0.1229029434758243 0 0.14343958569973969 0.12200633369626609 0 0.1208432538997562 0.13902087324996501 0 0.13511122102867851 0.13320371421178659 0 0.12662492251817839 0.1229029434758243 0 0.1208432538997562 0.13902087324996501 0 0.13511122102867851 0.13320371421178659 0 0.13135262222128191 0.14376665278074471 0 0.13511122102867851 0.13320371421178659 0 0.1409362315392052 0.14337153477665471 0 0.13135262222128191 0.14376665278074471 0 0.13511122102867851 0.13320371421178659 0 0.146610739882932 0.1329121193908174 0 0.14343958569973969 0.12200633369626609 0 0.146610739882932 0.1329121193908174 0 0.15332381363722741 0.15228081296627369 0 0.15685947071535611 0.1276256296421143 0 0.13511122102867851 0.13320371421178659 0 0.146610739882932 0.1329121193908174 0 0.1409362315392052 0.14337153477665471 0 0.146610739882932 0.1329121193908174 0 0.15685947071535611 0.1276256296421143 0 0.14343958569973969 0.12200633369626609 0 0.146610739882932 0.1329121193908174 0 0.15332381363722741 0.15228081296627369 0 0.1409362315392052 0.14337153477665471 0 0.15332381363722741 0.15228081296627369 0 0.1409362315392052 0.14337153477665471 0 0.13828276092590619 0.15469437453365101 0 0.1409362315392052 0.14337153477665471 0 0.13828276092590619 0.15469437453365101 0 0.13135262222128191 0.14376665278074471 0 0.1208432538997562 0.13902087324996501 0 0.13135262222128191 0.14376665278074471 0 0.12642561631786911 0.1522845150615684 0 0.13828276092590619 0.15469437453365101 0 0.13135262222128191 0.14376665278074471 0 0.12642561631786911 0.1522845150615684 0 0.13828276092590619 0.15469437453365101 0 0.12642561631786911 0.1522845150615684 0 0.12885862867471889 0.16475759922922439 0 0.12885862867471889 0.16475759922922439 0 0.1351004232488672 0.17841412846727031 0 0.1449264414817554 0.17033212294419189 0 0.12885862867471889 0.16475759922922439 0 0.1449264414817554 0.17033212294419189 0 0.13828276092590619 0.15469437453365101 0 0.12885862867471889 0.16475759922922439 0 0.1449264414817554 0.17033212294419189 0 0.1351004232488672 0.17841412846727031 0 0.12804808386630559 0.18889648851853069 0 0.1532495123545615 0.19404464962801149 0 0.1204194498669946 0.1740397820163932 0 0.1351004232488672 0.17841412846727031 0 0.12804808386630559 0.18889648851853069 0 0.1204194498669946 0.1740397820163932 0 0.12885862867471889 0.16475759922922439 0 0.1351004232488672 0.17841412846727031 0 0.1449264414817554 0.17033212294419189 0 0.16138205408258799 0.16772313936523781 0 0.1532495123545615 0.19404464962801149 0 0.1351004232488672 0.17841412846727031 0 0.1449264414817554 0.17033212294419189 0 0.1532495123545615 0.19404464962801149 0 0.15332381363722741 0.15228081296627369 0 0.13828276092590619 0.15469437453365101 0 0.1449264414817554 0.17033212294419189 0 0.15332381363722741 0.15228081296627369 0 0.1449264414817554 0.17033212294419189 0 0.16138205408258799 0.16772313936523781 0 0.16138205408258799 0.16772313936523781 0 0.17614019117657739 0.1771359935181572 0 0.17130698490892771 0.1512737156933846 0 0.15332381363722741 0.15228081296627369 0 0.16138205408258799 0.16772313936523781 0 0.17130698490892771 0.1512737156933846 0 0.16138205408258799 0.16772313936523781 0 0.17614019117657739 0.1771359935181572 0 0.1532495123545615 0.19404464962801149 0 0.17614019117657739 0.1771359935181572 0 0.1532495123545615 0.19404464962801149 0 0.17614019117657739 0.1771359935181572 0 0.17130698490892771 0.1512737156933846 0 0.18885043287715009 0.1548717862548919 0 0.1805746594673093 0.1393493461365492 0 0.17130698490892771 0.1512737156933846 0 0.18885043287715009 0.1548717862548919 0 0.1870103436779918 0.12759680998270709 0 0.1805746594673093 0.1393493461365492 0 0.1685574101195727 0.1309119963326606 0 0.1805746594673093 0.1393493461365492 0 0.1685574101195727 0.1309119963326606 0 0.17130698490892771 0.1512737156933846 0 0.15332381363722741 0.15228081296627369 0 0.1685574101195727 0.1309119963326606 0 0.15685947071535611 0.1276256296421143 0 0.1685574101195727 0.1309119963326606 0 0.15685947071535611 0.1276256296421143 0 0.17011852631969779 0.11709906621238469 0 0.15332381363722741 0.15228081296627369 0 0.1685574101195727 0.1309119963326606 0 0.17130698490892771 0.1512737156933846 0 0.15332381363722741 0.15228081296627369 0 0.1685574101195727 0.1309119963326606 0 0.1441108647216861 0.24272032236460531 0 0.15248788509588751 0.22061056288231501 0 0.1644828606342475 0.24066485491695319 0 0.1441108647216861 0.24272032236460531 0 0.1644828606342475 0.24066485491695319 0 0.15359089029870171 0.25461412864350841 0 0.12358662914375811 0.24562408341310979 0 0.1441108647216861 0.24272032236460531 0 0.1333345149716626 0.22977716241396609 0 0.1333345149716626 0.22977716241396609 0 0.15248788509588751 0.22061056288231501 0 0.13035883353254571 0.21095330573786569 0 0.1441108647216861 0.24272032236460531 0 0.1333345149716626 0.22977716241396609 0 0.15248788509588751 0.22061056288231501 0 0.15248788509588751 0.22061056288231501 0 0.13035883353254571 0.21095330573786569 0 0.1532495123545615 0.19404464962801149 0 0.13035883353254571 0.21095330573786569 0 0.12804808386630559 0.18889648851853069 0 0.1532495123545615 0.19404464962801149 0 0.13035883353254571 0.21095330573786569 0 0.1532495123545615 0.19404464962801149 0 0.17614019117657739 0.1771359935181572 0 0.1532495123545615 0.19404464962801149 0 0.17027698276804959 0.20246581966101951 0 0.17614019117657739 0.1771359935181572 0 0.17027698276804959 0.20246581966101951 0 0.19064088995647829 0.2045779595358925 0 0.17027698276804959 0.20246581966101951 0 0.17374727664587841 0.22084869033527629 0 0.19064088995647829 0.2045779595358925 0 0.17374727664587841 0.22084869033527629 0 0.1928976084297816 0.22602611178064719 0 0.19064088995647829 0.2045779595358925 0 0.17374727664587841 0.22084869033527629 0 0.19064088995647829 0.2045779595358925 0 0.15248788509588751 0.22061056288231501 0 0.1532495123545615 0.19404464962801149 0 0.17027698276804959 0.20246581966101951 0 0.15248788509588751 0.22061056288231501 0 0.17027698276804959 0.20246581966101951 0 0.17374727664587841 0.22084869033527629 0 0.15248788509588751 0.22061056288231501 0 0.17374727664587841 0.22084869033527629 0 0.1644828606342475 0.24066485491695319 0 0.17374727664587841 0.22084869033527629 0 0.18432810499238581 0.2446549275319905 0 0.1928976084297816 0.22602611178064719 0 0.17374727664587841 0.22084869033527629 0 0.18432810499238581 0.2446549275319905 0 0.1644828606342475 0.24066485491695319 0 0.18432810499238581 0.2446549275319905 0 0.1644828606342475 0.24066485491695319 0 0.16761974526679019 0.25914969474071459 0 0.20619742700896329 0.24842526588400071 0 0.2113020889221244 0.2292722365416309 0 0.23002142385293589 0.240410437660948 0 0.20619742700896329 0.24842526588400071 0 0.1928976084297816 0.22602611178064719 0 0.2113020889221244 0.2292722365416309 0 0.18432810499238581 0.2446549275319905 0 0.20619742700896329 0.24842526588400071 0 0.1928976084297816 0.22602611178064719 0 0.1928976084297816 0.22602611178064719 0 0.2113020889221244 0.2292722365416309 0 0.20524475537835599 0.2123533308549054 0 0.17614019117657739 0.1771359935181572 0 0.19064088995647829 0.2045779595358925 0 0.2075345032670784 0.1883072287365086 0 0.2113020889221244 0.2292722365416309 0 0.20524475537835599 0.2123533308549054 0 0.22323775825801809 0.2105857033461786 0 0.20524475537835599 0.2123533308549054 0 0.2075345032670784 0.1883072287365086 0 0.22323775825801809 0.2105857033461786 0 0.1928976084297816 0.22602611178064719 0 0.20524475537835599 0.2123533308549054 0 0.19064088995647829 0.2045779595358925 0 0.19064088995647829 0.2045779595358925 0 0.2075345032670784 0.1883072287365086 0 0.20524475537835599 0.2123533308549054 0 0.19064088995647829 0.2045779595358925 0 0.2075345032670784 0.1883072287365086 0 0.227975590222181 0.1899377891247262 0 0.24420361073840699 0.19856914261373959 0 0.22323775825801809 0.2105857033461786 0 0.2075345032670784 0.1883072287365086 0 0.227975590222181 0.1899377891247262 0 0.22323775825801809 0.2105857033461786 0 0.24420361073840699 0.19856914261373959 0 0.24395940064542521 0.1784341937588439 0 0.25828039321235191 0.1910576923913809 0 0.227975590222181 0.1899377891247262 0 0.24420361073840699 0.19856914261373959 0 0.24395940064542521 0.1784341937588439 0 0.24420361073840699 0.19856914261373959 0 0.22323775825801809 0.2105857033461786 0 0.2463127901361549 0.227936117961898 0 0.22323775825801809 0.2105857033461786 0 0.2463127901361549 0.227936117961898 0 0.23002142385293589 0.240410437660948 0 0.2113020889221244 0.2292722365416309 0 0.22323775825801809 0.2105857033461786 0 0.23002142385293589 0.240410437660948 0 0.2463127901361549 0.227936117961898 0 0.23002142385293589 0.240410437660948 0 0.25648020029296009 0.25534243071471141 0 0.20819778242523601 0.1529933259442815 0 0.21404011328422939 0.13427151630627379 0 0.22631788630303151 0.14711012171139001 0 0.20819778242523601 0.1529933259442815 0 0.21404011328422939 0.13427151630627379 0 0.1984230659099353 0.13925192750752821 0 0.21404011328422939 0.13427151630627379 0 0.1984230659099353 0.13925192750752821 0 0.20328025527749019 0.1178121920999836 0 0.1870103436779918 0.12759680998270709 0 0.1805746594673093 0.1393493461365492 0 0.1984230659099353 0.13925192750752821 0 0.1870103436779918 0.12759680998270709 0 0.1984230659099353 0.13925192750752821 0 0.20328025527749019 0.1178121920999836 0 0.1805746594673093 0.1393493461365492 0 0.1984230659099353 0.13925192750752821 0 0.18885043287715009 0.1548717862548919 0 0.20819778242523601 0.1529933259442815 0 0.1984230659099353 0.13925192750752821 0 0.18885043287715009 0.1548717862548919 0 0.20819778242523601 0.1529933259442815 0 0.18885043287715009 0.1548717862548919 0 0.20103020526474399 0.16906896647819281 0 0.17614019117657739 0.1771359935181572 0 0.2075345032670784 0.1883072287365086 0 0.20103020526474399 0.16906896647819281 0 0.17614019117657739 0.1771359935181572 0 0.18885043287715009 0.1548717862548919 0 0.20103020526474399 0.16906896647819281 0 0.2075345032670784 0.1883072287365086 0 0.20103020526474399 0.16906896647819281 0 0.2244281165776785 0.17203649793712461 0 0.2075345032670784 0.1883072287365086 0 0.2244281165776785 0.17203649793712461 0 0.20819778242523601 0.1529933259442815 0 0.20103020526474399 0.16906896647819281 0 0.2244281165776785 0.17203649793712461 0 0.2244281165776785 0.17203649793712461 0 0.24132172988827849 0.15576576713774071 0 0.22631788630303151 0.14711012171139001 0 0.2244281165776785 0.17203649793712461 0 0.24132172988827849 0.15576576713774071 0 0.20819778242523601 0.1529933259442815 0 0.2244281165776785 0.17203649793712461 0 0.22631788630303151 0.14711012171139001 0 0.2075345032670784 0.1883072287365086 0 0.227975590222181 0.1899377891247262 0 0.2244281165776785 0.17203649793712461 0 0.227975590222181 0.1899377891247262 0 0.2244281165776785 0.17203649793712461 0 0.24395940064542521 0.1784341937588439 0 0.2244281165776785 0.17203649793712461 0 0.24395940064542521 0.1784341937588439 0 0.24132172988827849 0.15576576713774071 0 0.24132172988827849 0.15576576713774071 0 0.22631788630303151 0.14711012171139001 0 0.24547992539022981 0.13490344779148691 0 0.22631788630303151 0.14711012171139001 0 0.2300950527677538 0.12920278463913651 0 0.24547992539022981 0.13490344779148691 0 0.21404011328422939 0.13427151630627379 0 0.2300950527677538 0.12920278463913651 0 0.22062107450451909 0.1209922905661968 0 0.21404011328422939 0.13427151630627379 0 0.22631788630303151 0.14711012171139001 0 0.2300950527677538 0.12920278463913651 0 0.2300950527677538 0.12920278463913651 0 0.24547992539022981 0.13490344779148691 0 0.24522452711027151 0.1162476081772815 0 0.2300950527677538 0.12920278463913651 0 0.24522452711027151 0.1162476081772815 0 0.2302773074152189 0.1119211970392508 0 0.24522452711027151 0.1162476081772815 0 0.24577971206005911 0.094681192802855224 0 0.2302773074152189 0.1119211970392508 0 0.24577971206005911 0.094681192802855224 0 0.22598568279541531 0.098753012618789604 0 0.2302773074152189 0.1119211970392508 0 0.22598568279541531 0.098753012618789604 0 0.2302773074152189 0.1119211970392508 0 0.21617859950688509 0.10888032319757671 0 0.2300950527677538 0.12920278463913651 0 0.2302773074152189 0.1119211970392508 0 0.22062107450451909 0.1209922905661968 0 0.2302773074152189 0.1119211970392508 0 0.22062107450451909 0.1209922905661968 0 0.21617859950688509 0.10888032319757671 0 0.21404011328422939 0.13427151630627379 0 0.22062107450451909 0.1209922905661968 0 0.20328025527749019 0.1178121920999836 0 0.22062107450451909 0.1209922905661968 0 0.20328025527749019 0.1178121920999836 0 0.21617859950688509 0.10888032319757671 0 0.20328025527749019 0.1178121920999836 0 0.21617859950688509 0.10888032319757671 0 0.20724635371494721 0.096580941885658619 0 0.22598568279541531 0.098753012618789604 0 0.21617859950688509 0.10888032319757671 0 0.20724635371494721 0.096580941885658619 0 0.20724635371494721 0.096580941885658619 0 0.19819654062794581 0.089335921651467129 0 0.18379100660191769 0.1095431796990473 0 0.20328025527749019 0.1178121920999836 0 0.20724635371494721 0.096580941885658619 0 0.18379100660191769 0.1095431796990473 0 0.20724635371494721 0.096580941885658619 0 0.18379100660191769 0.1095431796990473 0 0.19819654062794581 0.089335921651467129 0 0.18379100660191769 0.1095431796990473 0 0.19819654062794581 0.089335921651467129 0 0.18379100660191769 0.1095431796990473 0 0.1833128265150428 0.096422289004652259 0 0.1870103436779918 0.12759680998270709 0 0.20328025527749019 0.1178121920999836 0 0.18379100660191769 0.1095431796990473 0 0.19321652232830791 0.06790232124147505 0 0.21260207465397349 0.069128663603886906 0 0.20250846942803721 0.053854243767805302 0 0.19321652232830791 0.06790232124147505 0 0.19379750582489461 0.078127206303938546 0 0.21260207465397349 0.069128663603886906 0 0.19321652232830791 0.06790232124147505 0 0.19379750582489461 0.078127206303938546 0 0.1796782673842052 0.077820355546324688 0 0.19379750582489461 0.078127206303938546 0 0.19819654062794581 0.089335921651467129 0 0.21260207465397349 0.069128663603886906 0 0.19379750582489461 0.078127206303938546 0 0.19819654062794581 0.089335921651467129 0 0.18529412413004059 0.086448769476538956 0 0.19819654062794581 0.089335921651467129 0 0.1833128265150428 0.096422289004652259 0 0.18529412413004059 0.086448769476538956 0 0.19819654062794581 0.089335921651467129 0 0.21107992611479301 0.08343686093533656 0 0.21260207465397349 0.069128663603886906 0 0.21107992611479301 0.08343686093533656 0 0.21260207465397349 0.069128663603886906 0 0.230701700827977 0.08361870407227022 0 0.20724635371494721 0.096580941885658619 0 0.21107992611479301 0.08343686093533656 0 0.230701700827977 0.08361870407227022 0 0.19819654062794581 0.089335921651467129 0 0.21260207465397349 0.069128663603886906 0 0.20724635371494721 0.096580941885658619 0 0.19819654062794581 0.089335921651467129 0 0.21107992611479301 0.08343686093533656 0 0.21260207465397349 0.069128663603886906 0 0.230701700827977 0.08361870407227022 0 0.23601429429201889 0.06555279849888232 0 0.22598568279541531 0.098753012618789604 0 0.20724635371494721 0.096580941885658619 0 0.230701700827977 0.08361870407227022 0 0.20724635371494721 0.096580941885658619 0 0.230701700827977 0.08361870407227022 0 0.24577971206005911 0.094681192802855224 0 0.22598568279541531 0.098753012618789604 0 0.230701700827977 0.08361870407227022 0 0.24577971206005911 0.094681192802855224 0 0.230701700827977 0.08361870407227022 0 0.25415704794100669 0.07065646625888182 0 0.230701700827977 0.08361870407227022 0 0.23601429429201889 0.06555279849888232 0 0.25415704794100669 0.07065646625888182 0 0.23601429429201889 0.06555279849888232 0 0.24895312849188919 0.059115038947649613 0 0.25415704794100669 0.07065646625888182 0 0.230701700827977 0.08361870407227022 0 0.25415704794100669 0.07065646625888182 0 0.23601429429201889 0.06555279849888232 0 0.24895312849188919 0.059115038947649613 0 0.23924914224552599 0.050673701050111097 0 0.24895312849188919 0.059115038947649613 0 0.23924914224552599 0.050673701050111097 0 0.2491398822511017 0.049107863529107253 0 0.2491398822511017 0.049107863529107253 0 0.2416149586196136 0.040789879113729118 0 0.25177438564587512 0.040318721698458918 0 0.23924914224552599 0.050673701050111097 0 0.2491398822511017 0.049107863529107253 0 0.2416149586196136 0.040789879113729118 0 0.2416149586196136 0.040789879113729118 0 0.24622542171544631 0.03124864337130712 0 0.25177438564587512 0.040318721698458918 0 0.2416149586196136 0.040789879113729118 0 0.23320780160769281 0.041921181545255787 0 0.23393316517613599 0.032344161767398287 0 0.2416149586196136 0.040789879113729118 0 0.23393316517613599 0.032344161767398287 0 0.24622542171544631 0.03124864337130712 0 0.23924914224552599 0.050673701050111097 0 0.2416149586196136 0.040789879113729118 0 0.23320780160769281 0.041921181545255787 0 0.23393316517613599 0.032344161767398287 0 0.21600299943684351 0.031840232999110887 0 0.23393316517613599 0.032344161767398287 0 0.2251197742555093 0.039608682019262001 0 0.21600299943684351 0.031840232999110887 0 0.23320780160769281 0.041921181545255787 0 0.2251197742555093 0.039608682019262001 0 0.2270076086800013 0.048921405556306662 0 0.23320780160769281 0.041921181545255787 0 0.23393316517613599 0.032344161767398287 0 0.2251197742555093 0.039608682019262001 0 0.2251197742555093 0.039608682019262001 0 0.2270076086800013 0.048921405556306662 0 0.21442227467188529 0.047585500531436099 0 0.21260207465397349 0.069128663603886906 0 0.23601429429201889 0.06555279849888232 0 0.2270076086800013 0.048921405556306662 0 0.21260207465397349 0.069128663603886906 0 0.2270076086800013 0.048921405556306662 0 0.23601429429201889 0.06555279849888232 0 0.23924914224552599 0.050673701050111097 0 0.2270076086800013 0.048921405556306662 0 0.23924914224552599 0.050673701050111097 0 0.23320780160769281 0.041921181545255787 0 0.2270076086800013 0.048921405556306662 0 0.24288467406853601 0.01084635671077764 0 0.26249141269217191 0.0042897038784872124 0 0.23525203801956171 -0.0083670959399735415 0 0.24288467406853601 0.01084635671077764 0 0.24622542171544631 0.03124864337130712 0 0.2253125077539665 0.027238330372383001 0 0.24288467406853601 0.01084635671077764 0 0.24622542171544631 0.03124864337130712 0 0.2546022002950461 0.017760820163893649 0 0.24622542171544631 0.03124864337130712 0 0.2253125077539665 0.027238330372383001 0 0.23393316517613599 0.032344161767398287 0 0.24622542171544631 0.03124864337130712 0 0.2253125077539665 0.027238330372383001 0 0.2253125077539665 0.027238330372383001 0 0.22454610654099061 0.0098036942901086783 0 0.20695276950407851 0.019955903249275219 0 0.24288467406853601 0.01084635671077764 0 0.2253125077539665 0.027238330372383001 0 0.22454610654099061 0.0098036942901086783 0 0.23393316517613599 0.032344161767398287 0 0.2253125077539665 0.027238330372383001 0 0.21600299943684351 0.031840232999110887 0 0.24288467406853601 0.01084635671077764 0 0.22454610654099061 0.0098036942901086783 0 0.23525203801956171 -0.0083670959399735415 0 0.22454610654099061 0.0098036942901086783 0 0.21232854335881091 -0.00065502294191741852 0 0.23525203801956171 -0.0083670959399735415 0 0.19965633713790029 0.017925248879039669 0 0.21232854335881091 -0.00065502294191741852 0 0.20695276950407851 0.019955903249275219 0 0.19965633713790029 0.017925248879039669 0 0.21232854335881091 -0.00065502294191741852 0 0.22454610654099061 0.0098036942901086783 0 0.20695276950407851 0.019955903249275219 0 0.21232854335881091 -0.00065502294191741852 0 0.2253125077539665 0.027238330372383001 0 0.20439959379248729 0.023228017373455631 0 0.21600299943684351 0.031840232999110887 0 0.20439959379248729 0.023228017373455631 0 0.21600299943684351 0.031840232999110887 0 0.19807283369755099 0.03133630423082269 0 0.2253125077539665 0.027238330372383001 0 0.20439959379248729 0.023228017373455631 0 0.20695276950407851 0.019955903249275219 0 0.2253125077539665 0.027238330372383001 0 0.20439959379248729 0.023228017373455631 0 0.20439959379248729 0.023228017373455631 0 0.20695276950407851 0.019955903249275219 0 0.1970066207331268 0.021810322258598649 0 0.18061983509288251 0.018667951014463838 0 0.1970066207331268 0.021810322258598649 0 0.1882807964057244 0.0074352784142036506 0 0.18061983509288251 0.018667951014463838 0 0.1907375482761427 0.031130145436689391 0 0.1970066207331268 0.021810322258598649 0 0.18061983509288251 0.018667951014463838 0 0.20439959379248729 0.023228017373455631 0 0.19807283369755099 0.03133630423082269 0 0.20439959379248729 0.023228017373455631 0 0.1970066207331268 0.021810322258598649 0 0.19807283369755099 0.03133630423082269 0 0.1907375482761427 0.031130145436689391 0 0.1970066207331268 0.021810322258598649 0 0.19807283369755099 0.03133630423082269 0 0.1907375482761427 0.031130145436689391 0 0.1970066207331268 0.021810322258598649 0 0.1907375482761427 0.031130145436689391 0 0.19807283369755099 0.03133630423082269 0 0.1970066207331268 0.021810322258598649 0 0.19965633713790029 0.017925248879039669 0 0.1882807964057244 0.0074352784142036506 0 0.20439959379248729 0.023228017373455631 0 0.20695276950407851 0.019955903249275219 0 0.1970066207331268 0.021810322258598649 0 0.20695276950407851 0.019955903249275219 0 0.1970066207331268 0.021810322258598649 0 0.19965633713790029 0.017925248879039669 0 0.1970066207331268 0.021810322258598649 0 0.19965633713790029 0.017925248879039669 0 0.20439959379248729 0.023228017373455631 0 0.1970066207331268 0.021810322258598649 0 0.19965633713790029 0.017925248879039669 0 0.1882807964057244 0.0074352784142036506 0 0.21232854335881091 -0.00065502294191741852 0 0.1882807964057244 0.0074352784142036506 0 0.21232854335881091 -0.00065502294191741852 0 0.21260207465397349 0.069128663603886906 0 0.21442227467188529 0.047585500531436099 0 0.20250846942803721 0.053854243767805302 0 0.21260207465397349 0.069128663603886906 0 0.2270076086800013 0.048921405556306662 0 0.21442227467188529 0.047585500531436099 0 0.21442227467188529 0.047585500531436099 0 0.20329272157694719 0.04215977524224488 0 0.20250846942803721 0.053854243767805302 0 0.21600299943684351 0.031840232999110887 0 0.20329272157694719 0.04215977524224488 0 0.19807283369755099 0.03133630423082269 0 0.21442227467188529 0.047585500531436099 0 0.21600299943684351 0.031840232999110887 0 0.20329272157694719 0.04215977524224488 0 0.21600299943684351 0.031840232999110887 0 0.19807283369755099 0.03133630423082269 0 0.2251197742555093 0.039608682019262001 0 0.21442227467188529 0.047585500531436099 0 0.21600299943684351 0.031840232999110887 0 0.1907375482761427 0.031130145436689391 0 0.19807283369755099 0.03133630423082269 0 0.18398918847627119 0.049385706094983849 0 0.20329272157694719 0.04215977524224488 0 0.19807283369755099 0.03133630423082269 0 0.18398918847627119 0.049385706094983849 0 0.19807283369755099 0.03133630423082269 0 0.18398918847627119 0.049385706094983849 0 0.20329272157694719 0.04215977524224488 0 0.20250846942803721 0.053854243767805302 0 0.18398918847627119 0.049385706094983849 0 0.19321652232830791 0.06790232124147505 0 0.20250846942803721 0.053854243767805302 0 0.18398918847627119 0.049385706094983849 0 0.18053701356456431 0.049292330207985062 0 0.16990554325499341 0.067435107959146506 0 0.19321652232830791 0.06790232124147505 0 0.18398918847627119 0.049385706094983849 0 0.16990554325499341 0.067435107959146506 0 0.18053701356456431 0.049292330207985062 0 0.17855097051873731 0.049247139716866638 0 0.16990554325499341 0.067435107959146506 0 0.18053701356456431 0.049292330207985062 0 0.18398918847627119 0.049385706094983849 0 0.16990554325499341 0.067435107959146506 0 0.18398918847627119 0.049385706094983849 0 0.16990554325499341 0.067435107959146506 0 0.17855097051873731 0.049247139716866638 0 0.16636439276133189 0.067364133997043829 0 0.1907375482761427 0.031130145436689391 0 0.18053701356456431 0.049292330207985062 0 0.18398918847627119 0.049385706094983849 0 0.1907375482761427 0.031130145436689391 0 0.18053701356456431 0.049292330207985062 0 0.17855097051873731 0.049247139716866638 0 0.1907375482761427 0.031130145436689391 0 0.17855097051873731 0.049247139716866638 0 0.1907375482761427 0.031130145436689391 0 0.18053701356456431 0.049292330207985062 0 0.1907375482761427 0.031130145436689391 0 0.17855097051873731 0.049247139716866638 0 0.16550331881423549 0.030420935362654031 0 0.17855097051873731 0.049247139716866638 0 0.16550331881423549 0.030420935362654031 0 0.15523373785166689 0.050791046700362733 0 0.17855097051873731 0.049247139716866638 0 0.16990554325499341 0.067435107959146506 0 0.16636439276133189 0.067364133997043829 0 0.17855097051873731 0.049247139716866638 0 0.15523373785166689 0.050791046700362733 0 0.16636439276133189 0.067364133997043829 0 0.1882807964057244 0.0074352784142036506 0 0.16423304945263861 0.015525579770326739 0 0.16864449832550751 -0.0016996597302522179 0 0.1882807964057244 0.0074352784142036506 0 0.16423304945263861 0.015525579770326739 0 0.1882807964057244 0.0074352784142036506 0 0.18061983509288251 0.018667951014463838 0 0.16423304945263861 0.015525579770326739 0 0.18061983509288251 0.018667951014463838 0 0.16423304945263861 0.015525579770326739 0 0.1907375482761427 0.031130145436689391 0 0.16550331881423549 0.030420935362654031 0 0.1907375482761427 0.031130145436689391 0 0.18061983509288251 0.018667951014463838 0 0.16550331881423549 0.030420935362654031 0 0.18061983509288251 0.018667951014463838 0 0.16550331881423549 0.030420935362654031 0 0.16423304945263861 0.015525579770326739 0 0.16550331881423549 0.030420935362654031 0 0.16423304945263861 0.015525579770326739 0 0.15482321070611621 0.024134495092413041 0 0.16423304945263861 0.015525579770326739 0 0.15703832168715839 0.0035974368737494611 0 0.16864449832550751 -0.0016996597302522179 0 0.15703832168715839 0.0035974368737494611 0 0.1397517678826096 0.010830987620639641 0 0.15552397108787841 -0.010267160165718081 0 0.16423304945263861 0.015525579770326739 0 0.1397517678826096 0.010830987620639641 0 0.16423304945263861 0.015525579770326739 0 0.15703832168715839 0.0035974368737494611 0 0.1397517678826096 0.010830987620639641 0 0.1397517678826096 0.010830987620639641 0 0.15552397108787841 -0.010267160165718081 0 0.16423304945263861 0.015525579770326739 0 0.14604859707796861 0.021643312961470641 0 0.1397517678826096 0.010830987620639641 0 0.16423304945263861 0.015525579770326739 0 0.14604859707796861 0.021643312961470641 0 0.15482321070611621 0.024134495092413041 0 0.16550331881423549 0.030420935362654031 0 0.15482321070611621 0.024134495092413041 0 0.1402690893523284 0.02971172528861921 0 0.16423304945263861 0.015525579770326739 0 0.14604859707796861 0.021643312961470641 0 0.16550331881423549 0.030420935362654031 0 0.1402690893523284 0.02971172528861921 0 0.14604859707796861 0.021643312961470641 0 0.15482321070611621 0.024134495092413041 0 0.1402690893523284 0.02971172528861921 0 0.12600330599295401 0.02922201879159848 0 0.1397517678826096 0.010830987620639641 0 0.1241883268797441 0.022489174730773769 0 0.12600330599295401 0.02922201879159848 0 0.1397517678826096 0.010830987620639641 0 0.14604859707796861 0.021643312961470641 0 0.12786414470329879 0.027761046152615099 0 0.14604859707796861 0.021643312961470641 0 0.12786414470329879 0.027761046152615099 0 0.1397517678826096 0.010830987620639641 0 0.12600330599295401 0.02922201879159848 0 0.12786414470329879 0.027761046152615099 0 0.1397517678826096 0.010830987620639641 0 0.14604859707796861 0.021643312961470641 0 0.13389821798807591 0.029807284941477739 0 0.12786414470329879 0.027761046152615099 0 0.14604859707796861 0.021643312961470641 0 0.13389821798807591 0.029807284941477739 0 0.1402690893523284 0.02971172528861921 0 0.13389821798807591 0.029807284941477739 0 0.12600330599295401 0.02922201879159848 0 0.12786414470329879 0.027761046152615099 0 0.1241883268797441 0.022489174730773769 0 0.13320795625720591 0.0095761298388824297 0 0.1397517678826096 0.010830987620639641 0 0.13320795625720591 0.0095761298388824297 0 0.14877752971119221 -0.0127142096578973 0 0.1397517678826096 0.010830987620639641 0 0.13320795625720591 0.0095761298388824297 0 0.1241883268797441 0.022489174730773769 0 0.1397517678826096 0.010830987620639641 0 0.13320795625720591 0.0095761298388824297 0 0.13320795625720591 0.0095761298388824297 0 0.1350257522086861 -0.0053954078615759448 0 0.1251470615708736 -0.00050432347332847721 0 0.15523373785166689 0.050791046700362733 0 0.14374505591210521 0.066910783042537336 0 0.16636439276133189 0.067364133997043829 0 0.15523373785166689 0.050791046700362733 0 0.13424546126977871 0.050519135706838997 0 0.14374505591210521 0.066910783042537336 0 0.15523373785166689 0.050791046700362733 0 0.1453724596756103 0.039860480847272672 0 0.13424546126977871 0.050519135706838997 0 0.16550331881423549 0.030420935362654031 0 0.1402690893523284 0.02971172528861921 0 0.1453724596756103 0.039860480847272672 0 0.16550331881423549 0.030420935362654031 0 0.15523373785166689 0.050791046700362733 0 0.1453724596756103 0.039860480847272672 0 0.1122548441033026 0.047613049962560591 0 0.131610691090042 0.037859561177888343 0 0.13424546126977871 0.050519135706838997 0 0.1453724596756103 0.039860480847272672 0 0.131610691090042 0.037859561177888343 0 0.13424546126977871 0.050519135706838997 0 0.1402690893523284 0.02971172528861921 0 0.1453724596756103 0.039860480847272672 0 0.131610691090042 0.037859561177888343 0 0.13389821798807591 0.029807284941477739 0 0.1402690893523284 0.02971172528861921 0 0.131610691090042 0.037859561177888343 0 0.13389821798807591 0.029807284941477739 0 0.12600330599295401 0.02922201879159848 0 0.131610691090042 0.037859561177888343 0 0.1211257190628785 0.066457432088030316 0 0.13424546126977871 0.050519135706838997 0 0.14374505591210521 0.066910783042537336 0 0.1211257190628785 0.066457432088030316 0 0.14374505591210521 0.066910783042537336 0 0.130970104713407 0.0800604943328517 0 0.1211257190628785 0.066457432088030316 0 0.14374505591210521 0.066910783042537336 0 0.14374505591210521 0.066910783042537336 0 0.14201030485902211 0.086774182516978715 0 0.130970104713407 0.0800604943328517 0 0.14374505591210521 0.066910783042537336 0 0.15512498343664091 0.084073034436645822 0 0.16636439276133189 0.067364133997043829 0 0.14374505591210521 0.066910783042537336 0 0.16636439276133189 0.067364133997043829 0 0.1544089237721433 0.087295357787034664 0 0.15512498343664091 0.084073034436645822 0 0.14388557411195069 0.1007819348762483 0 0.14374505591210521 0.066910783042537336 0 0.15512498343664091 0.084073034436645822 0 0.14201030485902211 0.086774182516978715 0 0.15512498343664091 0.084073034436645822 0 0.14201030485902211 0.086774182516978715 0 0.14388557411195069 0.1007819348762483 0 0.15512498343664091 0.084073034436645822 0 0.14388557411195069 0.1007819348762483 0 0.1550780300715319 0.089290683467288134 0 0.1544089237721433 0.087295357787034664 0 0.15396061244231091 0.094165781291102216 0 0.1550780300715319 0.089290683467288134 0 0.15396061244231091 0.094165781291102216 0 0.1587771815893366 0.092487888009182173 0 0.14201030485902211 0.086774182516978715 0 0.130970104713407 0.0800604943328517 0 0.13045298779972361 0.092405662763910712 0 0.14201030485902211 0.086774182516978715 0 0.13045298779972361 0.092405662763910712 0 0.14388557411195069 0.1007819348762483 0 0.1206961788848588 0.084642225325637754 0 0.130970104713407 0.0800604943328517 0 0.13045298779972361 0.092405662763910712 0 0.1182499720176939 0.09708088954641543 0 0.13045298779972361 0.092405662763910712 0 0.12690579221140899 0.1050942499853325 0 0.13045298779972361 0.092405662763910712 0 0.12690579221140899 0.1050942499853325 0 0.14388557411195069 0.1007819348762483 0 0.12690579221140899 0.1050942499853325 0 0.13567395214547739 0.1113058342290608 0 0.14388557411195069 0.1007819348762483 0 0.13567395214547739 0.1113058342290608 0 0.14388557411195069 0.1007819348762483 0 0.12690579221140899 0.1050942499853325 0 0.12662492251817839 0.1229029434758243 0 0.13567395214547739 0.1113058342290608 0 0.12662492251817839 0.1229029434758243 0 0.13567395214547739 0.1113058342290608 0 0.14343958569973969 0.12200633369626609 0 0.12662492251817839 0.1229029434758243 0 0.13567395214547739 0.1113058342290608 0 0.13567395214547739 0.1113058342290608 0 0.14343958569973969 0.12200633369626609 0 0.14779714481613301 0.1098999767100514 0 0.14779714481613301 0.1098999767100514 0 0.1569021412165551 0.1076828829074106 0 0.1565558592480347 0.11531506678360399 0 0.14343958569973969 0.12200633369626609 0 0.14779714481613301 0.1098999767100514 0 0.1565558592480347 0.11531506678360399 0 0.15685947071535611 0.1276256296421143 0 0.14343958569973969 0.12200633369626609 0 0.1565558592480347 0.11531506678360399 0 0.13567395214547739 0.1113058342290608 0 0.14779714481613301 0.1098999767100514 0 0.14388557411195069 0.1007819348762483 0 0.14779714481613301 0.1098999767100514 0 0.14388557411195069 0.1007819348762483 0 0.15414053166607569 0.1010094775098877 0 0.14779714481613301 0.1098999767100514 0 0.15414053166607569 0.1010094775098877 0 0.1569021412165551 0.1076828829074106 0 0.1544089237721433 0.087295357787034664 0 0.14388557411195069 0.1007819348762483 0 0.15396061244231091 0.094165781291102216 0 0.1544089237721433 0.087295357787034664 0 0.14388557411195069 0.1007819348762483 0 0.14388557411195069 0.1007819348762483 0 0.15414053166607569 0.1010094775098877 0 0.15396061244231091 0.094165781291102216 0 0.15414053166607569 0.1010094775098877 0 0.15396061244231091 0.094165781291102216 0 0.15868706308591171 0.096593118937535652 0 0.15396061244231091 0.094165781291102216 0 0.15868706308591171 0.096593118937535652 0 0.1587771815893366 0.092487888009182173 0 0.15414053166607569 0.1010094775098877 0 0.15868706308591171 0.096593118937535652 0 0.1633231455796248 0.10108559894808 0 0.15868706308591171 0.096593118937535652 0 0.1632338441522104 0.094216848929426195 0 0.1587771815893366 0.092487888009182173 0 0.15868706308591171 0.096593118937535652 0 0.1632338441522104 0.094216848929426195 0 0.1633231455796248 0.10108559894808 0 0.15414053166607569 0.1010094775098877 0 0.1633231455796248 0.10108559894808 0 0.1569021412165551 0.1076828829074106 0 0.1633231455796248 0.10108559894808 0 0.1569021412165551 0.1076828829074106 0 0.1640122825534123 0.1089728111272955 0 0.1633231455796248 0.10108559894808 0 0.1640122825534123 0.1089728111272955 0 0.17316174040314919 0.1036814407849984 0 0.1633231455796248 0.10108559894808 0 0.1692264221760742 0.096920152084917888 0 0.17316174040314919 0.1036814407849984 0 0.1632338441522104 0.094216848929426195 0 0.1692264221760742 0.096920152084917888 0 0.1687367201429549 0.090832158917343003 0 0.1632338441522104 0.094216848929426195 0 0.1633231455796248 0.10108559894808 0 0.1692264221760742 0.096920152084917888 0 0.15685947071535611 0.1276256296421143 0 0.1565558592480347 0.11531506678360399 0 0.17011852631969779 0.11709906621238469 0 0.1640122825534123 0.1089728111272955 0 0.1565558592480347 0.11531506678360399 0 0.17011852631969779 0.11709906621238469 0 0.1569021412165551 0.1076828829074106 0 0.1640122825534123 0.1089728111272955 0 0.1565558592480347 0.11531506678360399 0 0.1640122825534123 0.1089728111272955 0 0.17011852631969779 0.11709906621238469 0 0.17316174040314919 0.1036814407849984 0 0.1685574101195727 0.1309119963326606 0 0.18379100660191769 0.1095431796990473 0 0.1870103436779918 0.12759680998270709 0 0.1685574101195727 0.1309119963326606 0 0.18379100660191769 0.1095431796990473 0 0.1685574101195727 0.1309119963326606 0 0.17011852631969779 0.11709906621238469 0 0.18379100660191769 0.1095431796990473 0 0.17011852631969779 0.11709906621238469 0 0.18379100660191769 0.1095431796990473 0 0.17011852631969779 0.11709906621238469 0 0.18379100660191769 0.1095431796990473 0 0.17316174040314919 0.1036814407849984 0 0.1692264221760742 0.096920152084917888 0 0.17316174040314919 0.1036814407849984 0 0.1761207208121609 0.093102133411209501 0 0.17316174040314919 0.1036814407849984 0 0.1833128265150428 0.096422289004652259 0 0.1761207208121609 0.093102133411209501 0 0.18379100660191769 0.1095431796990473 0 0.17316174040314919 0.1036814407849984 0 0.1833128265150428 0.096422289004652259 0 0.1833128265150428 0.096422289004652259 0 0.18529412413004059 0.086448769476538956 0 0.1761207208121609 0.093102133411209501 0 0.1761207208121609 0.093102133411209501 0 0.17449021213840291 0.085038818601395852 0 0.1687367201429549 0.090832158917343003 0 0.18529412413004059 0.086448769476538956 0 0.1761207208121609 0.093102133411209501 0 0.17449021213840291 0.085038818601395852 0 0.17449021213840291 0.085038818601395852 0 0.1796782673842052 0.077820355546324688 0 0.17034069768155319 0.07809161359523116 0 0.18529412413004059 0.086448769476538956 0 0.17449021213840291 0.085038818601395852 0 0.1796782673842052 0.077820355546324688 0 0.19379750582489461 0.078127206303938546 0 0.18529412413004059 0.086448769476538956 0 0.1796782673842052 0.077820355546324688 0 0.19321652232830791 0.06790232124147505 0 0.1796782673842052 0.077820355546324688 0 0.16990554325499341 0.067435107959146506 0 0.19321652232830791 0.06790232124147505 0 0.16990554325499341 0.067435107959146506 0 0.1796782673842052 0.077820355546324688 0 0.17034069768155319 0.07809161359523116 0 0.16990554325499341 0.067435107959146506 0 0.17034069768155319 0.07809161359523116 0 0.16493227343233599 0.073808780697821166 0 0.16990554325499341 0.067435107959146506 0 0.15512498343664091 0.084073034436645822 0 0.16493227343233599 0.073808780697821166 0 0.16636439276133189 0.067364133997043829 0 0.15512498343664091 0.084073034436645822 0 0.16636439276133189 0.067364133997043829 0 0.16493227343233599 0.073808780697821166 0 0.16990554325499341 0.067435107959146506 0 0.16990554325499341 0.067435107959146506 0 0.16636439276133189 0.067364133997043829 0 0.16493227343233599 0.073808780697821166 0 0.16990554325499341 0.067435107959146506 0 0.16636439276133189 0.067364133997043829 0 0.1544089237721433 0.087295357787034664 0 0.15512498343664091 0.084073034436645822 0 0.16493227343233599 0.073808780697821166 0 0.1544089237721433 0.087295357787034664 0 0.16493227343233599 0.073808780697821166 0 0.1550780300715319 0.089290683467288134 0 0.16493227343233599 0.073808780697821166 0 0.16227762733912859 0.087624005788958154 0 0.1550780300715319 0.089290683467288134 0 0.1544089237721433 0.087295357787034664 0 0.16493227343233599 0.073808780697821166 0 0.1550780300715319 0.089290683467288134 0 0.16493227343233599 0.073808780697821166 0 0.1550780300715319 0.089290683467288134 0 0.1587771815893366 0.092487888009182173 0 0.16227762733912859 0.087624005788958154 0 0.1632338441522104 0.094216848929426195 0 0.1587771815893366 0.092487888009182173 0 0.16227762733912859 0.087624005788958154 0 0.16227762733912859 0.087624005788958154 0 0.1687367201429549 0.090832158917343003 0 0.16677074267950259 0.083937880661727762 0 0.1632338441522104 0.094216848929426195 0 0.16227762733912859 0.087624005788958154 0 0.1687367201429549 0.090832158917343003 0 0.1692264221760742 0.096920152084917888 0 0.1761207208121609 0.093102133411209501 0 0.1687367201429549 0.090832158917343003 0 0.17449021213840291 0.085038818601395852 0 0.1687367201429549 0.090832158917343003 0 0.16677074267950259 0.083937880661727762 0 0.16493227343233599 0.073808780697821166 0 0.16227762733912859 0.087624005788958154 0 0.16677074267950259 0.083937880661727762 0 0.17034069768155319 0.07809161359523116 0 0.16493227343233599 0.073808780697821166 0 0.16677074267950259 0.083937880661727762 0 0.17449021213840291 0.085038818601395852 0 0.17034069768155319 0.07809161359523116 0 0.16677074267950259 0.083937880661727762 0 0.1008642837551184 0.4818921541253447 0 0.096377458586948628 0.49566317829720752 0 0.092544769863361492 0.46831033867547239 0 0.096377458586948628 0.49566317829720752 0 0.092544769863361492 0.46831033867547239 0 0.1092526975610412 0.48000441412865058 0 0.10368027257823011 0.47460839098252289 0 0.1008642837551184 0.4818921541253447 0 0.1092526975610412 0.48000441412865058 0 0.1008642837551184 0.4818921541253447 0 0.1084068428182975 0.49011498243598139 0 0.10368027257823011 0.47460839098252289 0 0.10854483032519301 0.47204196678830251 0 0.104629841872922 0.46503138894246399 0 0.1092526975610412 0.48000441412865058 0 0.10368027257823011 0.47460839098252289 0 0.10854483032519301 0.47204196678830251 0 0.10368027257823011 0.47460839098252289 0 0.098912178904409565 0.4721044274615171 0 0.104629841872922 0.46503138894246399 0 0.098912178904409565 0.4721044274615171 0 0.1008642837551184 0.4818921541253447 0 0.092544769863361492 0.46831033867547239 0 0.10368027257823011 0.47460839098252289 0 0.098912178904409565 0.4721044274615171 0 0.1008642837551184 0.4818921541253447 0 0.098912178904409565 0.4721044274615171 0 0.094503608861406824 0.46628520092731618 0 0.092544769863361492 0.46831033867547239 0 0.096377458586948628 0.49566317829720752 0 0.11546475191521589 0.5 0 0.089338832247156011 0.50000000000000333 0 0.096377458586948628 0.49566317829720752 0 0.1084068428182975 0.49011498243598139 0 0.11546475191521589 0.5 0 0.1008642837551184 0.4818921541253447 0 0.096377458586948628 0.49566317829720752 0 0.1084068428182975 0.49011498243598139 0 0.1084068428182975 0.49011498243598139 0 0.11546475191521589 0.5 0 0.12397164712563589 0.48523224294487222 0 0.1092526975610412 0.48000441412865058 0 0.1084068428182975 0.49011498243598139 0 0.12397164712563589 0.48523224294487222 0 0.1092526975610412 0.48000441412865058 0 0.12397164712563589 0.48523224294487222 0 0.11752805736271579 0.46915573985666831 0 0.1092526975610412 0.48000441412865058 0 0.10854483032519301 0.47204196678830251 0 0.11752805736271579 0.46915573985666831 0 0.11752805736271579 0.46915573985666831 0 0.1104652252350838 0.45562322122511778 0 0.12963045272487661 0.4508118892329952 0 0.11752805736271579 0.46915573985666831 0 0.1104652252350838 0.45562322122511778 0 0.104629841872922 0.46503138894246399 0 0.10854483032519301 0.47204196678830251 0 0.11752805736271579 0.46915573985666831 0 0.104629841872922 0.46503138894246399 0 0.1104652252350838 0.45562322122511778 0 0.1166456542707302 0.43688510679679721 0 0.12963045272487661 0.4508118892329952 0 0.097857257678469714 0.45402707889034472 0 0.089235176499142879 0.44469068598951922 0 0.1000789489588878 0.42835939012729801 0 0.1104652252350838 0.45562322122511778 0 0.1000789489588878 0.42835939012729801 0 0.1166456542707302 0.43688510679679721 0 0.1104652252350838 0.45562322122511778 0 0.097857257678469714 0.45402707889034472 0 0.1000789489588878 0.42835939012729801 0 0.1104652252350838 0.45562322122511778 0 0.1000789489588878 0.42835939012729801 0 0.097857257678469714 0.45402707889034472 0 0.094503608861406824 0.46628520092731618 0 0.089235176499142879 0.44469068598951922 0 0.1104652252350838 0.45562322122511778 0 0.104629841872922 0.46503138894246399 0 0.097857257678469714 0.45402707889034472 0 0.098912178904409565 0.4721044274615171 0 0.104629841872922 0.46503138894246399 0 0.094503608861406824 0.46628520092731618 0 0.104629841872922 0.46503138894246399 0 0.097857257678469714 0.45402707889034472 0 0.094503608861406824 0.46628520092731618 0 0.092544769863361492 0.46831033867547239 0 0.08009702897432068 0.45261549717358152 0 0.084733242329412983 0.47638625471329099 0 0.08009702897432068 0.45261549717358152 0 0.084733242329412983 0.47638625471329099 0 0.08009702897432068 0.45261549717358152 0 0.073875189591239634 0.46549114002123781 0 0.084733242329412983 0.47638625471329099 0 0.092544769863361492 0.46831033867547239 0 0.089235176499142879 0.44469068598951922 0 0.094503608861406824 0.46628520092731618 0 0.092544769863361492 0.46831033867547239 0 0.092544769863361492 0.46831033867547239 0 0.089235176499142879 0.44469068598951922 0 0.08009702897432068 0.45261549717358152 0 0.094503608861406824 0.46628520092731618 0 0.092544769863361492 0.46831033867547239 0 0.089235176499142879 0.44469068598951922 0 0.089235176499142879 0.44469068598951922 0 0.08009702897432068 0.45261549717358152 0 0.075460815619228794 0.42884473963387199 0 0.08009702897432068 0.45261549717358152 0 0.067494494008989478 0.44108399988098418 0 0.075460815619228794 0.42884473963387199 0 0.08009702897432068 0.45261549717358152 0 0.075460815619228794 0.42884473963387199 0 0.08009702897432068 0.45261549717358152 0 0.067494494008989478 0.44108399988098418 0 0.065992362856300751 0.45492813172381968 0 0.067494494008989478 0.44108399988098418 0 0.065992362856300751 0.45492813172381968 0 0.057141265643364109 0.44403616415611602 0 0.08009702897432068 0.45261549717358152 0 0.073875189591239634 0.46549114002123781 0 0.065992362856300751 0.45492813172381968 0 0.073875189591239634 0.46549114002123781 0 0.065992362856300751 0.45492813172381968 0 0.064287441999731409 0.46803647447312718 0 0.073875189591239634 0.46549114002123781 0 0.064287441999731409 0.46803647447312718 0 0.07176731576220996 0.47608739618579371 0 0.064287441999731409 0.46803647447312718 0 0.07176731576220996 0.47608739618579371 0 0.056761616198334357 0.48057227591310059 0 0.07176731576220996 0.47608739618579371 0 0.0733129018613419 0.48819312735664611 0 0.056761616198334357 0.48057227591310059 0 0.07176731576220996 0.47608739618579371 0 0.084733242329412983 0.47638625471329099 0 0.0733129018613419 0.48819312735664611 0 0.073875189591239634 0.46549114002123781 0 0.07176731576220996 0.47608739618579371 0 0.084733242329412983 0.47638625471329099 0 0.096377458586948628 0.49566317829720752 0 0.092544769863361492 0.46831033867547239 0 0.084733242329412983 0.47638625471329099 0 0.084733242329412983 0.47638625471329099 0 0.0733129018613419 0.48819312735664611 0 0.092544769863361492 0.46831033867547239 0 0.084733242329412983 0.47638625471329099 0 0.084733242329412983 0.47638625471329099 0 0.089338832247156011 0.50000000000000333 0 0.0733129018613419 0.48819312735664611 0 0.084733242329412983 0.47638625471329099 0 0.089338832247156011 0.50000000000000333 0 0.096377458586948628 0.49566317829720752 0 0.084733242329412983 0.47638625471329099 0 0.089338832247156011 0.50000000000000333 0 0.0733129018613419 0.48819312735664611 0 0.061892561393270103 0.50000000000000056 0 0.056761616198334357 0.48057227591310059 0 0.089338832247156011 0.50000000000000333 0 0.0733129018613419 0.48819312735664611 0 0.061892561393270103 0.50000000000000056 0 0.0733129018613419 0.48819312735664611 0 0.061892561393270103 0.50000000000000056 0 0.061892561393270103 0.50000000000000056 0 0.056761616198334357 0.48057227591310059 0 0.041349688373052078 0.49702316849823519 0 0.064287441999731409 0.46803647447312718 0 0.056761616198334357 0.48057227591310059 0 0.053100863597159653 0.45878051125992808 0 0.056761616198334357 0.48057227591310059 0 0.038671572572600683 0.46828972344489539 0 0.053100863597159653 0.45878051125992808 0 0.041349688373052078 0.49702316849823519 0 0.038671572572600683 0.46828972344489539 0 0.056761616198334357 0.48057227591310059 0 0.041349688373052078 0.49702316849823519 0 0.038671572572600683 0.46828972344489539 0 0.041349688373052078 0.49702316849823519 0 0.030295557830290101 0.48356194440721118 0 0.038671572572600683 0.46828972344489539 0 0.061892561393270103 0.50000000000000056 0 0.036056519938617637 0.5 0 0.041349688373052078 0.49702316849823519 0 0.036056519938617637 0.5 0 0.041349688373052078 0.49702316849823519 0 0.030295557830290101 0.48356194440721118 0 0.036056519938617637 0.5 0 0.030295557830290101 0.48356194440721118 0 0.01022047848396518 0.5 0 0.030295557830290101 0.48356194440721118 0 0.02008882994259845 0.46064611474723571 0 0.038671572572600683 0.46828972344489539 0 0.030295557830290101 0.48356194440721118 0 0.0038141287463968631 0.47979790165342401 0 0.02008882994259845 0.46064611474723571 0 0.030295557830290101 0.48356194440721118 0 0.0038141287463968631 0.47979790165342401 0 0.01022047848396518 0.5 0 -0.0029218050111873999 0.45624919054704338 0 0.02008882994259845 0.46064611474723571 0 0.014680068745341231 0.43642165003928429 0 -0.0053789581149880587 0.42854188731010101 0 -0.0029218050111873999 0.45624919054704338 0 0.014680068745341231 0.43642165003928429 0 -0.0029218050111873999 0.45624919054704338 0 0.0038141287463968631 0.47979790165342401 0 0.02008882994259845 0.46064611474723571 0 0.02008882994259845 0.46064611474723571 0 0.035993456772149268 0.43955627839155559 0 0.014680068745341231 0.43642165003928429 0 0.02008882994259845 0.46064611474723571 0 0.035993456772149268 0.43955627839155559 0 0.038671572572600683 0.46828972344489539 0 0.035993456772149268 0.43955627839155559 0 0.038671572572600683 0.46828972344489539 0 0.053100863597159653 0.45878051125992808 0 0.035993456772149268 0.43955627839155559 0 0.038671572572600683 0.46828972344489539 0 0.065992362856300751 0.45492813172381968 0 0.064287441999731409 0.46803647447312718 0 0.053100863597159653 0.45878051125992808 0 0.035993456772149268 0.43955627839155559 0 0.053100863597159653 0.45878051125992808 0 0.057141265643364109 0.44403616415611602 0 0.065992362856300751 0.45492813172381968 0 0.053100863597159653 0.45878051125992808 0 0.057141265643364109 0.44403616415611602 0 0.067494494008989478 0.44108399988098418 0 0.057141265643364109 0.44403616415611602 0 0.057504563173966579 0.42595971014169931 0 0.035993456772149268 0.43955627839155559 0 0.057141265643364109 0.44403616415611602 0 0.057504563173966579 0.42595971014169931 0 0.057504563173966579 0.42595971014169931 0 0.051643777087381333 0.40015253861183298 0 0.064820534957808179 0.41022638761495223 0 0.057504563173966579 0.42595971014169931 0 0.03331534097169786 0.41082283333821568 0 0.051643777087381333 0.40015253861183298 0 0.035993456772149268 0.43955627839155559 0 0.03331534097169786 0.41082283333821568 0 0.035993456772149268 0.43955627839155559 0 0.057504563173966579 0.42595971014169931 0 0.03331534097169786 0.41082283333821568 0 0.035993456772149268 0.43955627839155559 0 0.03331534097169786 0.41082283333821568 0 0.014680068745341231 0.43642165003928429 0 0.03331534097169786 0.41082283333821568 0 0.0079430538249404721 0.41715511797524929 0 0.014680068745341231 0.43642165003928429 0 0.03331534097169786 0.41082283333821568 0 0.0079430538249404721 0.41715511797524929 0 0.0094324154655470692 0.39595836782202548 0 -0.0053789581149880587 0.42854188731010101 0 0.0079430538249404721 0.41715511797524929 0 0.014680068745341231 0.43642165003928429 0 -0.0094206263094282761 0.38733099491298989 0 0.0096039622264710717 0.37703476049044532 0 0.0094324154655470692 0.39595836782202548 0 -0.009565215242672561 0.4038935459916681 0 0.0079430538249404721 0.41715511797524929 0 0.0094324154655470692 0.39595836782202548 0 0.03331534097169786 0.41082283333821568 0 0.0094324154655470692 0.39595836782202548 0 0.030637225171246452 0.38208938828487587 0 0.0096039622264710717 0.37703476049044532 0 0.0094324154655470692 0.39595836782202548 0 0.030637225171246452 0.38208938828487587 0 0.030637225171246452 0.38208938828487587 0 0.053089437925073452 0.38050488860542242 0 0.046672314068471887 0.36442173606049499 0 0.030637225171246452 0.38208938828487587 0 0.051643777087381333 0.40015253861183298 0 0.053089437925073452 0.38050488860542242 0 0.03331534097169786 0.41082283333821568 0 0.030637225171246452 0.38208938828487587 0 0.03331534097169786 0.41082283333821568 0 0.030637225171246452 0.38208938828487587 0 0.051643777087381333 0.40015253861183298 0 0.051643777087381333 0.40015253861183298 0 0.067585556499875077 0.39920597084559828 0 0.064820534957808179 0.41022638761495223 0 0.051643777087381333 0.40015253861183298 0 0.06235165353527692 0.38878533754909972 0 0.067585556499875077 0.39920597084559828 0 0.051643777087381333 0.40015253861183298 0 0.053089437925073452 0.38050488860542242 0 0.06235165353527692 0.38878533754909972 0 0.053089437925073452 0.38050488860542242 0 0.06235165353527692 0.38878533754909972 0 0.065711087928521317 0.37930963417643387 0 0.053089437925073452 0.38050488860542242 0 0.065711087928521317 0.37930963417643387 0 0.061520569759542787 0.36827069694979703 0 0.07201171127443616 0.38737748984821407 0 0.082615989770710774 0.39745138061761198 0 0.079306396406495283 0.37383172793165842 0 0.06235165353527692 0.38878533754909972 0 0.065711087928521317 0.37930963417643387 0 0.07201171127443616 0.38737748984821407 0 0.065711087928521317 0.37930963417643387 0 0.07201171127443616 0.38737748984821407 0 0.079306396406495283 0.37383172793165842 0 0.095474895809134069 0.37667438966377909 0 0.094599177041951157 0.38909981207139183 0 0.079306396406495283 0.37383172793165842 0 0.089692672682691849 0.40109555902947808 0 0.094599177041951157 0.38909981207139183 0 0.079306396406495283 0.37383172793165842 0 0.082615989770710774 0.39745138061761198 0 0.079306396406495283 0.37383172793165842 0 0.089692672682691849 0.40109555902947808 0 0.079306396406495283 0.37383172793165842 0 0.089692672682691849 0.40109555902947808 0 0.082615989770710774 0.39745138061761198 0 0.079306396406495283 0.37383172793165842 0 0.089692672682691849 0.40109555902947808 0 0.094599177041951157 0.38909981207139183 0 0.096560096646717428 0.39842072680169338 0 0.082615989770710774 0.39745138061761198 0 0.067585556499875077 0.39920597084559828 0 0.074953080718300452 0.40920868229438262 0 0.07201171127443616 0.38737748984821407 0 0.082615989770710774 0.39745138061761198 0 0.067585556499875077 0.39920597084559828 0 0.06235165353527692 0.38878533754909972 0 0.07201171127443616 0.38737748984821407 0 0.067585556499875077 0.39920597084559828 0 0.067585556499875077 0.39920597084559828 0 0.064820534957808179 0.41022638761495223 0 0.074953080718300452 0.40920868229438262 0 0.057504563173966579 0.42595971014169931 0 0.064820534957808179 0.41022638761495223 0 0.071258474296888225 0.41869231643728988 0 0.071258474296888225 0.41869231643728988 0 0.074953080718300452 0.40920868229438262 0 0.085925583134926833 0.42107103330356571 0 0.064820534957808179 0.41022638761495223 0 0.071258474296888225 0.41869231643728988 0 0.074953080718300452 0.40920868229438262 0 0.067494494008989478 0.44108399988098418 0 0.057504563173966579 0.42595971014169931 0 0.075460815619228794 0.42884473963387199 0 0.057504563173966579 0.42595971014169931 0 0.071258474296888225 0.41869231643728988 0 0.075460815619228794 0.42884473963387199 0 0.071258474296888225 0.41869231643728988 0 0.075460815619228794 0.42884473963387199 0 0.085925583134926833 0.42107103330356571 0 0.089235176499142879 0.44469068598951922 0 0.075460815619228794 0.42884473963387199 0 0.085925583134926833 0.42107103330356571 0 0.089235176499142879 0.44469068598951922 0 0.085925583134926833 0.42107103330356571 0 0.1000789489588878 0.42835939012729801 0 0.089235176499142879 0.44469068598951922 0 0.085925583134926833 0.42107103330356571 0 0.089692672682691849 0.40109555902947808 0 0.082615989770710774 0.39745138061761198 0 0.085925583134926833 0.42107103330356571 0 0.089692672682691849 0.40109555902947808 0 0.085925583134926833 0.42107103330356571 0 0.1000789489588878 0.42835939012729801 0 0.082615989770710774 0.39745138061761198 0 0.074953080718300452 0.40920868229438262 0 0.085925583134926833 0.42107103330356571 0 0.082615989770710774 0.39745138061761198 0 0.085925583134926833 0.42107103330356571 0 0.089692672682691849 0.40109555902947808 0 0.099016134536964978 0.40729706965393109 0 0.1000789489588878 0.42835939012729801 0 0.099016134536964978 0.40729706965393109 0 0.106442899371441 0.41710533291241603 0 0.1000789489588878 0.42835939012729801 0 0.089692672682691849 0.40109555902947808 0 0.1000789489588878 0.42835939012729801 0 0.099016134536964978 0.40729706965393109 0 0.106442899371441 0.41710533291241603 0 0.11297931229427111 0.40994232001826331 0 0.106442899371441 0.41710533291241603 0 0.1000789489588878 0.42835939012729801 0 0.11369720169564 0.42282255185017192 0 0.1000789489588878 0.42835939012729801 0 0.1166456542707302 0.43688510679679721 0 0.11369720169564 0.42282255185017192 0 0.1166456542707302 0.43688510679679721 0 0.11369720169564 0.42282255185017192 0 0.12935644273916269 0.42680848154840301 0 0.11369720169564 0.42282255185017192 0 0.1236992342538912 0.41564628680123122 0 0.12935644273916269 0.42680848154840301 0 0.11369720169564 0.42282255185017192 0 0.11297931229427111 0.40994232001826331 0 0.1236992342538912 0.41564628680123122 0 0.106442899371441 0.41710533291241603 0 0.11369720169564 0.42282255185017192 0 0.11297931229427111 0.40994232001826331 0 0.11297931229427111 0.40994232001826331 0 0.1236992342538912 0.41564628680123122 0 0.1237949639046072 0.40634629321549248 0 0.1237949639046072 0.40634629321549248 0 0.118181271131515 0.39946941477324738 0 0.12506378639641169 0.395076080606102 0 0.11297931229427111 0.40994232001826331 0 0.1237949639046072 0.40634629321549248 0 0.118181271131515 0.39946941477324738 0 0.11297931229427111 0.40994232001826331 0 0.118181271131515 0.39946941477324738 0 0.110149808141024 0.400794268570629 0 0.118181271131515 0.39946941477324738 0 0.110149808141024 0.400794268570629 0 0.11446971043952189 0.3894478576475392 0 0.118181271131515 0.39946941477324738 0 0.11446971043952189 0.3894478576475392 0 0.12506378639641169 0.395076080606102 0 0.11446971043952189 0.3894478576475392 0 0.127383725351678 0.38572893267744662 0 0.12506378639641169 0.395076080606102 0 0.12114107357380589 0.37519081101880303 0 0.11446971043952189 0.3894478576475392 0 0.127383725351678 0.38572893267744662 0 0.12114107357380589 0.37519081101880303 0 0.11446971043952189 0.3894478576475392 0 0.108289752440055 0.3747112214029954 0 0.11446971043952189 0.3894478576475392 0 0.1030625635922994 0.38521221505901798 0 0.1029324023252618 0.39619046645197248 0 0.11446971043952189 0.3894478576475392 0 0.1030625635922994 0.38521221505901798 0 0.108289752440055 0.3747112214029954 0 0.1030625635922994 0.38521221505901798 0 0.095474895809134069 0.37667438966377909 0 0.108289752440055 0.3747112214029954 0 0.1030625635922994 0.38521221505901798 0 0.095474895809134069 0.37667438966377909 0 0.094599177041951157 0.38909981207139183 0 0.1030625635922994 0.38521221505901798 0 0.094599177041951157 0.38909981207139183 0 0.1029324023252618 0.39619046645197248 0 0.094599177041951157 0.38909981207139183 0 0.096560096646717428 0.39842072680169338 0 0.1029324023252618 0.39619046645197248 0 0.099016134536964978 0.40729706965393109 0 0.096560096646717428 0.39842072680169338 0 0.1029324023252618 0.39619046645197248 0 0.089692672682691849 0.40109555902947808 0 0.099016134536964978 0.40729706965393109 0 0.096560096646717428 0.39842072680169338 0 0.099016134536964978 0.40729706965393109 0 0.11297931229427111 0.40994232001826331 0 0.110149808141024 0.400794268570629 0 0.099016134536964978 0.40729706965393109 0 0.110149808141024 0.400794268570629 0 0.1029324023252618 0.39619046645197248 0 0.110149808141024 0.400794268570629 0 0.11446971043952189 0.3894478576475392 0 0.1029324023252618 0.39619046645197248 0 0.09611806798419413 0.35039194772053073 0 0.10134315324195151 0.36164451915715529 0 0.085102804723095754 0.35921773721783451 0 0.1074816938604805 0.34947215068078402 0 0.10134315324195151 0.36164451915715529 0 0.1168570897275177 0.36045852626098601 0 0.1074816938604805 0.34947215068078402 0 0.09611806798419413 0.35039194772053073 0 0.10134315324195151 0.36164451915715529 0 0.09611806798419413 0.35039194772053073 0 0.099075162893226376 0.33674804116117352 0 0.087587525202216535 0.34487729038570619 0 0.1074816938604805 0.34947215068078402 0 0.09611806798419413 0.35039194772053073 0 0.099075162893226376 0.33674804116117352 0 0.095474895809134069 0.37667438966377909 0 0.10134315324195151 0.36164451915715529 0 0.085102804723095754 0.35921773721783451 0 0.095474895809134069 0.37667438966377909 0 0.10134315324195151 0.36164451915715529 0 0.108289752440055 0.3747112214029954 0 0.10134315324195151 0.36164451915715529 0 0.108289752440055 0.3747112214029954 0 0.1168570897275177 0.36045852626098601 0 0.12114107357380589 0.37519081101880303 0 0.108289752440055 0.3747112214029954 0 0.1168570897275177 0.36045852626098601 0 0.12114107357380589 0.37519081101880303 0 0.1168570897275177 0.36045852626098601 0 0.1317359334732984 0.3655372836243217 0 0.1074816938604805 0.34947215068078402 0 0.1168570897275177 0.36045852626098601 0 0.12606971746916459 0.33455977197493841 0 0.1168570897275177 0.36045852626098601 0 0.12606971746916459 0.33455977197493841 0 0.1317359334732984 0.3655372836243217 0 0.10780089841236599 0.31387974347180458 0 0.099075162893226376 0.33674804116117352 0 0.12606971746916459 0.33455977197493841 0 0.1074816938604805 0.34947215068078402 0 0.099075162893226376 0.33674804116117352 0 0.12606971746916459 0.33455977197493841 0 0.10780089841236599 0.31387974347180458 0 0.13336984075321051 0.32203732205168478 0 0.12606971746916459 0.33455977197493841 0 0.10780089841236599 0.31387974347180458 0 0.12606971746916459 0.33455977197493841 0 0.10780089841236599 0.31387974347180458 0 0.0860797604816914 0.31909208789886928 0 0.10780089841236599 0.31387974347180458 0 0.099075162893226376 0.33674804116117352 0 0.0860797604816914 0.31909208789886928 0 0.099075162893226376 0.33674804116117352 0 0.084288994811182363 0.33287808558268062 0 0.087587525202216535 0.34487729038570619 0 0.099075162893226376 0.33674804116117352 0 0.084288994811182363 0.33287808558268062 0 0.0860797604816914 0.31909208789886928 0 0.084288994811182363 0.33287808558268062 0 0.074730713637057467 0.34176108477188988 0 0.087587525202216535 0.34487729038570619 0 0.084288994811182363 0.33287808558268062 0 0.0860797604816914 0.31909208789886928 0 0.064358622551019512 0.32430443232594508 0 0.0860797604816914 0.31909208789886928 0 0.064358622551019512 0.32430443232594508 0 0.069559546023744118 0.31120139325330393 0 0.0860797604816914 0.31909208789886928 0 0.064358622551019512 0.32430443232594508 0 0.064358622551019512 0.32430443232594508 0 0.055564639300206241 0.30950379974843722 0 0.069559546023744118 0.31120139325330393 0 0.064358622551019512 0.32430443232594508 0 0.074730713637057467 0.34176108477188988 0 0.084288994811182363 0.33287808558268062 0 0.064358622551019512 0.32430443232594508 0 0.074730713637057467 0.34176108477188988 0 0.064358622551019512 0.32430443232594508 0 0.074730713637057467 0.34176108477188988 0 0.062346691147802821 0.33511553897958352 0 0.074730713637057467 0.34176108477188988 0 0.065685296552813702 0.34350415046269639 0 0.062346691147802821 0.33511553897958352 0 0.064368137756489641 0.35125366703620842 0 0.071308316084439341 0.3528368780731862 0 0.070659713113471301 0.34795126461807219 0 0.065685296552813702 0.34350415046269639 0 0.064368137756489641 0.35125366703620842 0 0.070659713113471301 0.34795126461807219 0 0.064368137756489641 0.35125366703620842 0 0.066741175323022178 0.36041596246008828 0 0.057202456608143833 0.35588684230959178 0 0.064368137756489641 0.35125366703620842 0 0.071308316084439341 0.3528368780731862 0 0.066741175323022178 0.36041596246008828 0 0.074730713637057467 0.34176108477188988 0 0.065685296552813702 0.34350415046269639 0 0.070659713113471301 0.34795126461807219 0 0.074730713637057467 0.34176108477188988 0 0.076374338866271596 0.35290644402696769 0 0.070659713113471301 0.34795126461807219 0 0.071308316084439341 0.3528368780731862 0 0.076374338866271596 0.35290644402696769 0 0.070659713113471301 0.34795126461807219 0 0.074730713637057467 0.34176108477188988 0 0.076374338866271596 0.35290644402696769 0 0.085102804723095754 0.35921773721783451 0 0.074730713637057467 0.34176108477188988 0 0.085102804723095754 0.35921773721783451 0 0.087587525202216535 0.34487729038570619 0 0.074730713637057467 0.34176108477188988 0 0.085102804723095754 0.35921773721783451 0 0.09611806798419413 0.35039194772053073 0 0.085102804723095754 0.35921773721783451 0 0.087587525202216535 0.34487729038570619 0 0.095474895809134069 0.37667438966377909 0 0.085102804723095754 0.35921773721783451 0 0.079306396406495283 0.37383172793165842 0 0.095474895809134069 0.37667438966377909 0 0.085102804723095754 0.35921773721783451 0 0.076374338866271596 0.35290644402696769 0 0.085102804723095754 0.35921773721783451 0 0.079306396406495283 0.37383172793165842 0 0.079306396406495283 0.37383172793165842 0 0.066741175323022178 0.36041596246008828 0 0.061520569759542787 0.36827069694979703 0 0.071308316084439341 0.3528368780731862 0 0.079306396406495283 0.37383172793165842 0 0.071308316084439341 0.3528368780731862 0 0.079306396406495283 0.37383172793165842 0 0.066741175323022178 0.36041596246008828 0 0.071308316084439341 0.3528368780731862 0 0.076374338866271596 0.35290644402696769 0 0.079306396406495283 0.37383172793165842 0 0.076374338866271596 0.35290644402696769 0 0.079306396406495283 0.37383172793165842 0 0.065711087928521317 0.37930963417643387 0 0.079306396406495283 0.37383172793165842 0 0.061520569759542787 0.36827069694979703 0 0.053089437925073452 0.38050488860542242 0 0.061520569759542787 0.36827069694979703 0 0.046672314068471887 0.36442173606049499 0 0.061520569759542787 0.36827069694979703 0 0.057202456608143833 0.35588684230959178 0 0.046672314068471887 0.36442173606049499 0 0.066741175323022178 0.36041596246008828 0 0.061520569759542787 0.36827069694979703 0 0.057202456608143833 0.35588684230959178 0 0.064368137756489641 0.35125366703620842 0 0.057202456608143833 0.35588684230959178 0 0.055252378386602227 0.34246125501769609 0 0.065685296552813702 0.34350415046269639 0 0.064368137756489641 0.35125366703620842 0 0.055252378386602227 0.34246125501769609 0 0.057202456608143833 0.35588684230959178 0 0.046379573882637172 0.35125497903912239 0 0.046672314068471887 0.36442173606049499 0 0.046379573882637172 0.35125497903912239 0 0.043217474908951968 0.34308673270615231 0 0.055252378386602227 0.34246125501769609 0 0.057202456608143833 0.35588684230959178 0 0.046379573882637172 0.35125497903912239 0 0.055252378386602227 0.34246125501769609 0 0.046379573882637172 0.35125497903912239 0 0.046672314068471887 0.36442173606049499 0 0.02795910937079504 0.35335594323153607 0 0.046379573882637172 0.35125497903912239 0 0.02795910937079504 0.35335594323153607 0 0.043217474908951968 0.34308673270615231 0 0.030637225171246452 0.38208938828487587 0 0.046672314068471887 0.36442173606049499 0 0.02795910937079504 0.35335594323153607 0 -0.0060076069825433353 0.36206057206247222 0 0.0096039622264710717 0.37703476049044532 0 0.02795910937079504 0.35335594323153607 0 0.0096039622264710717 0.37703476049044532 0 0.030637225171246452 0.38208938828487587 0 0.02795910937079504 0.35335594323153607 0 0.030637225171246452 0.38208938828487587 0 0.02795910937079504 0.35335594323153607 0 -0.0060076069825433353 0.36206057206247222 0 0.02795910937079504 0.35335594323153607 0 0.013768555665366991 0.33941830309771781 0 -0.0025945876556584179 0.33679014921195449 0 -0.0060076069825433353 0.36206057206247222 0 0.013768555665366991 0.33941830309771781 0 0.013768555665366991 0.33941830309771781 0 0.025280993570343639 0.32462249817819627 0 0.00081843167122650027 0.31151972636143688 0 -0.0025945876556584179 0.33679014921195449 0 0.013768555665366991 0.33941830309771781 0 0.00081843167122650027 0.31151972636143688 0 0.02795910937079504 0.35335594323153607 0 0.025280993570343639 0.32462249817819627 0 0.02795910937079504 0.35335594323153607 0 0.013768555665366991 0.33941830309771781 0 0.025280993570343639 0.32462249817819627 0 0.025280993570343639 0.32462249817819627 0 0.039535424409773957 0.3130142117439354 0 0.040728220283420193 0.32997493614403001 0 0.039535424409773957 0.3130142117439354 0 0.040728220283420193 0.32997493614403001 0 0.050046726636104967 0.31919934499058689 0 0.02795910937079504 0.35335594323153607 0 0.025280993570343639 0.32462249817819627 0 0.040728220283420193 0.32997493614403001 0 0.02795910937079504 0.35335594323153607 0 0.040728220283420193 0.32997493614403001 0 0.043217474908951968 0.34308673270615231 0 0.040728220283420193 0.32997493614403001 0 0.043217474908951968 0.34308673270615231 0 0.055252378386602227 0.34246125501769609 0 0.040728220283420193 0.32997493614403001 0 0.062346691147802821 0.33511553897958352 0 0.055252378386602227 0.34246125501769609 0 0.064358622551019512 0.32430443232594508 0 0.040728220283420193 0.32997493614403001 0 0.062346691147802821 0.33511553897958352 0 0.065685296552813702 0.34350415046269639 0 0.062346691147802821 0.33511553897958352 0 0.055252378386602227 0.34246125501769609 0 0.064358622551019512 0.32430443232594508 0 0.040728220283420193 0.32997493614403001 0 0.039535424409773957 0.3130142117439354 0 0.050046726636104967 0.31919934499058689 0 0.055564639300206241 0.30950379974843722 0 0.064358622551019512 0.32430443232594508 0 0.040728220283420193 0.32997493614403001 0 0.050046726636104967 0.31919934499058689 0 0.064358622551019512 0.32430443232594508 0 0.055564639300206241 0.30950379974843722 0 0.064358622551019512 0.32430443232594508 0 0.050046726636104967 0.31919934499058689 0 0.055564639300206241 0.30950379974843722 0 0.055564639300206241 0.30950379974843722 0 0.059521655304579313 0.29753382658001598 0 0.043764679932974247 0.29764307424067321 0 0.055564639300206241 0.30950379974843722 0 0.059521655304579313 0.29753382658001598 0 0.069559546023744118 0.31120139325330393 0 0.059521655304579313 0.29753382658001598 0 0.051724447502600482 0.28646261229504538 0 0.043764679932974247 0.29764307424067321 0 0.051724447502600482 0.28646261229504538 0 0.056341834368058862 0.27835584444566208 0 0.064275087599535125 0.28609645255659388 0 0.059521655304579313 0.29753382658001598 0 0.051724447502600482 0.28646261229504538 0 0.064275087599535125 0.28609645255659388 0 0.036668961433123433 0.28329026712901972 0 0.043764679932974247 0.29764307424067321 0 0.02260287776989223 0.29588905312485653 0 0.051724447502600482 0.28646261229504538 0 0.036668961433123433 0.28329026712901972 0 0.048521999495535019 0.27490251349146932 0 0.051724447502600482 0.28646261229504538 0 0.036668961433123433 0.28329026712901972 0 0.043764679932974247 0.29764307424067321 0 0.039535424409773957 0.3130142117439354 0 0.055564639300206241 0.30950379974843722 0 0.043764679932974247 0.29764307424067321 0 0.039535424409773957 0.3130142117439354 0 0.043764679932974247 0.29764307424067321 0 0.02260287776989223 0.29588905312485653 0 0.025280993570343639 0.32462249817819627 0 0.02260287776989223 0.29588905312485653 0 0.00081843167122650027 0.31151972636143688 0 0.025280993570343639 0.32462249817819627 0 0.02260287776989223 0.29588905312485653 0 0.025280993570343639 0.32462249817819627 0 0.039535424409773957 0.3130142117439354 0 0.02260287776989223 0.29588905312485653 0 0.036668961433123433 0.28329026712901972 0 0.02260287776989223 0.29588905312485653 0 0.01686263508996938 0.27354352756289341 0 -0.0023521959977934122 0.28309489312778618 0 0.02260287776989223 0.29588905312485653 0 0.01686263508996938 0.27354352756289341 0 -0.0023521959977934122 0.28309489312778618 0 0.02260287776989223 0.29588905312485653 0 0.00081843167122650027 0.31151972636143688 0 -0.0025825883053692562 0.26225928622967221 0 0.01087355115046874 0.25127924265677892 0 0.01686263508996938 0.27354352756289341 0 -0.0025825883053692562 0.26225928622967221 0 -0.003016964063370512 0.2415134021912286 0 0.01087355115046874 0.25127924265677892 0 -0.0025825883053692562 0.26225928622967221 0 -0.0023521959977934122 0.28309489312778618 0 0.01686263508996938 0.27354352756289341 0 -0.0023521959977934122 0.28309489312778618 0 0.01686263508996938 0.27354352756289341 0 0.036668961433123433 0.28329026712901972 0 0.01686263508996938 0.27354352756289341 0 0.036077466177732158 0.26399216199800052 0 0.01686263508996938 0.27354352756289341 0 0.036077466177732158 0.26399216199800052 0 0.02757432341419273 0.24851232677057111 0 0.01087355115046874 0.25127924265677892 0 0.01686263508996938 0.27354352756289341 0 0.02757432341419273 0.24851232677057111 0 0.01686263508996938 0.27354352756289341 0 0.036077466177732158 0.26399216199800052 0 0.036077466177732158 0.26399216199800052 0 0.055292297265498828 0.25444079643311551 0 0.036077466177732158 0.26399216199800052 0 0.040662600338095108 0.25159025897392229 0 0.055292297265498828 0.25444079643311551 0 0.02757432341419273 0.24851232677057111 0 0.036077466177732158 0.26399216199800052 0 0.040662600338095108 0.25159025897392229 0 0.036668961433123433 0.28329026712901972 0 0.036077466177732158 0.26399216199800052 0 0.048521999495535019 0.27490251349146932 0 0.036077466177732158 0.26399216199800052 0 0.048521999495535019 0.27490251349146932 0 0.051551119733321639 0.26542781788673042 0 0.048521999495535019 0.27490251349146932 0 0.058072959335553391 0.27072388385303242 0 0.056341834368058862 0.27835584444566208 0 0.051724447502600482 0.28646261229504538 0 0.048521999495535019 0.27490251349146932 0 0.056341834368058862 0.27835584444566208 0 0.048521999495535019 0.27490251349146932 0 0.058072959335553391 0.27072388385303242 0 0.051551119733321639 0.26542781788673042 0 0.058072959335553391 0.27072388385303242 0 0.051551119733321639 0.26542781788673042 0 0.059790876392288812 0.26307973365803428 0 0.058072959335553391 0.27072388385303242 0 0.06168679706650107 0.26167927406743208 0 0.063765688321824596 0.27537153152732191 0 0.056341834368058862 0.27835584444566208 0 0.063765688321824596 0.27537153152732191 0 0.064275087599535125 0.28609645255659388 0 0.058072959335553391 0.27072388385303242 0 0.056341834368058862 0.27835584444566208 0 0.063765688321824596 0.27537153152732191 0 0.036077466177732158 0.26399216199800052 0 0.051551119733321639 0.26542781788673042 0 0.055292297265498828 0.25444079643311551 0 0.058072959335553391 0.27072388385303242 0 0.059790876392288812 0.26307973365803428 0 0.06168679706650107 0.26167927406743208 0 0.051551119733321639 0.26542781788673042 0 0.059790876392288812 0.26307973365803428 0 0.055292297265498828 0.25444079643311551 0 0.059790876392288812 0.26307973365803428 0 0.06168679706650107 0.26167927406743208 0 0.055292297265498828 0.25444079643311551 0 0.06168679706650107 0.26167927406743208 0 0.055292297265498828 0.25444079643311551 0 0.059790876392288812 0.26307973365803428 0 0.06168679706650107 0.26167927406743208 0 0.084577475888514095 0.24477061795757421 0 0.06168679706650107 0.26167927406743208 0 0.071484012278383913 0.24639217042623321 0 0.06168679706650107 0.26167927406743208 0 0.055292297265498828 0.25444079643311551 0 0.071484012278383913 0.24639217042623321 0 0.055292297265498828 0.25444079643311551 0 0.084577475888514095 0.24477061795757421 0 0.071484012278383913 0.24639217042623321 0 0.06168679706650107 0.26167927406743208 0 0.084577475888514095 0.24477061795757421 0 0.06168679706650107 0.26167927406743208 0 0.070618361482105624 0.26253861879363388 0 0.084577475888514095 0.24477061795757421 0 0.070618361482105624 0.26253861879363388 0 0.088648879803651506 0.25663961973420862 0 0.084577475888514095 0.24477061795757421 0 0.088648879803651506 0.25663961973420862 0 0.1032656199459439 0.25052158303601452 0 0.070618361482105624 0.26253861879363388 0 0.088648879803651506 0.25663961973420862 0 0.096134061898042467 0.26872765914961178 0 0.070618361482105624 0.26253861879363388 0 0.077058164181788014 0.2790794305355575 0 0.096134061898042467 0.26872765914961178 0 0.070618361482105624 0.26253861879363388 0 0.096134061898042467 0.26872765914961178 0 0.077058164181788014 0.2790794305355575 0 0.10521886122706769 0.28406358257271619 0 0.096134061898042467 0.26872765914961178 0 0.06168679706650107 0.26167927406743208 0 0.077058164181788014 0.2790794305355575 0 0.06168679706650107 0.26167927406743208 0 0.070618361482105624 0.26253861879363388 0 0.077058164181788014 0.2790794305355575 0 0.06168679706650107 0.26167927406743208 0 0.077058164181788014 0.2790794305355575 0 0.063765688321824596 0.27537153152732191 0 0.077058164181788014 0.2790794305355575 0 0.063765688321824596 0.27537153152732191 0 0.064275087599535125 0.28609645255659388 0 0.059521655304579313 0.29753382658001598 0 0.064275087599535125 0.28609645255659388 0 0.072241531468415623 0.29429562738604281 0 0.077058164181788014 0.2790794305355575 0 0.064275087599535125 0.28609645255659388 0 0.072241531468415623 0.29429562738604281 0 0.072241531468415623 0.29429562738604281 0 0.069559546023744118 0.31120139325330393 0 0.092429531297075221 0.2964795870036826 0 0.059521655304579313 0.29753382658001598 0 0.072241531468415623 0.29429562738604281 0 0.069559546023744118 0.31120139325330393 0 0.0860797604816914 0.31909208789886928 0 0.069559546023744118 0.31120139325330393 0 0.092429531297075221 0.2964795870036826 0 0.077058164181788014 0.2790794305355575 0 0.092429531297075221 0.2964795870036826 0 0.077058164181788014 0.2790794305355575 0 0.092429531297075221 0.2964795870036826 0 0.10521886122706769 0.28406358257271619 0 0.077058164181788014 0.2790794305355575 0 0.072241531468415623 0.29429562738604281 0 0.092429531297075221 0.2964795870036826 0 0.092429531297075221 0.2964795870036826 0 0.10521886122706769 0.28406358257271619 0 0.11907186335592949 0.29528046529946922 0 0.10780089841236599 0.31387974347180458 0 0.092429531297075221 0.2964795870036826 0 0.10780089841236599 0.31387974347180458 0 0.0860797604816914 0.31909208789886928 0 0.092429531297075221 0.2964795870036826 0 0.10780089841236599 0.31387974347180458 0 0.092429531297075221 0.2964795870036826 0 0.11907186335592949 0.29528046529946922 0 0.10780089841236599 0.31387974347180458 0 0.1358127224069155 0.30715784542224439 0 0.10780089841236599 0.31387974347180458 0 0.11907186335592949 0.29528046529946922 0 0.1358127224069155 0.30715784542224439 0 0.10521886122706769 0.28406358257271619 0 0.11907186335592949 0.29528046529946922 0 0.1216497623139793 0.27491669950558978 0 0.1216497623139793 0.27491669950558978 0 0.11569690788772589 0.26027806983300289 0 0.13764371262500061 0.26258540098334998 0 0.1216497623139793 0.27491669950558978 0 0.11569690788772589 0.26027806983300289 0 0.096134061898042467 0.26872765914961178 0 0.12358662914375811 0.24562408341310979 0 0.11569690788772589 0.26027806983300289 0 0.1032656199459439 0.25052158303601452 0 0.11569690788772589 0.26027806983300289 0 0.1032656199459439 0.25052158303601452 0 0.096134061898042467 0.26872765914961178 0 0.088648879803651506 0.25663961973420862 0 0.1032656199459439 0.25052158303601452 0 0.096134061898042467 0.26872765914961178 0 0.10521886122706769 0.28406358257271619 0 0.1216497623139793 0.27491669950558978 0 0.096134061898042467 0.26872765914961178 0 0.1216497623139793 0.27491669950558978 0 0.096134061898042467 0.26872765914961178 0 0.14716546272991629 0.28110573986156778 0 0.15192627427277769 0.2673530263227003 0 0.13764371262500061 0.26258540098334998 0 0.14716546272991629 0.28110573986156778 0 0.15192627427277769 0.2673530263227003 0 0.1648977259964767 0.27302302645889698 0 0.15192627427277769 0.2673530263227003 0 0.15359089029870171 0.25461412864350841 0 0.13764371262500061 0.26258540098334998 0 0.1441108647216861 0.24272032236460531 0 0.15359089029870171 0.25461412864350841 0 0.13764371262500061 0.26258540098334998 0 0.12358662914375811 0.24562408341310979 0 0.1441108647216861 0.24272032236460531 0 0.13764371262500061 0.26258540098334998 0 0.12358662914375811 0.24562408341310979 0 0.11569690788772589 0.26027806983300289 0 0.13764371262500061 0.26258540098334998 0 0.1216497623139793 0.27491669950558978 0 0.14716546272991629 0.28110573986156778 0 0.1216497623139793 0.27491669950558978 0 0.14716546272991629 0.28110573986156778 0 0.13764371262500061 0.26258540098334998 0 0.11907186335592949 0.29528046529946922 0 0.1216497623139793 0.27491669950558978 0 0.1389006039091574 0.28997484861347927 0 0.1216497623139793 0.27491669950558978 0 0.14716546272991629 0.28110573986156778 0 0.1389006039091574 0.28997484861347927 0 0.11907186335592949 0.29528046529946922 0 0.1389006039091574 0.28997484861347927 0 0.1358127224069155 0.30715784542224439 0 0.1358127224069155 0.30715784542224439 0 0.1600367455265066 0.29955282817651502 0 0.151721109531261 0.31864692020528967 0 0.1389006039091574 0.28997484861347927 0 0.1358127224069155 0.30715784542224439 0 0.1600367455265066 0.29955282817651502 0 0.14716546272991629 0.28110573986156778 0 0.1389006039091574 0.28997484861347927 0 0.1600367455265066 0.29955282817651502 0 0.1389006039091574 0.28997484861347927 0 0.1600367455265066 0.29955282817651502 0 0.14716546272991629 0.28110573986156778 0 0.1600367455265066 0.29955282817651502 0 0.17268116314585341 0.28729478021754568 0 0.14716546272991629 0.28110573986156778 0 0.17268116314585341 0.28729478021754568 0 0.1600367455265066 0.29955282817651502 0 0.18117288714385579 0.30913080773955071 0 0.16694835142361131 0.31710129617921612 0 0.1600367455265066 0.29955282817651502 0 0.18117288714385579 0.30913080773955071 0 0.17268116314585341 0.28729478021754568 0 0.1600367455265066 0.29955282817651502 0 0.18117288714385579 0.30913080773955071 0 0.1600367455265066 0.29955282817651502 0 0.16694835142361131 0.31710129617921612 0 0.151721109531261 0.31864692020528967 0 0.18117288714385579 0.30913080773955071 0 0.17268116314585341 0.28729478021754568 0 0.1904695899212743 0.29019632830712683 0 0.17268116314585341 0.28729478021754568 0 0.185922170938389 0.26977814296207231 0 0.1904695899212743 0.29019632830712683 0 0.185922170938389 0.26977814296207231 0 0.1648977259964767 0.27302302645889698 0 0.16761974526679019 0.25914969474071459 0 0.17268116314585341 0.28729478021754568 0 0.185922170938389 0.26977814296207231 0 0.1648977259964767 0.27302302645889698 0 0.14716546272991629 0.28110573986156778 0 0.17268116314585341 0.28729478021754568 0 0.1648977259964767 0.27302302645889698 0 0.15192627427277769 0.2673530263227003 0 0.1648977259964767 0.27302302645889698 0 0.16761974526679019 0.25914969474071459 0 0.15192627427277769 0.2673530263227003 0 0.15359089029870171 0.25461412864350841 0 0.16761974526679019 0.25914969474071459 0 0.1644828606342475 0.24066485491695319 0 0.15359089029870171 0.25461412864350841 0 0.16761974526679019 0.25914969474071459 0 0.18432810499238581 0.2446549275319905 0 0.185922170938389 0.26977814296207231 0 0.16761974526679019 0.25914969474071459 0 0.20619742700896329 0.24842526588400071 0 0.185922170938389 0.26977814296207231 0 0.20711366118709751 0.26744252623557369 0 0.18432810499238581 0.2446549275319905 0 0.20619742700896329 0.24842526588400071 0 0.185922170938389 0.26977814296207231 0 0.185922170938389 0.26977814296207231 0 0.20711366118709751 0.26744252623557369 0 0.20528035438705469 0.28322373662074168 0 0.185922170938389 0.26977814296207231 0 0.20528035438705469 0.28322373662074168 0 0.1904695899212743 0.29019632830712683 0 0.20711366118709751 0.26744252623557369 0 0.2198896021874486 0.2786376766723821 0 0.20528035438705469 0.28322373662074168 0 0.20619742700896329 0.24842526588400071 0 0.20711366118709751 0.26744252623557369 0 0.23179693074002869 0.26139247847514258 0 0.20619742700896329 0.24842526588400071 0 0.23002142385293589 0.240410437660948 0 0.23179693074002869 0.26139247847514258 0 0.20711366118709751 0.26744252623557369 0 0.23179693074002869 0.26139247847514258 0 0.23179693074002869 0.26139247847514258 0 0.2198896021874486 0.2786376766723821 0 0.2337566843710186 0.28779337624272427 0 0.20711366118709751 0.26744252623557369 0 0.23179693074002869 0.26139247847514258 0 0.2198896021874486 0.2786376766723821 0 0.23179693074002869 0.26139247847514258 0 0.249863287478018 0.28312152291451942 0 0.2581466906155262 0.27041699713618877 0 0.23179693074002869 0.26139247847514258 0 0.249863287478018 0.28312152291451942 0 0.2337566843710186 0.28779337624272427 0 0.23179693074002869 0.26139247847514258 0 0.25648020029296009 0.25534243071471141 0 0.23002142385293589 0.240410437660948 0 0.23179693074002869 0.26139247847514258 0 0.25648020029296009 0.25534243071471141 0 0.23179693074002869 0.26139247847514258 0 0.25648020029296009 0.25534243071471141 0 0.2581466906155262 0.27041699713618877 0 0.2419954011180456 0.30776409888589151 0 0.2339349569590419 0.3082945250042351 0 0.2372402714849893 0.313603575930328 0 0.2419954011180456 0.30776409888589151 0 0.2456548670102662 0.31512007139455978 0 0.2372402714849893 0.313603575930328 0 0.2372832342873066 0.30040349499756869 0 0.2419954011180456 0.30776409888589151 0 0.2339349569590419 0.3082945250042351 0 0.2339349569590419 0.3082945250042351 0 0.2321482190948598 0.31458722803174521 0 0.2372402714849893 0.313603575930328 0 0.2419954011180456 0.30776409888589151 0 0.246840595439553 0.31008571645844879 0 0.24746204362422861 0.30705434421611461 0 0.2419954011180456 0.30776409888589151 0 0.246840595439553 0.31008571645844879 0 0.24804998529145589 0.31526115045204323 0 0.2419954011180456 0.30776409888589151 0 0.24804998529145589 0.31526115045204323 0 0.246840595439553 0.31008571645844879 0 0.24746204362422861 0.30705434421611461 0 0.25080394818916718 0.31143836130783681 0 0.246840595439553 0.31008571645844879 0 0.24804998529145589 0.31526115045204323 0 0.25080394818916718 0.31143836130783681 0 0.2372832342873066 0.30040349499756869 0 0.2419954011180456 0.30776409888589151 0 0.2485433229568853 0.29627740250536672 0 0.24746204362422861 0.30705434421611461 0 0.2485433229568853 0.29627740250536672 0 0.2526787178163884 0.30883598457110623 0 0.2419954011180456 0.30776409888589151 0 0.24746204362422861 0.30705434421611461 0 0.2485433229568853 0.29627740250536672 0 0.2485433229568853 0.29627740250536672 0 0.249863287478018 0.28312152291451942 0 0.2337566843710186 0.28779337624272427 0 0.2372832342873066 0.30040349499756869 0 0.2485433229568853 0.29627740250536672 0 0.2337566843710186 0.28779337624272427 0 0.2372832342873066 0.30040349499756869 0 0.2337566843710186 0.28779337624272427 0 0.22818580603154159 0.30188807234962611 0 0.2337566843710186 0.28779337624272427 0 0.2193028413184642 0.29406860151903069 0 0.22818580603154159 0.30188807234962611 0 0.2198896021874486 0.2786376766723821 0 0.2337566843710186 0.28779337624272427 0 0.2193028413184642 0.29406860151903069 0 0.2193028413184642 0.29406860151903069 0 0.22818580603154159 0.30188807234962611 0 0.21729605688083919 0.3082091929315699 0 0.2372832342873066 0.30040349499756869 0 0.22818580603154159 0.30188807234962611 0 0.2339349569590419 0.3082945250042351 0 0.22818580603154159 0.30188807234962611 0 0.2339349569590419 0.3082945250042351 0 0.22682037031081051 0.31133748683935247 0 0.2339349569590419 0.3082945250042351 0 0.22682037031081051 0.31133748683935247 0 0.2321482190948598 0.31458722803174521 0 0.22818580603154159 0.30188807234962611 0 0.22682037031081051 0.31133748683935247 0 0.21729605688083919 0.3082091929315699 0 0.21729605688083919 0.3082091929315699 0 0.20371016732906391 0.30097674978339062 0 0.20230902876120499 0.31870878730258639 0 0.2193028413184642 0.29406860151903069 0 0.21729605688083919 0.3082091929315699 0 0.20371016732906391 0.30097674978339062 0 0.2193028413184642 0.29406860151903069 0 0.20371016732906391 0.30097674978339062 0 0.20528035438705469 0.28322373662074168 0 0.2198896021874486 0.2786376766723821 0 0.2193028413184642 0.29406860151903069 0 0.20528035438705469 0.28322373662074168 0 0.20371016732906391 0.30097674978339062 0 0.20528035438705469 0.28322373662074168 0 0.1904695899212743 0.29019632830712683 0 0.18117288714385579 0.30913080773955071 0 0.20371016732906391 0.30097674978339062 0 0.20230902876120499 0.31870878730258639 0 0.18117288714385579 0.30913080773955071 0 0.20371016732906391 0.30097674978339062 0 0.1904695899212743 0.29019632830712683 0 0.20230902876120499 0.31870878730258639 0 0.18347798935561341 0.33869247491350002 0 0.17971015901957271 0.32346519381883809 0 0.18117288714385579 0.30913080773955071 0 0.20230902876120499 0.31870878730258639 0 0.17971015901957271 0.32346519381883809 0 0.18117288714385579 0.30913080773955071 0 0.20230902876120499 0.31870878730258639 0 0.20230902876120499 0.31870878730258639 0 0.20244203185588011 0.34318001586550623 0 0.18347798935561341 0.33869247491350002 0 0.20244203185588011 0.34318001586550623 0 0.22344517037855391 0.32828676686562303 0 0.21947027147631579 0.34034641451640119 0 0.20230902876120499 0.31870878730258639 0 0.20244203185588011 0.34318001586550623 0 0.22344517037855391 0.32828676686562303 0 0.20244203185588011 0.34318001586550623 0 0.22344517037855391 0.32828676686562303 0 0.20230902876120499 0.31870878730258639 0 0.22344517037855391 0.32828676686562303 0 0.21729605688083919 0.3082091929315699 0 0.20230902876120499 0.31870878730258639 0 0.22087333889787999 0.31824204112941618 0 0.20230902876120499 0.31870878730258639 0 0.22087333889787999 0.31824204112941618 0 0.22344517037855391 0.32828676686562303 0 0.22682037031081051 0.31133748683935247 0 0.21729605688083919 0.3082091929315699 0 0.22087333889787999 0.31824204112941618 0 0.22682037031081051 0.31133748683935247 0 0.22087333889787999 0.31824204112941618 0 0.22798960445001651 0.31810935589642808 0 0.22682037031081051 0.31133748683935247 0 0.22798960445001651 0.31810935589642808 0 0.2321482190948598 0.31458722803174521 0 0.22798960445001651 0.31810935589642808 0 0.233996376511906 0.31905689079628913 0 0.2321482190948598 0.31458722803174521 0 0.23320897582460831 0.32590181960874248 0 0.22765948206517081 0.32529841380381108 0 0.22344517037855391 0.32828676686562303 0 0.233996376511906 0.31905689079628913 0 0.23320897582460831 0.32590181960874248 0 0.22765948206517081 0.32529841380381108 0 0.22798960445001651 0.31810935589642808 0 0.233996376511906 0.31905689079628913 0 0.22765948206517081 0.32529841380381108 0 0.22765948206517081 0.32529841380381108 0 0.22344517037855391 0.32828676686562303 0 0.22087333889787999 0.31824204112941618 0 0.22765948206517081 0.32529841380381108 0 0.22344517037855391 0.32828676686562303 0 0.22087333889787999 0.31824204112941618 0 0.22798960445001651 0.31810935589642808 0 0.22765948206517081 0.32529841380381108 0 0.22344517037855391 0.32828676686562303 0 0.21947027147631579 0.34034641451640119 0 0.23492015527782531 0.33348673064525453 0 0.21947027147631579 0.34034641451640119 0 0.23492015527782531 0.33348673064525453 0 0.22477670838155339 0.34756689806948399 0 0.23492015527782531 0.33348673064525453 0 0.22477670838155339 0.34756689806948399 0 0.22344517037855391 0.32828676686562303 0 0.23492015527782531 0.33348673064525453 0 0.23320897582460831 0.32590181960874248 0 0.22344517037855391 0.32828676686562303 0 0.23492015527782531 0.33348673064525453 0 0.23492015527782531 0.33348673064525453 0 0.256881731206555 0.34343876111635702 0 0.23492015527782531 0.33348673064525453 0 0.2415944531318375 0.35153847151493689 0 0.256881731206555 0.34343876111635702 0 0.23492015527782531 0.33348673064525453 0 0.24926794444985581 0.33103263873945571 0 0.256881731206555 0.34343876111635702 0 0.23492015527782531 0.33348673064525453 0 0.24804998529145589 0.31526115045204323 0 0.23492015527782531 0.33348673064525453 0 0.24926794444985581 0.33103263873945571 0 0.24804998529145589 0.31526115045204323 0 0.23320897582460831 0.32590181960874248 0 0.23492015527782531 0.33348673064525453 0 0.2456548670102662 0.31512007139455978 0 0.23492015527782531 0.33348673064525453 0 0.24804998529145589 0.31526115045204323 0 0.2456548670102662 0.31512007139455978 0 0.24804998529145589 0.31526115045204323 0 0.25080394818916718 0.31143836130783681 0 0.24804998529145589 0.31526115045204323 0 0.2456548670102662 0.31512007139455978 0 0.2419954011180456 0.30776409888589151 0 0.24804998529145589 0.31526115045204323 0 0.2456548670102662 0.31512007139455978 0 0.233996376511906 0.31905689079628913 0 0.23320897582460831 0.32590181960874248 0 0.2456548670102662 0.31512007139455978 0 0.233996376511906 0.31905689079628913 0 0.2456548670102662 0.31512007139455978 0 0.2372402714849893 0.313603575930328 0 0.233996376511906 0.31905689079628913 0 0.2321482190948598 0.31458722803174521 0 0.2372402714849893 0.313603575930328 0 0.23688621790532011 0.37104521076284058 0 0.2415944531318375 0.35153847151493689 0 0.25801751143915141 0.36182926001624582 0 0.23688621790532011 0.37104521076284058 0 0.2415944531318375 0.35153847151493689 0 0.22477670838155339 0.34756689806948399 0 0.23492015527782531 0.33348673064525453 0 0.2415944531318375 0.35153847151493689 0 0.22477670838155339 0.34756689806948399 0 0.22477670838155339 0.34756689806948399 0 0.21463326148528139 0.36164706549371339 0 0.23688621790532011 0.37104521076284058 0 0.21463326148528139 0.36164706549371339 0 0.22198583333805 0.38261495466824652 0 0.23688621790532011 0.37104521076284058 0 0.22477670838155339 0.34756689806948399 0 0.21463326148528139 0.36164706549371339 0 0.23688621790532011 0.37104521076284058 0 0.21463326148528139 0.36164706549371339 0 0.21463326148528139 0.36164706549371339 0 0.204346829510997 0.37592571119245488 0 0.22198583333805 0.38261495466824652 0 0.21463326148528139 0.36164706549371339 0 0.19412982652233929 0.36738773766548632 0 0.204346829510997 0.37592571119245488 0 0.21463326148528139 0.36164706549371339 0 0.204346829510997 0.37592571119245488 0 0.20244203185588011 0.34318001586550623 0 0.21947027147631579 0.34034641451640119 0 0.21176729148776591 0.34921166113613838 0 0.21463326148528139 0.36164706549371339 0 0.21176729148776591 0.34921166113613838 0 0.1908930443823709 0.35136936080335052 0 0.21947027147631579 0.34034641451640119 0 0.22477670838155339 0.34756689806948399 0 0.21176729148776591 0.34921166113613838 0 0.22477670838155339 0.34756689806948399 0 0.21463326148528139 0.36164706549371339 0 0.21176729148776591 0.34921166113613838 0 0.1908930443823709 0.35136936080335052 0 0.19412982652233929 0.36738773766548632 0 0.18143889333320601 0.35807326486538932 0 0.20244203185588011 0.34318001586550623 0 0.1908930443823709 0.35136936080335052 0 0.18347798935561341 0.33869247491350002 0 0.21463326148528139 0.36164706549371339 0 0.1908930443823709 0.35136936080335052 0 0.20244203185588011 0.34318001586550623 0 0.21176729148776591 0.34921166113613838 0 0.1908930443823709 0.35136936080335052 0 0.20244203185588011 0.34318001586550623 0 0.1908930443823709 0.35136936080335052 0 0.21463326148528139 0.36164706549371339 0 0.1908930443823709 0.35136936080335052 0 0.19412982652233929 0.36738773766548632 0 0.18143889333320601 0.35807326486538932 0 0.16260735558276909 0.37591982898119958 0 0.18246134656361351 0.37685397108750052 0 0.19412982652233929 0.36738773766548632 0 0.18143889333320601 0.35807326486538932 0 0.18246134656361351 0.37685397108750052 0 0.16019009716823551 0.37318352879909372 0 0.16257017859646319 0.353010542831385 0 0.18143889333320601 0.35807326486538932 0 0.16019009716823551 0.37318352879909372 0 0.18143889333320601 0.35807326486538932 0 0.16019009716823551 0.37318352879909372 0 0.18143889333320601 0.35807326486538932 0 0.16260735558276909 0.37591982898119958 0 0.16019009716823551 0.37318352879909372 0 0.16260735558276909 0.37591982898119958 0 0.16257017859646319 0.353010542831385 0 0.17303239992471511 0.34586722139240289 0 0.16464253841357759 0.33369260295933728 0 0.16257017859646319 0.353010542831385 0 0.17303239992471511 0.34586722139240289 0 0.18143889333320601 0.35807326486538932 0 0.17303239992471511 0.34586722139240289 0 0.18143889333320601 0.35807326486538932 0 0.18347798935561341 0.33869247491350002 0 0.1908930443823709 0.35136936080335052 0 0.18143889333320601 0.35807326486538932 0 0.18347798935561341 0.33869247491350002 0 0.1908930443823709 0.35136936080335052 0 0.18143889333320601 0.35807326486538932 0 0.18347798935561341 0.33869247491350002 0 0.17971015901957271 0.32346519381883809 0 0.16464253841357759 0.33369260295933728 0 0.17303239992471511 0.34586722139240289 0 0.18347798935561341 0.33869247491350002 0 0.16464253841357759 0.33369260295933728 0 0.18117288714385579 0.30913080773955071 0 0.17971015901957271 0.32346519381883809 0 0.16694835142361131 0.31710129617921612 0 0.17971015901957271 0.32346519381883809 0 0.16694835142361131 0.31710129617921612 0 0.16464253841357759 0.33369260295933728 0 0.16694835142361131 0.31710129617921612 0 0.16464253841357759 0.33369260295933728 0 0.151721109531261 0.31864692020528967 0 0.16257017859646319 0.353010542831385 0 0.16464253841357759 0.33369260295933728 0 0.14544475594634521 0.33594232918414679 0 0.16464253841357759 0.33369260295933728 0 0.14544475594634521 0.33594232918414679 0 0.151721109531261 0.31864692020528967 0 0.14544475594634521 0.33594232918414679 0 0.151721109531261 0.31864692020528967 0 0.13336984075321051 0.32203732205168478 0 0.1358127224069155 0.30715784542224439 0 0.151721109531261 0.31864692020528967 0 0.13336984075321051 0.32203732205168478 0 0.10780089841236599 0.31387974347180458 0 0.1358127224069155 0.30715784542224439 0 0.13336984075321051 0.32203732205168478 0 0.14544475594634521 0.33594232918414679 0 0.13336984075321051 0.32203732205168478 0 0.12606971746916459 0.33455977197493841 0 0.14544475594634521 0.33594232918414679 0 0.12606971746916459 0.33455977197493841 0 0.1443385365259669 0.35523980047806902 0 0.12606971746916459 0.33455977197493841 0 0.1317359334732984 0.3655372836243217 0 0.1443385365259669 0.35523980047806902 0 0.12606971746916459 0.33455977197493841 0 0.1443385365259669 0.35523980047806902 0 0.1317359334732984 0.3655372836243217 0 0.1443385365259669 0.35523980047806902 0 0.13676239078032071 0.3770301931850214 0 0.12114107357380589 0.37519081101880303 0 0.1317359334732984 0.3655372836243217 0 0.13676239078032071 0.3770301931850214 0 0.16019009716823551 0.37318352879909372 0 0.1443385365259669 0.35523980047806902 0 0.16019009716823551 0.37318352879909372 0 0.16257017859646319 0.353010542831385 0 0.1443385365259669 0.35523980047806902 0 0.1443385365259669 0.35523980047806902 0 0.149858776596418 0.38099328310272679 0 0.13676239078032071 0.3770301931850214 0 0.16019009716823551 0.37318352879909372 0 0.1443385365259669 0.35523980047806902 0 0.149858776596418 0.38099328310272679 0 0.16257017859646319 0.353010542831385 0 0.14544475594634521 0.33594232918414679 0 0.1443385365259669 0.35523980047806902 0 0.15234410094299319 0.39706330688564828 0 0.14776416221672409 0.4143013858039809 0 0.16478104390751111 0.4039014765362785 0 0.14176396945914169 0.40369546789863858 0 0.15234410094299319 0.39706330688564828 0 0.14776416221672409 0.4143013858039809 0 0.14176396945914169 0.40369546789863858 0 0.15234410094299319 0.39706330688564828 0 0.13813468081694619 0.39170375115652539 0 0.15234410094299319 0.39706330688564828 0 0.149858776596418 0.38099328310272679 0 0.16250325158588691 0.39091888942276559 0 0.15234410094299319 0.39706330688564828 0 0.149858776596418 0.38099328310272679 0 0.13813468081694619 0.39170375115652539 0 0.149858776596418 0.38099328310272679 0 0.13676239078032071 0.3770301931850214 0 0.13813468081694619 0.39170375115652539 0 0.13676239078032071 0.3770301931850214 0 0.127383725351678 0.38572893267744662 0 0.13813468081694619 0.39170375115652539 0 0.12114107357380589 0.37519081101880303 0 0.13676239078032071 0.3770301931850214 0 0.127383725351678 0.38572893267744662 0 0.127383725351678 0.38572893267744662 0 0.12506378639641169 0.395076080606102 0 0.13813468081694619 0.39170375115652539 0 0.12506378639641169 0.395076080606102 0 0.13813468081694619 0.39170375115652539 0 0.13310203997171169 0.40187987190868141 0 0.14176396945914169 0.40369546789863858 0 0.13813468081694619 0.39170375115652539 0 0.13310203997171169 0.40187987190868141 0 0.14176396945914169 0.40369546789863858 0 0.13310203997171169 0.40187987190868141 0 0.13319188764977449 0.41151869042705957 0 0.1237949639046072 0.40634629321549248 0 0.12506378639641169 0.395076080606102 0 0.13310203997171169 0.40187987190868141 0 0.1236992342538912 0.41564628680123122 0 0.1237949639046072 0.40634629321549248 0 0.13319188764977449 0.41151869042705957 0 0.1237949639046072 0.40634629321549248 0 0.13310203997171169 0.40187987190868141 0 0.13319188764977449 0.41151869042705957 0 0.13319188764977449 0.41151869042705957 0 0.12935644273916269 0.42680848154840301 0 0.14776416221672409 0.4143013858039809 0 0.1236992342538912 0.41564628680123122 0 0.13319188764977449 0.41151869042705957 0 0.12935644273916269 0.42680848154840301 0 0.12935644273916269 0.42680848154840301 0 0.14550729677495111 0.43162515521182698 0 0.12963045272487661 0.4508118892329952 0 0.14550729677495111 0.43162515521182698 0 0.14776416221672409 0.4143013858039809 0 0.17058326010355571 0.42006381129117121 0 0.12935644273916269 0.42680848154840301 0 0.14550729677495111 0.43162515521182698 0 0.14776416221672409 0.4143013858039809 0 0.14176396945914169 0.40369546789863858 0 0.13319188764977449 0.41151869042705957 0 0.14776416221672409 0.4143013858039809 0 0.14776416221672409 0.4143013858039809 0 0.17058326010355571 0.42006381129117121 0 0.16478104390751111 0.4039014765362785 0 0.14550729677495111 0.43162515521182698 0 0.17058326010355571 0.42006381129117121 0 0.1609677479446012 0.44097978451683301 0 0.17058326010355571 0.42006381129117121 0 0.19914499369637351 0.41727988598746069 0 0.1867753109655754 0.43827967721720917 0 0.17058326010355571 0.42006381129117121 0 0.1867753109655754 0.43827967721720917 0 0.1609677479446012 0.44097978451683301 0 0.17058326010355571 0.42006381129117121 0 0.18087617463957131 0.39659985748433019 0 0.19914499369637351 0.41727988598746069 0 0.17058326010355571 0.42006381129117121 0 0.18087617463957131 0.39659985748433019 0 0.16478104390751111 0.4039014765362785 0 0.18087617463957131 0.39659985748433019 0 0.16478104390751111 0.4039014765362785 0 0.16250325158588691 0.39091888942276559 0 0.15234410094299319 0.39706330688564828 0 0.16478104390751111 0.4039014765362785 0 0.16250325158588691 0.39091888942276559 0 0.18087617463957131 0.39659985748433019 0 0.16260735558276909 0.37591982898119958 0 0.18087617463957131 0.39659985748433019 0 0.16250325158588691 0.39091888942276559 0 0.16260735558276909 0.37591982898119958 0 0.16019009716823551 0.37318352879909372 0 0.149858776596418 0.38099328310272679 0 0.16260735558276909 0.37591982898119958 0 0.149858776596418 0.38099328310272679 0 0.16250325158588691 0.39091888942276559 0 0.16260735558276909 0.37591982898119958 0 0.18087617463957131 0.39659985748433019 0 0.16260735558276909 0.37591982898119958 0 0.18246134656361351 0.37685397108750052 0 0.18087617463957131 0.39659985748433019 0 0.18246134656361351 0.37685397108750052 0 0.1953554869192641 0.38858017413018953 0 0.19412982652233929 0.36738773766548632 0 0.18246134656361351 0.37685397108750052 0 0.1953554869192641 0.38858017413018953 0 0.19412982652233929 0.36738773766548632 0 0.1953554869192641 0.38858017413018953 0 0.204346829510997 0.37592571119245488 0 0.1953554869192641 0.38858017413018953 0 0.21117375058269039 0.39743388136390467 0 0.19914499369637351 0.41727988598746069 0 0.18087617463957131 0.39659985748433019 0 0.1953554869192641 0.38858017413018953 0 0.19914499369637351 0.41727988598746069 0 0.1953554869192641 0.38858017413018953 0 0.21117375058269039 0.39743388136390467 0 0.204346829510997 0.37592571119245488 0 0.21117375058269039 0.39743388136390467 0 0.204346829510997 0.37592571119245488 0 0.22198583333805 0.38261495466824652 0 0.23688621790532011 0.37104521076284058 0 0.22198583333805 0.38261495466824652 0 0.23833619898013611 0.38829239396811388 0 0.21117375058269039 0.39743388136390467 0 0.22944194370090731 0.40229111930356037 0 0.21870001618568691 0.41536779137680158 0 0.21117375058269039 0.39743388136390467 0 0.22198583333805 0.38261495466824652 0 0.22944194370090731 0.40229111930356037 0 0.22198583333805 0.38261495466824652 0 0.22944194370090731 0.40229111930356037 0 0.23833619898013611 0.38829239396811388 0 0.22944194370090731 0.40229111930356037 0 0.23833619898013611 0.38829239396811388 0 0.2515523382997783 0.39946832503077651 0 0.23688621790532011 0.37104521076284058 0 0.25913917432535888 0.38044335603196727 0 0.23688621790532011 0.37104521076284058 0 0.23833619898013611 0.38829239396811388 0 0.25913917432535888 0.38044335603196727 0 0.23833619898013611 0.38829239396811388 0 0.25913917432535888 0.38044335603196727 0 0.2515523382997783 0.39946832503077651 0 0.23632558019528771 0.42187415573849091 0 0.2413572522936252 0.44063384562486702 0 0.2569889404866213 0.42991855114511829 0 0.23632558019528771 0.42187415573849091 0 0.2569889404866213 0.42991855114511829 0 0.2515523382997783 0.39946832503077651 0 0.22944194370090731 0.40229111930356037 0 0.23632558019528771 0.42187415573849091 0 0.2515523382997783 0.39946832503077651 0 0.22944194370090731 0.40229111930356037 0 0.23632558019528771 0.42187415573849091 0 0.21870001618568691 0.41536779137680158 0 0.23632558019528771 0.42187415573849091 0 0.21741381275317559 0.43795991449059141 0 0.2413572522936252 0.44063384562486702 0 0.23632558019528771 0.42187415573849091 0 0.21870001618568691 0.41536779137680158 0 0.21741381275317559 0.43795991449059141 0 0.19914499369637351 0.41727988598746069 0 0.21741381275317559 0.43795991449059141 0 0.21870001618568691 0.41536779137680158 0 0.19914499369637351 0.41727988598746069 0 0.21741381275317559 0.43795991449059141 0 0.21117375058269039 0.39743388136390467 0 0.21870001618568691 0.41536779137680158 0 0.19914499369637351 0.41727988598746069 0 0.18087617463957131 0.39659985748433019 0 0.19914499369637351 0.41727988598746069 0 0.19914499369637351 0.41727988598746069 0 0.21741381275317559 0.43795991449059141 0 0.1867753109655754 0.43827967721720917 0 0.1887594151212523 0.46257090224298869 0 0.20710465099615441 0.4549435802770363 0 0.1867753109655754 0.43827967721720917 0 0.1887594151212523 0.46257090224298869 0 0.20710465099615441 0.4549435802770363 0 0.20822930860919911 0.47731343900282641 0 0.20710465099615441 0.4549435802770363 0 0.23568263180997781 0.45863994299372202 0 0.20822930860919911 0.47731343900282641 0 0.20710465099615441 0.4549435802770363 0 0.21741381275317559 0.43795991449059141 0 0.1867753109655754 0.43827967721720917 0 0.21741381275317559 0.43795991449059141 0 0.23568263180997781 0.45863994299372202 0 0.2413572522936252 0.44063384562486702 0 0.20710465099615441 0.4549435802770363 0 0.21741381275317559 0.43795991449059141 0 0.23568263180997781 0.45863994299372202 0 0.21741381275317559 0.43795991449059141 0 0.23568263180997781 0.45863994299372202 0 0.23568263180997781 0.45863994299372202 0 0.2413572522936252 0.44063384562486702 0 0.26037529622306371 0.45477666375641262 0 0.24609435025551629 0.5 0 0.23303139042148621 0.48320428842265561 0 0.25395145086678 0.47931997149685251 0 0.23568263180997781 0.45863994299372202 0 0.25395145086678 0.47931997149685251 0 0.23568263180997781 0.45863994299372202 0 0.23303139042148621 0.48320428842265561 0 0.25395145086678 0.47931997149685251 0 0.23568263180997781 0.45863994299372202 0 0.23303139042148621 0.48320428842265561 0 0.20822930860919911 0.47731343900282641 0 0.24609435025551629 0.5 0 0.23303139042148621 0.48320428842265561 0 0.21996843058745619 0.5 0 0.23303139042148621 0.48320428842265561 0 0.21996843058745619 0.5 0 0.20822930860919911 0.47731343900282641 0 0.21996843058745619 0.5 0 0.20822930860919911 0.47731343900282641 0 0.19384251091939611 0.5 0 0.1887594151212523 0.46257090224298869 0 0.20822930860919911 0.47731343900282641 0 0.1787205633371442 0.48189463634043578 0 0.20822930860919911 0.47731343900282641 0 0.19384251091939611 0.5 0 0.1787205633371442 0.48189463634043578 0 0.19384251091939611 0.5 0 0.16771659125133589 0.5 0 0.1787205633371442 0.48189463634043578 0 0.16771659125133589 0.5 0 0.1787205633371442 0.48189463634043578 0 0.1497067529400597 0.48305741205768687 0 0.1787205633371442 0.48189463634043578 0 0.16406880118162229 0.46842606473911319 0 0.1497067529400597 0.48305741205768687 0 0.1887594151212523 0.46257090224298869 0 0.1787205633371442 0.48189463634043578 0 0.16406880118162229 0.46842606473911319 0 0.1887594151212523 0.46257090224298869 0 0.17240628979628481 0.45306931686444829 0 0.16406880118162229 0.46842606473911319 0 0.1887594151212523 0.46257090224298869 0 0.1867753109655754 0.43827967721720917 0 0.17240628979628481 0.45306931686444829 0 0.1867753109655754 0.43827967721720917 0 0.17240628979628481 0.45306931686444829 0 0.1609677479446012 0.44097978451683301 0 0.17240628979628481 0.45306931686444829 0 0.1609677479446012 0.44097978451683301 0 0.14945066163309001 0.45726183806222748 0 0.17240628979628481 0.45306931686444829 0 0.16406880118162229 0.46842606473911319 0 0.14945066163309001 0.45726183806222748 0 0.14550729677495111 0.43162515521182698 0 0.1609677479446012 0.44097978451683301 0 0.14945066163309001 0.45726183806222748 0 0.14550729677495111 0.43162515521182698 0 0.14945066163309001 0.45726183806222748 0 0.12963045272487661 0.4508118892329952 0 0.1166456542707302 0.43688510679679721 0 0.12935644273916269 0.42680848154840301 0 0.12963045272487661 0.4508118892329952 0 0.14945066163309001 0.45726183806222748 0 0.12963045272487661 0.4508118892329952 0 0.13448706009647271 0.47115902226055129 0 0.11752805736271579 0.46915573985666831 0 0.12963045272487661 0.4508118892329952 0 0.13448706009647271 0.47115902226055129 0 0.12397164712563589 0.48523224294487222 0 0.13448706009647271 0.47115902226055129 0 0.1497067529400597 0.48305741205768687 0 0.12397164712563589 0.48523224294487222 0 0.11752805736271579 0.46915573985666831 0 0.13448706009647271 0.47115902226055129 0 0.11546475191521589 0.5 0 0.12397164712563589 0.48523224294487222 0 0.1415906715832759 0.5 0 0.12397164712563589 0.48523224294487222 0 0.1415906715832759 0.5 0 0.1497067529400597 0.48305741205768687 0 0.16771659125133589 0.5 0 0.1415906715832759 0.5 0 0.1497067529400597 0.48305741205768687 0 0.14945066163309001 0.45726183806222748 0 0.13448706009647271 0.47115902226055129 0 0.1497067529400597 0.48305741205768687 0 0.16406880118162229 0.46842606473911319 0 0.14945066163309001 0.45726183806222748 0 0.1497067529400597 0.48305741205768687 0 0.35087984519022652 0.5 0 0.35399815986298627 0.4630044256211166 0 0.39456333821203482 0.46722628045989822 0 0.35087984519022652 0.5 0 0.35399815986298627 0.4630044256211166 0 0.33487364944439563 0.46976051928323348 0 0.35892881030932788 0.4489803420703653 0 0.35399815986298627 0.4630044256211166 0 0.37758400451589053 0.4537220236487548 0 0.36835759133761709 0.44211754499971262 0 0.35892881030932788 0.4489803420703653 0 0.37758400451589053 0.4537220236487548 0 0.36835759133761709 0.44211754499971262 0 0.35710516123592329 0.43865215743625252 0 0.35892881030932788 0.4489803420703653 0 0.35892881030932788 0.4489803420703653 0 0.34910382586083899 0.44361043007262302 0 0.35399815986298627 0.4630044256211166 0 0.34910382586083899 0.44361043007262302 0 0.35399815986298627 0.4630044256211166 0 0.3351873228440666 0.44601597469070392 0 0.35710516123592329 0.43865215743625252 0 0.34910382586083899 0.44361043007262302 0 0.34979432701995672 0.43190741971542251 0 0.35710516123592329 0.43865215743625252 0 0.35892881030932788 0.4489803420703653 0 0.34910382586083899 0.44361043007262302 0 0.35399815986298627 0.4630044256211166 0 0.3351873228440666 0.44601597469070392 0 0.33487364944439563 0.46976051928323348 0 0.3351873228440666 0.44601597469070392 0 0.31625176932355148 0.4585758395089341 0 0.33487364944439563 0.46976051928323348 0 0.3351873228440666 0.44601597469070392 0 0.32849792444970788 0.42995489319709512 0 0.34910382586083899 0.44361043007262302 0 0.3351873228440666 0.44601597469070392 0 0.33960917389277312 0.43310226090187692 0 0.31625176932355148 0.4585758395089341 0 0.31903014768945093 0.43623482560621007 0 0.3351873228440666 0.44601597469070392 0 0.31625176932355148 0.4585758395089341 0 0.31903014768945093 0.43623482560621007 0 0.35087984519022652 0.5 0 0.3189436856059561 0.48076062511130319 0 0.30531627497209679 0.5 0 0.35087984519022652 0.5 0 0.3189436856059561 0.48076062511130319 0 0.33487364944439563 0.46976051928323348 0 0.31625176932355148 0.4585758395089341 0 0.3189436856059561 0.48076062511130319 0 0.33487364944439563 0.46976051928323348 0 0.30531627497209679 0.5 0 0.2722202699235764 0.49999999999998818 0 0.27805737373794409 0.47643409158567018 0 0.31625176932355148 0.4585758395089341 0 0.3189436856059561 0.48076062511130319 0 0.3000780349726313 0.46913381383811831 0 0.3189436856059561 0.48076062511130319 0 0.30531627497209679 0.5 0 0.3000780349726313 0.46913381383811831 0 0.30531627497209679 0.5 0 0.3000780349726313 0.46913381383811831 0 0.27805737373794409 0.47643409158567018 0 0.2722202699235764 0.49999999999998818 0 0.27805737373794409 0.47643409158567018 0 0.25395145086678 0.47931997149685251 0 0.27805737373794409 0.47643409158567018 0 0.25395145086678 0.47931997149685251 0 0.26037529622306371 0.45477666375641262 0 0.24609435025551629 0.5 0 0.2722202699235764 0.49999999999998818 0 0.25395145086678 0.47931997149685251 0 0.2722202699235764 0.49999999999998818 0 0.25395145086678 0.47931997149685251 0 0.2413572522936252 0.44063384562486702 0 0.26037529622306371 0.45477666375641262 0 0.2569889404866213 0.42991855114511829 0 0.26037529622306371 0.45477666375641262 0 0.27887385756777111 0.43167167703371778 0 0.2569889404866213 0.42991855114511829 0 0.23568263180997781 0.45863994299372202 0 0.25395145086678 0.47931997149685251 0 0.26037529622306371 0.45477666375641262 0 0.27805737373794409 0.47643409158567018 0 0.26037529622306371 0.45477666375641262 0 0.28262621373032359 0.45480054526104968 0 0.26037529622306371 0.45477666375641262 0 0.28262621373032359 0.45480054526104968 0 0.27887385756777111 0.43167167703371778 0 0.28262621373032359 0.45480054526104968 0 0.30016542807072483 0.44378605007764282 0 0.27887385756777111 0.43167167703371778 0 0.3000780349726313 0.46913381383811831 0 0.27805737373794409 0.47643409158567018 0 0.28262621373032359 0.45480054526104968 0 0.3000780349726313 0.46913381383811831 0 0.28262621373032359 0.45480054526104968 0 0.30016542807072483 0.44378605007764282 0 0.31625176932355148 0.4585758395089341 0 0.3000780349726313 0.46913381383811831 0 0.30016542807072483 0.44378605007764282 0 0.31625176932355148 0.4585758395089341 0 0.30016542807072483 0.44378605007764282 0 0.31903014768945093 0.43623482560621007 0 0.30016542807072483 0.44378605007764282 0 0.30761095373710939 0.43196509385547632 0 0.29940483713713811 0.42354155293878609 0 0.30016542807072483 0.44378605007764282 0 0.30761095373710939 0.43196509385547632 0 0.31903014768945093 0.43623482560621007 0 0.30761095373710939 0.43196509385547632 0 0.31184340205112399 0.42429794679926641 0 0.29940483713713811 0.42354155293878609 0 0.31184340205112399 0.42429794679926641 0 0.29940483713713811 0.42354155293878609 0 0.30915972771026029 0.41272739156397981 0 0.29940483713713811 0.42354155293878609 0 0.30915972771026029 0.41272739156397981 0 0.29878635657983299 0.41080983543495619 0 0.30915972771026029 0.41272739156397981 0 0.29878635657983299 0.41080983543495619 0 0.29983569586798497 0.39763081706799092 0 0.29940483713713811 0.42354155293878609 0 0.28674516560394842 0.40933958016906802 0 0.27887385756777111 0.43167167703371778 0 0.29940483713713811 0.42354155293878609 0 0.29878635657983299 0.41080983543495619 0 0.28674516560394842 0.40933958016906802 0 0.30016542807072483 0.44378605007764282 0 0.29940483713713811 0.42354155293878609 0 0.27887385756777111 0.43167167703371778 0 0.27887385756777111 0.43167167703371778 0 0.26919053561600848 0.40988002622311009 0 0.2569889404866213 0.42991855114511829 0 0.28674516560394842 0.40933958016906802 0 0.27887385756777111 0.43167167703371778 0 0.26919053561600848 0.40988002622311009 0 0.26919053561600848 0.40988002622311009 0 0.2569889404866213 0.42991855114511829 0 0.26919053561600848 0.40988002622311009 0 0.2569889404866213 0.42991855114511829 0 0.2515523382997783 0.39946832503077651 0 0.25913917432535888 0.38044335603196727 0 0.2515523382997783 0.39946832503077651 0 0.28139213074539471 0.38984150130110129 0 0.28674516560394842 0.40933958016906802 0 0.26919053561600848 0.40988002622311009 0 0.28139213074539471 0.38984150130110129 0 0.26919053561600848 0.40988002622311009 0 0.28139213074539471 0.38984150130110129 0 0.26919053561600848 0.40988002622311009 0 0.2515523382997783 0.39946832503077651 0 0.28139213074539471 0.38984150130110129 0 0.25913917432535888 0.38044335603196727 0 0.28139213074539471 0.38984150130110129 0 0.25913917432535888 0.38044335603196727 0 0.28139213074539471 0.38984150130110129 0 0.27476018493055188 0.37111896908391401 0 0.28139213074539471 0.38984150130110129 0 0.29295063948833389 0.37085910899496671 0 0.28139213074539471 0.38984150130110129 0 0.29295063948833389 0.37085910899496671 0 0.27476018493055188 0.37111896908391401 0 0.28139213074539471 0.38984150130110129 0 0.30423973425917189 0.38483776107216172 0 0.29295063948833389 0.37085910899496671 0 0.28139213074539471 0.38984150130110129 0 0.29983569586798497 0.39763081706799092 0 0.28139213074539471 0.38984150130110129 0 0.29983569586798497 0.39763081706799092 0 0.30423973425917189 0.38483776107216172 0 0.28674516560394842 0.40933958016906802 0 0.28139213074539471 0.38984150130110129 0 0.29983569586798497 0.39763081706799092 0 0.29878635657983299 0.41080983543495619 0 0.28674516560394842 0.40933958016906802 0 0.29983569586798497 0.39763081706799092 0 0.29983569586798497 0.39763081706799092 0 0.30423973425917189 0.38483776107216172 0 0.31552882903001278 0.39881641314935429 0 0.29983569586798497 0.39763081706799092 0 0.31827926099057241 0.4054201328348872 0 0.30915972771026029 0.41272739156397981 0 0.29983569586798497 0.39763081706799092 0 0.31827926099057241 0.4054201328348872 0 0.29983569586798497 0.39763081706799092 0 0.31827926099057241 0.4054201328348872 0 0.31552882903001278 0.39881641314935429 0 0.30423973425917189 0.38483776107216172 0 0.31552882903001278 0.39881641314935429 0 0.30423973425917189 0.38483776107216172 0 0.30813560111065041 0.38106545422697569 0 0.31552882903001278 0.39881641314935429 0 0.30813560111065041 0.38106545422697569 0 0.31552882903001278 0.39881641314935429 0 0.30423973425917189 0.38483776107216172 0 0.29295063948833389 0.37085910899496671 0 0.30423973425917189 0.38483776107216172 0 0.30813560111065041 0.38106545422697569 0 0.29295063948833389 0.37085910899496671 0 0.30813560111065041 0.38106545422697569 0 0.32663924998365418 0.37504983286782001 0 0.32463644028526628 0.39115447860843661 0 0.30813560111065041 0.38106545422697569 0 0.32463644028526628 0.39115447860843661 0 0.31552882903001278 0.39881641314935429 0 0.32663924998365418 0.37504983286782001 0 0.32463644028526628 0.39115447860843661 0 0.32663924998365418 0.37504983286782001 0 0.3437620373009751 0.38280913491814872 0 0.33753762015999178 0.37318322623638439 0 0.32663924998365418 0.37504983286782001 0 0.32463644028526628 0.39115447860843661 0 0.3437620373009751 0.38280913491814872 0 0.32663924998365418 0.37504983286782001 0 0.3437620373009751 0.38280913491814872 0 0.33741802102114471 0.39969034286402438 0 0.32463644028526628 0.39115447860843661 0 0.3437620373009751 0.38280913491814872 0 0.33741802102114471 0.39969034286402438 0 0.32463644028526628 0.39115447860843661 0 0.322633630586878 0.40725912434905298 0 0.32463644028526628 0.39115447860843661 0 0.322633630586878 0.40725912434905298 0 0.32463644028526628 0.39115447860843661 0 0.31552882903001278 0.39881641314935429 0 0.322633630586878 0.40725912434905298 0 0.31827926099057241 0.4054201328348872 0 0.31552882903001278 0.39881641314935429 0 0.322633630586878 0.40725912434905298 0 0.31827926099057241 0.4054201328348872 0 0.31552882903001278 0.39881641314935429 0 0.32180852605534982 0.41389381170348599 0 0.32849792444970788 0.42995489319709512 0 0.32920001498290929 0.42114191972314258 0 0.31827926099057241 0.4054201328348872 0 0.32180852605534982 0.41389381170348599 0 0.30915972771026029 0.41272739156397981 0 0.31827926099057241 0.4054201328348872 0 0.32180852605534982 0.41389381170348599 0 0.31184340205112399 0.42429794679926641 0 0.30915972771026029 0.41272739156397981 0 0.32180852605534982 0.41389381170348599 0 0.32180852605534982 0.41389381170348599 0 0.32966190043053267 0.41610983051536798 0 0.32920001498290929 0.42114191972314258 0 0.31827926099057241 0.4054201328348872 0 0.322633630586878 0.40725912434905298 0 0.32180852605534982 0.41389381170348599 0 0.322633630586878 0.40725912434905298 0 0.32180852605534982 0.41389381170348599 0 0.32966190043053267 0.41610983051536798 0 0.31827926099057241 0.4054201328348872 0 0.322633630586878 0.40725912434905298 0 0.322633630586878 0.40725912434905298 0 0.32180852605534982 0.41389381170348599 0 0.31184340205112399 0.42429794679926641 0 0.32180852605534982 0.41389381170348599 0 0.31903014768945093 0.43623482560621007 0 0.32180852605534982 0.41389381170348599 0 0.31903014768945093 0.43623482560621007 0 0.3351873228440666 0.44601597469070392 0 0.31903014768945093 0.43623482560621007 0 0.32849792444970788 0.42995489319709512 0 0.32180852605534982 0.41389381170348599 0 0.31903014768945093 0.43623482560621007 0 0.32849792444970788 0.42995489319709512 0 0.32180852605534982 0.41389381170348599 0 0.32849792444970788 0.42995489319709512 0 0.30761095373710939 0.43196509385547632 0 0.31184340205112399 0.42429794679926641 0 0.31903014768945093 0.43623482560621007 0 0.3351873228440666 0.44601597469070392 0 0.32849792444970788 0.42995489319709512 0 0.33960917389277312 0.43310226090187692 0 0.32849792444970788 0.42995489319709512 0 0.33683170899604647 0.42460914347662132 0 0.32920001498290929 0.42114191972314258 0 0.32849792444970788 0.42995489319709512 0 0.33683170899604647 0.42460914347662132 0 0.33960917389277312 0.43310226090187692 0 0.34356119315253297 0.42795824637370578 0 0.33683170899604647 0.42460914347662132 0 0.34800956270135552 0.42221416140090268 0 0.34356119315253297 0.42795824637370578 0 0.33683170899604647 0.42460914347662132 0 0.33960917389277312 0.43310226090187692 0 0.33683170899604647 0.42460914347662132 0 0.32966190043053267 0.41610983051536798 0 0.34800956270135552 0.42221416140090268 0 0.322633630586878 0.40725912434905298 0 0.32966190043053267 0.41610983051536798 0 0.34429518814250548 0.4164075026957621 0 0.33741802102114471 0.39969034286402438 0 0.322633630586878 0.40725912434905298 0 0.34429518814250548 0.4164075026957621 0 0.32966190043053267 0.41610983051536798 0 0.34429518814250548 0.4164075026957621 0 0.34800956270135552 0.42221416140090268 0 0.322633630586878 0.40725912434905298 0 0.34429518814250548 0.4164075026957621 0 0.32966190043053267 0.41610983051536798 0 0.34800956270135552 0.42221416140090268 0 0.33683170899604647 0.42460914347662132 0 0.32966190043053267 0.41610983051536798 0 0.32920001498290929 0.42114191972314258 0 0.34429518814250548 0.4164075026957621 0 0.36342078515821269 0.40806215900547599 0 0.35110441318446001 0.40034262591404829 0 0.34429518814250548 0.4164075026957621 0 0.36595674569813169 0.42555588104247422 0 0.36342078515821269 0.40806215900547599 0 0.34429518814250548 0.4164075026957621 0 0.34800956270135552 0.42221416140090268 0 0.36595674569813169 0.42555588104247422 0 0.34429518814250548 0.4164075026957621 0 0.36595674569813169 0.42555588104247422 0 0.34800956270135552 0.42221416140090268 0 0.36635722497217932 0.42831849228643498 0 0.35710516123592329 0.43865215743625252 0 0.34979432701995672 0.43190741971542251 0 0.36635722497217932 0.42831849228643498 0 0.34979432701995672 0.43190741971542251 0 0.34800956270135552 0.42221416140090268 0 0.36635722497217932 0.42831849228643498 0 0.34910382586083899 0.44361043007262302 0 0.33960917389277312 0.43310226090187692 0 0.34979432701995672 0.43190741971542251 0 0.34356119315253297 0.42795824637370578 0 0.33960917389277312 0.43310226090187692 0 0.34979432701995672 0.43190741971542251 0 0.34356119315253297 0.42795824637370578 0 0.34979432701995672 0.43190741971542251 0 0.34800956270135552 0.42221416140090268 0 0.34800956270135552 0.42221416140090268 0 0.36635722497217932 0.42831849228643498 0 0.36595674569813169 0.42555588104247422 0 0.36835759133761709 0.44211754499971262 0 0.36635722497217932 0.42831849228643498 0 0.38963568852557739 0.43606331786363273 0 0.36835759133761709 0.44211754499971262 0 0.35710516123592329 0.43865215743625252 0 0.36635722497217932 0.42831849228643498 0 0.36635722497217932 0.42831849228643498 0 0.36595674569813169 0.42555588104247422 0 0.36595674569813169 0.42555588104247422 0 0.37030578461259972 0.42739262123679572 0 0.37337211939326398 0.4171775521054909 0 0.36635722497217932 0.42831849228643498 0 0.36595674569813169 0.42555588104247422 0 0.37030578461259972 0.42739262123679572 0 0.36595674569813169 0.42555588104247422 0 0.37030578461259972 0.42739262123679572 0 0.36835759133761709 0.44211754499971262 0 0.36635722497217932 0.42831849228643498 0 0.36342078515821269 0.40806215900547599 0 0.37337211939326398 0.4171775521054909 0 0.3837220384954238 0.40091726845114661 0 0.36595674569813169 0.42555588104247422 0 0.36342078515821269 0.40806215900547599 0 0.37337211939326398 0.4171775521054909 0 0.36595674569813169 0.42555588104247422 0 0.36342078515821269 0.40806215900547599 0 0.36342078515821269 0.40806215900547599 0 0.36088482461829607 0.39056843696847748 0 0.36088482461829607 0.39056843696847748 0 0.3837220384954238 0.40091726845114661 0 0.36342078515821269 0.40806215900547599 0 0.36088482461829607 0.39056843696847748 0 0.3837220384954238 0.40091726845114661 0 0.35845473470558048 0.3738050383316226 0 0.38498463211938949 0.38669804936284108 0 0.36088482461829607 0.39056843696847748 0 0.35845473470558048 0.3738050383316226 0 0.36037450573218538 0.38243284260130922 0 0.38498463211938949 0.38669804936284108 0 0.36088482461829607 0.39056843696847748 0 0.36037450573218538 0.38243284260130922 0 0.35845473470558048 0.3738050383316226 0 0.36088482461829607 0.39056843696847748 0 0.36037450573218538 0.38243284260130922 0 0.38498463211938949 0.38669804936284108 0 0.36037450573218538 0.38243284260130922 0 0.35845473470558048 0.3738050383316226 0 0.38498463211938949 0.38669804936284108 0 0.35845473470558048 0.3738050383316226 0 0.37799249470829072 0.36861859632590072 0 0.38498463211938949 0.38669804936284108 0 0.36088482461829607 0.39056843696847748 0 0.3437620373009751 0.38280913491814872 0 0.36088482461829607 0.39056843696847748 0 0.3437620373009751 0.38280913491814872 0 0.35845473470558048 0.3738050383316226 0 0.36342078515821269 0.40806215900547599 0 0.36088482461829607 0.39056843696847748 0 0.35110441318446001 0.40034262591404829 0 0.36088482461829607 0.39056843696847748 0 0.3437620373009751 0.38280913491814872 0 0.35110441318446001 0.40034262591404829 0 0.33741802102114471 0.39969034286402438 0 0.34429518814250548 0.4164075026957621 0 0.35110441318446001 0.40034262591404829 0 0.33741802102114471 0.39969034286402438 0 0.3437620373009751 0.38280913491814872 0 0.35110441318446001 0.40034262591404829 0 0.35547574974504559 0.35325521745244021 0 0.34303253047672222 0.35602670101757039 0 0.3434888764479338 0.34518077454191071 0 0.35547574974504559 0.35325521745244021 0 0.34722529065367969 0.36834774824951561 0 0.34303253047672222 0.35602670101757039 0 0.35547574974504559 0.35325521745244021 0 0.34722529065367969 0.36834774824951561 0 0.35845473470558048 0.3738050383316226 0 0.35547574974504559 0.35325521745244021 0 0.35845473470558048 0.3738050383316226 0 0.3437620373009751 0.38280913491814872 0 0.34722529065367969 0.36834774824951561 0 0.35845473470558048 0.3738050383316226 0 0.34722529065367969 0.36834774824951561 0 0.35845473470558048 0.3738050383316226 0 0.35547574974504559 0.35325521745244021 0 0.35845473470558048 0.3738050383316226 0 0.3654818894532329 0.36229552034215001 0 0.35845473470558048 0.3738050383316226 0 0.3654818894532329 0.36229552034215001 0 0.37799249470829072 0.36861859632590072 0 0.3654818894532329 0.36229552034215001 0 0.37944729564891883 0.34900134949228478 0 0.37799249470829072 0.36861859632590072 0 0.35547574974504559 0.35325521745244021 0 0.3654818894532329 0.36229552034215001 0 0.36571393491784288 0.34128021553488069 0 0.3654818894532329 0.36229552034215001 0 0.36571393491784288 0.34128021553488069 0 0.37944729564891883 0.34900134949228478 0 0.36571393491784288 0.34128021553488069 0 0.37263116992220002 0.32388446461771031 0 0.37944729564891883 0.34900134949228478 0 0.36571393491784288 0.34128021553488069 0 0.37263116992220002 0.32388446461771031 0 0.35249676478451192 0.33270539657325771 0 0.35249676478451192 0.33270539657325771 0 0.34951777982397819 0.3121555756940752 0 0.37263116992220002 0.32388446461771031 0 0.35249676478451192 0.33270539657325771 0 0.34951777982397819 0.3121555756940752 0 0.35249676478451192 0.33270539657325771 0 0.33552588926381649 0.33295745059661491 0 0.34951777982397819 0.3121555756940752 0 0.35547574974504559 0.35325521745244021 0 0.36571393491784288 0.34128021553488069 0 0.35249676478451192 0.33270539657325771 0 0.35547574974504559 0.35325521745244021 0 0.35249676478451192 0.33270539657325771 0 0.35249676478451192 0.33270539657325771 0 0.33552588926381649 0.33295745059661491 0 0.3434888764479338 0.34518077454191071 0 0.35547574974504559 0.35325521745244021 0 0.35249676478451192 0.33270539657325771 0 0.3434888764479338 0.34518077454191071 0 0.33552588926381649 0.33295745059661491 0 0.33091344796957289 0.35095910706967021 0 0.3434888764479338 0.34518077454191071 0 0.33552588926381649 0.33295745059661491 0 0.32508451802931609 0.31808604783730138 0 0.34951777982397819 0.3121555756940752 0 0.33552588926381649 0.33295745059661491 0 0.33091344796957289 0.35095910706967021 0 0.3122640132071739 0.33914100029777761 0 0.32508451802931609 0.31808604783730138 0 0.3122640132071739 0.33914100029777761 0 0.32508451802931609 0.31808604783730138 0 0.3122640132071739 0.33914100029777761 0 0.30045895688034402 0.32812712097613378 0 0.33552588926381649 0.33295745059661491 0 0.32508451802931609 0.31808604783730138 0 0.3122640132071739 0.33914100029777761 0 0.31606678286748768 0.35795694522732041 0 0.33091344796957289 0.35095910706967021 0 0.3122640132071739 0.33914100029777761 0 0.31606678286748768 0.35795694522732041 0 0.33091344796957289 0.35095910706967021 0 0.32868914146342282 0.36275496342237762 0 0.33091344796957289 0.35095910706967021 0 0.33644512327000642 0.36358818804411908 0 0.32868914146342282 0.36275496342237762 0 0.33091344796957289 0.35095910706967021 0 0.34303253047672222 0.35602670101757039 0 0.33644512327000642 0.36358818804411908 0 0.33091344796957289 0.35095910706967021 0 0.34303253047672222 0.35602670101757039 0 0.3434888764479338 0.34518077454191071 0 0.3437620373009751 0.38280913491814872 0 0.34722529065367969 0.36834774824951561 0 0.33753762015999178 0.37318322623638439 0 0.34722529065367969 0.36834774824951561 0 0.33753762015999178 0.37318322623638439 0 0.33644512327000642 0.36358818804411908 0 0.34722529065367969 0.36834774824951561 0 0.34303253047672222 0.35602670101757039 0 0.33644512327000642 0.36358818804411908 0 0.33644512327000642 0.36358818804411908 0 0.32868914146342282 0.36275496342237762 0 0.33126571176288772 0.36931702733550609 0 0.32868914146342282 0.36275496342237762 0 0.33126571176288772 0.36931702733550609 0 0.32701742393736338 0.37200892610682817 0 0.33753762015999178 0.37318322623638439 0 0.33644512327000642 0.36358818804411908 0 0.33126571176288772 0.36931702733550609 0 0.32663924998365418 0.37504983286782001 0 0.33753762015999178 0.37318322623638439 0 0.33126571176288772 0.36931702733550609 0 0.32663924998365418 0.37504983286782001 0 0.33126571176288772 0.36931702733550609 0 0.32701742393736338 0.37200892610682817 0 0.32663924998365418 0.37504983286782001 0 0.32701742393736338 0.37200892610682817 0 0.30074237319128899 0.36331449530459647 0 0.32663924998365418 0.37504983286782001 0 0.30074237319128899 0.36331449530459647 0 0.31606678286748768 0.35795694522732041 0 0.32701742393736338 0.37200892610682817 0 0.30074237319128899 0.36331449530459647 0 0.32663924998365418 0.37504983286782001 0 0.32701742393736338 0.37200892610682817 0 0.31606678286748768 0.35795694522732041 0 0.32868914146342282 0.36275496342237762 0 0.32701742393736338 0.37200892610682817 0 0.30813560111065041 0.38106545422697569 0 0.30074237319128899 0.36331449530459647 0 0.30813560111065041 0.38106545422697569 0 0.32663924998365418 0.37504983286782001 0 0.30074237319128899 0.36331449530459647 0 0.30813560111065041 0.38106545422697569 0 0.30074237319128899 0.36331449530459647 0 0.29295063948833389 0.37085910899496671 0 0.31606678286748768 0.35795694522732041 0 0.29944350838503658 0.36019595275825661 0 0.30074237319128899 0.36331449530459647 0 0.29823614909255802 0.36217878361073519 0 0.30074237319128899 0.36331449530459647 0 0.29295063948833389 0.37085910899496671 0 0.29944350838503658 0.36019595275825661 0 0.29823614909255802 0.36217878361073519 0 0.29944350838503658 0.36019595275825661 0 0.30074237319128899 0.36331449530459647 0 0.29823614909255802 0.36217878361073519 0 0.30074237319128899 0.36331449530459647 0 0.29944350838503658 0.36019595275825661 0 0.29823614909255802 0.36217878361073519 0 0.30074237319128899 0.36331449530459647 0 0.29944350838503658 0.36019595275825661 0 0.29037361898523473 0.33841937073987138 0 0.3122640132071739 0.33914100029777761 0 0.29944350838503658 0.36019595275825661 0 0.3122640132071739 0.33914100029777761 0 0.31606678286748768 0.35795694522732041 0 0.29944350838503658 0.36019595275825661 0 0.3122640132071739 0.33914100029777761 0 0.29944350838503658 0.36019595275825661 0 0.2788433071352846 0.35339079158745978 0 0.29037361898523473 0.33841937073987138 0 0.29944350838503658 0.36019595275825661 0 0.29823614909255802 0.36217878361073519 0 0.2788433071352846 0.35339079158745978 0 0.29823614909255802 0.36217878361073519 0 0.2788433071352846 0.35339079158745978 0 0.29944350838503658 0.36019595275825661 0 0.29037361898523473 0.33841937073987138 0 0.29823614909255802 0.36217878361073519 0 0.29295063948833389 0.37085910899496671 0 0.2788433071352846 0.35339079158745978 0 0.29295063948833389 0.37085910899496671 0 0.27476018493055188 0.37111896908391401 0 0.2788433071352846 0.35339079158745978 0 0.29295063948833389 0.37085910899496671 0 0.2788433071352846 0.35339079158745978 0 0.29823614909255802 0.36217878361073519 0 0.29295063948833389 0.37085910899496671 0 0.27476018493055188 0.37111896908391401 0 0.2788433071352846 0.35339079158745978 0 0.25801751143915141 0.36182926001624582 0 0.2788433071352846 0.35339079158745978 0 0.26344664621337061 0.33432597101975131 0 0.2788433071352846 0.35339079158745978 0 0.256881731206555 0.34343876111635702 0 0.2788433071352846 0.35339079158745978 0 0.25801751143915141 0.36182926001624582 0 0.256881731206555 0.34343876111635702 0 0.2415944531318375 0.35153847151493689 0 0.25801751143915141 0.36182926001624582 0 0.256881731206555 0.34343876111635702 0 0.23688621790532011 0.37104521076284058 0 0.25913917432535888 0.38044335603196727 0 0.25801751143915141 0.36182926001624582 0 0.25913917432535888 0.38044335603196727 0 0.27476018493055188 0.37111896908391401 0 0.25801751143915141 0.36182926001624582 0 0.24926794444985581 0.33103263873945571 0 0.24804998529145589 0.31526115045204323 0 0.26344664621337061 0.33432597101975131 0 0.24804998529145589 0.31526115045204323 0 0.26760091884498549 0.31472632058921901 0 0.25080394818916718 0.31143836130783681 0 0.24804998529145589 0.31526115045204323 0 0.26344664621337061 0.33432597101975131 0 0.26760091884498549 0.31472632058921901 0 0.24804998529145589 0.31526115045204323 0 0.26344664621337061 0.33432597101975131 0 0.24926794444985581 0.33103263873945571 0 0.256881731206555 0.34343876111635702 0 0.26344664621337061 0.33432597101975131 0 0.2788433071352846 0.35339079158745978 0 0.26344664621337061 0.33432597101975131 0 0.29037361898523473 0.33841937073987138 0 0.2788433071352846 0.35339079158745978 0 0.256881731206555 0.34343876111635702 0 0.26344664621337061 0.33432597101975131 0 0.26344664621337061 0.33432597101975131 0 0.28421234195831591 0.32288679219969152 0 0.29037361898523473 0.33841937073987138 0 0.26760091884498549 0.31472632058921901 0 0.28421234195831591 0.32288679219969152 0 0.28418092940500322 0.30795075328555882 0 0.26344664621337061 0.33432597101975131 0 0.26760091884498549 0.31472632058921901 0 0.28421234195831591 0.32288679219969152 0 0.28421234195831591 0.32288679219969152 0 0.30045895688034402 0.32812712097613378 0 0.29921298142095748 0.31377121658761492 0 0.28421234195831591 0.32288679219969152 0 0.29921298142095748 0.31377121658761492 0 0.28418092940500322 0.30795075328555882 0 0.28421234195831591 0.32288679219969152 0 0.29037361898523473 0.33841937073987138 0 0.30045895688034402 0.32812712097613378 0 0.29037361898523473 0.33841937073987138 0 0.3122640132071739 0.33914100029777761 0 0.30045895688034402 0.32812712097613378 0 0.32508451802931609 0.31808604783730138 0 0.30045895688034402 0.32812712097613378 0 0.29921298142095748 0.31377121658761492 0 0.29921298142095748 0.31377121658761492 0 0.31270393341374308 0.28666308426052522 0 0.29921298142095748 0.31377121658761492 0 0.30637701198803852 0.28844142731746453 0 0.2939263315899095 0.30389956014510311 0 0.29921298142095748 0.31377121658761492 0 0.31270393341374308 0.28666308426052522 0 0.32137557025801478 0.3013969212790531 0 0.29921298142095748 0.31377121658761492 0 0.30637701198803852 0.28844142731746453 0 0.31270393341374308 0.28666308426052522 0 0.30637701198803852 0.28844142731746453 0 0.30506221546711959 0.2795600984908363 0 0.31378865231733849 0.28448349726087452 0 0.30637701198803852 0.28844142731746453 0 0.31378865231733849 0.28448349726087452 0 0.30637701198803852 0.28844142731746453 0 0.31270393341374308 0.28666308426052522 0 0.30637701198803852 0.28844142731746453 0 0.31378865231733849 0.28448349726087452 0 0.31270393341374308 0.28666308426052522 0 0.30637701198803852 0.28844142731746453 0 0.29391054537722971 0.29509871244007752 0 0.30637701198803852 0.28844142731746453 0 0.29391054537722971 0.29509871244007752 0 0.2939263315899095 0.30389956014510311 0 0.30637701198803852 0.28844142731746453 0 0.29391054537722971 0.29509871244007752 0 0.2952807327128088 0.2915603203586794 0 0.30637701198803852 0.28844142731746453 0 0.2952807327128088 0.2915603203586794 0 0.29911111639214882 0.28541368746172779 0 0.29365417882613498 0.28079947237343161 0 0.30506221546711959 0.2795600984908363 0 0.30637701198803852 0.28844142731746453 0 0.29911111639214882 0.28541368746172779 0 0.30506221546711959 0.2795600984908363 0 0.30637701198803852 0.28844142731746453 0 0.29911111639214882 0.28541368746172779 0 0.2952807327128088 0.2915603203586794 0 0.27222906350765091 0.29611891684063391 0 0.28094075800525731 0.2782881758503869 0 0.29365417882613498 0.28079947237343161 0 0.28644465919679668 0.29585520732038761 0 0.27222906350765091 0.29611891684063391 0 0.29365417882613498 0.28079947237343161 0 0.27222906350765091 0.29611891684063391 0 0.29365417882613498 0.28079947237343161 0 0.29362267178197232 0.28840717187855658 0 0.28644465919679668 0.29585520732038761 0 0.29365417882613498 0.28079947237343161 0 0.29911111639214882 0.28541368746172779 0 0.29362267178197232 0.28840717187855658 0 0.29365417882613498 0.28079947237343161 0 0.29911111639214882 0.28541368746172779 0 0.29362267178197232 0.28840717187855658 0 0.2952807327128088 0.2915603203586794 0 0.29362267178197232 0.28840717187855658 0 0.2952807327128088 0.2915603203586794 0 0.28644465919679668 0.29585520732038761 0 0.29391054537722971 0.29509871244007752 0 0.2952807327128088 0.2915603203586794 0 0.28644465919679668 0.29585520732038761 0 0.29921298142095748 0.31377121658761492 0 0.2939263315899095 0.30389956014510311 0 0.28418092940500322 0.30795075328555882 0 0.29391054537722971 0.29509871244007752 0 0.28644465919679668 0.29585520732038761 0 0.2939263315899095 0.30389956014510311 0 0.28644465919679668 0.29585520732038761 0 0.2939263315899095 0.30389956014510311 0 0.28418092940500322 0.30795075328555882 0 0.26760091884498549 0.31472632058921901 0 0.28418092940500322 0.30795075328555882 0 0.27222906350765091 0.29611891684063391 0 0.28644465919679668 0.29585520732038761 0 0.28418092940500322 0.30795075328555882 0 0.27222906350765091 0.29611891684063391 0 0.27222906350765091 0.29611891684063391 0 0.26467663007657771 0.28276711556378559 0 0.28094075800525731 0.2782881758503869 0 0.2485433229568853 0.29627740250536672 0 0.249863287478018 0.28312152291451942 0 0.26467663007657771 0.28276711556378559 0 0.2485433229568853 0.29627740250536672 0 0.27222906350765091 0.29611891684063391 0 0.26467663007657771 0.28276711556378559 0 0.2485433229568853 0.29627740250536672 0 0.27222906350765091 0.29611891684063391 0 0.2526787178163884 0.30883598457110623 0 0.26760091884498549 0.31472632058921901 0 0.27222906350765091 0.29611891684063391 0 0.25080394818916718 0.31143836130783681 0 0.27222906350765091 0.29611891684063391 0 0.25080394818916718 0.31143836130783681 0 0.27222906350765091 0.29611891684063391 0 0.25080394818916718 0.31143836130783681 0 0.2526787178163884 0.30883598457110623 0 0.24746204362422861 0.30705434421611461 0 0.25080394818916718 0.31143836130783681 0 0.2526787178163884 0.30883598457110623 0 0.25080394818916718 0.31143836130783681 0 0.2526787178163884 0.30883598457110623 0 0.25648020029296009 0.25534243071471141 0 0.2581466906155262 0.27041699713618877 0 0.27331153016725629 0.27063467616830489 0 0.249863287478018 0.28312152291451942 0 0.26467663007657771 0.28276711556378559 0 0.2581466906155262 0.27041699713618877 0 0.26467663007657771 0.28276711556378559 0 0.2581466906155262 0.27041699713618877 0 0.27331153016725629 0.27063467616830489 0 0.26467663007657771 0.28276711556378559 0 0.27331153016725629 0.27063467616830489 0 0.28094075800525731 0.2782881758503869 0 0.27331153016725629 0.27063467616830489 0 0.27849782684333269 0.26042721030067489 0 0.28688199227603661 0.26655803209778439 0 0.27331153016725629 0.27063467616830489 0 0.28094075800525731 0.2782881758503869 0 0.28688199227603661 0.26655803209778439 0 0.25648020029296009 0.25534243071471141 0 0.27331153016725629 0.27063467616830489 0 0.27849782684333269 0.26042721030067489 0 0.25648020029296009 0.25534243071471141 0 0.27849782684333269 0.26042721030067489 0 0.28116346984589152 0.24929238295428011 0 0.25648020029296009 0.25534243071471141 0 0.28116346984589152 0.24929238295428011 0 0.27849782684333269 0.26042721030067489 0 0.29215712614179729 0.25296539125812162 0 0.28116346984589152 0.24929238295428011 0 0.27849782684333269 0.26042721030067489 0 0.29215712614179729 0.25296539125812162 0 0.28688199227603661 0.26655803209778439 0 0.29682437568916492 0.26363202838706168 0 0.29215712614179729 0.25296539125812162 0 0.28688199227603661 0.26655803209778439 0 0.28094075800525731 0.2782881758503869 0 0.28688199227603661 0.26655803209778439 0 0.29297875531895101 0.27212027439003339 0 0.29682437568916492 0.26363202838706168 0 0.28688199227603661 0.26655803209778439 0 0.29297875531895101 0.27212027439003339 0 0.29297875531895101 0.27212027439003339 0 0.29365417882613498 0.28079947237343161 0 0.30160056851599482 0.26927110673952909 0 0.28094075800525731 0.2782881758503869 0 0.29297875531895101 0.27212027439003339 0 0.29365417882613498 0.28079947237343161 0 0.29365417882613498 0.28079947237343161 0 0.30506221546711959 0.2795600984908363 0 0.3150792941446201 0.26548002790623049 0 0.29365417882613498 0.28079947237343161 0 0.3150792941446201 0.26548002790623049 0 0.29682437568916492 0.26363202838706168 0 0.30160056851599482 0.26927110673952909 0 0.3150792941446201 0.26548002790623049 0 0.29365417882613498 0.28079947237343161 0 0.30160056851599482 0.26927110673952909 0 0.3150792941446201 0.26548002790623049 0 0.29682437568916492 0.26363202838706168 0 0.29297875531895101 0.27212027439003339 0 0.30160056851599482 0.26927110673952909 0 0.30506221546711959 0.2795600984908363 0 0.31248832988425013 0.27406357497863831 0 0.3150792941446201 0.26548002790623049 0 0.30506221546711959 0.2795600984908363 0 0.31248832988425013 0.27406357497863831 0 0.31378865231733849 0.28448349726087452 0 0.29215712614179729 0.25296539125812162 0 0.3150792941446201 0.26548002790623049 0 0.29682437568916492 0.26363202838706168 0 0.29215712614179729 0.25296539125812162 0 0.3150792941446201 0.26548002790623049 0 0.29215712614179729 0.25296539125812162 0 0.31122083531834582 0.25734239929070551 0 0.30564632357021321 0.2489163216561793 0 0.29215712614179729 0.25296539125812162 0 0.31122083531834582 0.25734239929070551 0 0.3150792941446201 0.26548002790623049 0 0.31122083531834582 0.25734239929070551 0 0.30564632357021321 0.2489163216561793 0 0.31315294017503031 0.2487805694931679 0 0.31819378019255079 0.25457929758374892 0 0.32616531042253322 0.25961437862030612 0 0.32109064663039938 0.24355484364608501 0 0.31122083531834582 0.25734239929070551 0 0.31819378019255079 0.25457929758374892 0 0.31315294017503031 0.2487805694931679 0 0.31122083531834582 0.25734239929070551 0 0.3150792941446201 0.26548002790623049 0 0.31707423789021572 0.26405359778104398 0 0.31122083531834582 0.25734239929070551 0 0.31819378019255079 0.25457929758374892 0 0.31707423789021572 0.26405359778104398 0 0.3150792941446201 0.26548002790623049 0 0.31707423789021572 0.26405359778104398 0 0.3150792941446201 0.26548002790623049 0 0.31707423789021572 0.26405359778104398 0 0.317867231414455 0.26700213619570401 0 0.31819378019255079 0.25457929758374892 0 0.31707423789021572 0.26405359778104398 0 0.32616531042253322 0.25961437862030612 0 0.31707423789021572 0.26405359778104398 0 0.32616531042253322 0.25961437862030612 0 0.317867231414455 0.26700213619570401 0 0.32616531042253322 0.25961437862030612 0 0.34146053174196062 0.25520817275505892 0 0.33481635276755523 0.27325438144640662 0 0.33481635276755523 0.27325438144640662 0 0.33171473054367179 0.28131961358843721 0 0.35072552767360038 0.27597614291634881 0 0.33171473054367179 0.28131961358843721 0 0.35072552767360038 0.27597614291634881 0 0.33481635276755523 0.27325438144640662 0 0.31378865231733849 0.28448349726087452 0 0.32616531042253322 0.25961437862030612 0 0.33481635276755523 0.27325438144640662 0 0.31378865231733849 0.28448349726087452 0 0.32616531042253322 0.25961437862030612 0 0.31378865231733849 0.28448349726087452 0 0.33481635276755523 0.27325438144640662 0 0.31378865231733849 0.28448349726087452 0 0.33171473054367179 0.28131961358843721 0 0.31248832988425013 0.27406357497863831 0 0.317867231414455 0.26700213619570401 0 0.31378865231733849 0.28448349726087452 0 0.32616531042253322 0.25961437862030612 0 0.317867231414455 0.26700213619570401 0 0.31378865231733849 0.28448349726087452 0 0.31248832988425013 0.27406357497863831 0 0.3150792941446201 0.26548002790623049 0 0.317867231414455 0.26700213619570401 0 0.3150792941446201 0.26548002790623049 0 0.317867231414455 0.26700213619570401 0 0.31378865231733849 0.28448349726087452 0 0.31270393341374308 0.28666308426052522 0 0.33171473054367179 0.28131961358843721 0 0.31270393341374308 0.28666308426052522 0 0.33171473054367179 0.28131961358843721 0 0.31270393341374308 0.28666308426052522 0 0.3259248142667221 0.29160267862621031 0 0.33171473054367179 0.28131961358843721 0 0.31378865231733849 0.28448349726087452 0 0.31270393341374308 0.28666308426052522 0 0.31270393341374308 0.28666308426052522 0 0.3259248142667221 0.29160267862621031 0 0.32137557025801478 0.3013969212790531 0 0.32508451802931609 0.31808604783730138 0 0.29921298142095748 0.31377121658761492 0 0.32137557025801478 0.3013969212790531 0 0.32508451802931609 0.31808604783730138 0 0.32137557025801478 0.3013969212790531 0 0.33790502285145851 0.2970310953768252 0 0.32508451802931609 0.31808604783730138 0 0.33790502285145851 0.2970310953768252 0 0.32508451802931609 0.31808604783730138 0 0.33790502285145851 0.2970310953768252 0 0.34951777982397819 0.3121555756940752 0 0.3259248142667221 0.29160267862621031 0 0.32137557025801478 0.3013969212790531 0 0.33790502285145851 0.2970310953768252 0 0.3259248142667221 0.29160267862621031 0 0.33790502285145851 0.2970310953768252 0 0.33171473054367179 0.28131961358843721 0 0.33790502285145851 0.2970310953768252 0 0.33171473054367179 0.28131961358843721 0 0.35072552767360038 0.27597614291634881 0 0.33790502285145851 0.2970310953768252 0 0.35259245860265592 0.29151621771978908 0 0.35072552767360038 0.27597614291634881 0 0.33790502285145851 0.2970310953768252 0 0.35072552767360038 0.27597614291634881 0 0.35259245860265592 0.29151621771978908 0 0.36581504419548122 0.29876757974313561 0 0.35899891846876142 0.27365069486856131 0 0.33790502285145851 0.2970310953768252 0 0.35259245860265592 0.29151621771978908 0 0.34951777982397819 0.3121555756940752 0 0.35259245860265592 0.29151621771978908 0 0.34951777982397819 0.3121555756940752 0 0.36581504419548122 0.29876757974313561 0 0.37263116992220002 0.32388446461771031 0 0.34951777982397819 0.3121555756940752 0 0.36581504419548122 0.29876757974313561 0 0.37263116992220002 0.32388446461771031 0 0.36581504419548122 0.29876757974313561 0 0.37263116992220002 0.32388446461771031 0 0.36581504419548122 0.29876757974313561 0 0.38216381873773081 0.30982874819705242 0 0.36581504419548122 0.29876757974313561 0 0.35899891846876142 0.27365069486856131 0 0.36581504419548122 0.29876757974313561 0 0.35899891846876142 0.27365069486856131 0 0.37683247115226481 0.2845180330936678 0 0.36720713552841849 0.26750750586540728 0 0.35899891846876142 0.27365069486856131 0 0.38535156718836922 0.2662436090634428 0 0.35899891846876142 0.27365069486856131 0 0.38535156718836922 0.2662436090634428 0 0.36720713552841849 0.26750750586540728 0 0.37226466093687499 0.26549479397987391 0 0.38535156718836922 0.2662436090634428 0 0.35899891846876142 0.27365069486856131 0 0.38535156718836922 0.2662436090634428 0 0.38051111834588769 0.27591356521434068 0 0.35899891846876142 0.27365069486856131 0 0.38051111834588769 0.27591356521434068 0 0.37683247115226481 0.2845180330936678 0 0.36183762772090172 0.26742753723678903 0 0.36720713552841849 0.26750750586540728 0 0.35899891846876142 0.27365069486856131 0 0.36183762772090172 0.26742753723678903 0 0.36720713552841849 0.26750750586540728 0 0.36425956062898701 0.26269125819969902 0 0.36720713552841849 0.26750750586540728 0 0.37226466093687499 0.26549479397987391 0 0.36923808193834701 0.26390242165790312 0 0.37226466093687499 0.26549479397987391 0 0.37429926686591097 0.26285014803493573 0 0.37677440415832958 0.26458204815120479 0 0.37226466093687499 0.26549479397987391 0 0.3714343708618833 0.26209966012453317 0 0.37429926686591097 0.26285014803493573 0 0.3714343708618833 0.26209966012453317 0 0.37429926686591097 0.26285014803493573 0 0.37419881720766079 0.26041076486404341 0 0.3714343708618833 0.26209966012453317 0 0.37419881720766079 0.26041076486404341 0 0.36948686267009861 0.25851372971543912 0 0.3714343708618833 0.26209966012453317 0 0.36948686267009861 0.25851372971543912 0 0.36863033910146481 0.26079973239372939 0 0.36948686267009861 0.25851372971543912 0 0.36863033910146481 0.26079973239372939 0 0.3670291076315797 0.25774021581778528 0 0.36863033910146481 0.26079973239372939 0 0.36923808193834701 0.26390242165790312 0 0.36425956062898701 0.26269125819969902 0 0.37226466093687499 0.26549479397987391 0 0.3714343708618833 0.26209966012453317 0 0.36923808193834701 0.26390242165790312 0 0.3714343708618833 0.26209966012453317 0 0.36863033910146481 0.26079973239372939 0 0.36923808193834701 0.26390242165790312 0 0.37419881720766079 0.26041076486404341 0 0.36566976062550771 0.2514334186846684 0 0.378237879498459 0.26110535008175689 0 0.37419881720766079 0.26041076486404341 0 0.36948686267009861 0.25851372971543912 0 0.36566976062550771 0.2514334186846684 0 0.36948686267009861 0.25851372971543912 0 0.36566976062550771 0.2514334186846684 0 0.3670291076315797 0.25774021581778528 0 0.36566976062550771 0.2514334186846684 0 0.36084714641992832 0.25935353682685058 0 0.36566976062550771 0.2514334186846684 0 0.36341618278067811 0.2579816318534689 0 0.36084714641992832 0.25935353682685058 0 0.36566976062550771 0.2514334186846684 0 0.3670291076315797 0.25774021581778528 0 0.36341618278067811 0.2579816318534689 0 0.36720713552841849 0.26750750586540728 0 0.36923808193834701 0.26390242165790312 0 0.36425956062898701 0.26269125819969902 0 0.36425956062898701 0.26269125819969902 0 0.36583379753567741 0.25980320956617059 0 0.36341618278067811 0.2579816318534689 0 0.36863033910146481 0.26079973239372939 0 0.36425956062898701 0.26269125819969902 0 0.36583379753567741 0.25980320956617059 0 0.36863033910146481 0.26079973239372939 0 0.3670291076315797 0.25774021581778528 0 0.36583379753567741 0.25980320956617059 0 0.3670291076315797 0.25774021581778528 0 0.36583379753567741 0.25980320956617059 0 0.36341618278067811 0.2579816318534689 0 0.36425956062898701 0.26269125819969902 0 0.36341618278067811 0.2579816318534689 0 0.36084714641992832 0.25935353682685058 0 0.36341618278067811 0.2579816318534689 0 0.36084714641992832 0.25935353682685058 0 0.36183762772090172 0.26742753723678903 0 0.36425956062898701 0.26269125819969902 0 0.35688489625744207 0.26586069001348989 0 0.36425956062898701 0.26269125819969902 0 0.36084714641992832 0.25935353682685058 0 0.35688489625744207 0.26586069001348989 0 0.35584405321777313 0.26202526563194062 0 0.35042462279544723 0.24205509262445721 0 0.36084714641992832 0.25935353682685058 0 0.35584405321777313 0.26202526563194062 0 0.35688489625744207 0.26586069001348989 0 0.34146053174196062 0.25520817275505892 0 0.35584405321777313 0.26202526563194062 0 0.35042462279544723 0.24205509262445721 0 0.34146053174196062 0.25520817275505892 0 0.33481635276755523 0.27325438144640662 0 0.35584405321777313 0.26202526563194062 0 0.36084714641992832 0.25935353682685058 0 0.35688489625744207 0.26586069001348989 0 0.36084714641992832 0.25935353682685058 0 0.35584405321777313 0.26202526563194062 0 0.35042462279544723 0.24205509262445721 0 0.36566976062550771 0.2514334186846684 0 0.36084714641992832 0.25935353682685058 0 0.35042462279544723 0.24205509262445721 0 0.35584405321777313 0.26202526563194062 0 0.35688489625744207 0.26586069001348989 0 0.36084714641992832 0.25935353682685058 0 0.35584405321777313 0.26202526563194062 0 0.35259245860265592 0.29151621771978908 0 0.35072552767360038 0.27597614291634881 0 0.35899891846876142 0.27365069486856131 0 0.33481635276755523 0.27325438144640662 0 0.35584405321777313 0.26202526563194062 0 0.35072552767360038 0.27597614291634881 0 0.33481635276755523 0.27325438144640662 0 0.35584405321777313 0.26202526563194062 0 0.35072552767360038 0.27597614291634881 0 0.35899891846876142 0.27365069486856131 0 0.35072552767360038 0.27597614291634881 0 0.35688489625744207 0.26586069001348989 0 0.35072552767360038 0.27597614291634881 0 0.35899891846876142 0.27365069486856131 0 0.35688489625744207 0.26586069001348989 0 0.35899891846876142 0.27365069486856131 0 0.35688489625744207 0.26586069001348989 0 0.35584405321777313 0.26202526563194062 0 0.35072552767360038 0.27597614291634881 0 0.35688489625744207 0.26586069001348989 0 0.36183762772090172 0.26742753723678903 0 0.35899891846876142 0.27365069486856131 0 0.35688489625744207 0.26586069001348989 0 0.39058331214230813 0.27264365199997947 0 0.39078932277773509 0.28251183704605232 0 0.40679200475885691 0.2767305211516401 0 0.38623088269218231 0.26408196991815419 0 0.39058331214230813 0.27264365199997947 0 0.40679200475885691 0.2767305211516401 0 0.40032253422749842 0.26421104613444119 0 0.38623088269218231 0.26408196991815419 0 0.40679200475885691 0.2767305211516401 0 0.38623088269218231 0.26408196991815419 0 0.40679200475885691 0.2767305211516401 0 0.40032253422749842 0.26421104613444119 0 0.39977963730110577 0.25154022270667931 0 0.41519011662213018 0.25621305437172082 0 0.39977963730110577 0.25154022270667931 0 0.3940759733667869 0.25855859638579981 0 0.38997083924636128 0.2544011467839245 0 0.40032253422749842 0.26421104613444119 0 0.3940759733667869 0.25855859638579981 0 0.38623088269218231 0.26408196991815419 0 0.40032253422749842 0.26421104613444119 0 0.39977963730110577 0.25154022270667931 0 0.3940759733667869 0.25855859638579981 0 0.36566976062550771 0.2514334186846684 0 0.38623088269218231 0.26408196991815419 0 0.378237879498459 0.26110535008175689 0 0.36566976062550771 0.2514334186846684 0 0.38623088269218231 0.26408196991815419 0 0.38059922333817042 0.25455401822115192 0 0.36566976062550771 0.2514334186846684 0 0.38623088269218231 0.26408196991815419 0 0.3940759733667869 0.25855859638579981 0 0.38623088269218231 0.26408196991815419 0 0.38997083924636128 0.2544011467839245 0 0.38623088269218231 0.26408196991815419 0 0.38207521107849129 0.26384033058657419 0 0.38535156718836922 0.2662436090634428 0 0.38623088269218231 0.26408196991815419 0 0.38997083924636128 0.2544011467839245 0 0.38059922333817042 0.25455401822115192 0 0.38997083924636128 0.2544011467839245 0 0.38059922333817042 0.25455401822115192 0 0.38052541078862723 0.24829953749785871 0 0.36566976062550771 0.2514334186846684 0 0.38059922333817042 0.25455401822115192 0 0.38052541078862723 0.24829953749785871 0 0.37226466093687499 0.26549479397987391 0 0.37677440415832958 0.26458204815120479 0 0.38535156718836922 0.2662436090634428 0 0.38623088269218231 0.26408196991815419 0 0.38207521107849129 0.26384033058657419 0 0.378237879498459 0.26110535008175689 0 0.3794605961369093 0.26361365678626969 0 0.37677440415832958 0.26458204815120479 0 0.38535156718836922 0.2662436090634428 0 0.3794605961369093 0.26361365678626969 0 0.38207521107849129 0.26384033058657419 0 0.38535156718836922 0.2662436090634428 0 0.3794605961369093 0.26361365678626969 0 0.38207521107849129 0.26384033058657419 0 0.378237879498459 0.26110535008175689 0 0.37429926686591097 0.26285014803493573 0 0.37419881720766079 0.26041076486404341 0 0.378237879498459 0.26110535008175689 0 0.37429926686591097 0.26285014803493573 0 0.378237879498459 0.26110535008175689 0 0.37677440415832958 0.26458204815120479 0 0.3794605961369093 0.26361365678626969 0 0.378237879498459 0.26110535008175689 0 0.37677440415832958 0.26458204815120479 0 0.38535156718836922 0.2662436090634428 0 0.39058331214230813 0.27264365199997947 0 0.38051111834588769 0.27591356521434068 0 0.38623088269218231 0.26408196991815419 0 0.38535156718836922 0.2662436090634428 0 0.39058331214230813 0.27264365199997947 0 0.39058331214230813 0.27264365199997947 0 0.38051111834588769 0.27591356521434068 0 0.39078932277773509 0.28251183704605232 0 0.38051111834588769 0.27591356521434068 0 0.37683247115226481 0.2845180330936678 0 0.39078932277773509 0.28251183704605232 0 0.36581504419548122 0.29876757974313561 0 0.37683247115226481 0.2845180330936678 0 0.38500679122999049 0.2952956460395787 0 0.37683247115226481 0.2845180330936678 0 0.38500679122999049 0.2952956460395787 0 0.39078932277773509 0.28251183704605232 0 0.36581504419548122 0.29876757974313561 0 0.38500679122999049 0.2952956460395787 0 0.38216381873773081 0.30982874819705242 0 0.38500679122999049 0.2952956460395787 0 0.38216381873773081 0.30982874819705242 0 0.39543159761595259 0.30665387383792558 0 0.38500679122999049 0.2952956460395787 0 0.39543159761595259 0.30665387383792558 0 0.40266687436949061 0.29186731851635711 0 0.39543159761595259 0.30665387383792558 0 0.40266687436949061 0.29186731851635711 0 0.41950116564597129 0.31693752417159771 0 0.38500679122999049 0.2952956460395787 0 0.40266687436949061 0.29186731851635711 0 0.39078932277773509 0.28251183704605232 0 0.40266687436949061 0.29186731851635711 0 0.39078932277773509 0.28251183704605232 0 0.40679200475885691 0.2767305211516401 0 0.40266687436949061 0.29186731851635711 0 0.41882126218047422 0.29147624400308969 0 0.40679200475885691 0.2767305211516401 0 0.40266687436949061 0.29186731851635711 0 0.41882126218047422 0.29147624400308969 0 0.41950116564597129 0.31693752417159771 0 0.41882126218047422 0.29147624400308969 0 0.43316524293980979 0.30475282774090923 0 0.41950116564597129 0.31693752417159771 0 0.41882126218047422 0.29147624400308969 0 0.43764875802522879 0.27104813869731093 0 0.41882126218047422 0.29147624400308969 0 0.43764875802522879 0.27104813869731093 0 0.43794632740365752 0.28976657297877562 0 0.41882126218047422 0.29147624400308969 0 0.43316524293980979 0.30475282774090923 0 0.43794632740365752 0.28976657297877562 0 0.40032253422749842 0.26421104613444119 0 0.40679200475885691 0.2767305211516401 0 0.41519011662213018 0.25621305437172082 0 0.40679200475885691 0.2767305211516401 0 0.41519011662213018 0.25621305437172082 0 0.43764875802522879 0.27104813869731093 0 0.41882126218047422 0.29147624400308969 0 0.40679200475885691 0.2767305211516401 0 0.43764875802522879 0.27104813869731093 0 0.41519011662213018 0.25621305437172082 0 0.43764875802522879 0.27104813869731093 0 0.43185737368061472 0.2416123191336198 0 0.43764875802522879 0.27104813869731093 0 0.45647625386998181 0.25062003339153083 0 0.43185737368061472 0.2416123191336198 0 0.43764875802522879 0.27104813869731093 0 0.45647625386998181 0.25062003339153083 0 0.43764875802522879 0.27104813869731093 0 0.45647625386998181 0.25062003339153083 0 0.45773583252766092 0.26464653132343807 0 0.43764875802522879 0.27104813869731093 0 0.45773583252766092 0.26464653132343807 0 0.45820283107645032 0.2813141420685536 0 0.43764875802522879 0.27104813869731093 0 0.45820283107645032 0.2813141420685536 0 0.43794632740365752 0.28976657297877562 0 0.45773583252766092 0.26464653132343807 0 0.46986026294836941 0.27129466228617072 0 0.45820283107645032 0.2813141420685536 0 0.45773583252766092 0.26464653132343807 0 0.4676162735583666 0.25469601545930087 0 0.46986026294836941 0.27129466228617072 0 0.45647625386998181 0.25062003339153083 0 0.45773583252766092 0.26464653132343807 0 0.4676162735583666 0.25469601545930087 0 0.45647625386998181 0.25062003339153083 0 0.4676162735583666 0.25469601545930087 0 0.47944782654762041 0.26345887554496922 0 0.46625783612658889 0.2400068751657814 0 0.47588751982959471 0.24844019444835849 0 0.4676162735583666 0.25469601545930087 0 0.47944782654762041 0.26345887554496922 0 0.46625783612658889 0.2400068751657814 0 0.47944782654762041 0.26345887554496922 0 0.46625783612658889 0.2400068751657814 0 0.4676162735583666 0.25469601545930087 0 0.47944782654762041 0.26345887554496922 0 0.46986026294836941 0.27129466228617072 0 0.47944782654762041 0.26345887554496922 0 0.47588751982959471 0.24844019444835849 0 0.47944782654762041 0.26345887554496922 0 0.46986026294836941 0.27129466228617072 0 0.48629855103174852 0.29235774703459189 0 0.47944782654762041 0.26345887554496922 0 0.48629855103174852 0.29235774703459189 0 0.47944782654762041 0.26345887554496922 0 0.48967801122677401 0.26973044615813868 0 0.48972391327381037 0.28172991154321442 0 0.47944782654762041 0.26345887554496922 0 0.48972391327381037 0.28172991154321442 0 0.47944782654762041 0.26345887554496922 0 0.48629855103174852 0.29235774703459189 0 0.48972391327381037 0.28172991154321442 0 0.48967801122677401 0.26973044615813868 0 0.5 0.27584974548820551 0 0.5 0.25169854343495118 0 0.48967801122677401 0.26973044615813868 0 0.5 0.27584974548820551 0 0.48972391327381037 0.28172991154321442 0 0.47944782654762041 0.26345887554496922 0 0.5 0.25169854343495118 0 0.47588751982959471 0.24844019444835849 0 0.47944782654762041 0.26345887554496922 0 0.48967801122677401 0.26973044615813868 0 0.5 0.25169854343495118 0 0.50000000000000022 0.30000094754145978 0 0.48629855103174852 0.29235774703459189 0 0.49314927551587662 0.32125661852421472 0 0.48629855103174852 0.29235774703459189 0 0.49314927551587662 0.32125661852421472 0 0.48629855103174852 0.29235774703459189 0 0.47860521627971969 0.30944552366175199 0 0.49314927551587662 0.32125661852421472 0 0.50000000000000022 0.30000094754145978 0 0.48629855103174852 0.29235774703459189 0 0.48972391327381037 0.28172991154321442 0 0.50000000000000022 0.30000094754145978 0 0.48972391327381037 0.28172991154321442 0 0.5 0.27584974548820551 0 0.50000000000000022 0.30000094754145978 0 0.48972391327381037 0.28172991154321442 0 0.48629855103174852 0.29235774703459189 0 0.46674309854425577 0.29881208971504858 0 0.45820283107645032 0.2813141420685536 0 0.46986026294836941 0.27129466228617072 0 0.48629855103174852 0.29235774703459189 0 0.45820283107645032 0.2813141420685536 0 0.47860521627971969 0.30944552366175199 0 0.46674309854425577 0.29881208971504858 0 0.46789609903754181 0.32457934398553617 0 0.48629855103174852 0.29235774703459189 0 0.47860521627971969 0.30944552366175199 0 0.46674309854425577 0.29881208971504858 0 0.46674309854425577 0.29881208971504858 0 0.44842819224258251 0.30302438773828139 0 0.46789609903754181 0.32457934398553617 0 0.46674309854425577 0.29881208971504858 0 0.45820283107645032 0.2813141420685536 0 0.44842819224258251 0.30302438773828139 0 0.45820283107645032 0.2813141420685536 0 0.43794632740365752 0.28976657297877562 0 0.44842819224258251 0.30302438773828139 0 0.43316524293980979 0.30475282774090923 0 0.44842819224258251 0.30302438773828139 0 0.44112926722636309 0.32255940981280168 0 0.43316524293980979 0.30475282774090923 0 0.43794632740365752 0.28976657297877562 0 0.44842819224258251 0.30302438773828139 0 0.44842819224258251 0.30302438773828139 0 0.44112926722636309 0.32255940981280168 0 0.46789609903754181 0.32457934398553617 0 0.44112926722636309 0.32255940981280168 0 0.45133610156717452 0.34091609010799279 0 0.42850645347912419 0.34142527593276051 0 0.45133610156717452 0.34091609010799279 0 0.46789609903754181 0.32457934398553617 0 0.47134059114710469 0.34883549130695801 0 0.44112926722636309 0.32255940981280168 0 0.45133610156717452 0.34091609010799279 0 0.46789609903754181 0.32457934398553617 0 0.47860521627971969 0.30944552366175199 0 0.46789609903754181 0.32457934398553617 0 0.49314927551587662 0.32125661852421472 0 0.46789609903754181 0.32457934398553617 0 0.47134059114710469 0.34883549130695801 0 0.46789609903754181 0.32457934398553617 0 0.48421040208600052 0.3394291527551383 0 0.47134059114710469 0.34883549130695801 0 0.46789609903754181 0.32457934398553617 0 0.48421040208600052 0.3394291527551383 0 0.49314927551587662 0.32125661852421472 0 0.49314927551587662 0.32125661852421472 0 0.50000000000000244 0.35015549001383822 0 0.49314927551587662 0.32125661852421472 0 0.5 0.32507821877764898 0 0.50000000000000244 0.35015549001383822 0 0.48421040208600052 0.3394291527551383 0 0.49314927551587662 0.32125661852421472 0 0.50000000000000244 0.35015549001383822 0 0.50000000000000022 0.30000094754145978 0 0.49314927551587662 0.32125661852421472 0 0.5 0.32507821877764898 0 0.4873925416283334 0.36378689425243232 0 0.49999999999999872 0.35448214987648519 0 0.48329989995126699 0.39837933610419313 0 0.48421040208600052 0.3394291527551383 0 0.50000000000000244 0.35015549001383822 0 0.48866604472947422 0.35231881994514491 0 0.4873925416283334 0.36378689425243232 0 0.49999999999999872 0.35448214987648519 0 0.49999999999999872 0.35448214987648519 0 0.50000000000000244 0.35015549001383822 0 0.48866604472947422 0.35231881994514491 0 0.4873925416283334 0.36378689425243232 0 0.49999999999999872 0.35448214987648519 0 0.48866604472947422 0.35231881994514491 0 0.48421040208600052 0.3394291527551383 0 0.48866604472947422 0.35231881994514491 0 0.47134059114710469 0.34883549130695801 0 0.4873925416283334 0.36378689425243232 0 0.48866604472947422 0.35231881994514491 0 0.47134059114710469 0.34883549130695801 0 0.4873925416283334 0.36378689425243232 0 0.47134059114710469 0.34883549130695801 0 0.47478508325666841 0.3730916386283798 0 0.47134059114710469 0.34883549130695801 0 0.47478508325666841 0.3730916386283798 0 0.46062303730871967 0.3634742404081906 0 0.47134059114710469 0.34883549130695801 0 0.47478508325666841 0.3730916386283798 0 0.4873925416283334 0.36378689425243232 0 0.47478508325666841 0.3730916386283798 0 0.47478508325666841 0.3730916386283798 0 0.46174774604534508 0.37341013926215799 0 0.46062303730871967 0.3634742404081906 0 0.46062303730871967 0.3634742404081906 0 0.455397413667889 0.35342735123088509 0 0.44889493058259711 0.36177559373030682 0 0.46174774604534508 0.37341013926215799 0 0.46062303730871967 0.3634742404081906 0 0.44846554267145877 0.37137529375782269 0 0.45133610156717452 0.34091609010799279 0 0.47134059114710469 0.34883549130695801 0 0.455397413667889 0.35342735123088509 0 0.47134059114710469 0.34883549130695801 0 0.46062303730871967 0.3634742404081906 0 0.455397413667889 0.35342735123088509 0 0.45133610156717452 0.34091609010799279 0 0.44479240773384882 0.35213534060097729 0 0.42850645347912419 0.34142527593276051 0 0.44479240773384882 0.35213534060097729 0 0.43938671575492272 0.36316572515838719 0 0.42850645347912419 0.34142527593276051 0 0.45133610156717452 0.34091609010799279 0 0.455397413667889 0.35342735123088509 0 0.44479240773384882 0.35213534060097729 0 0.455397413667889 0.35342735123088509 0 0.44479240773384882 0.35213534060097729 0 0.44889493058259711 0.36177559373030682 0 0.44479240773384882 0.35213534060097729 0 0.44889493058259711 0.36177559373030682 0 0.43938671575492272 0.36316572515838719 0 0.44846554267145877 0.37137529375782269 0 0.4375117413122771 0.36591302769392331 0 0.45002218240245312 0.38159062827488383 0 0.44846554267145877 0.37137529375782269 0 0.44889493058259711 0.36177559373030682 0 0.44429582222121328 0.36609171505485932 0 0.46062303730871967 0.3634742404081906 0 0.44846554267145877 0.37137529375782269 0 0.44889493058259711 0.36177559373030682 0 0.44889493058259711 0.36177559373030682 0 0.44429582222121328 0.36609171505485932 0 0.43938671575492272 0.36316572515838719 0 0.44429582222121328 0.36609171505485932 0 0.43938671575492272 0.36316572515838719 0 0.4375117413122771 0.36591302769392331 0 0.43938671575492272 0.36316572515838719 0 0.4375117413122771 0.36591302769392331 0 0.44846554267145877 0.37137529375782269 0 0.44429582222121328 0.36609171505485932 0 0.4375117413122771 0.36591302769392331 0 0.4375117413122771 0.36591302769392331 0 0.41837995635420899 0.36910746274939782 0 0.4203446215856787 0.35526895673800452 0 0.4375117413122771 0.36591302769392331 0 0.41837995635420899 0.36910746274939782 0 0.42317589302115888 0.38691860060385369 0 0.41837995635420899 0.36910746274939782 0 0.40912193217335169 0.35952842139229391 0 0.4203446215856787 0.35526895673800452 0 0.41837995635420899 0.36910746274939782 0 0.40912193217335169 0.35952842139229391 0 0.40537786528165393 0.3710647899421961 0 0.41837995635420899 0.36910746274939782 0 0.40537786528165393 0.3710647899421961 0 0.41344087987728029 0.37793687115887192 0 0.4203446215856787 0.35526895673800452 0 0.42850645347912419 0.34142527593276051 0 0.40609027824811711 0.34332061436161848 0 0.40912193217335169 0.35952842139229391 0 0.4203446215856787 0.35526895673800452 0 0.40609027824811711 0.34332061436161848 0 0.43938671575492272 0.36316572515838719 0 0.4375117413122771 0.36591302769392331 0 0.42850645347912419 0.34142527593276051 0 0.4375117413122771 0.36591302769392331 0 0.4203446215856787 0.35526895673800452 0 0.42850645347912419 0.34142527593276051 0 0.4375117413122771 0.36591302769392331 0 0.42850645347912419 0.34142527593276051 0 0.42850645347912419 0.34142527593276051 0 0.41950116564597129 0.31693752417159771 0 0.44112926722636309 0.32255940981280168 0 0.42850645347912419 0.34142527593276051 0 0.41950116564597129 0.31693752417159771 0 0.43316524293980979 0.30475282774090923 0 0.44112926722636309 0.32255940981280168 0 0.41950116564597129 0.31693752417159771 0 0.42850645347912419 0.34142527593276051 0 0.41950116564597129 0.31693752417159771 0 0.40609027824811711 0.34332061436161848 0 0.40609027824811711 0.34332061436161848 0 0.39193449072502978 0.32454217674691188 0 0.37944729564891883 0.34900134949228478 0 0.41950116564597129 0.31693752417159771 0 0.40609027824811711 0.34332061436161848 0 0.39193449072502978 0.32454217674691188 0 0.39543159761595259 0.30665387383792558 0 0.41950116564597129 0.31693752417159771 0 0.39193449072502978 0.32454217674691188 0 0.38216381873773081 0.30982874819705242 0 0.39543159761595259 0.30665387383792558 0 0.39193449072502978 0.32454217674691188 0 0.37263116992220002 0.32388446461771031 0 0.38216381873773081 0.30982874819705242 0 0.39193449072502978 0.32454217674691188 0 0.37263116992220002 0.32388446461771031 0 0.39193449072502978 0.32454217674691188 0 0.37944729564891883 0.34900134949228478 0 0.37263116992220002 0.32388446461771031 0 0.37944729564891883 0.34900134949228478 0 0.37944729564891883 0.34900134949228478 0 0.37799249470829072 0.36861859632590072 0 0.3943605662164425 0.360355292390238 0 0.37799249470829072 0.36861859632590072 0 0.3943605662164425 0.360355292390238 0 0.3948678197407765 0.37662308390187482 0 0.3943605662164425 0.360355292390238 0 0.40537786528165393 0.3710647899421961 0 0.3948678197407765 0.37662308390187482 0 0.40912193217335169 0.35952842139229391 0 0.3943605662164425 0.360355292390238 0 0.40537786528165393 0.3710647899421961 0 0.40912193217335169 0.35952842139229391 0 0.40609027824811711 0.34332061436161848 0 0.3943605662164425 0.360355292390238 0 0.40609027824811711 0.34332061436161848 0 0.37944729564891883 0.34900134949228478 0 0.3943605662164425 0.360355292390238 0 0.3993807476287155 0.39369427981082827 0 0.3837220384954238 0.40091726845114661 0 0.40655925237255058 0.41126609993381769 0 0.3837220384954238 0.40091726845114661 0 0.40655925237255058 0.41126609993381769 0 0.3993807476287155 0.39369427981082827 0 0.40212781044312662 0.38966915154046222 0 0.41377686313804141 0.40069051025881558 0 0.40212781044312662 0.38966915154046222 0 0.38498463211938949 0.38669804936284108 0 0.40212781044312662 0.38966915154046222 0 0.3948678197407765 0.37662308390187482 0 0.38498463211938949 0.38669804936284108 0 0.40212781044312662 0.38966915154046222 0 0.40436354967575577 0.3833326238496107 0 0.3948678197407765 0.37662308390187482 0 0.3993807476287155 0.39369427981082827 0 0.40212781044312662 0.38966915154046222 0 0.38498463211938949 0.38669804936284108 0 0.40537786528165393 0.3710647899421961 0 0.40436354967575577 0.3833326238496107 0 0.3948678197407765 0.37662308390187482 0 0.3993807476287155 0.39369427981082827 0 0.38498463211938949 0.38669804936284108 0 0.37799249470829072 0.36861859632590072 0 0.3948678197407765 0.37662308390187482 0 0.38498463211938949 0.38669804936284108 0 0.36088482461829607 0.39056843696847748 0 0.38498463211938949 0.38669804936284108 0 0.3837220384954238 0.40091726845114661 0 0.3993807476287155 0.39369427981082827 0 0.38498463211938949 0.38669804936284108 0 0.3837220384954238 0.40091726845114661 0 0.37337211939326398 0.4171775521054909 0 0.3837220384954238 0.40091726845114661 0 0.38471897667988331 0.4185633719181765 0 0.37030578461259972 0.42739262123679572 0 0.37337211939326398 0.4171775521054909 0 0.38471897667988331 0.4185633719181765 0 0.36635722497217932 0.42831849228643498 0 0.38963568852557739 0.43606331786363273 0 0.37030578461259972 0.42739262123679572 0 0.38471897667988331 0.4185633719181765 0 0.38963568852557739 0.43606331786363273 0 0.36635722497217932 0.42831849228643498 0 0.37030578461259972 0.42739262123679572 0 0.38963568852557739 0.43606331786363273 0 0.38963568852557739 0.43606331786363273 0 0.40655925237255058 0.41126609993381769 0 0.41093693937608639 0.42903470451347298 0 0.38963568852557739 0.43606331786363273 0 0.40655925237255058 0.41126609993381769 0 0.38471897667988331 0.4185633719181765 0 0.38963568852557739 0.43606331786363273 0 0.40655925237255058 0.41126609993381769 0 0.38963568852557739 0.43606331786363273 0 0.41093693937608639 0.42903470451347298 0 0.40954224387570981 0.44268629788445268 0 0.3837220384954238 0.40091726845114661 0 0.38471897667988331 0.4185633719181765 0 0.40655925237255058 0.41126609993381769 0 0.40655925237255058 0.41126609993381769 0 0.42151181238115848 0.41804194941336198 0 0.41093693937608639 0.42903470451347298 0 0.40655925237255058 0.41126609993381769 0 0.42151181238115848 0.41804194941336198 0 0.41660593264002183 0.40206538268022701 0 0.42151181238115848 0.41804194941336198 0 0.42313883513062622 0.40650778892426659 0 0.41660593264002183 0.40206538268022701 0 0.40655925237255058 0.41126609993381769 0 0.42151181238115848 0.41804194941336198 0 0.41093693937608639 0.42903470451347298 0 0.42743569972543127 0.43711585747209702 0 0.40954224387570981 0.44268629788445268 0 0.42151181238115848 0.41804194941336198 0 0.41093693937608639 0.42903470451347298 0 0.42743569972543127 0.43711585747209702 0 0.42151181238115848 0.41804194941336198 0 0.42743569972543127 0.43711585747209702 0 0.43328424229425699 0.42460006036507991 0 0.42743569972543127 0.43711585747209702 0 0.43328424229425699 0.42460006036507991 0 0.44722149455619059 0.44190248576700331 0 0.42151181238115848 0.41804194941336198 0 0.4280479584789586 0.410367587227353 0 0.42313883513062622 0.40650778892426659 0 0.4280479584789586 0.410367587227353 0 0.42313883513062622 0.40650778892426659 0 0.42692599622702881 0.40384075917040191 0 0.4280479584789586 0.410367587227353 0 0.43048359293171462 0.40539103453432063 0 0.42692599622702881 0.40384075917040191 0 0.42151181238115848 0.41804194941336198 0 0.43328424229425699 0.42460006036507991 0 0.4280479584789586 0.410367587227353 0 0.43328424229425699 0.42460006036507991 0 0.4280479584789586 0.410367587227353 0 0.43713255049278171 0.41235125750522772 0 0.4280479584789586 0.410367587227353 0 0.43713255049278171 0.41235125750522772 0 0.43048359293171462 0.40539103453432063 0 0.43713255049278171 0.41235125750522772 0 0.43571763520143608 0.40422110828197338 0 0.43048359293171462 0.40539103453432063 0 0.41927098876686381 0.39264025371808298 0 0.42317589302115888 0.38691860060385369 0 0.4427776762244493 0.39671422232384412 0 0.41927098876686381 0.39264025371808298 0 0.4427776762244493 0.39671422232384412 0 0.43402511832414042 0.399285719882706 0 0.41927098876686381 0.39264025371808298 0 0.4427776762244493 0.39671422232384412 0 0.43571763520143608 0.40422110828197338 0 0.43402511832414042 0.399285719882706 0 0.43111353032958571 0.40230990756061058 0 0.43571763520143608 0.40422110828197338 0 0.43402511832414042 0.399285719882706 0 0.43881804660969692 0.40180417037510441 0 0.43402511832414042 0.399285719882706 0 0.43111353032958571 0.40230990756061058 0 0.42693559346461579 0.39921915716883938 0 0.43571763520143608 0.40422110828197338 0 0.43111353032958571 0.40230990756061058 0 0.43048359293171462 0.40539103453432063 0 0.42693559346461579 0.39921915716883938 0 0.42257546924583123 0.40085466833236372 0 0.41927098876686381 0.39264025371808298 0 0.43402511832414042 0.399285719882706 0 0.42693559346461579 0.39921915716883938 0 0.41927098876686381 0.39264025371808298 0 0.43111353032958571 0.40230990756061058 0 0.43048359293171462 0.40539103453432063 0 0.42692599622702881 0.40384075917040191 0 0.43111353032958571 0.40230990756061058 0 0.42692599622702881 0.40384075917040191 0 0.42693559346461579 0.39921915716883938 0 0.42692599622702881 0.40384075917040191 0 0.42693559346461579 0.39921915716883938 0 0.42257546924583123 0.40085466833236372 0 0.42313883513062622 0.40650778892426659 0 0.42692599622702881 0.40384075917040191 0 0.42257546924583123 0.40085466833236372 0 0.41660593264002183 0.40206538268022701 0 0.41927098876686381 0.39264025371808298 0 0.41377686313804141 0.40069051025881558 0 0.40212781044312662 0.38966915154046222 0 0.41927098876686381 0.39264025371808298 0 0.42313883513062622 0.40650778892426659 0 0.42257546924583123 0.40085466833236372 0 0.41660593264002183 0.40206538268022701 0 0.40212781044312662 0.38966915154046222 0 0.41927098876686381 0.39264025371808298 0 0.41377686313804141 0.40069051025881558 0 0.42257546924583123 0.40085466833236372 0 0.41660593264002183 0.40206538268022701 0 0.41927098876686381 0.39264025371808298 0 0.3993807476287155 0.39369427981082827 0 0.40655925237255058 0.41126609993381769 0 0.41377686313804141 0.40069051025881558 0 0.41660593264002183 0.40206538268022701 0 0.41377686313804141 0.40069051025881558 0 0.41927098876686381 0.39264025371808298 0 0.41377686313804141 0.40069051025881558 0 0.3993807476287155 0.39369427981082827 0 0.41377686313804141 0.40069051025881558 0 0.40655925237255058 0.41126609993381769 0 0.41377686313804141 0.40069051025881558 0 0.40655925237255058 0.41126609993381769 0 0.41660593264002183 0.40206538268022701 0 0.41377686313804141 0.40069051025881558 0 0.40436354967575577 0.3833326238496107 0 0.42317589302115888 0.38691860060385369 0 0.41837995635420899 0.36910746274939782 0 0.41344087987728029 0.37793687115887192 0 0.42317589302115888 0.38691860060385369 0 0.40436354967575577 0.3833326238496107 0 0.41344087987728029 0.37793687115887192 0 0.42317589302115888 0.38691860060385369 0 0.40436354967575577 0.3833326238496107 0 0.41927098876686381 0.39264025371808298 0 0.42317589302115888 0.38691860060385369 0 0.40212781044312662 0.38966915154046222 0 0.40436354967575577 0.3833326238496107 0 0.41927098876686381 0.39264025371808298 0 0.40537786528165393 0.3710647899421961 0 0.40436354967575577 0.3833326238496107 0 0.41344087987728029 0.37793687115887192 0 0.41927098876686381 0.39264025371808298 0 0.42317589302115888 0.38691860060385369 0 0.4375117413122771 0.36591302769392331 0 0.42317589302115888 0.38691860060385369 0 0.44689947449224648 0.39144074918049332 0 0.4375117413122771 0.36591302769392331 0 0.42317589302115888 0.38691860060385369 0 0.42317589302115888 0.38691860060385369 0 0.44689947449224648 0.39144074918049332 0 0.4375117413122771 0.36591302769392331 0 0.45002218240245312 0.38159062827488383 0 0.44689947449224648 0.39144074918049332 0 0.4375117413122771 0.36591302769392331 0 0.44689947449224648 0.39144074918049332 0 0.49999999999999872 0.35448214987648519 0 0.48329989995126699 0.39837933610419313 0 0.5 0.43513050581075341 0 0.45002218240245312 0.38159062827488383 0 0.44689947449224648 0.39144074918049332 0 0.44930235442648342 0.39189878204908452 0 0.42317589302115888 0.38691860060385369 0 0.4427776762244493 0.39671422232384412 0 0.44689947449224648 0.39144074918049332 0 0.44199311477120062 0.40438868045146609 0 0.4427776762244493 0.39671422232384412 0 0.44751671687556033 0.40691660955945808 0 0.43571763520143608 0.40422110828197338 0 0.44199311477120062 0.40438868045146609 0 0.43881804660969692 0.40180417037510441 0 0.43402511832414042 0.399285719882706 0 0.43881804660969692 0.40180417037510441 0 0.44076256135796321 0.39820144743838032 0 0.44199311477120062 0.40438868045146609 0 0.43881804660969692 0.40180417037510441 0 0.44076256135796321 0.39820144743838032 0 0.44199311477120062 0.40438868045146609 0 0.4427776762244493 0.39671422232384412 0 0.44076256135796321 0.39820144743838032 0 0.43402511832414042 0.399285719882706 0 0.4427776762244493 0.39671422232384412 0 0.44076256135796321 0.39820144743838032 0 0.4427776762244493 0.39671422232384412 0 0.44754490389590662 0.39319584188924628 0 0.4427776762244493 0.39671422232384412 0 0.44076256135796321 0.39820144743838032 0 0.4427776762244493 0.39671422232384412 0 0.44812735268699327 0.39477967370828138 0 0.45503171308298018 0.39883798227707551 0 0.4427776762244493 0.39671422232384412 0 0.45503171308298018 0.39883798227707551 0 0.4427776762244493 0.39671422232384412 0 0.44689947449224648 0.39144074918049332 0 0.44754490389590662 0.39319584188924628 0 0.44689947449224648 0.39144074918049332 0 0.44754490389590662 0.39319584188924628 0 0.44754490389590662 0.39319584188924628 0 0.44930235442648342 0.39189878204908452 0 0.44812735268699327 0.39477967370828138 0 0.44754490389590662 0.39319584188924628 0 0.44812735268699327 0.39477967370828138 0 0.44689947449224648 0.39144074918049332 0 0.44754490389590662 0.39319584188924628 0 0.44930235442648342 0.39189878204908452 0 0.44689947449224648 0.39144074918049332 0 0.44930235442648342 0.39189878204908452 0 0.44754490389590662 0.39319584188924628 0 0.44930235442648342 0.39189878204908452 0 0.44930235442648342 0.39189878204908452 0 0.44812735268699327 0.39477967370828138 0 0.45503171308298018 0.39883798227707551 0 0.4427776762244493 0.39671422232384412 0 0.44754490389590662 0.39319584188924628 0 0.44812735268699327 0.39477967370828138 0 0.4427776762244493 0.39671422232384412 0 0.45503171308298018 0.39883798227707551 0 0.44751671687556033 0.40691660955945808 0 0.44930235442648342 0.39189878204908452 0 0.47823907030494589 0.39741464940165189 0 0.44930235442648342 0.39189878204908452 0 0.46687494947481473 0.40203229109750621 0 0.47823907030494589 0.39741464940165189 0 0.44930235442648342 0.39189878204908452 0 0.45503171308298018 0.39883798227707551 0 0.46687494947481473 0.40203229109750621 0 0.45503171308298018 0.39883798227707551 0 0.46687494947481473 0.40203229109750621 0 0.45710600473461649 0.40768064790070557 0 0.45503171308298018 0.39883798227707551 0 0.45710600473461649 0.40768064790070557 0 0.44751671687556033 0.40691660955945808 0 0.44930235442648342 0.39189878204908452 0 0.46204371884157608 0.38249521033873252 0 0.47823907030494589 0.39741464940165189 0 0.46174774604534508 0.37341013926215799 0 0.45002218240245312 0.38159062827488383 0 0.46204371884157608 0.38249521033873252 0 0.46174774604534508 0.37341013926215799 0 0.44846554267145877 0.37137529375782269 0 0.45002218240245312 0.38159062827488383 0 0.44930235442648342 0.39189878204908452 0 0.46204371884157608 0.38249521033873252 0 0.45002218240245312 0.38159062827488383 0 0.44930235442648342 0.39189878204908452 0 0.46204371884157608 0.38249521033873252 0 0.47478508325666841 0.3730916386283798 0 0.46174774604534508 0.37341013926215799 0 0.46204371884157608 0.38249521033873252 0 0.47478508325666841 0.3730916386283798 0 0.46204371884157608 0.38249521033873252 0 0.47478508325666841 0.3730916386283798 0 0.46204371884157608 0.38249521033873252 0 0.47823907030494589 0.39741464940165189 0 0.4873925416283334 0.36378689425243232 0 0.47478508325666841 0.3730916386283798 0 0.48329989995126699 0.39837933610419313 0 0.47478508325666841 0.3730916386283798 0 0.47823907030494589 0.39741464940165189 0 0.47478508325666841 0.3730916386283798 0 0.47823907030494589 0.39741464940165189 0 0.48329989995126699 0.39837933610419313 0 0.47823907030494589 0.39741464940165189 0 0.48067587274046092 0.41457463612507173 0 0.46687494947481473 0.40203229109750621 0 0.47823907030494589 0.39741464940165189 0 0.48067587274046092 0.41457463612507173 0 0.47823907030494589 0.39741464940165189 0 0.48329989995126699 0.39837933610419313 0 0.48067587274046092 0.41457463612507173 0 0.47823907030494589 0.39741464940165189 0 0.48329989995126699 0.39837933610419313 0 0.48329989995126699 0.39837933610419313 0 0.5 0.43513050581075341 0 0.48067587274046092 0.41457463612507173 0 0.5 0.43513050581075341 0 0.48067587274046092 0.41457463612507173 0 0.48311267517597473 0.43173462284849151 0 0.46687494947481473 0.40203229109750621 0 0.48067587274046092 0.41457463612507173 0 0.46435836632650651 0.41502083534475592 0 0.48067587274046092 0.41457463612507173 0 0.47285232339405631 0.42322624635643508 0 0.46435836632650651 0.41502083534475592 0 0.48067587274046092 0.41457463612507173 0 0.48311267517597473 0.43173462284849151 0 0.47285232339405631 0.42322624635643508 0 0.48311267517597473 0.43173462284849151 0 0.46326237933328279 0.43157489110742131 0 0.48067587274046092 0.41457463612507173 0 0.47285232339405631 0.42322624635643508 0 0.48311267517597473 0.43173462284849151 0 0.47285232339405631 0.42322624635643508 0 0.46326237933328279 0.43157489110742131 0 0.46435836632650651 0.41502083534475592 0 0.46326237933328279 0.43157489110742131 0 0.45266347905046411 0.41648451906105072 0 0.44660485654003762 0.42536287294873548 0 0.46326237933328279 0.43157489110742131 0 0.46435836632650651 0.41502083534475592 0 0.45266347905046411 0.41648451906105072 0 0.46687494947481473 0.40203229109750621 0 0.46435836632650651 0.41502083534475592 0 0.45710600473461649 0.40768064790070557 0 0.46435836632650651 0.41502083534475592 0 0.45710600473461649 0.40768064790070557 0 0.45266347905046411 0.41648451906105072 0 0.45710600473461649 0.40768064790070557 0 0.44751671687556033 0.40691660955945808 0 0.45266347905046411 0.41648451906105072 0 0.43713255049278171 0.41235125750522772 0 0.44751671687556033 0.40691660955945808 0 0.45266347905046411 0.41648451906105072 0 0.43713255049278171 0.41235125750522772 0 0.45266347905046411 0.41648451906105072 0 0.44660485654003762 0.42536287294873548 0 0.43328424229425699 0.42460006036507991 0 0.43713255049278171 0.41235125750522772 0 0.44660485654003762 0.42536287294873548 0 0.43713255049278171 0.41235125750522772 0 0.43571763520143608 0.40422110828197338 0 0.44199311477120062 0.40438868045146609 0 0.43713255049278171 0.41235125750522772 0 0.44199311477120062 0.40438868045146609 0 0.44751671687556033 0.40691660955945808 0 0.46326237933328279 0.43157489110742131 0 0.44660485654003762 0.42536287294873548 0 0.44722149455619059 0.44190248576700331 0 0.43328424229425699 0.42460006036507991 0 0.44660485654003762 0.42536287294873548 0 0.44722149455619059 0.44190248576700331 0 0.5 0.43513050581075341 0 0.47542590291461362 0.45660311654626629 0 0.5 0.5 0 0.5 0.5 0 0.45317868065322398 0.47257144722045569 0 0.41361828881124579 0.5 0 0.44722149455619059 0.44190248576700331 0 0.45317868065322398 0.47257144722045569 0 0.42527112959749891 0.46003073862491378 0 0.44722149455619059 0.44190248576700331 0 0.47542590291461362 0.45660311654626629 0 0.45317868065322398 0.47257144722045569 0 0.46326237933328279 0.43157489110742131 0 0.44722149455619059 0.44190248576700331 0 0.47542590291461362 0.45660311654626629 0 0.48311267517597473 0.43173462284849151 0 0.46326237933328279 0.43157489110742131 0 0.47542590291461362 0.45660311654626629 0 0.5 0.43513050581075341 0 0.48311267517597473 0.43173462284849151 0 0.47542590291461362 0.45660311654626629 0 0.47542590291461362 0.45660311654626629 0 0.5 0.5 0 0.45317868065322398 0.47257144722045569 0 0.35087984519022652 0.5 0 0.41361828881124579 0.5 0 0.39456333821203482 0.46722628045989822 0 0.41361828881124579 0.5 0 0.42527112959749891 0.46003073862491378 0 0.39456333821203482 0.46722628045989822 0 0.45317868065322398 0.47257144722045569 0 0.41361828881124579 0.5 0 0.42527112959749891 0.46003073862491378 0 0.42743569972543127 0.43711585747209702 0 0.44722149455619059 0.44190248576700331 0 0.42527112959749891 0.46003073862491378 0 0.42743569972543127 0.43711585747209702 0 0.42527112959749891 0.46003073862491378 0 0.40954224387570981 0.44268629788445268 0 0.42527112959749891 0.46003073862491378 0 0.40954224387570981 0.44268629788445268 0 0.39456333821203482 0.46722628045989822 0 0.40954224387570981 0.44268629788445268 0 0.39456333821203482 0.46722628045989822 0 0.39283131878230321 0.4499244799641845 0 0.35399815986298627 0.4630044256211166 0 0.39456333821203482 0.46722628045989822 0 0.37758400451589053 0.4537220236487548 0 0.38963568852557739 0.43606331786363273 0 0.40954224387570981 0.44268629788445268 0 0.39283131878230321 0.4499244799641845 0 0.38963568852557739 0.43606331786363273 0 0.40954224387570981 0.44268629788445268 0 0.38963568852557739 0.43606331786363273 0 0.39283131878230321 0.4499244799641845 0 0.37758400451589053 0.4537220236487548 0 0.38963568852557739 0.43606331786363273 0 0.37758400451589053 0.4537220236487548 0 0.36835759133761709 0.44211754499971262 0 0.38963568852557739 0.43606331786363273 0 0.37758400451589053 0.4537220236487548 0 0.39456333821203482 0.46722628045989822 0 0.39283131878230321 0.4499244799641845 0 0.37758400451589053 0.4537220236487548 0 0.32396123206059402 0.07331467679089114 0 0.33488919505488091 0.094680519848913708 0 0.33530815043582368 0.079177156025423523 0 0.32396123206059402 0.07331467679089114 0 0.33488919505488091 0.094680519848913708 0 0.33530815043582368 0.079177156025423523 0 0.33488919505488091 0.094680519848913708 0 0.33530815043582368 0.079177156025423523 0 0.33488919505488091 0.094680519848913708 0 0.34667284195663273 0.085165445817830032 0 0.33530815043582368 0.079177156025423523 0 0.33572710581676529 0.063673792201933282 0 0.34762405736536173 0.068462984631153093 0 0.33530815043582368 0.079177156025423523 0 0.34667284195663273 0.085165445817830032 0 0.34762405736536173 0.068462984631153093 0 0.33572710581676529 0.063673792201933282 0 0.32396123206059402 0.07331467679089114 0 0.32730422508776918 0.059242749220191432 0 0.33530815043582368 0.079177156025423523 0 0.33572710581676529 0.063673792201933282 0 0.32396123206059402 0.07331467679089114 0 0.33530815043582368 0.079177156025423523 0 0.33572710581676529 0.063673792201933282 0 0.32396123206059402 0.07331467679089114 0 0.31876275203936821 0.06178863284318379 0 0.30747609860754388 0.07123831301682948 0 0.32396123206059402 0.07331467679089114 0 0.31200503470638469 0.08546246631735635 0 0.30747609860754388 0.07123831301682948 0 0.32396123206059402 0.07331467679089114 0 0.32730422508776918 0.059242749220191432 0 0.31876275203936821 0.06178863284318379 0 0.32396123206059402 0.07331467679089114 0 0.3220286345515942 0.091753911920747513 0 0.31200503470638469 0.08546246631735635 0 0.32396123206059402 0.07331467679089114 0 0.3220286345515942 0.091753911920747513 0 0.33488919505488091 0.094680519848913708 0 0.3220286345515942 0.091753911920747513 0 0.31471536567222469 0.10005571465255091 0 0.31200503470638469 0.08546246631735635 0 0.31471536567222469 0.10005571465255091 0 0.32457234526388667 0.1052561819940256 0 0.31612369212307861 0.1168460110343051 0 0.3220286345515942 0.091753911920747513 0 0.32457234526388667 0.1052561819940256 0 0.33488919505488091 0.094680519848913708 0 0.3220286345515942 0.091753911920747513 0 0.31471536567222469 0.10005571465255091 0 0.32457234526388667 0.1052561819940256 0 0.31612369212307861 0.1168460110343051 0 0.33414562681144683 0.1221961206264181 0 0.32161705984599981 0.1334097914584319 0 0.32457234526388667 0.1052561819940256 0 0.31612369212307861 0.1168460110343051 0 0.33414562681144683 0.1221961206264181 0 0.33414562681144683 0.1221961206264181 0 0.33488919505488091 0.094680519848913708 0 0.34426622038125421 0.1130140419864978 0 0.33414562681144683 0.1221961206264181 0 0.33488919505488091 0.094680519848913708 0 0.33488919505488091 0.094680519848913708 0 0.34426622038125421 0.1130140419864978 0 0.33488919505488091 0.094680519848913708 0 0.35124570403373812 0.097502916352859403 0 0.34426622038125421 0.1130140419864978 0 0.32457234526388667 0.1052561819940256 0 0.33414562681144683 0.1221961206264181 0 0.33488919505488091 0.094680519848913708 0 0.35124570403373812 0.097502916352859403 0 0.34426622038125421 0.1130140419864978 0 0.36326429244760722 0.1107478987048401 0 0.34426622038125421 0.1130140419864978 0 0.35364324570762867 0.13134756412408119 0 0.33414562681144683 0.1221961206264181 0 0.34426622038125421 0.1130140419864978 0 0.35364324570762867 0.13134756412408119 0 0.34426622038125421 0.1130140419864978 0 0.36326429244760722 0.1107478987048401 0 0.35364324570762867 0.13134756412408119 0 0.36326429244760722 0.1107478987048401 0 0.3809701484213564 0.10354431983044771 0 0.37703018163666319 0.1169655376785344 0 0.36326429244760722 0.1107478987048401 0 0.35364324570762867 0.13134756412408119 0 0.37155438552144998 0.1279060582428837 0 0.36326429244760722 0.1107478987048401 0 0.37155438552144998 0.1279060582428837 0 0.37703018163666319 0.1169655376785344 0 0.35124570403373812 0.097502916352859403 0 0.36326429244760722 0.1107478987048401 0 0.36429710289335909 0.08600365223080042 0 0.36326429244760722 0.1107478987048401 0 0.36429710289335909 0.08600365223080042 0 0.3809701484213564 0.10354431983044771 0 0.36429710289335909 0.08600365223080042 0 0.3809701484213564 0.10354431983044771 0 0.36429710289335909 0.08600365223080042 0 0.37907796159537632 0.077976084497466847 0 0.3809701484213564 0.10354431983044771 0 0.35124570403373812 0.097502916352859403 0 0.36429710289335909 0.08600365223080042 0 0.34667284195663273 0.085165445817830032 0 0.33488919505488091 0.094680519848913708 0 0.35124570403373812 0.097502916352859403 0 0.34667284195663273 0.085165445817830032 0 0.36429710289335909 0.08600365223080042 0 0.34667284195663273 0.085165445817830032 0 0.34762405736536173 0.068462984631153093 0 0.34762405736536173 0.068462984631153093 0 0.3655493984813572 0.068117119886358615 0 0.35378571417030069 0.051874675678153591 0 0.36429710289335909 0.08600365223080042 0 0.34762405736536173 0.068462984631153093 0 0.3655493984813572 0.068117119886358615 0 0.36429710289335909 0.08600365223080042 0 0.34762405736536173 0.068462984631153093 0 0.36429710289335909 0.08600365223080042 0 0.3655493984813572 0.068117119886358615 0 0.37907796159537632 0.077976084497466847 0 0.35378571417030069 0.051874675678153591 0 0.38200279492775091 0.057285654079436213 0 0.3655493984813572 0.068117119886358615 0 0.35378571417030069 0.051874675678153591 0 0.38200279492775091 0.057285654079436213 0 0.36596701370889417 0.034654631267918588 0 0.35378571417030069 0.051874675678153591 0 0.38200279492775091 0.057285654079436213 0 0.36596701370889417 0.034654631267918588 0 0.38200279492775091 0.057285654079436213 0 0.36596701370889417 0.034654631267918588 0 0.34534056782877942 0.033161574764758082 0 0.35378571417030069 0.051874675678153591 0 0.34762405736536173 0.068462984631153093 0 0.35378571417030069 0.051874675678153591 0 0.33095101183736442 0.050922317031505793 0 0.36596701370889417 0.034654631267918588 0 0.36909861384751302 0.0062369004923781089 0 0.34993123249004582 0.012023608456395111 0 0.36596701370889417 0.034654631267918588 0 0.36909861384751302 0.0062369004923781089 0 0.38131243673512882 0.026001829024623439 0 0.36596701370889417 0.034654631267918588 0 0.34993123249004582 0.012023608456395111 0 0.36596701370889417 0.034654631267918588 0 0.34534056782877942 0.033161574764758082 0 0.34993123249004582 0.012023608456395111 0 0.36909861384751302 0.0062369004923781089 0 0.34993123249004582 0.012023608456395111 0 0.3559181981730396 -0.01207771809287486 0 0.34993123249004582 0.012023608456395111 0 0.33389545127119741 -0.010607414355128349 0 0.34993123249004582 0.012023608456395111 0 0.33141841751597467 0.023374090697625579 0 0.32428985140229089 0.0045442459904301274 0 0.34993123249004582 0.012023608456395111 0 0.32428985140229089 0.0045442459904301274 0 0.33389545127119741 -0.010607414355128349 0 0.34534056782877942 0.033161574764758082 0 0.34993123249004582 0.012023608456395111 0 0.33141841751597467 0.023374090697625579 0 0.33141841751597467 0.023374090697625579 0 0.32428985140229089 0.0045442459904301274 0 0.31196180244590832 0.020677326999666439 0 0.33141841751597467 0.023374090697625579 0 0.32556863341284931 0.046463697276878123 0 0.31196180244590832 0.020677326999666439 0 0.32428985140229089 0.0045442459904301274 0 0.3084370594916051 0.00067207699937176261 0 0.31196180244590832 0.020677326999666439 0 0.35378571417030069 0.051874675678153591 0 0.32556863341284931 0.046463697276878123 0 0.33572710581676529 0.063673792201933282 0 0.34762405736536173 0.068462984631153093 0 0.33095101183736442 0.050922317031505793 0 0.34762405736536173 0.068462984631153093 0 0.33095101183736442 0.050922317031505793 0 0.35378571417030069 0.051874675678153591 0 0.33095101183736442 0.050922317031505793 0 0.32556863341284931 0.046463697276878123 0 0.33572710581676529 0.063673792201933282 0 0.33095101183736442 0.050922317031505793 0 0.32730422508776918 0.059242749220191432 0 0.34534056782877942 0.033161574764758082 0 0.33141841751597467 0.023374090697625579 0 0.32556863341284931 0.046463697276878123 0 0.34534056782877942 0.033161574764758082 0 0.35378571417030069 0.051874675678153591 0 0.32556863341284931 0.046463697276878123 0 0.32556863341284931 0.046463697276878123 0 0.31876275203936821 0.06178863284318379 0 0.30902331552179779 0.0564985336013335 0 0.33095101183736442 0.050922317031505793 0 0.32556863341284931 0.046463697276878123 0 0.32730422508776918 0.059242749220191432 0 0.32556863341284931 0.046463697276878123 0 0.32730422508776918 0.059242749220191432 0 0.31876275203936821 0.06178863284318379 0 0.32556863341284931 0.046463697276878123 0 0.30902331552179779 0.0564985336013335 0 0.29735155265539792 0.041052718875602683 0 0.30902331552179779 0.0564985336013335 0 0.29735155265539792 0.041052718875602683 0 0.29595754089383031 0.061949305994173462 0 0.32556863341284931 0.046463697276878123 0 0.29735155265539792 0.041052718875602683 0 0.31196180244590832 0.020677326999666439 0 0.32556863341284931 0.046463697276878123 0 0.29735155265539792 0.041052718875602683 0 0.29735155265539792 0.041052718875602683 0 0.28100449905570107 0.02588021439129717 0 0.26913447189794693 0.03564174047432505 0 0.29735155265539792 0.041052718875602683 0 0.26913447189794693 0.03564174047432505 0 0.29735155265539792 0.041052718875602683 0 0.28518889072929537 0.058522810565924163 0 0.27264223701655232 0.052196700615651632 0 0.29735155265539792 0.041052718875602683 0 0.28518889072929537 0.058522810565924163 0 0.29595754089383031 0.061949305994173462 0 0.3084370594916051 0.00067207699937176261 0 0.29730932667835253 0.0093792757849015841 0 0.31196180244590832 0.020677326999666439 0 0.3084370594916051 0.00067207699937176261 0 0.29730932667835253 0.0093792757849015841 0 0.29480674430808651 -0.0053593656848261971 0 0.29735155265539792 0.041052718875602683 0 0.31196180244590832 0.020677326999666439 0 0.29574447228298673 0.023534828910649661 0 0.29730932667835253 0.0093792757849015841 0 0.31196180244590832 0.020677326999666439 0 0.29574447228298673 0.023534828910649661 0 0.29735155265539792 0.041052718875602683 0 0.29574447228298673 0.023534828910649661 0 0.28100449905570107 0.02588021439129717 0 0.29574447228298673 0.023534828910649661 0 0.28479910348507659 0.01423225571360121 0 0.28100449905570107 0.02588021439129717 0 0.29730932667835253 0.0093792757849015841 0 0.29574447228298673 0.023534828910649661 0 0.28479910348507659 0.01423225571360121 0 0.29730932667835253 0.0093792757849015841 0 0.28479910348507659 0.01423225571360121 0 0.28620635765796709 0.003067424845049098 0 0.28479910348507659 0.01423225571360121 0 0.28620635765796709 0.003067424845049098 0 0.27729315394716642 0.0070525882866151364 0 0.29730932667835253 0.0093792757849015841 0 0.28620635765796709 0.003067424845049098 0 0.29480674430808651 -0.0053593656848261971 0 0.26620112804302892 0.0052484816967997266 0 0.27087841858074718 0.01481692551439801 0 0.26680729270403042 0.02465857669500263 0 0.26620112804302892 0.0052484816967997266 0 0.26680729270403042 0.02465857669500263 0 0.26950436116676529 5.0784174151398597e-05 0 0.26620112804302892 0.0052484816967997266 0 0.27236747284283069 0.0035342108706479681 0 0.26620112804302892 0.0052484816967997266 0 0.27168504335344329 0.0076630515921152099 0 0.27236747284283069 0.0035342108706479681 0 0.26950436116676529 5.0784174151398597e-05 0 0.27236747284283069 0.0035342108706479681 0 0.27342826679344762 -0.001719184532610826 0 0.27236747284283069 0.0035342108706479681 0 0.27830450817623342 0.00016121309183629701 0 0.27729315394716642 0.0070525882866151364 0 0.27236747284283069 0.0035342108706479681 0 0.27830450817623342 0.00016121309183629701 0 0.27342826679344762 -0.001719184532610826 0 0.28620635765796709 0.003067424845049098 0 0.27830450817623342 0.00016121309183629701 0 0.27729315394716642 0.0070525882866151364 0 0.27168504335344329 0.0076630515921152099 0 0.27236747284283069 0.0035342108706479681 0 0.27729315394716642 0.0070525882866151364 0 0.28479910348507659 0.01423225571360121 0 0.27729315394716642 0.0070525882866151364 0 0.27087841858074718 0.01481692551439801 0 0.26620112804302892 0.0052484816967997266 0 0.27168504335344329 0.0076630515921152099 0 0.27087841858074718 0.01481692551439801 0 0.27168504335344329 0.0076630515921152099 0 0.27729315394716642 0.0070525882866151364 0 0.27087841858074718 0.01481692551439801 0 0.27087841858074718 0.01481692551439801 0 0.28100449905570107 0.02588021439129717 0 0.26680729270403042 0.02465857669500263 0 0.28479910348507659 0.01423225571360121 0 0.27087841858074718 0.01481692551439801 0 0.28100449905570107 0.02588021439129717 0 0.28100449905570107 0.02588021439129717 0 0.26680729270403042 0.02465857669500263 0 0.26913447189794693 0.03564174047432505 0 0.26680729270403042 0.02465857669500263 0 0.26713833567692602 0.03525895637023202 0 0.26680729270403042 0.02465857669500263 0 0.26913447189794693 0.03564174047432505 0 0.24622542171544631 0.03124864337130712 0 0.26680729270403042 0.02465857669500263 0 0.26713833567692602 0.03525895637023202 0 0.24622542171544631 0.03124864337130712 0 0.26680729270403042 0.02465857669500263 0 0.2546022002950461 0.017760820163893649 0 0.26680729270403042 0.02465857669500263 0 0.26249141269217191 0.0042897038784872124 0 0.26680729270403042 0.02465857669500263 0 0.2546022002950461 0.017760820163893649 0 0.26249141269217191 0.0042897038784872124 0 0.24288467406853601 0.01084635671077764 0 0.2546022002950461 0.017760820163893649 0 0.26249141269217191 0.0042897038784872124 0 0.26620112804302892 0.0052484816967997266 0 0.26680729270403042 0.02465857669500263 0 0.26249141269217191 0.0042897038784872124 0 0.27264223701655232 0.052196700615651632 0 0.27615000213515689 0.068751660756978375 0 0.27264223701655232 0.052196700615651632 0 0.26772831493401089 0.054150775976049483 0 0.26913447189794693 0.03564174047432505 0 0.28518889072929537 0.058522810565924163 0 0.27264223701655232 0.052196700615651632 0 0.27615000213515689 0.068751660756978375 0 0.27264223701655232 0.052196700615651632 0 0.26772831493401089 0.054150775976049483 0 0.27615000213515689 0.068751660756978375 0 0.26772831493401089 0.054150775976049483 0 0.26713833567692602 0.03525895637023202 0 0.26248452189999738 0.047582333005579042 0 0.29735155265539792 0.041052718875602683 0 0.27264223701655232 0.052196700615651632 0 0.26913447189794693 0.03564174047432505 0 0.27264223701655232 0.052196700615651632 0 0.26913447189794693 0.03564174047432505 0 0.26772831493401089 0.054150775976049483 0 0.26713833567692602 0.03525895637023202 0 0.26772831493401089 0.054150775976049483 0 0.26713833567692602 0.03525895637023202 0 0.26913447189794693 0.03564174047432505 0 0.26680729270403042 0.02465857669500263 0 0.26713833567692602 0.03525895637023202 0 0.26913447189794693 0.03564174047432505 0 0.26713833567692602 0.03525895637023202 0 0.26913447189794693 0.03564174047432505 0 0.26713833567692602 0.03525895637023202 0 0.2573651418193017 0.045938980385183507 0 0.26248452189999738 0.047582333005579042 0 0.26713833567692602 0.03525895637023202 0 0.25177438564587512 0.040318721698458918 0 0.2573651418193017 0.045938980385183507 0 0.24622542171544631 0.03124864337130712 0 0.26713833567692602 0.03525895637023202 0 0.25177438564587512 0.040318721698458918 0 0.24622542171544631 0.03124864337130712 0 0.26713833567692602 0.03525895637023202 0 0.2491398822511017 0.049107863529107253 0 0.25177438564587512 0.040318721698458918 0 0.2573651418193017 0.045938980385183507 0 0.24895312849188919 0.059115038947649613 0 0.2491398822511017 0.049107863529107253 0 0.25770629516975108 0.054980619290851941 0 0.2491398822511017 0.049107863529107253 0 0.2573651418193017 0.045938980385183507 0 0.25770629516975108 0.054980619290851941 0 0.26772831493401089 0.054150775976049483 0 0.26248452189999738 0.047582333005579042 0 0.25770629516975108 0.054980619290851941 0 0.2573651418193017 0.045938980385183507 0 0.26248452189999738 0.047582333005579042 0 0.25770629516975108 0.054980619290851941 0 0.26772831493401089 0.054150775976049483 0 0.25770629516975108 0.054980619290851941 0 0.25954342958035859 0.062852465308431096 0 0.24895312849188919 0.059115038947649613 0 0.25770629516975108 0.054980619290851941 0 0.25954342958035859 0.062852465308431096 0 0.26772831493401089 0.054150775976049483 0 0.25954342958035859 0.062852465308431096 0 0.26831829419109959 0.073042595581866876 0 0.24895312849188919 0.059115038947649613 0 0.25415704794100669 0.07065646625888182 0 0.25954342958035859 0.062852465308431096 0 0.25415704794100669 0.07065646625888182 0 0.26170145874673872 0.082579933790113275 0 0.26831829419109959 0.073042595581866876 0 0.25415704794100669 0.07065646625888182 0 0.25954342958035859 0.062852465308431096 0 0.26831829419109959 0.073042595581866876 0 0.24577971206005911 0.094681192802855224 0 0.26170145874673872 0.082579933790113275 0 0.26076916483989981 0.093456144482601658 0 0.24577971206005911 0.094681192802855224 0 0.25415704794100669 0.07065646625888182 0 0.26170145874673872 0.082579933790113275 0 0.26170145874673872 0.082579933790113275 0 0.26076916483989981 0.093456144482601658 0 0.26944667348346601 0.089868152663259926 0 0.26170145874673872 0.082579933790113275 0 0.27475758046448823 0.081873465961334865 0 0.26831829419109959 0.073042595581866876 0 0.26170145874673872 0.082579933790113275 0 0.26944667348346601 0.089868152663259926 0 0.27475758046448823 0.081873465961334865 0 0.27475758046448823 0.081873465961334865 0 0.2787225987422593 0.07533384127107294 0 0.28585864252824378 0.079046334725644846 0 0.26944667348346601 0.089868152663259926 0 0.27475758046448823 0.081873465961334865 0 0.27936458627574923 0.092024045980960353 0 0.27475758046448823 0.081873465961334865 0 0.27936458627574923 0.092024045980960353 0 0.28719642859734651 0.087950241406075519 0 0.26772831493401089 0.054150775976049483 0 0.26831829419109959 0.073042595581866876 0 0.27615000213515689 0.068751660756978375 0 0.26772831493401089 0.054150775976049483 0 0.26831829419109959 0.073042595581866876 0 0.2787225987422593 0.07533384127107294 0 0.27615000213515689 0.068751660756978375 0 0.28649935834788898 0.069113819527687886 0 0.26831829419109959 0.073042595581866876 0 0.2787225987422593 0.07533384127107294 0 0.27615000213515689 0.068751660756978375 0 0.27475758046448823 0.081873465961334865 0 0.26831829419109959 0.073042595581866876 0 0.2787225987422593 0.07533384127107294 0 0.28518889072929537 0.058522810565924163 0 0.27615000213515689 0.068751660756978375 0 0.28649935834788898 0.069113819527687886 0 0.28518889072929537 0.058522810565924163 0 0.29595754089383031 0.061949305994173462 0 0.28649935834788898 0.069113819527687886 0 0.29595754089383031 0.061949305994173462 0 0.28649935834788898 0.069113819527687886 0 0.29494717390873632 0.072805210420462993 0 0.28649935834788898 0.069113819527687886 0 0.29494717390873632 0.072805210420462993 0 0.28585864252824378 0.079046334725644846 0 0.2787225987422593 0.07533384127107294 0 0.28649935834788898 0.069113819527687886 0 0.28585864252824378 0.079046334725644846 0 0.27475758046448823 0.081873465961334865 0 0.28585864252824378 0.079046334725644846 0 0.28719642859734651 0.087950241406075519 0 0.27936458627574923 0.092024045980960353 0 0.28719642859734651 0.087950241406075519 0 0.29270330855594251 0.095329361106856261 0 0.28719642859734651 0.087950241406075519 0 0.29894422916617441 0.082678278837979277 0 0.29270330855594251 0.095329361106856261 0 0.28585864252824378 0.079046334725644846 0 0.28719642859734651 0.087950241406075519 0 0.29894422916617441 0.082678278837979277 0 0.29494717390873632 0.072805210420462993 0 0.28585864252824378 0.079046334725644846 0 0.29894422916617441 0.082678278837979277 0 0.29894422916617441 0.082678278837979277 0 0.30428099687122639 0.093516315049203103 0 0.29270330855594251 0.095329361106856261 0 0.29894422916617441 0.082678278837979277 0 0.30428099687122639 0.093516315049203103 0 0.31200503470638469 0.08546246631735635 0 0.31471536567222469 0.10005571465255091 0 0.30428099687122639 0.093516315049203103 0 0.31200503470638469 0.08546246631735635 0 0.29894422916617441 0.082678278837979277 0 0.31200503470638469 0.08546246631735635 0 0.30747609860754388 0.07123831301682948 0 0.31876275203936821 0.06178863284318379 0 0.30902331552179779 0.0564985336013335 0 0.30747609860754388 0.07123831301682948 0 0.29595754089383031 0.061949305994173462 0 0.29494717390873632 0.072805210420462993 0 0.30747609860754388 0.07123831301682948 0 0.30902331552179779 0.0564985336013335 0 0.29595754089383031 0.061949305994173462 0 0.30747609860754388 0.07123831301682948 0 0.29494717390873632 0.072805210420462993 0 0.29894422916617441 0.082678278837979277 0 0.30747609860754388 0.07123831301682948 0 0.31612369212307861 0.1168460110343051 0 0.30228325590560728 0.118246001377217 0 0.30758450129370812 0.13366877386987541 0 0.30228325590560728 0.118246001377217 0 0.30385913821366622 0.10573257657661141 0 0.29304821015391791 0.11040205623953631 0 0.31612369212307861 0.1168460110343051 0 0.30228325590560728 0.118246001377217 0 0.30385913821366622 0.10573257657661141 0 0.31471536567222469 0.10005571465255091 0 0.31612369212307861 0.1168460110343051 0 0.30385913821366622 0.10573257657661141 0 0.31471536567222469 0.10005571465255091 0 0.30428099687122639 0.093516315049203103 0 0.30385913821366622 0.10573257657661141 0 0.30428099687122639 0.093516315049203103 0 0.30385913821366622 0.10573257657661141 0 0.29270330855594251 0.095329361106856261 0 0.29270330855594251 0.095329361106856261 0 0.28179242523426151 0.10422267257032659 0 0.29304821015391791 0.11040205623953631 0 0.30385913821366622 0.10573257657661141 0 0.29270330855594251 0.095329361106856261 0 0.29304821015391791 0.11040205623953631 0 0.27936458627574923 0.092024045980960353 0 0.29270330855594251 0.095329361106856261 0 0.28179242523426151 0.10422267257032659 0 0.28311903477961742 0.1163689364920561 0 0.27482616798860171 0.12790891193398521 0 0.29162282970192632 0.12625741141109581 0 0.28311903477961742 0.1163689364920561 0 0.29304821015391791 0.11040205623953631 0 0.29162282970192632 0.12625741141109581 0 0.30228325590560728 0.118246001377217 0 0.29304821015391791 0.11040205623953631 0 0.29162282970192632 0.12625741141109581 0 0.28179242523426151 0.10422267257032659 0 0.28311903477961742 0.1163689364920561 0 0.29304821015391791 0.11040205623953631 0 0.28311903477961742 0.1163689364920561 0 0.2720198289581735 0.11203976332025491 0 0.27482616798860171 0.12790891193398521 0 0.2720198289581735 0.11203976332025491 0 0.26019051644867958 0.1236751623368475 0 0.27482616798860171 0.12790891193398521 0 0.28179242523426151 0.10422267257032659 0 0.28311903477961742 0.1163689364920561 0 0.2720198289581735 0.11203976332025491 0 0.27936458627574923 0.092024045980960353 0 0.28179242523426151 0.10422267257032659 0 0.27064057709045408 0.099407173101289395 0 0.28179242523426151 0.10422267257032659 0 0.2720198289581735 0.11203976332025491 0 0.27064057709045408 0.099407173101289395 0 0.2720198289581735 0.11203976332025491 0 0.27064057709045408 0.099407173101289395 0 0.25936412099114742 0.1049423596113938 0 0.26944667348346601 0.089868152663259926 0 0.27936458627574923 0.092024045980960353 0 0.27064057709045408 0.099407173101289395 0 0.26076916483989981 0.093456144482601658 0 0.26944667348346601 0.089868152663259926 0 0.27064057709045408 0.099407173101289395 0 0.24522452711027151 0.1162476081772815 0 0.24577971206005911 0.094681192802855224 0 0.25936412099114742 0.1049423596113938 0 0.26076916483989981 0.093456144482601658 0 0.27064057709045408 0.099407173101289395 0 0.25936412099114742 0.1049423596113938 0 0.24577971206005911 0.094681192802855224 0 0.26076916483989981 0.093456144482601658 0 0.25936412099114742 0.1049423596113938 0 0.24547992539022981 0.13490344779148691 0 0.24522452711027151 0.1162476081772815 0 0.26019051644867958 0.1236751623368475 0 0.2720198289581735 0.11203976332025491 0 0.25936412099114742 0.1049423596113938 0 0.26019051644867958 0.1236751623368475 0 0.24522452711027151 0.1162476081772815 0 0.25936412099114742 0.1049423596113938 0 0.26019051644867958 0.1236751623368475 0 0.24547992539022981 0.13490344779148691 0 0.26019051644867958 0.1236751623368475 0 0.26422852825365378 0.14600888318668259 0 0.27482616798860171 0.12790891193398521 0 0.26422852825365378 0.14600888318668259 0 0.28138976695940732 0.13980007894522539 0 0.26019051644867958 0.1236751623368475 0 0.27482616798860171 0.12790891193398521 0 0.26422852825365378 0.14600888318668259 0 0.26422852825365378 0.14600888318668259 0 0.28138976695940732 0.13980007894522539 0 0.28563018054188338 0.1537610002235317 0 0.24132172988827849 0.15576576713774071 0 0.24547992539022981 0.13490344779148691 0 0.26422852825365378 0.14600888318668259 0 0.24395940064542521 0.1784341937588439 0 0.24132172988827849 0.15576576713774071 0 0.26472281937626052 0.17113477256424151 0 0.24132172988827849 0.15576576713774071 0 0.26422852825365378 0.14600888318668259 0 0.26472281937626052 0.17113477256424151 0 0.24395940064542521 0.1784341937588439 0 0.26472281937626052 0.17113477256424151 0 0.25828039321235191 0.1910576923913809 0 0.26472281937626052 0.17113477256424151 0 0.28582750555466152 0.17418595515757851 0 0.27645814623162979 0.19655325836930071 0 0.26472281937626052 0.17113477256424151 0 0.25828039321235191 0.1910576923913809 0 0.27645814623162979 0.19655325836930071 0 0.26472281937626052 0.17113477256424151 0 0.28582750555466152 0.17418595515757851 0 0.28563018054188338 0.1537610002235317 0 0.26422852825365378 0.14600888318668259 0 0.26472281937626052 0.17113477256424151 0 0.28563018054188338 0.1537610002235317 0 0.29592850201630089 0.1648502398347618 0 0.28582750555466152 0.17418595515757851 0 0.30579797968783501 0.17615097038686151 0 0.29592850201630089 0.1648502398347618 0 0.30645834228082358 0.15530303357107539 0 0.28563018054188338 0.1537610002235317 0 0.29592850201630089 0.1648502398347618 0 0.28582750555466152 0.17418595515757851 0 0.28563018054188338 0.1537610002235317 0 0.28582750555466152 0.17418595515757851 0 0.30579797968783501 0.17615097038686151 0 0.2944715411422949 0.19066504192227701 0 0.28582750555466152 0.17418595515757851 0 0.27645814623162979 0.19655325836930071 0 0.2944715411422949 0.19066504192227701 0 0.29592850201630089 0.1648502398347618 0 0.30579797968783501 0.17615097038686151 0 0.30645834228082358 0.15530303357107539 0 0.30579797968783501 0.17615097038686151 0 0.30645834228082358 0.15530303357107539 0 0.32081325776788733 0.16432187562446909 0 0.30645834228082358 0.15530303357107539 0 0.30758450129370812 0.13366877386987541 0 0.29444976998863098 0.1418321880428754 0 0.30645834228082358 0.15530303357107539 0 0.30758450129370812 0.13366877386987541 0 0.31769437945268231 0.14700023009031171 0 0.30228325590560728 0.118246001377217 0 0.30758450129370812 0.13366877386987541 0 0.29162282970192632 0.12625741141109581 0 0.30758450129370812 0.13366877386987541 0 0.29162282970192632 0.12625741141109581 0 0.29444976998863098 0.1418321880428754 0 0.29162282970192632 0.12625741141109581 0 0.28138976695940732 0.13980007894522539 0 0.29444976998863098 0.1418321880428754 0 0.27482616798860171 0.12790891193398521 0 0.29162282970192632 0.12625741141109581 0 0.28138976695940732 0.13980007894522539 0 0.30645834228082358 0.15530303357107539 0 0.28563018054188338 0.1537610002235317 0 0.29444976998863098 0.1418321880428754 0 0.28138976695940732 0.13980007894522539 0 0.28563018054188338 0.1537610002235317 0 0.29444976998863098 0.1418321880428754 0 0.25648020029296009 0.25534243071471141 0 0.26923495813897608 0.24045075461000981 0 0.28116346984589152 0.24929238295428011 0 0.29215712614179729 0.25296539125812162 0 0.26923495813897608 0.24045075461000981 0 0.29215712614179729 0.25296539125812162 0 0.26923495813897608 0.24045075461000981 0 0.28116346984589152 0.24929238295428011 0 0.2463127901361549 0.227936117961898 0 0.25648020029296009 0.25534243071471141 0 0.26923495813897608 0.24045075461000981 0 0.2463127901361549 0.227936117961898 0 0.26451193180195681 0.22534657843437919 0 0.26205798907003719 0.21059709465077861 0 0.2463127901361549 0.227936117961898 0 0.26923495813897608 0.24045075461000981 0 0.2463127901361549 0.227936117961898 0 0.26923495813897608 0.24045075461000981 0 0.26451193180195681 0.22534657843437919 0 0.26451193180195681 0.22534657843437919 0 0.280441989862659 0.22240234651483029 0 0.26205798907003719 0.21059709465077861 0 0.26923495813897608 0.24045075461000981 0 0.26451193180195681 0.22534657843437919 0 0.280441989862659 0.22240234651483029 0 0.26923495813897608 0.24045075461000981 0 0.280441989862659 0.22240234651483029 0 0.28790211262554372 0.23801227549171169 0 0.280441989862659 0.22240234651483029 0 0.26205798907003719 0.21059709465077861 0 0.27645814623162979 0.19655325836930071 0 0.24420361073840699 0.19856914261373959 0 0.2463127901361549 0.227936117961898 0 0.26205798907003719 0.21059709465077861 0 0.26205798907003719 0.21059709465077861 0 0.25828039321235191 0.1910576923913809 0 0.27645814623162979 0.19655325836930071 0 0.24420361073840699 0.19856914261373959 0 0.26205798907003719 0.21059709465077861 0 0.25828039321235191 0.1910576923913809 0 0.27645814623162979 0.19655325836930071 0 0.2944715411422949 0.19066504192227701 0 0.29715275366366301 0.20928392557278 0 0.27645814623162979 0.19655325836930071 0 0.29715275366366301 0.20928392557278 0 0.2944715411422949 0.19066504192227701 0 0.29715275366366301 0.20928392557278 0 0.31428034740318989 0.19764045568352739 0 0.30579797968783501 0.17615097038686151 0 0.2944715411422949 0.19066504192227701 0 0.31428034740318989 0.19764045568352739 0 0.29715275366366301 0.20928392557278 0 0.31784736109569622 0.22201459277625929 0 0.31428034740318989 0.19764045568352739 0 0.29715275366366301 0.20928392557278 0 0.31784736109569622 0.22201459277625929 0 0.280441989862659 0.22240234651483029 0 0.27645814623162979 0.19655325836930071 0 0.29715275366366301 0.20928392557278 0 0.280441989862659 0.22240234651483029 0 0.29715275366366301 0.20928392557278 0 0.29820477080971758 0.22957116406897959 0 0.280441989862659 0.22240234651483029 0 0.29820477080971758 0.22957116406897959 0 0.28790211262554372 0.23801227549171169 0 0.29715275366366301 0.20928392557278 0 0.29820477080971758 0.22957116406897959 0 0.31784736109569622 0.22201459277625929 0 0.29820477080971758 0.22957116406897959 0 0.30961311516364243 0.23950998528912071 0 0.31784736109569622 0.22201459277625929 0 0.29820477080971758 0.22957116406897959 0 0.29870468966218278 0.24179502755282259 0 0.30961311516364243 0.23950998528912071 0 0.30961311516364243 0.23950998528912071 0 0.30564632357021321 0.2489163216561793 0 0.31315294017503031 0.2487805694931679 0 0.29215712614179729 0.25296539125812162 0 0.29870468966218278 0.24179502755282259 0 0.30564632357021321 0.2489163216561793 0 0.29870468966218278 0.24179502755282259 0 0.30961311516364243 0.23950998528912071 0 0.30564632357021321 0.2489163216561793 0 0.29215712614179729 0.25296539125812162 0 0.26923495813897608 0.24045075461000981 0 0.28790211262554372 0.23801227549171169 0 0.29215712614179729 0.25296539125812162 0 0.29870468966218278 0.24179502755282259 0 0.28790211262554372 0.23801227549171169 0 0.29820477080971758 0.22957116406897959 0 0.29870468966218278 0.24179502755282259 0 0.28790211262554372 0.23801227549171169 0 0.32616531042253322 0.25961437862030612 0 0.33854196852772928 0.23474525997973869 0 0.32109064663039938 0.24355484364608501 0 0.34146053174196062 0.25520817275505892 0 0.33854196852772928 0.23474525997973869 0 0.35042462279544723 0.24205509262445721 0 0.32616531042253322 0.25961437862030612 0 0.33854196852772928 0.23474525997973869 0 0.32616531042253322 0.25961437862030612 0 0.34146053174196062 0.25520817275505892 0 0.33854196852772928 0.23474525997973869 0 0.30961311516364243 0.23950998528912071 0 0.32109064663039938 0.24355484364608501 0 0.31784736109569622 0.22201459277625929 0 0.31819378019255079 0.25457929758374892 0 0.32109064663039938 0.24355484364608501 0 0.31315294017503031 0.2487805694931679 0 0.30961311516364243 0.23950998528912071 0 0.32109064663039938 0.24355484364608501 0 0.31315294017503031 0.2487805694931679 0 0.33854196852772928 0.23474525997973869 0 0.32109064663039938 0.24355484364608501 0 0.31784736109569622 0.22201459277625929 0 0.33854196852772928 0.23474525997973869 0 0.31784736109569622 0.22201459277625929 0 0.34376042551252628 0.22425951942096939 0 0.33854196852772928 0.23474525997973869 0 0.31784736109569622 0.22201459277625929 0 0.31784736109569622 0.22201459277625929 0 0.33626589526878098 0.21177636344717729 0 0.34376042551252628 0.22425951942096939 0 0.33854196852772928 0.23474525997973869 0 0.34376042551252628 0.22425951942096939 0 0.33854196852772928 0.23474525997973869 0 0.34376042551252628 0.22425951942096939 0 0.34798290122279463 0.23305754150891889 0 0.33626589526878098 0.21177636344717729 0 0.3479189490733765 0.21769706751428189 0 0.34376042551252628 0.22425951942096939 0 0.31784736109569622 0.22201459277625929 0 0.33626589526878098 0.21177636344717729 0 0.31428034740318989 0.19764045568352739 0 0.31428034740318989 0.19764045568352739 0 0.3344407510884011 0.19339637990769851 0 0.32288753223063082 0.1819104082915641 0 0.33626589526878098 0.21177636344717729 0 0.31428034740318989 0.19764045568352739 0 0.3344407510884011 0.19339637990769851 0 0.33626589526878098 0.21177636344717729 0 0.3344407510884011 0.19339637990769851 0 0.34911938162752321 0.19970277702159109 0 0.3344407510884011 0.19339637990769851 0 0.34911938162752321 0.19970277702159109 0 0.34985097480335109 0.1858618716386955 0 0.34911938162752321 0.19970277702159109 0 0.36134187678282043 0.19759939199151069 0 0.35818811642538678 0.207286579324202 0 0.34911938162752321 0.19970277702159109 0 0.36134187678282043 0.19759939199151069 0 0.34985097480335109 0.1858618716386955 0 0.36134187678282043 0.19759939199151069 0 0.34985097480335109 0.1858618716386955 0 0.36861041777666043 0.1870512735084518 0 0.37239507437115182 0.19875944883037641 0 0.36134187678282043 0.19759939199151069 0 0.36861041777666043 0.1870512735084518 0 0.37239507437115182 0.19875944883037641 0 0.36861041777666043 0.1870512735084518 0 0.38053227584765431 0.19016301222305351 0 0.37239507437115182 0.19875944883037641 0 0.36134187678282043 0.19759939199151069 0 0.36640471235773953 0.20505808080360149 0 0.36640471235773953 0.20505808080360149 0 0.36624984599594651 0.21396985339625621 0 0.35818811642538678 0.207286579324202 0 0.36134187678282043 0.19759939199151069 0 0.36640471235773953 0.20505808080360149 0 0.35818811642538678 0.207286579324202 0 0.36640471235773953 0.20505808080360149 0 0.37353132084991841 0.20909636526528061 0 0.36624984599594651 0.21396985339625621 0 0.37239507437115182 0.19875944883037641 0 0.36640471235773953 0.20505808080360149 0 0.37353132084991841 0.20909636526528061 0 0.37378978781423788 0.21535935166171941 0 0.37141198828750321 0.21909524466324601 0 0.37713144353006262 0.21951947974540309 0 0.37353132084991841 0.20909636526528061 0 0.37378978781423788 0.21535935166171941 0 0.36624984599594651 0.21396985339625621 0 0.37378978781423788 0.21535935166171941 0 0.36624984599594651 0.21396985339625621 0 0.37141198828750321 0.21909524466324601 0 0.36624984599594651 0.21396985339625621 0 0.36695606785871759 0.21893267869953159 0 0.37141198828750321 0.21909524466324601 0 0.36624984599594651 0.21396985339625621 0 0.36245126607859368 0.2207014045299335 0 0.36695606785871759 0.21893267869953159 0 0.36624984599594651 0.21396985339625621 0 0.35592849549077549 0.21671784509635789 0 0.36245126607859368 0.2207014045299335 0 0.36624984599594651 0.21396985339625621 0 0.35592849549077549 0.21671784509635789 0 0.35818811642538678 0.207286579324202 0 0.35592849549077549 0.21671784509635789 0 0.35818811642538678 0.207286579324202 0 0.35006205188285711 0.21077155823764179 0 0.34911938162752321 0.19970277702159109 0 0.35818811642538678 0.207286579324202 0 0.35006205188285711 0.21077155823764179 0 0.33626589526878098 0.21177636344717729 0 0.34911938162752321 0.19970277702159109 0 0.35006205188285711 0.21077155823764179 0 0.35592849549077549 0.21671784509635789 0 0.35006205188285711 0.21077155823764179 0 0.3479189490733765 0.21769706751428189 0 0.33626589526878098 0.21177636344717729 0 0.35006205188285711 0.21077155823764179 0 0.3479189490733765 0.21769706751428189 0 0.3479189490733765 0.21769706751428189 0 0.34376042551252628 0.22425951942096939 0 0.35357787721194273 0.2249600513692632 0 0.34376042551252628 0.22425951942096939 0 0.34798290122279463 0.23305754150891889 0 0.35357787721194273 0.2249600513692632 0 0.35357787721194273 0.2249600513692632 0 0.36085528730661842 0.2263184668023884 0 0.3613918287148376 0.2338806100720541 0 0.34798290122279463 0.23305754150891889 0 0.35357787721194273 0.2249600513692632 0 0.3613918287148376 0.2338806100720541 0 0.35357787721194273 0.2249600513692632 0 0.36245126607859368 0.2207014045299335 0 0.36085528730661842 0.2263184668023884 0 0.35592849549077549 0.21671784509635789 0 0.3479189490733765 0.21769706751428189 0 0.35357787721194273 0.2249600513692632 0 0.35592849549077549 0.21671784509635789 0 0.35357787721194273 0.2249600513692632 0 0.36245126607859368 0.2207014045299335 0 0.36245126607859368 0.2207014045299335 0 0.36085528730661842 0.2263184668023884 0 0.36719888111489901 0.22433948176982249 0 0.36245126607859368 0.2207014045299335 0 0.36695606785871759 0.21893267869953159 0 0.36719888111489901 0.22433948176982249 0 0.36719888111489901 0.22433948176982249 0 0.37413624613917112 0.22277425424305489 0 0.37141198828750321 0.21909524466324601 0 0.36695606785871759 0.21893267869953159 0 0.36719888111489901 0.22433948176982249 0 0.37141198828750321 0.21909524466324601 0 0.36719888111489901 0.22433948176982249 0 0.37413624613917112 0.22277425424305489 0 0.37361582241810309 0.2277945527495123 0 0.37413624613917112 0.22277425424305489 0 0.37141198828750321 0.21909524466324601 0 0.37713144353006262 0.21951947974540309 0 0.37361582241810309 0.2277945527495123 0 0.3613918287148376 0.2338806100720541 0 0.37414468696369518 0.2375151546512346 0 0.36719888111489901 0.22433948176982249 0 0.37361582241810309 0.2277945527495123 0 0.3613918287148376 0.2338806100720541 0 0.36085528730661842 0.2263184668023884 0 0.36719888111489901 0.22433948176982249 0 0.3613918287148376 0.2338806100720541 0 0.36566976062550771 0.2514334186846684 0 0.3613918287148376 0.2338806100720541 0 0.37414468696369518 0.2375151546512346 0 0.36566976062550771 0.2514334186846684 0 0.37414468696369518 0.2375151546512346 0 0.36566976062550771 0.2514334186846684 0 0.37414468696369518 0.2375151546512346 0 0.38052541078862723 0.24829953749785871 0 0.36566976062550771 0.2514334186846684 0 0.35042462279544723 0.24205509262445721 0 0.36566976062550771 0.2514334186846684 0 0.3613918287148376 0.2338806100720541 0 0.35042462279544723 0.24205509262445721 0 0.34798290122279463 0.23305754150891889 0 0.3613918287148376 0.2338806100720541 0 0.35042462279544723 0.24205509262445721 0 0.34798290122279463 0.23305754150891889 0 0.35042462279544723 0.24205509262445721 0 0.33854196852772928 0.23474525997973869 0 0.35042462279544723 0.24205509262445721 0 0.33854196852772928 0.23474525997973869 0 0.34798290122279463 0.23305754150891889 0 0.35042462279544723 0.24205509262445721 0 0.33414562681144683 0.1221961206264181 0 0.33340205856801131 0.1497117214039223 0 0.35364324570762867 0.13134756412408119 0 0.33414562681144683 0.1221961206264181 0 0.33340205856801131 0.1497117214039223 0 0.32161705984599981 0.1334097914584319 0 0.33414562681144683 0.1221961206264181 0 0.33340205856801131 0.1497117214039223 0 0.31612369212307861 0.1168460110343051 0 0.30758450129370812 0.13366877386987541 0 0.32161705984599981 0.1334097914584319 0 0.30758450129370812 0.13366877386987541 0 0.32161705984599981 0.1334097914584319 0 0.31769437945268231 0.14700023009031171 0 0.30645834228082358 0.15530303357107539 0 0.31769437945268231 0.14700023009031171 0 0.32081325776788733 0.16432187562446909 0 0.33340205856801131 0.1497117214039223 0 0.32161705984599981 0.1334097914584319 0 0.31769437945268231 0.14700023009031171 0 0.33340205856801131 0.1497117214039223 0 0.31769437945268231 0.14700023009031171 0 0.32081325776788733 0.16432187562446909 0 0.30579797968783501 0.17615097038686151 0 0.32081325776788733 0.16432187562446909 0 0.32288753223063082 0.1819104082915641 0 0.30579797968783501 0.17615097038686151 0 0.31428034740318989 0.19764045568352739 0 0.32288753223063082 0.1819104082915641 0 0.32081325776788733 0.16432187562446909 0 0.32288753223063082 0.1819104082915641 0 0.33817318356884152 0.17366742015089559 0 0.3344407510884011 0.19339637990769851 0 0.33817318356884152 0.17366742015089559 0 0.34985097480335109 0.1858618716386955 0 0.3344407510884011 0.19339637990769851 0 0.32288753223063082 0.1819104082915641 0 0.33817318356884152 0.17366742015089559 0 0.33340205856801131 0.1497117214039223 0 0.32081325776788733 0.16432187562446909 0 0.33817318356884152 0.17366742015089559 0 0.33340205856801131 0.1497117214039223 0 0.33817318356884152 0.17366742015089559 0 0.35009384657966353 0.16135745924078901 0 0.33817318356884152 0.17366742015089559 0 0.35009384657966353 0.16135745924078901 0 0.36263167296339183 0.1732573632151681 0 0.33817318356884152 0.17366742015089559 0 0.34985097480335109 0.1858618716386955 0 0.36263167296339183 0.1732573632151681 0 0.36263167296339183 0.1732573632151681 0 0.37986472803833621 0.16473589871120559 0 0.38238487797128612 0.17826561151300691 0 0.34985097480335109 0.1858618716386955 0 0.36263167296339183 0.1732573632151681 0 0.36861041777666043 0.1870512735084518 0 0.36263167296339183 0.1732573632151681 0 0.36861041777666043 0.1870512735084518 0 0.38238487797128612 0.17826561151300691 0 0.36263167296339183 0.1732573632151681 0 0.36710246058100332 0.1613775667402583 0 0.37986472803833621 0.16473589871120559 0 0.35009384657966353 0.16135745924078901 0 0.36710246058100332 0.1613775667402583 0 0.36302027103400342 0.14968108626166471 0 0.35009384657966353 0.16135745924078901 0 0.36263167296339183 0.1732573632151681 0 0.36710246058100332 0.1613775667402583 0 0.36710246058100332 0.1613775667402583 0 0.3747963480420754 0.15091761685116489 0 0.37986472803833621 0.16473589871120559 0 0.36710246058100332 0.1613775667402583 0 0.3747963480420754 0.15091761685116489 0 0.36302027103400342 0.14968108626166471 0 0.3747963480420754 0.15091761685116489 0 0.36302027103400342 0.14968108626166471 0 0.36933503490562097 0.13940677471245869 0 0.33340205856801131 0.1497117214039223 0 0.36302027103400342 0.14968108626166471 0 0.35364324570762867 0.13134756412408119 0 0.33340205856801131 0.1497117214039223 0 0.35009384657966353 0.16135745924078901 0 0.36302027103400342 0.14968108626166471 0 0.36302027103400342 0.14968108626166471 0 0.35364324570762867 0.13134756412408119 0 0.36302027103400342 0.14968108626166471 0 0.35364324570762867 0.13134756412408119 0 0.36933503490562097 0.13940677471245869 0 0.35364324570762867 0.13134756412408119 0 0.36933503490562097 0.13940677471245869 0 0.37155438552144998 0.1279060582428837 0 0.36933503490562097 0.13940677471245869 0 0.37155438552144998 0.1279060582428837 0 0.38103432819402161 0.13806048732748011 0 0.37155438552144998 0.1279060582428837 0 0.38103432819402161 0.13806048732748011 0 0.38396313478627958 0.12762814536926789 0 0.38103432819402161 0.13806048732748011 0 0.38396313478627958 0.12762814536926789 0 0.39400896125691798 0.1361857684872777 0 0.38396313478627958 0.12762814536926789 0 0.39203260045468802 0.12757650340287921 0 0.38853520789213453 0.1206241338259607 0 0.38396313478627958 0.12762814536926789 0 0.39203260045468802 0.12757650340287921 0 0.39400896125691798 0.1361857684872777 0 0.39203260045468802 0.12757650340287921 0 0.39764262794136268 0.13061483814974159 0 0.39400896125691798 0.1361857684872777 0 0.39203260045468802 0.12757650340287921 0 0.39746132602578399 0.1273203730327451 0 0.39764262794136268 0.13061483814974159 0 0.39203260045468802 0.12757650340287921 0 0.39746132602578399 0.1273203730327451 0 0.3959263065393997 0.1230611111046948 0 0.39400896125691798 0.1361857684872777 0 0.40371170495811559 0.13328530276069769 0 0.40606239904654401 0.14076346290639971 0 0.39764262794136268 0.13061483814974159 0 0.39400896125691798 0.1361857684872777 0 0.40371170495811559 0.13328530276069769 0 0.39746132602578399 0.1273203730327451 0 0.40424376916768529 0.12802903947366481 0 0.3959263065393997 0.1230611111046948 0 0.40371170495811559 0.13328530276069769 0 0.40424376916768529 0.12802903947366481 0 0.40836841856006129 0.12948521485697109 0 0.40424376916768529 0.12802903947366481 0 0.40769675716243142 0.12503741342449259 0 0.40313626129021812 0.12297936307423479 0 0.39746132602578399 0.1273203730327451 0 0.39764262794136268 0.13061483814974159 0 0.40424376916768529 0.12802903947366481 0 0.39764262794136268 0.13061483814974159 0 0.40371170495811559 0.13328530276069769 0 0.40424376916768529 0.12802903947366481 0 0.39879280624223101 0.1492664936096692 0 0.40556058708462539 0.1577227212091489 0 0.41117754126835721 0.14923565375977721 0 0.39400896125691798 0.1361857684872777 0 0.39879280624223101 0.1492664936096692 0 0.40606239904654401 0.14076346290639971 0 0.39879280624223101 0.1492664936096692 0 0.40606239904654401 0.14076346290639971 0 0.41117754126835721 0.14923565375977721 0 0.39400896125691798 0.1361857684872777 0 0.39879280624223101 0.1492664936096692 0 0.38735763294789499 0.15079838539115131 0 0.39879280624223101 0.1492664936096692 0 0.38735763294789499 0.15079838539115131 0 0.39422266479940549 0.16384768566893909 0 0.38103432819402161 0.13806048732748011 0 0.39400896125691798 0.1361857684872777 0 0.38735763294789499 0.15079838539115131 0 0.3747963480420754 0.15091761685116489 0 0.36933503490562097 0.13940677471245869 0 0.38103432819402161 0.13806048732748011 0 0.3747963480420754 0.15091761685116489 0 0.38103432819402161 0.13806048732748011 0 0.38735763294789499 0.15079838539115131 0 0.3747963480420754 0.15091761685116489 0 0.38735763294789499 0.15079838539115131 0 0.37986472803833621 0.16473589871120559 0 0.37986472803833621 0.16473589871120559 0 0.38238487797128612 0.17826561151300691 0 0.39422266479940549 0.16384768566893909 0 0.38735763294789499 0.15079838539115131 0 0.37986472803833621 0.16473589871120559 0 0.39422266479940549 0.16384768566893909 0 0.36861041777666043 0.1870512735084518 0 0.38238487797128612 0.17826561151300691 0 0.38053227584765431 0.19016301222305351 0 0.38238487797128612 0.17826561151300691 0 0.38053227584765431 0.19016301222305351 0 0.3938025083661868 0.1916661047533843 0 0.38238487797128612 0.17826561151300691 0 0.39702987800736822 0.177137942510846 0 0.3938025083661868 0.1916661047533843 0 0.38238487797128612 0.17826561151300691 0 0.39702987800736822 0.177137942510846 0 0.39422266479940549 0.16384768566893909 0 0.39702987800736822 0.177137942510846 0 0.40695587345690049 0.16991751859103479 0 0.40684796025651643 0.1813147020506351 0 0.39702987800736822 0.177137942510846 0 0.40684796025651643 0.1813147020506351 0 0.3938025083661868 0.1916661047533843 0 0.39702987800736822 0.177137942510846 0 0.39422266479940549 0.16384768566893909 0 0.40695587345690049 0.16991751859103479 0 0.39422266479940549 0.16384768566893909 0 0.40556058708462539 0.1577227212091489 0 0.40695587345690049 0.16991751859103479 0 0.39879280624223101 0.1492664936096692 0 0.39422266479940549 0.16384768566893909 0 0.40556058708462539 0.1577227212091489 0 0.40695587345690049 0.16991751859103479 0 0.41866965560462388 0.17705231919419789 0 0.4221695084045502 0.15695034020035989 0 0.40556058708462539 0.1577227212091489 0 0.40695587345690049 0.16991751859103479 0 0.4221695084045502 0.15695034020035989 0 0.40684796025651643 0.1813147020506351 0 0.41866965560462388 0.17705231919419789 0 0.41460780154100291 0.19346088138744211 0 0.40695587345690049 0.16991751859103479 0 0.40684796025651643 0.1813147020506351 0 0.41866965560462388 0.17705231919419789 0 0.43432904667462291 0.1682904666940469 0 0.42520162646622828 0.19256676680955001 0 0.41866965560462388 0.17705231919419789 0 0.43432904667462291 0.1682904666940469 0 0.42520162646622828 0.19256676680955001 0 0.43742994246387762 0.18380664699281921 0 0.43432904667462291 0.1682904666940469 0 0.42520162646622828 0.19256676680955001 0 0.4221695084045502 0.15695034020035989 0 0.43432904667462291 0.1682904666940469 0 0.42884843649854659 0.14553045833657399 0 0.41866965560462388 0.17705231919419789 0 0.4221695084045502 0.15695034020035989 0 0.43432904667462291 0.1682904666940469 0 0.43432904667462291 0.1682904666940469 0 0.42884843649854659 0.14553045833657399 0 0.44345646688301832 0.14401416657854421 0 0.4221695084045502 0.15695034020035989 0 0.42884843649854659 0.14553045833657399 0 0.41767973468677871 0.14201960181832551 0 0.42884843649854659 0.14553045833657399 0 0.43145954274652931 0.12708311344831599 0 0.42092627644285091 0.1331476755042357 0 0.43145954274652931 0.12708311344831599 0 0.44345646688301832 0.14401416657854421 0 0.42884843649854659 0.14553045833657399 0 0.43145954274652931 0.12708311344831599 0 0.44345646688301832 0.14401416657854421 0 0.43145954274652931 0.12708311344831599 0 0.42092627644285091 0.1331476755042357 0 0.42127546188908221 0.1239960411161859 0 0.42884843649854659 0.14553045833657399 0 0.42092627644285091 0.1331476755042357 0 0.41767973468677871 0.14201960181832551 0 0.42092627644285091 0.1331476755042357 0 0.41151428475924429 0.13432144044462291 0 0.41767973468677871 0.14201960181832551 0 0.42092627644285091 0.1331476755042357 0 0.41478019807692418 0.12593539786138999 0 0.41151428475924429 0.13432144044462291 0 0.42092627644285091 0.1331476755042357 0 0.41478019807692418 0.12593539786138999 0 0.42127546188908221 0.1239960411161859 0 0.41478019807692418 0.12593539786138999 0 0.40836841856006129 0.12948521485697109 0 0.41151428475924429 0.13432144044462291 0 0.41478019807692418 0.12593539786138999 0 0.40836841856006129 0.12948521485697109 0 0.40769675716243142 0.12503741342449259 0 0.40371170495811559 0.13328530276069769 0 0.40836841856006129 0.12948521485697109 0 0.41151428475924429 0.13432144044462291 0 0.40424376916768529 0.12802903947366481 0 0.40836841856006129 0.12948521485697109 0 0.40769675716243142 0.12503741342449259 0 0.40606239904654401 0.14076346290639971 0 0.41151428475924429 0.13432144044462291 0 0.41767973468677871 0.14201960181832551 0 0.40371170495811559 0.13328530276069769 0 0.40606239904654401 0.14076346290639971 0 0.41151428475924429 0.13432144044462291 0 0.40556058708462539 0.1577227212091489 0 0.4221695084045502 0.15695034020035989 0 0.41117754126835721 0.14923565375977721 0 0.40606239904654401 0.14076346290639971 0 0.41117754126835721 0.14923565375977721 0 0.41767973468677871 0.14201960181832551 0 0.4221695084045502 0.15695034020035989 0 0.41117754126835721 0.14923565375977721 0 0.41767973468677871 0.14201960181832551 0 0.39977963730110577 0.25154022270667931 0 0.38904644684881928 0.24132625952220091 0 0.40723849349124719 0.2326046048757095 0 0.39977963730110577 0.25154022270667931 0 0.38997083924636128 0.2544011467839245 0 0.38904644684881928 0.24132625952220091 0 0.38997083924636128 0.2544011467839245 0 0.38052541078862723 0.24829953749785871 0 0.38904644684881928 0.24132625952220091 0 0.37414468696369518 0.2375151546512346 0 0.38052541078862723 0.24829953749785871 0 0.38904644684881928 0.24132625952220091 0 0.37414468696369518 0.2375151546512346 0 0.38904644684881928 0.24132625952220091 0 0.38261961330187982 0.22359689061779919 0 0.37361582241810309 0.2277945527495123 0 0.37414468696369518 0.2375151546512346 0 0.38261961330187982 0.22359689061779919 0 0.37414468696369518 0.2375151546512346 0 0.38261961330187982 0.22359689061779919 0 0.37413624613917112 0.22277425424305489 0 0.38261961330187982 0.22359689061779919 0 0.37713144353006262 0.21951947974540309 0 0.37413624613917112 0.22277425424305489 0 0.37361582241810309 0.2277945527495123 0 0.38261961330187982 0.22359689061779919 0 0.38261961330187982 0.22359689061779919 0 0.37713144353006262 0.21951947974540309 0 0.38062434040775872 0.2151158152384112 0 0.38261961330187982 0.22359689061779919 0 0.40339775823647972 0.21734219459125079 0 0.40723849349124719 0.2326046048757095 0 0.38904644684881928 0.24132625952220091 0 0.38261961330187982 0.22359689061779919 0 0.40723849349124719 0.2326046048757095 0 0.38261961330187982 0.22359689061779919 0 0.40723849349124719 0.2326046048757095 0 0.38261961330187982 0.22359689061779919 0 0.40339775823647972 0.21734219459125079 0 0.39162913623957141 0.2088006653695508 0 0.40339775823647972 0.21734219459125079 0 0.39162913623957141 0.2088006653695508 0 0.40336291443599548 0.20205661338301309 0 0.38261961330187982 0.22359689061779919 0 0.39162913623957141 0.2088006653695508 0 0.38062434040775872 0.2151158152384112 0 0.38261961330187982 0.22359689061779919 0 0.39162913623957141 0.2088006653695508 0 0.37353132084991841 0.20909636526528061 0 0.37378978781423788 0.21535935166171941 0 0.38062434040775872 0.2151158152384112 0 0.37378978781423788 0.21535935166171941 0 0.37713144353006262 0.21951947974540309 0 0.38062434040775872 0.2151158152384112 0 0.37353132084991841 0.20909636526528061 0 0.38062434040775872 0.2151158152384112 0 0.38208577601370691 0.2022669019466761 0 0.37239507437115182 0.19875944883037641 0 0.37353132084991841 0.20909636526528061 0 0.38208577601370691 0.2022669019466761 0 0.39162913623957141 0.2088006653695508 0 0.38062434040775872 0.2151158152384112 0 0.38208577601370691 0.2022669019466761 0 0.39162913623957141 0.2088006653695508 0 0.38208577601370691 0.2022669019466761 0 0.3938025083661868 0.1916661047533843 0 0.37239507437115182 0.19875944883037641 0 0.38208577601370691 0.2022669019466761 0 0.38053227584765431 0.19016301222305351 0 0.38208577601370691 0.2022669019466761 0 0.38053227584765431 0.19016301222305351 0 0.3938025083661868 0.1916661047533843 0 0.39162913623957141 0.2088006653695508 0 0.3938025083661868 0.1916661047533843 0 0.40336291443599548 0.20205661338301309 0 0.40684796025651643 0.1813147020506351 0 0.3938025083661868 0.1916661047533843 0 0.40560490095570401 0.1915511132540422 0 0.3938025083661868 0.1916661047533843 0 0.40336291443599548 0.20205661338301309 0 0.40560490095570401 0.1915511132540422 0 0.41866965560462388 0.17705231919419789 0 0.41460780154100291 0.19346088138744211 0 0.42520162646622828 0.19256676680955001 0 0.40684796025651643 0.1813147020506351 0 0.40560490095570401 0.1915511132540422 0 0.41460780154100291 0.19346088138744211 0 0.40336291443599548 0.20205661338301309 0 0.40560490095570401 0.1915511132540422 0 0.41460780154100291 0.19346088138744211 0 0.40336291443599548 0.20205661338301309 0 0.41460780154100291 0.19346088138744211 0 0.41483310281661923 0.20789706589109661 0 0.41460780154100291 0.19346088138744211 0 0.42286366008493681 0.20094885619986949 0 0.41483310281661923 0.20789706589109661 0 0.41460780154100291 0.19346088138744211 0 0.42520162646622828 0.19256676680955001 0 0.42286366008493681 0.20094885619986949 0 0.42520162646622828 0.19256676680955001 0 0.43451639964067329 0.19212502583999599 0 0.43096123480844978 0.20042782406414991 0 0.43742994246387762 0.18380664699281921 0 0.42520162646622828 0.19256676680955001 0 0.43451639964067329 0.19212502583999599 0 0.43451639964067329 0.19212502583999599 0 0.43096123480844978 0.20042782406414991 0 0.4462741648104297 0.19427178730614869 0 0.42520162646622828 0.19256676680955001 0 0.43096123480844978 0.20042782406414991 0 0.42286366008493681 0.20094885619986949 0 0.43096123480844978 0.20042782406414991 0 0.42286366008493681 0.20094885619986949 0 0.42728830194914802 0.20907629078970241 0 0.43096123480844978 0.20042782406414991 0 0.42728830194914802 0.20907629078970241 0 0.44174388208685311 0.20965339813639899 0 0.42728830194914802 0.20907629078970241 0 0.4279650748400306 0.2199515139935366 0 0.44174388208685311 0.20965339813639899 0 0.42728830194914802 0.20907629078970241 0 0.41483310281661923 0.20789706589109661 0 0.4279650748400306 0.2199515139935366 0 0.40339775823647972 0.21734219459125079 0 0.41483310281661923 0.20789706589109661 0 0.4279650748400306 0.2199515139935366 0 0.42286366008493681 0.20094885619986949 0 0.42728830194914802 0.20907629078970241 0 0.41483310281661923 0.20789706589109661 0 0.40339775823647972 0.21734219459125079 0 0.40336291443599548 0.20205661338301309 0 0.41483310281661923 0.20789706589109661 0 0.40339775823647972 0.21734219459125079 0 0.40723849349124719 0.2326046048757095 0 0.4279650748400306 0.2199515139935366 0 0.40723849349124719 0.2326046048757095 0 0.4279650748400306 0.2199515139935366 0 0.43185737368061472 0.2416123191336198 0 0.4279650748400306 0.2199515139935366 0 0.43185737368061472 0.2416123191336198 0 0.44733283965934778 0.22382980342559419 0 0.40723849349124719 0.2326046048757095 0 0.43185737368061472 0.2416123191336198 0 0.41519011662213018 0.25621305437172082 0 0.40723849349124719 0.2326046048757095 0 0.43185737368061472 0.2416123191336198 0 0.39977963730110577 0.25154022270667931 0 0.41519011662213018 0.25621305437172082 0 0.40723849349124719 0.2326046048757095 0 0.45647625386998181 0.25062003339153083 0 0.46625783612658889 0.2400068751657814 0 0.45647625386998181 0.25062003339153083 0 0.4676162735583666 0.25469601545930087 0 0.46625783612658889 0.2400068751657814 0 0.45647625386998181 0.25062003339153083 0 0.46625783612658889 0.2400068751657814 0 0.45215026876237607 0.23649731441151489 0 0.45647625386998181 0.25062003339153083 0 0.43185737368061472 0.2416123191336198 0 0.45647625386998181 0.25062003339153083 0 0.43185737368061472 0.2416123191336198 0 0.45215026876237607 0.23649731441151489 0 0.43185737368061472 0.2416123191336198 0 0.45215026876237607 0.23649731441151489 0 0.44733283965934778 0.22382980342559419 0 0.44733283965934778 0.22382980342559419 0 0.46087575747175308 0.22590066008256349 0 0.46695715396198978 0.21076863194994769 0 0.46087575747175308 0.22590066008256349 0 0.46695715396198978 0.21076863194994769 0 0.47232721311157277 0.2334215133517471 0 0.45215026876237607 0.23649731441151489 0 0.44733283965934778 0.22382980342559419 0 0.46087575747175308 0.22590066008256349 0 0.46625783612658889 0.2400068751657814 0 0.45215026876237607 0.23649731441151489 0 0.46087575747175308 0.22590066008256349 0 0.46625783612658889 0.2400068751657814 0 0.46087575747175308 0.22590066008256349 0 0.47232721311157277 0.2334215133517471 0 0.44733283965934778 0.22382980342559419 0 0.46695715396198978 0.21076863194994769 0 0.44174388208685311 0.20965339813639899 0 0.46695715396198978 0.21076863194994769 0 0.44174388208685311 0.20965339813639899 0 0.4462741648104297 0.19427178730614869 0 0.4279650748400306 0.2199515139935366 0 0.44733283965934778 0.22382980342559419 0 0.44174388208685311 0.20965339813639899 0 0.43096123480844978 0.20042782406414991 0 0.4462741648104297 0.19427178730614869 0 0.43096123480844978 0.20042782406414991 0 0.44174388208685311 0.20965339813639899 0 0.4462741648104297 0.19427178730614869 0 0.43742994246387762 0.18380664699281921 0 0.43451639964067329 0.19212502583999599 0 0.4462741648104297 0.19427178730614869 0 0.46695715396198978 0.21076863194994769 0 0.4462741648104297 0.19427178730614869 0 0.46158709481240962 0.18811575054814761 0 0.4462741648104297 0.19427178730614869 0 0.46158709481240962 0.18811575054814761 0 0.46695715396198978 0.21076863194994769 0 0.46158709481240962 0.18811575054814761 0 0.46695715396198978 0.21076863194994769 0 0.46158709481240962 0.18811575054814761 0 0.48258356712273193 0.19818640941457841 0 0.46158709481240962 0.18811575054814761 0 0.48258356712273193 0.19818640941457841 0 0.48079354740620428 0.18039445696534381 0 0.48258356712273193 0.19818640941457841 0 0.5 0.18803465135549161 0 0.48079354740620428 0.18039445696534381 0 0.48258356712273193 0.19818640941457841 0 0.5 0.18803465135549161 0 0.49999999999999978 0.20339613932844269 0 0.48258356712273193 0.19818640941457841 0 0.49999999999999978 0.20339613932844269 0 0.48616360655578872 0.21840882634009709 0 0.49999999999999978 0.20339613932844269 0 0.48616360655578872 0.21840882634009709 0 0.5 0.22754734138169699 0 0.49999999999999978 0.20339613932844269 0 0.48616360655578872 0.21840882634009709 0 0.46695715396198978 0.21076863194994769 0 0.48258356712273193 0.19818640941457841 0 0.48616360655578872 0.21840882634009709 0 0.46695715396198978 0.21076863194994769 0 0.47232721311157277 0.2334215133517471 0 0.46695715396198978 0.21076863194994769 0 0.48616360655578872 0.21840882634009709 0 0.47232721311157277 0.2334215133517471 0 0.48616360655578872 0.21840882634009709 0 0.47232721311157277 0.2334215133517471 0 0.48769723956875399 0.23770925833002279 0 0.48616360655578872 0.21840882634009709 0 0.47232721311157277 0.2334215133517471 0 0.48616360655578872 0.21840882634009709 0 0.5 0.22754734138169699 0 0.48769723956875399 0.23770925833002279 0 0.5 0.25169854343495118 0 0.48769723956875399 0.23770925833002279 0 0.47588751982959471 0.24844019444835849 0 0.5 0.25169854343495118 0 0.5 0.22754734138169699 0 0.48769723956875399 0.23770925833002279 0 0.47232721311157277 0.2334215133517471 0 0.48769723956875399 0.23770925833002279 0 0.47588751982959471 0.24844019444835849 0 0.46625783612658889 0.2400068751657814 0 0.47232721311157277 0.2334215133517471 0 0.47588751982959471 0.24844019444835849 0 0.47232721311157277 0.2334215133517471 0 0.47588751982959471 0.24844019444835849 0 0.46625783612658889 0.2400068751657814 0 0.47232721311157277 0.2334215133517471 0 0.46479813108120183 0.14244981695825459 0 0.44816418628133547 0.1314929934142163 0 0.45499158946715779 0.16029348710385699 0 0.46479813108120183 0.14244981695825459 0 0.45499158946715779 0.16029348710385699 0 0.47860036964801639 0.15377651366335571 0 0.46479813108120183 0.14244981695825459 0 0.46314399697609537 0.12536843352725249 0 0.47785371706908242 0.12964547793928791 0 0.46479813108120183 0.14244981695825459 0 0.46314399697609537 0.12536843352725249 0 0.44816418628133547 0.1314929934142163 0 0.44816418628133547 0.1314929934142163 0 0.44345646688301832 0.14401416657854421 0 0.43145954274652931 0.12708311344831599 0 0.44816418628133547 0.1314929934142163 0 0.44345646688301832 0.14401416657854421 0 0.43432904667462291 0.1682904666940469 0 0.44345646688301832 0.14401416657854421 0 0.44816418628133547 0.1314929934142163 0 0.45499158946715779 0.16029348710385699 0 0.44816418628133547 0.1314929934142163 0 0.44345646688301832 0.14401416657854421 0 0.45499158946715779 0.16029348710385699 0 0.44345646688301832 0.14401416657854421 0 0.45499158946715779 0.16029348710385699 0 0.43432904667462291 0.1682904666940469 0 0.44345646688301832 0.14401416657854421 0 0.45499158946715779 0.16029348710385699 0 0.43432904667462291 0.1682904666940469 0 0.44692236764569909 0.178955627729004 0 0.45499158946715779 0.16029348710385699 0 0.43742994246387762 0.18380664699281921 0 0.4462741648104297 0.19427178730614869 0 0.44692236764569909 0.178955627729004 0 0.43742994246387762 0.18380664699281921 0 0.43432904667462291 0.1682904666940469 0 0.44692236764569909 0.178955627729004 0 0.4462741648104297 0.19427178730614869 0 0.46158709481240962 0.18811575054814761 0 0.44692236764569909 0.178955627729004 0 0.46158709481240962 0.18811575054814761 0 0.44692236764569909 0.178955627729004 0 0.45499158946715779 0.16029348710385699 0 0.46158709481240962 0.18811575054814761 0 0.45499158946715779 0.16029348710385699 0 0.46158709481240962 0.18811575054814761 0 0.46642527495685449 0.1764296511987429 0 0.45499158946715779 0.16029348710385699 0 0.46642527495685449 0.1764296511987429 0 0.45499158946715779 0.16029348710385699 0 0.46642527495685449 0.1764296511987429 0 0.45499158946715779 0.16029348710385699 0 0.47616215629564579 0.16871345446276809 0 0.45499158946715779 0.16029348710385699 0 0.47616215629564579 0.16871345446276809 0 0.47860036964801639 0.15377651366335571 0 0.46158709481240962 0.18811575054814761 0 0.48079354740620428 0.18039445696534381 0 0.46158709481240962 0.18811575054814761 0 0.46642527495685449 0.1764296511987429 0 0.48079354740620428 0.18039445696534381 0 0.46642527495685449 0.1764296511987429 0 0.47616215629564579 0.16871345446276809 0 0.48079354740620428 0.18039445696534381 0 0.5 0.18803465135549161 0 0.48079354740620428 0.18039445696534381 0 0.49999999999999928 0.17267316338254049 0 0.48079354740620428 0.18039445696534381 0 0.49999999999999928 0.17267316338254049 0 0.47616215629564579 0.16871345446276809 0 0.48079354740620428 0.18039445696534381 0 0.49999999999999928 0.17267316338254049 0 0.49999999999999928 0.17267316338254049 0 0.5 0.14623476749186401 0 0.47860036964801639 0.15377651366335571 0 0.47616215629564579 0.16871345446276809 0 0.49999999999999928 0.17267316338254049 0 0.47860036964801639 0.15377651366335571 0 0.5 0.14623476749186401 0 0.47860036964801639 0.15377651366335571 0 0.47785371706908242 0.12964547793928791 0 0.46479813108120183 0.14244981695825459 0 0.47860036964801639 0.15377651366335571 0 0.47785371706908242 0.12964547793928791 0 0.5 0.14623476749186401 0 0.47785371706908242 0.12964547793928791 0 0.5 0.1197963716011876 0 0.47785371706908242 0.12964547793928791 0 0.5 0.1197963716011876 0 0.4814488261822345 0.1069292723707706 0 0.4814488261822345 0.1069292723707706 0 0.5 0.093357975710511187 0 0.47557581581983988 0.085004492748098431 0 0.5 0.1197963716011876 0 0.4814488261822345 0.1069292723707706 0 0.5 0.093357975710511187 0 0.4814488261822345 0.1069292723707706 0 0.46876657895733842 0.1141416279563725 0 0.465153511077607 0.098732259005410952 0 0.4814488261822345 0.1069292723707706 0 0.47557581581983988 0.085004492748098431 0 0.465153511077607 0.098732259005410952 0 0.47785371706908242 0.12964547793928791 0 0.4814488261822345 0.1069292723707706 0 0.46876657895733842 0.1141416279563725 0 0.46314399697609537 0.12536843352725249 0 0.47785371706908242 0.12964547793928791 0 0.46876657895733842 0.1141416279563725 0 0.5 0.066919579819834762 0 0.48593516698936878 0.073408451459184648 0 0.5 0.093357975710511187 0 0.5 0.066919579819834762 0 0.48593516698936878 0.073408451459184648 0 0.48213020129837919 0.054851398054295793 0 0.48593516698936878 0.073408451459184648 0 0.5 0.093357975710511187 0 0.47557581581983988 0.085004492748098431 0 0.48593516698936878 0.073408451459184648 0 0.47557581581983988 0.085004492748098431 0 0.47196981782862518 0.066908810963183102 0 0.48593516698936878 0.073408451459184648 0 0.47196981782862518 0.066908810963183102 0 0.48213020129837919 0.054851398054295793 0 0.47557581581983988 0.085004492748098431 0 0.47196981782862518 0.066908810963183102 0 0.46281269049019852 0.074272470107078672 0 0.46281269049019852 0.074272470107078672 0 0.44827483166113441 0.07370084363903201 0 0.45889923475422101 0.060259584595689773 0 0.44827483166113441 0.07370084363903201 0 0.45889923475422101 0.060259584595689773 0 0.47196981782862518 0.066908810963183102 0 0.46281269049019852 0.074272470107078672 0 0.45889923475422101 0.060259584595689773 0 0.46281269049019852 0.074272470107078672 0 0.45577316065726797 0.081005273748295067 0 0.44827483166113441 0.07370084363903201 0 0.45577316065726797 0.081005273748295067 0 0.45562426068332101 0.091018869660116269 0 0.44891901392742178 0.085116427490637692 0 0.46281269049019852 0.074272470107078672 0 0.45577316065726797 0.081005273748295067 0 0.46330790101669628 0.085554106762637624 0 0.45577316065726797 0.081005273748295067 0 0.46330790101669628 0.085554106762637624 0 0.45562426068332101 0.091018869660116269 0 0.47557581581983988 0.085004492748098431 0 0.46281269049019852 0.074272470107078672 0 0.46330790101669628 0.085554106762637624 0 0.47557581581983988 0.085004492748098431 0 0.46330790101669628 0.085554106762637624 0 0.465153511077607 0.098732259005410952 0 0.46330790101669628 0.085554106762637624 0 0.45562426068332101 0.091018869660116269 0 0.465153511077607 0.098732259005410952 0 0.45562426068332101 0.091018869660116269 0 0.44891901392742178 0.085116427490637692 0 0.44770885190236381 0.094467514318431256 0 0.43765042856804831 0.087142102682374739 0 0.44891901392742178 0.085116427490637692 0 0.44770885190236381 0.094467514318431256 0 0.43765042856804831 0.087142102682374739 0 0.44827483166113441 0.07370084363903201 0 0.43765042856804831 0.087142102682374739 0 0.44891901392742178 0.085116427490637692 0 0.44827483166113441 0.07370084363903201 0 0.43765042856804831 0.087142102682374739 0 0.44827483166113441 0.07370084363903201 0 0.43539594683224497 0.077631870865331354 0 0.45577316065726797 0.081005273748295067 0 0.44891901392742178 0.085116427490637692 0 0.44827483166113441 0.07370084363903201 0 0.44695026706617319 0.064332940704960845 0 0.43539594683224497 0.077631870865331354 0 0.43110958951022171 0.05955044171215168 0 0.44827483166113441 0.07370084363903201 0 0.44695026706617319 0.064332940704960845 0 0.43539594683224497 0.077631870865331354 0 0.44695026706617319 0.064332940704960845 0 0.43539594683224497 0.077631870865331354 0 0.44827483166113441 0.07370084363903201 0 0.44695026706617319 0.064332940704960845 0 0.45889923475422101 0.060259584595689773 0 0.46314399697609537 0.12536843352725249 0 0.44816418628133547 0.1314929934142163 0 0.45623284348167259 0.1100326969391406 0 0.46314399697609537 0.12536843352725249 0 0.46876657895733842 0.1141416279563725 0 0.45623284348167259 0.1100326969391406 0 0.46876657895733842 0.1141416279563725 0 0.45623284348167259 0.1100326969391406 0 0.465153511077607 0.098732259005410952 0 0.45562426068332101 0.091018869660116269 0 0.465153511077607 0.098732259005410952 0 0.45441379021468431 0.10049660789965389 0 0.45623284348167259 0.1100326969391406 0 0.465153511077607 0.098732259005410952 0 0.45441379021468431 0.10049660789965389 0 0.43765042856804831 0.087142102682374739 0 0.44770885190236381 0.094467514318431256 0 0.44290730742469631 0.10931754804829449 0 0.45623284348167259 0.1100326969391406 0 0.45441379021468431 0.10049660789965389 0 0.44290730742469631 0.10931754804829449 0 0.43765042856804831 0.087142102682374739 0 0.44290730742469631 0.10931754804829449 0 0.45562426068332101 0.091018869660116269 0 0.45441379021468431 0.10049660789965389 0 0.44770885190236381 0.094467514318431256 0 0.45441379021468431 0.10049660789965389 0 0.44770885190236381 0.094467514318431256 0 0.44290730742469631 0.10931754804829449 0 0.44816418628133547 0.1314929934142163 0 0.45623284348167259 0.1100326969391406 0 0.44290730742469631 0.10931754804829449 0 0.43145954274652931 0.12708311344831599 0 0.44816418628133547 0.1314929934142163 0 0.44290730742469631 0.10931754804829449 0 0.44816418628133547 0.1314929934142163 0 0.45623284348167259 0.1100326969391406 0 0.44816418628133547 0.1314929934142163 0 0.44290730742469631 0.10931754804829449 0 0.43145954274652931 0.12708311344831599 0 0.42127546188908221 0.1239960411161859 0 0.4194626186100387 0.11015206031808911 0 0.43145954274652931 0.12708311344831599 0 0.44290730742469631 0.10931754804829449 0 0.4194626186100387 0.11015206031808911 0 0.43145954274652931 0.12708311344831599 0 0.4194626186100387 0.11015206031808911 0 0.41478019807692418 0.12593539786138999 0 0.40769675716243142 0.12503741342449259 0 0.4194626186100387 0.11015206031808911 0 0.4095056004195356 0.1143744472136678 0 0.41392806161386442 0.1023412350191705 0 0.39764319394935349 0.12108498743009501 0 0.41478019807692418 0.12593539786138999 0 0.42127546188908221 0.1239960411161859 0 0.4194626186100387 0.11015206031808911 0 0.40769675716243142 0.12503741342449259 0 0.4194626186100387 0.11015206031808911 0 0.4095056004195356 0.1143744472136678 0 0.40769675716243142 0.12503741342449259 0 0.4194626186100387 0.11015206031808911 0 0.40769675716243142 0.12503741342449259 0 0.4095056004195356 0.1143744472136678 0 0.40527525567517858 0.1204700199416486 0 0.4194626186100387 0.11015206031808911 0 0.41392806161386442 0.1023412350191705 0 0.42466200422305539 0.089986552942251608 0 0.4194626186100387 0.11015206031808911 0 0.4095056004195356 0.1143744472136678 0 0.41392806161386442 0.1023412350191705 0 0.4194626186100387 0.11015206031808911 0 0.41392806161386442 0.1023412350191705 0 0.41392806161386442 0.1023412350191705 0 0.42466200422305539 0.089986552942251608 0 0.43765042856804831 0.087142102682374739 0 0.4194626186100387 0.11015206031808911 0 0.42466200422305539 0.089986552942251608 0 0.43765042856804831 0.087142102682374739 0 0.4194626186100387 0.11015206031808911 0 0.43765042856804831 0.087142102682374739 0 0.44290730742469631 0.10931754804829449 0 0.4194626186100387 0.11015206031808911 0 0.42466200422305539 0.089986552942251608 0 0.42569731884150608 0.077301963232087503 0 0.41695892967624593 0.072453749966772507 0 0.43765042856804831 0.087142102682374739 0 0.43539594683224497 0.077631870865331354 0 0.43765042856804831 0.087142102682374739 0 0.42466200422305539 0.089986552942251608 0 0.43539594683224497 0.077631870865331354 0 0.42466200422305539 0.089986552942251608 0 0.43539594683224497 0.077631870865331354 0 0.42466200422305539 0.089986552942251608 0 0.43539594683224497 0.077631870865331354 0 0.42569731884150608 0.077301963232087503 0 0.43539594683224497 0.077631870865331354 0 0.43110958951022171 0.05955044171215168 0 0.43539594683224497 0.077631870865331354 0 0.42577239463447941 0.069135679153994295 0 0.43110958951022171 0.05955044171215168 0 0.42569731884150608 0.077301963232087503 0 0.42577239463447941 0.069135679153994295 0 0.41695892967624593 0.072453749966772507 0 0.43539594683224497 0.077631870865331354 0 0.42569731884150608 0.077301963232087503 0 0.42577239463447941 0.069135679153994295 0 0.42577239463447941 0.069135679153994295 0 0.41695892967624593 0.072453749966772507 0 0.41991281143554271 0.056181263279091433 0 0.41695892967624593 0.072453749966772507 0 0.39958533392809598 0.064542988380651978 0 0.40565765411195531 0.054126972936676662 0 0.41392806161386442 0.1023412350191705 0 0.42466200422305539 0.089986552942251608 0 0.39796542827080372 0.07981344454930614 0 0.42466200422305539 0.089986552942251608 0 0.41695892967624593 0.072453749966772507 0 0.39796542827080372 0.07981344454930614 0 0.41392806161386442 0.1023412350191705 0 0.39796542827080372 0.07981344454930614 0 0.39796542827080372 0.07981344454930614 0 0.39958533392809598 0.064542988380651978 0 0.38708095687609262 0.058259455191487473 0 0.41695892967624593 0.072453749966772507 0 0.39796542827080372 0.07981344454930614 0 0.39958533392809598 0.064542988380651978 0 0.39796542827080372 0.07981344454930614 0 0.38200279492775091 0.057285654079436213 0 0.3655493984813572 0.068117119886358615 0 0.37907796159537632 0.077976084497466847 0 0.38200279492775091 0.057285654079436213 0 0.39796542827080372 0.07981344454930614 0 0.38200279492775091 0.057285654079436213 0 0.38708095687609262 0.058259455191487473 0 0.39796542827080372 0.07981344454930614 0 0.37907796159537632 0.077976084497466847 0 0.38200279492775091 0.057285654079436213 0 0.39796542827080372 0.07981344454930614 0 0.37907796159537632 0.077976084497466847 0 0.3809701484213564 0.10354431983044771 0 0.3809701484213564 0.10354431983044771 0 0.37703018163666319 0.1169655376785344 0 0.38853520789213453 0.1206241338259607 0 0.3809701484213564 0.10354431983044771 0 0.39764319394935349 0.12108498743009501 0 0.3809701484213564 0.10354431983044771 0 0.38853520789213453 0.1206241338259607 0 0.39764319394935349 0.12108498743009501 0 0.37155438552144998 0.1279060582428837 0 0.38396313478627958 0.12762814536926789 0 0.37703018163666319 0.1169655376785344 0 0.38396313478627958 0.12762814536926789 0 0.37703018163666319 0.1169655376785344 0 0.38853520789213453 0.1206241338259607 0 0.41392806161386442 0.1023412350191705 0 0.39764319394935349 0.12108498743009501 0 0.38853520789213453 0.1206241338259607 0 0.39764319394935349 0.12108498743009501 0 0.3959263065393997 0.1230611111046948 0 0.39203260045468802 0.12757650340287921 0 0.38853520789213453 0.1206241338259607 0 0.3959263065393997 0.1230611111046948 0 0.39764319394935349 0.12108498743009501 0 0.3959263065393997 0.1230611111046948 0 0.4095056004195356 0.1143744472136678 0 0.39764319394935349 0.12108498743009501 0 0.40527525567517858 0.1204700199416486 0 0.40424376916768529 0.12802903947366481 0 0.39764319394935349 0.12108498743009501 0 0.3959263065393997 0.1230611111046948 0 0.39764319394935349 0.12108498743009501 0 0.40527525567517858 0.1204700199416486 0 0.40313626129021812 0.12297936307423479 0 0.40424376916768529 0.12802903947366481 0 0.39764319394935349 0.12108498743009501 0 0.40424376916768529 0.12802903947366481 0 0.39764319394935349 0.12108498743009501 0 0.40313626129021812 0.12297936307423479 0 0.40769675716243142 0.12503741342449259 0 0.40527525567517858 0.1204700199416486 0 0.40313626129021812 0.12297936307423479 0 0.3809701484213564 0.10354431983044771 0 0.39764319394935349 0.12108498743009501 0 0.39762670806384448 0.10169599670725479 0 0.39796542827080372 0.07981344454930614 0 0.3809701484213564 0.10354431983044771 0 0.39762670806384448 0.10169599670725479 0 0.41392806161386442 0.1023412350191705 0 0.39764319394935349 0.12108498743009501 0 0.39762670806384448 0.10169599670725479 0 0.41392806161386442 0.1023412350191705 0 0.39796542827080372 0.07981344454930614 0 0.39762670806384448 0.10169599670725479 0 0.40349847540936601 0.014984419008706579 0 0.3970612349209951 0.033150740924336917 0 0.41668856808841559 0.02398805172632509 0 0.40349847540936601 0.014984419008706579 0 0.38846481573003488 0.012174508911997161 0 0.3970612349209951 0.033150740924336917 0 0.38846481573003488 0.012174508911997161 0 0.3970612349209951 0.033150740924336917 0 0.40349847540936601 0.014984419008706579 0 0.38846481573003488 0.012174508911997161 0 0.40188217154941991 -0.0013514814532323721 0 0.38846481573003488 0.012174508911997161 0 0.40188217154941991 -0.0013514814532323721 0 0.390685480365905 -0.0036449975442120579 0 0.36909861384751302 0.0062369004923781089 0 0.38846481573003488 0.012174508911997161 0 0.38131243673512882 0.026001829024623439 0 0.38846481573003488 0.012174508911997161 0 0.37986839653907473 -0.0088017231003426274 0 0.36909861384751302 0.0062369004923781089 0 0.38846481573003488 0.012174508911997161 0 0.37986839653907473 -0.0088017231003426274 0 0.38846481573003488 0.012174508911997161 0 0.38131243673512882 0.026001829024623439 0 0.3970612349209951 0.033150740924336917 0 0.38131243673512882 0.026001829024623439 0 0.38597050546820671 0.043792363526486418 0 0.3970612349209951 0.033150740924336917 0 0.36596701370889417 0.034654631267918588 0 0.38597050546820671 0.043792363526486418 0 0.38200279492775091 0.057285654079436213 0 0.36596701370889417 0.034654631267918588 0 0.38131243673512882 0.026001829024623439 0 0.38597050546820671 0.043792363526486418 0 0.38597050546820671 0.043792363526486418 0 0.38708095687609262 0.058259455191487473 0 0.39507113706106922 0.050774504191927902 0 0.38597050546820671 0.043792363526486418 0 0.38200279492775091 0.057285654079436213 0 0.38708095687609262 0.058259455191487473 0 0.38200279492775091 0.057285654079436213 0 0.38708095687609262 0.058259455191487473 0 0.39958533392809598 0.064542988380651978 0 0.38708095687609262 0.058259455191487473 0 0.39507113706106922 0.050774504191927902 0 0.39958533392809598 0.064542988380651978 0 0.39507113706106922 0.050774504191927902 0 0.40565765411195531 0.054126972936676662 0 0.40565765411195531 0.054126972936676662 0 0.3970612349209951 0.033150740924336917 0 0.41131347224234488 0.039559525860957213 0 0.40565765411195531 0.054126972936676662 0 0.3970612349209951 0.033150740924336917 0 0.39507113706106922 0.050774504191927902 0 0.40565765411195531 0.054126972936676662 0 0.3970612349209951 0.033150740924336917 0 0.38597050546820671 0.043792363526486418 0 0.39507113706106922 0.050774504191927902 0 0.3970612349209951 0.033150740924336917 0 0.41131347224234488 0.039559525860957213 0 0.41991281143554271 0.056181263279091433 0 0.42682323218819967 0.041469012558971757 0 0.41131347224234488 0.039559525860957213 0 0.42682323218819967 0.041469012558971757 0 0.41668856808841559 0.02398805172632509 0 0.3970612349209951 0.033150740924336917 0 0.41131347224234488 0.039559525860957213 0 0.41668856808841559 0.02398805172632509 0 0.40565765411195531 0.054126972936676662 0 0.41131347224234488 0.039559525860957213 0 0.41991281143554271 0.056181263279091433 0 0.41695892967624593 0.072453749966772507 0 0.40565765411195531 0.054126972936676662 0 0.41991281143554271 0.056181263279091433 0 0.41991281143554271 0.056181263279091433 0 0.43110958951022171 0.05955044171215168 0 0.42682323218819967 0.041469012558971757 0 0.43110958951022171 0.05955044171215168 0 0.42682323218819967 0.041469012558971757 0 0.43110958951022171 0.05955044171215168 0 0.42682323218819967 0.041469012558971757 0 0.44248654194716758 0.049908848887165541 0 0.42577239463447941 0.069135679153994295 0 0.41991281143554271 0.056181263279091433 0 0.43110958951022171 0.05955044171215168 0 0.42682323218819967 0.041469012558971757 0 0.43709237452325111 0.02577638329127678 0 0.44070914880421719 0.037919558422115203 0 0.42682323218819967 0.041469012558971757 0 0.44248654194716758 0.049908848887165541 0 0.44070914880421719 0.037919558422115203 0 0.43709237452325111 0.02577638329127678 0 0.41668856808841559 0.02398805172632509 0 0.43038682142773188 0.0062041082775384192 0 0.42682323218819967 0.041469012558971757 0 0.43709237452325111 0.02577638329127678 0 0.41668856808841559 0.02398805172632509 0 0.40349847540936601 0.014984419008706579 0 0.41668856808841559 0.02398805172632509 0 0.41339558675796428 0.0069602749341060761 0 0.41339558675796428 0.0069602749341060761 0 0.43038682142773188 0.0062041082775384192 0 0.41830876589503913 -0.0077348852993141988 0 0.41668856808841559 0.02398805172632509 0 0.41339558675796428 0.0069602749341060761 0 0.43038682142773188 0.0062041082775384192 0 0.40349847540936601 0.014984419008706579 0 0.41339558675796428 0.0069602749341060761 0 0.40188217154941991 -0.0013514814532323721 0 0.44633973602081378 0.010609817974053351 0 0.46190342482226632 0.0086137532046262656 0 0.44806623115436839 -0.0071531577580003546 0 0.43038682142773188 0.0062041082775384192 0 0.44633973602081378 0.010609817974053351 0 0.44806623115436839 -0.0071531577580003546 0 0.43709237452325111 0.02577638329127678 0 0.43038682142773188 0.0062041082775384192 0 0.44633973602081378 0.010609817974053351 0 0.43709237452325111 0.02577638329127678 0 0.45490711252487143 0.021608126062995909 0 0.45175425147000059 0.034383754643626321 0 0.43709237452325111 0.02577638329127678 0 0.44633973602081378 0.010609817974053351 0 0.45490711252487143 0.021608126062995909 0 0.45490711252487143 0.021608126062995909 0 0.46224388215995588 0.030825799232918338 0 0.45175425147000059 0.034383754643626321 0 0.46224388215995588 0.030825799232918338 0 0.47251668831401389 0.034560067134848597 0 0.46947205943085318 0.021748490632606182 0 0.45490711252487143 0.021608126062995909 0 0.46224388215995588 0.030825799232918338 0 0.46947205943085318 0.021748490632606182 0 0.45490711252487143 0.021608126062995909 0 0.46190342482226632 0.0086137532046262656 0 0.46947205943085318 0.021748490632606182 0 0.44633973602081378 0.010609817974053351 0 0.45490711252487143 0.021608126062995909 0 0.46190342482226632 0.0086137532046262656 0 0.44695026706617319 0.064332940704960845 0 0.43110958951022171 0.05955044171215168 0 0.44248654194716758 0.049908848887165541 0 0.44695026706617319 0.064332940704960845 0 0.44248654194716758 0.049908848887165541 0 0.45850458730009991 0.051034010544588899 0 0.44248654194716758 0.049908848887165541 0 0.45120476571630508 0.043014946037602142 0 0.45850458730009991 0.051034010544588899 0 0.44695026706617319 0.064332940704960845 0 0.45850458730009991 0.051034010544588899 0 0.44248654194716758 0.049908848887165541 0 0.45120476571630508 0.043014946037602142 0 0.44070914880421719 0.037919558422115203 0 0.43709237452325111 0.02577638329127678 0 0.44070914880421719 0.037919558422115203 0 0.45175425147000059 0.034383754643626321 0 0.45120476571630508 0.043014946037602142 0 0.44070914880421719 0.037919558422115203 0 0.45175425147000059 0.034383754643626321 0 0.46224388215995588 0.030825799232918338 0 0.45175425147000059 0.034383754643626321 0 0.46256929906004041 0.041828557690514689 0 0.46224388215995588 0.030825799232918338 0 0.46256929906004041 0.041828557690514689 0 0.47251668831401389 0.034560067134848597 0 0.45120476571630508 0.043014946037602142 0 0.45175425147000059 0.034383754643626321 0 0.46256929906004041 0.041828557690514689 0 0.45120476571630508 0.043014946037602142 0 0.46256929906004041 0.041828557690514689 0 0.45850458730009991 0.051034010544588899 0 0.46256929906004041 0.041828557690514689 0 0.46754869724344 0.054598302700198303 0 0.47410959836543048 0.045112961078687369 0 0.46256929906004041 0.041828557690514689 0 0.45850458730009991 0.051034010544588899 0 0.46754869724344 0.054598302700198303 0 0.47196981782862518 0.066908810963183102 0 0.46754869724344 0.054598302700198303 0 0.45889923475422101 0.060259584595689773 0 0.45850458730009991 0.051034010544588899 0 0.46754869724344 0.054598302700198303 0 0.45889923475422101 0.060259584595689773 0 0.44695026706617319 0.064332940704960845 0 0.45850458730009991 0.051034010544588899 0 0.45889923475422101 0.060259584595689773 0 0.47196981782862518 0.066908810963183102 0 0.46754869724344 0.054598302700198303 0 0.48213020129837919 0.054851398054295793 0 0.46754869724344 0.054598302700198303 0 0.48213020129837919 0.054851398054295793 0 0.47410959836543048 0.045112961078687369 0 0.48213020129837919 0.054851398054295793 0 0.47410959836543048 0.045112961078687369 0 0.48315076052663641 0.03726470098888246 0 0.46256929906004041 0.041828557690514689 0 0.47410959836543048 0.045112961078687369 0 0.47251668831401389 0.034560067134848597 0 0.47251668831401389 0.034560067134848597 0 0.48315076052663641 0.03726470098888246 0 0.47746928475445111 0.027572541517823419 0 0.47410959836543048 0.045112961078687369 0 0.47251668831401389 0.034560067134848597 0 0.48315076052663641 0.03726470098888246 0 0.48213020129837919 0.054851398054295793 0 0.48315076052663641 0.03726470098888246 0 0.50000000000000067 0.040481183929158317 0 0.48315076052663641 0.03726470098888246 0 0.50000000000000067 0.040481183929158317 0 0.48473763074630039 0.016716907314956422 0 0.5 0.066919579819834762 0 0.48213020129837919 0.054851398054295793 0 0.50000000000000067 0.040481183929158317 0 0.48473763074630039 0.016716907314956422 0 0.46947526149259972 -0.0070473692992451802 0 0.48473763074630039 0.016716907314956422 0 0.48709371571524868 -0.003261479794080222 0 0.46947526149259972 -0.0070473692992451802 0 0.46190342482226632 0.0086137532046262656 0 0.48473763074630039 0.016716907314956422 0 0.46947526149259972 -0.0070473692992451802 0 0.46190342482226632 0.0086137532046262656 0 0.46947205943085318 0.021748490632606182 0 0.48473763074630039 0.016716907314956422 0 0.48315076052663641 0.03726470098888246 0 0.47746928475445111 0.027572541517823419 0 0.48473763074630039 0.016716907314956422 0 0.47251668831401389 0.034560067134848597 0 0.46947205943085318 0.021748490632606182 0 0.47746928475445111 0.027572541517823419 0 0.46947205943085318 0.021748490632606182 0 0.47746928475445111 0.027572541517823419 0 0.48473763074630039 0.016716907314956422 0 0.50000000000000067 0.040481183929158317 0 0.48473763074630039 0.016716907314956422 0 0.50000000000000067 0.040481183929158317 0 0.48473763074630039 0.016716907314956422 0 0.5 0.012315275186936311 0 0.48473763074630039 0.016716907314956422 0 0.5 0.012315275186936311 0 0.48709371571524868 -0.003261479794080222 0 0.5 0.012315275186936311 0 0.48709371571524868 -0.003261479794080222 0 0.5 -0.01585063355528582 0 0.48709371571524868 -0.003261479794080222 0 0.46947526149259972 -0.0070473692992451802 0 0.47847697698141739 -0.029611821545309058 0 0.47847697698141739 -0.029611821545309058 0 0.5 -0.01585063355528582 0 0.5 -0.044016542297507837 0 0.48709371571524868 -0.003261479794080222 0 0.47847697698141739 -0.029611821545309058 0 0.5 -0.01585063355528582 0 0.5 -0.044016542297507837 0 0.48698330602965179 -0.061272261341214683 0 0.5 -0.072182451039729922 0 0.5 -0.044016542297507837 0 0.48698330602965179 -0.061272261341214683 0 0.47439764835789672 -0.051566615319364649 0 0.48698330602965179 -0.061272261341214683 0 0.47439764835789672 -0.051566615319364649 0 0.47388855414118303 -0.072360962171833562 0 0.47439764835789672 -0.051566615319364649 0 0.47388855414118303 -0.072360962171833562 0 0.46009485294123781 -0.063407221093350757 0 0.47847697698141739 -0.029611821545309058 0 0.47439764835789672 -0.051566615319364649 0 0.46545296516518819 -0.040297912691038537 0 0.47847697698141739 -0.029611821545309058 0 0.5 -0.044016542297507837 0 0.47439764835789672 -0.051566615319364649 0 0.46545296516518819 -0.040297912691038537 0 0.45302871367425662 -0.049933764347553818 0 0.45421289223889882 -0.03081164591344682 0 0.47847697698141739 -0.029611821545309058 0 0.46545296516518819 -0.040297912691038537 0 0.45421289223889882 -0.03081164591344682 0 0.47439764835789672 -0.051566615319364649 0 0.45302871367425662 -0.049933764347553818 0 0.46009485294123781 -0.063407221093350757 0 0.47439764835789672 -0.051566615319364649 0 0.46545296516518819 -0.040297912691038537 0 0.45302871367425662 -0.049933764347553818 0 0.45302871367425662 -0.049933764347553818 0 0.44212827525373349 -0.068612736861054083 0 0.43493470865549122 -0.053390743793520809 0 0.45302871367425662 -0.049933764347553818 0 0.46009485294123781 -0.063407221093350757 0 0.44212827525373349 -0.068612736861054083 0 0.45302871367425662 -0.049933764347553818 0 0.44246734012373101 -0.040138498882543117 0 0.43493470865549122 -0.053390743793520809 0 0.45302871367425662 -0.049933764347553818 0 0.44246734012373101 -0.040138498882543117 0 0.45421289223889882 -0.03081164591344682 0 0.44246734012373101 -0.040138498882543117 0 0.44279855404430418 -0.025143883911290871 0 0.45421289223889882 -0.03081164591344682 0 0.44279855404430418 -0.025143883911290871 0 0.44806623115436839 -0.0071531577580003546 0 0.45421289223889882 -0.03081164591344682 0 0.44279855404430418 -0.025143883911290871 0 0.44806623115436839 -0.0071531577580003546 0 0.43278072669222362 -0.01206743299497361 0 0.46947526149259972 -0.0070473692992451802 0 0.44806623115436839 -0.0071531577580003546 0 0.45421289223889882 -0.03081164591344682 0 0.46190342482226632 0.0086137532046262656 0 0.46947526149259972 -0.0070473692992451802 0 0.44806623115436839 -0.0071531577580003546 0 0.46947526149259972 -0.0070473692992451802 0 0.45421289223889882 -0.03081164591344682 0 0.46947526149259972 -0.0070473692992451802 0 0.47847697698141739 -0.029611821545309058 0 0.45421289223889882 -0.03081164591344682 0 0.48536452046868223 -0.11117807442961079 0 0.46804159012809748 -0.1075739587984407 0 0.47801784229779409 -0.12693947210822021 0 0.48536452046868223 -0.11117807442961079 0 0.5 -0.1003483597819521 0 0.50000000000000044 -0.12851426852417419 0 0.48536452046868223 -0.11117807442961079 0 0.50000000000000044 -0.12851426852417419 0 0.47801784229779409 -0.12693947210822021 0 0.48536452046868223 -0.11117807442961079 0 0.5 -0.1003483597819521 0 0.48076316991751911 -0.092514312935266685 0 0.48536452046868223 -0.11117807442961079 0 0.48076316991751911 -0.092514312935266685 0 0.46804159012809748 -0.1075739587984407 0 0.48076316991751911 -0.092514312935266685 0 0.462020927969642 -0.089353643139137656 0 0.46804159012809748 -0.1075739587984407 0 0.48076316991751911 -0.092514312935266685 0 0.47388855414118303 -0.072360962171833562 0 0.462020927969642 -0.089353643139137656 0 0.5 -0.1003483597819521 0 0.48076316991751911 -0.092514312935266685 0 0.5 -0.072182451039729922 0 0.48076316991751911 -0.092514312935266685 0 0.5 -0.072182451039729922 0 0.47388855414118303 -0.072360962171833562 0 0.48698330602965179 -0.061272261341214683 0 0.5 -0.072182451039729922 0 0.47388855414118303 -0.072360962171833562 0 0.47388855414118303 -0.072360962171833562 0 0.46009485294123781 -0.063407221093350757 0 0.45489497743810392 -0.076079574896867827 0 0.46009485294123781 -0.063407221093350757 0 0.45489497743810392 -0.076079574896867827 0 0.44212827525373349 -0.068612736861054083 0 0.45489497743810392 -0.076079574896867827 0 0.44212827525373349 -0.068612736861054083 0 0.44468983136015178 -0.086740898363212873 0 0.44468983136015178 -0.086740898363212873 0 0.462020927969642 -0.089353643139137656 0 0.44984744483279748 -0.1008521516692044 0 0.45489497743810392 -0.076079574896867827 0 0.44468983136015178 -0.086740898363212873 0 0.462020927969642 -0.089353643139137656 0 0.47388855414118303 -0.072360962171833562 0 0.45489497743810392 -0.076079574896867827 0 0.462020927969642 -0.089353643139137656 0 0.462020927969642 -0.089353643139137656 0 0.46804159012809748 -0.1075739587984407 0 0.44984744483279748 -0.1008521516692044 0 0.44468983136015178 -0.086740898363212873 0 0.44984744483279748 -0.1008521516692044 0 0.43430578692852162 -0.097946233678770117 0 0.44984744483279748 -0.1008521516692044 0 0.4402579155679025 -0.1119455457889663 0 0.43430578692852162 -0.097946233678770117 0 0.4402579155679025 -0.1119455457889663 0 0.43405352689338139 -0.1237898792763122 0 0.45603568459558769 -0.1253646756922662 0 0.44984744483279748 -0.1008521516692044 0 0.4402579155679025 -0.1119455457889663 0 0.45603568459558769 -0.1253646756922662 0 0.43405352689338139 -0.1237898792763122 0 0.45603568459558769 -0.1253646756922662 0 0.46804159012809748 -0.1075739587984407 0 0.45603568459558769 -0.1253646756922662 0 0.47801784229779409 -0.12693947210822021 0 0.46804159012809748 -0.1075739587984407 0 0.44984744483279748 -0.1008521516692044 0 0.45603568459558769 -0.1253646756922662 0 0.41223207255701028 -0.1116351367039546 0 0.41809802924037148 -0.1245556586332161 0 0.4029285439519591 -0.12917429444513351 0 0.41223207255701028 -0.1116351367039546 0 0.41809802924037148 -0.1245556586332161 0 0.42704713458922378 -0.11177478862827871 0 0.41809802924037148 -0.1245556586332161 0 0.42704713458922378 -0.11177478862827871 0 0.42997093061011571 -0.13418524686746491 0 0.43405352689338139 -0.1237898792763122 0 0.42704713458922378 -0.11177478862827871 0 0.42997093061011571 -0.13418524686746491 0 0.42704713458922378 -0.11177478862827871 0 0.42997093061011571 -0.13418524686746491 0 0.4402579155679025 -0.1119455457889663 0 0.43405352689338139 -0.1237898792763122 0 0.42704713458922378 -0.11177478862827871 0 0.42704713458922378 -0.11177478862827871 0 0.43430578692852162 -0.097946233678770117 0 0.42140842460601091 -0.10020300276393319 0 0.4402579155679025 -0.1119455457889663 0 0.42704713458922378 -0.11177478862827871 0 0.43430578692852162 -0.097946233678770117 0 0.43430578692852162 -0.097946233678770117 0 0.42140842460601091 -0.10020300276393319 0 0.4249059785733269 -0.084842765768954054 0 0.41223207255701028 -0.1116351367039546 0 0.42140842460601091 -0.10020300276393319 0 0.40787765064742021 -0.095502434015276264 0 0.41223207255701028 -0.1116351367039546 0 0.42704713458922378 -0.11177478862827871 0 0.42140842460601091 -0.10020300276393319 0 0.42140842460601091 -0.10020300276393319 0 0.40787765064742021 -0.095502434015276264 0 0.4249059785733269 -0.084842765768954054 0 0.40787765064742021 -0.095502434015276264 0 0.4249059785733269 -0.084842765768954054 0 0.40543357189758311 -0.077408115715914508 0 0.44212827525373349 -0.068612736861054083 0 0.44468983136015178 -0.086740898363212873 0 0.4249059785733269 -0.084842765768954054 0 0.44468983136015178 -0.086740898363212873 0 0.43430578692852162 -0.097946233678770117 0 0.4249059785733269 -0.084842765768954054 0 0.44212827525373349 -0.068612736861054083 0 0.42099339321936219 -0.066434553446371003 0 0.43493470865549122 -0.053390743793520809 0 0.44212827525373349 -0.068612736861054083 0 0.4249059785733269 -0.084842765768954054 0 0.42099339321936219 -0.066434553446371003 0 0.4249059785733269 -0.084842765768954054 0 0.42099339321936219 -0.066434553446371003 0 0.40543357189758311 -0.077408115715914508 0 0.42099339321936219 -0.066434553446371003 0 0.40543357189758311 -0.077408115715914508 0 0.406875079104003 -0.061823985721959747 0 0.40543357189758311 -0.077408115715914508 0 0.38700078851973452 -0.090159798354707762 0 0.39132114613694652 -0.06158886296756097 0 0.40543357189758311 -0.077408115715914508 0 0.406875079104003 -0.061823985721959747 0 0.39132114613694652 -0.06158886296756097 0 0.38700078851973452 -0.090159798354707762 0 0.39132114613694652 -0.06158886296756097 0 0.37005356554619001 -0.07659827762438684 0 0.38700078851973452 -0.090159798354707762 0 0.39132114613694652 -0.06158886296756097 0 0.39132114613694652 -0.06158886296756097 0 0.37269378129169922 -0.057419697024313023 0 0.37005356554619001 -0.07659827762438684 0 0.40787765064742021 -0.095502434015276264 0 0.40543357189758311 -0.077408115715914508 0 0.38700078851973452 -0.090159798354707762 0 0.40787765064742021 -0.095502434015276264 0 0.38700078851973452 -0.090159798354707762 0 0.39854389731572931 -0.1090404794521853 0 0.41223207255701028 -0.1116351367039546 0 0.40787765064742021 -0.095502434015276264 0 0.39854389731572931 -0.1090404794521853 0 0.38700078851973452 -0.090159798354707762 0 0.38268043090252241 -0.1187307337418545 0 0.38700078851973452 -0.090159798354707762 0 0.39854389731572931 -0.1090404794521853 0 0.38268043090252241 -0.1187307337418545 0 0.38700078851973452 -0.090159798354707762 0 0.38268043090252241 -0.1187307337418545 0 0.36338194566641369 -0.10150792429658349 0 0.39854389731572931 -0.1090404794521853 0 0.38268043090252241 -0.1187307337418545 0 0.4029285439519591 -0.12917429444513351 0 0.41223207255701028 -0.1116351367039546 0 0.39854389731572931 -0.1090404794521853 0 0.4029285439519591 -0.12917429444513351 0 0.42017257135643682 -0.026609778402821801 0 0.3975465886685694 -0.02807567289435272 0 0.40537496543039148 -0.0181323598715479 0 0.42017257135643682 -0.026609778402821801 0 0.41830876589503913 -0.0077348852993141988 0 0.40537496543039148 -0.0181323598715479 0 0.42017257135643682 -0.026609778402821801 0 0.3975465886685694 -0.02807567289435272 0 0.42017257135643682 -0.026609778402821801 0 0.40927820795407271 -0.035436148666985322 0 0.3975465886685694 -0.02807567289435272 0 0.41339558675796428 0.0069602749341060761 0 0.41830876589503913 -0.0077348852993141988 0 0.40188217154941991 -0.0013514814532323721 0 0.41830876589503913 -0.0077348852993141988 0 0.40537496543039148 -0.0181323598715479 0 0.40188217154941991 -0.0013514814532323721 0 0.42017257135643682 -0.026609778402821801 0 0.41830876589503913 -0.0077348852993141988 0 0.43278072669222362 -0.01206743299497361 0 0.43038682142773188 0.0062041082775384192 0 0.44806623115436839 -0.0071531577580003546 0 0.43278072669222362 -0.01206743299497361 0 0.43038682142773188 0.0062041082775384192 0 0.41830876589503913 -0.0077348852993141988 0 0.43278072669222362 -0.01206743299497361 0 0.44279855404430418 -0.025143883911290871 0 0.42017257135643682 -0.026609778402821801 0 0.44279855404430418 -0.025143883911290871 0 0.42017257135643682 -0.026609778402821801 0 0.4267967251304271 -0.040828234591711629 0 0.44279855404430418 -0.025143883911290871 0 0.42017257135643682 -0.026609778402821801 0 0.43278072669222362 -0.01206743299497361 0 0.44246734012373101 -0.040138498882543117 0 0.4267967251304271 -0.040828234591711629 0 0.43493470865549122 -0.053390743793520809 0 0.44246734012373101 -0.040138498882543117 0 0.44279855404430418 -0.025143883911290871 0 0.4267967251304271 -0.040828234591711629 0 0.4267967251304271 -0.040828234591711629 0 0.43493470865549122 -0.053390743793520809 0 0.41553408699255379 -0.049842131675817428 0 0.42099339321936219 -0.066434553446371003 0 0.43493470865549122 -0.053390743793520809 0 0.41553408699255379 -0.049842131675817428 0 0.42099339321936219 -0.066434553446371003 0 0.41553408699255379 -0.049842131675817428 0 0.406875079104003 -0.061823985721959747 0 0.41553408699255379 -0.049842131675817428 0 0.406875079104003 -0.061823985721959747 0 0.40367088354362102 -0.048465229562044999 0 0.4267967251304271 -0.040828234591711629 0 0.41553408699255379 -0.049842131675817428 0 0.40927820795407271 -0.035436148666985322 0 0.42017257135643682 -0.026609778402821801 0 0.4267967251304271 -0.040828234591711629 0 0.40927820795407271 -0.035436148666985322 0 0.41553408699255379 -0.049842131675817428 0 0.40927820795407271 -0.035436148666985322 0 0.40367088354362102 -0.048465229562044999 0 0.40927820795407271 -0.035436148666985322 0 0.39564150375415857 -0.033017927580414178 0 0.3975465886685694 -0.02807567289435272 0 0.40927820795407271 -0.035436148666985322 0 0.39564150375415857 -0.033017927580414178 0 0.40367088354362102 -0.048465229562044999 0 0.39564150375415857 -0.033017927580414178 0 0.38485245714265243 -0.033834410735546078 0 0.3975465886685694 -0.02807567289435272 0 0.39564150375415857 -0.033017927580414178 0 0.40367088354362102 -0.048465229562044999 0 0.39132114613694652 -0.06158886296756097 0 0.39564150375415857 -0.033017927580414178 0 0.39132114613694652 -0.06158886296756097 0 0.406875079104003 -0.061823985721959747 0 0.40367088354362102 -0.048465229562044999 0 0.39132114613694652 -0.06158886296756097 0 0.39132114613694652 -0.06158886296756097 0 0.38130675307229811 -0.04434643705146863 0 0.37269378129169922 -0.057419697024313023 0 0.39564150375415857 -0.033017927580414178 0 0.39132114613694652 -0.06158886296756097 0 0.38130675307229811 -0.04434643705146863 0 0.39564150375415857 -0.033017927580414178 0 0.38485245714265243 -0.033834410735546078 0 0.38130675307229811 -0.04434643705146863 0 0.38485245714265243 -0.033834410735546078 0 0.38130675307229811 -0.04434643705146863 0 0.37681622178135987 -0.037478248864893933 0 0.38485245714265243 -0.033834410735546078 0 0.37681622178135987 -0.037478248864893933 0 0.37492060598070209 -0.029541567385883479 0 0.38079459090889561 -0.021036065352780908 0 0.38822024265093358 -0.022846589718731481 0 0.37492060598070209 -0.029541567385883479 0 0.3975465886685694 -0.02807567289435272 0 0.37492060598070209 -0.029541567385883479 0 0.37986839653907473 -0.0088017231003426274 0 0.37127197734811351 -0.029777955112682001 0 0.38079459090889561 -0.021036065352780908 0 0.37492060598070209 -0.029541567385883479 0 0.38822024265093358 -0.022846589718731481 0 0.3975465886685694 -0.02807567289435272 0 0.37492060598070209 -0.029541567385883479 0 0.38485245714265243 -0.033834410735546078 0 0.3975465886685694 -0.02807567289435272 0 0.37492060598070209 -0.029541567385883479 0 0.38079459090889561 -0.021036065352780908 0 0.37127197734811351 -0.029777955112682001 0 0.37492060598070209 -0.029541567385883479 0 0.38079459090889561 -0.021036065352780908 0 0.37986839653907473 -0.0088017231003426274 0 0.37127197734811351 -0.029777955112682001 0 0.38079459090889561 -0.021036065352780908 0 0.38822024265093358 -0.022846589718731481 0 0.39199121835514172 -0.01404432802005285 0 0.38822024265093358 -0.022846589718731481 0 0.3975465886685694 -0.02807567289435272 0 0.3958150687469203 -0.021147265290375021 0 0.38822024265093358 -0.022846589718731481 0 0.3958150687469203 -0.021147265290375021 0 0.39199121835514172 -0.01404432802005285 0 0.3958150687469203 -0.021147265290375021 0 0.40537496543039148 -0.0181323598715479 0 0.39199121835514172 -0.01404432802005285 0 0.3975465886685694 -0.02807567289435272 0 0.3958150687469203 -0.021147265290375021 0 0.40537496543039148 -0.0181323598715479 0 0.40537496543039148 -0.0181323598715479 0 0.40188217154941991 -0.0013514814532323721 0 0.39199121835514172 -0.01404432802005285 0 0.40188217154941991 -0.0013514814532323721 0 0.39199121835514172 -0.01404432802005285 0 0.390685480365905 -0.0036449975442120579 0 0.38846481573003488 0.012174508911997161 0 0.390685480365905 -0.0036449975442120579 0 0.37986839653907473 -0.0088017231003426274 0 0.38079459090889561 -0.021036065352780908 0 0.39199121835514172 -0.01404432802005285 0 0.37986839653907473 -0.0088017231003426274 0 0.39199121835514172 -0.01404432802005285 0 0.390685480365905 -0.0036449975442120579 0 0.37986839653907473 -0.0088017231003426274 0 0.36909861384751302 0.0062369004923781089 0 0.36917274574799891 -0.015234216915674901 0 0.3559181981730396 -0.01207771809287486 0 0.36909861384751302 0.0062369004923781089 0 0.37986839653907473 -0.0088017231003426274 0 0.36917274574799891 -0.015234216915674901 0 0.37986839653907473 -0.0088017231003426274 0 0.36917274574799891 -0.015234216915674901 0 0.37127197734811351 -0.029777955112682001 0 0.36917274574799891 -0.015234216915674901 0 0.37127197734811351 -0.029777955112682001 0 0.3559181981730396 -0.01207771809287486 0 0.37127197734811351 -0.029777955112682001 0 0.37492060598070209 -0.029541567385883479 0 0.37127197734811351 -0.029777955112682001 0 0.34456582370023142 -0.031508196139666912 0 0.3559181981730396 -0.01207771809287486 0 0.33389545127119741 -0.010607414355128349 0 0.34456582370023142 -0.031508196139666912 0 0.37127197734811351 -0.029777955112682001 0 0.3559181981730396 -0.01207771809287486 0 0.34456582370023142 -0.031508196139666912 0 0.34993123249004582 0.012023608456395111 0 0.3559181981730396 -0.01207771809287486 0 0.33389545127119741 -0.010607414355128349 0 0.33389545127119741 -0.010607414355128349 0 0.31785967005234922 -0.033238437166652091 0 0.34456582370023142 -0.031508196139666912 0 0.33389545127119741 -0.010607414355128349 0 0.31785967005234922 -0.033238437166652091 0 0.3100633173531816 -0.016291383302169171 0 0.33389545127119741 -0.010607414355128349 0 0.31785967005234922 -0.033238437166652091 0 0.32428985140229089 0.0045442459904301274 0 0.33389545127119741 -0.010607414355128349 0 0.3100633173531816 -0.016291383302169171 0 0.32428985140229089 0.0045442459904301274 0 0.3084370594916051 0.00067207699937176261 0 0.3100633173531816 -0.016291383302169171 0 0.31612328822729258 -0.059275095265816258 0 0.33258224231859279 -0.039879474865671442 0 0.31612328822729258 -0.059275095265816258 0 0.33258224231859279 -0.039879474865671442 0 0.33112469782759452 -0.052755416762772157 0 0.31612328822729258 -0.059275095265816258 0 0.33112469782759452 -0.052755416762772157 0 0.32933493726664698 -0.062440336698660712 0 0.31612328822729258 -0.059275095265816258 0 0.31785967005234922 -0.033238437166652091 0 0.33258224231859279 -0.039879474865671442 0 0.31785967005234922 -0.033238437166652091 0 0.34456582370023142 -0.031508196139666912 0 0.31785967005234922 -0.033238437166652091 0 0.33258224231859279 -0.039879474865671442 0 0.34456582370023142 -0.031508196139666912 0 0.33258224231859279 -0.039879474865671442 0 0.34043628637428552 -0.046050744908789812 0 0.33112469782759452 -0.052755416762772157 0 0.33258224231859279 -0.039879474865671442 0 0.34043628637428552 -0.046050744908789812 0 0.34456582370023142 -0.031508196139666912 0 0.34043628637428552 -0.046050744908789812 0 0.33714673495115449 -0.056131432074922563 0 0.34711077221104131 -0.053604203772291817 0 0.34043628637428552 -0.046050744908789812 0 0.33112469782759452 -0.052755416762772157 0 0.33714673495115449 -0.056131432074922563 0 0.32933493726664698 -0.062440336698660712 0 0.33714673495115449 -0.056131432074922563 0 0.33914355508548338 -0.066320794040477693 0 0.33112469782759452 -0.052755416762772157 0 0.32933493726664698 -0.062440336698660712 0 0.33714673495115449 -0.056131432074922563 0 0.33714673495115449 -0.056131432074922563 0 0.34711077221104131 -0.053604203772291817 0 0.33914355508548338 -0.066320794040477693 0 0.34711077221104131 -0.053604203772291817 0 0.35006461325797572 -0.065532925760535751 0 0.33914355508548338 -0.066320794040477693 0 0.36618507092978658 -0.042190580286676958 0 0.35006461325797572 -0.065532925760535751 0 0.34711077221104131 -0.053604203772291817 0 0.36618507092978658 -0.042190580286676958 0 0.35006461325797572 -0.065532925760535751 0 0.36618507092978658 -0.042190580286676958 0 0.35736960086404418 -0.063701321129944199 0 0.35006461325797572 -0.065532925760535751 0 0.34043628637428552 -0.046050744908789812 0 0.34711077221104131 -0.053604203772291817 0 0.35036814075176048 -0.044443355452204583 0 0.34711077221104131 -0.053604203772291817 0 0.35036814075176048 -0.044443355452204583 0 0.36618507092978658 -0.042190580286676958 0 0.35036814075176048 -0.044443355452204583 0 0.35809775318247278 -0.036980021747807443 0 0.36618507092978658 -0.042190580286676958 0 0.37127197734811351 -0.029777955112682001 0 0.34456582370023142 -0.031508196139666912 0 0.35809775318247278 -0.036980021747807443 0 0.34456582370023142 -0.031508196139666912 0 0.35036814075176048 -0.044443355452204583 0 0.35809775318247278 -0.036980021747807443 0 0.34043628637428552 -0.046050744908789812 0 0.34456582370023142 -0.031508196139666912 0 0.35036814075176048 -0.044443355452204583 0 0.37127197734811351 -0.029777955112682001 0 0.35809775318247278 -0.036980021747807443 0 0.36618507092978658 -0.042190580286676958 0 0.38130675307229811 -0.04434643705146863 0 0.37681622178135987 -0.037478248864893933 0 0.36618507092978658 -0.042190580286676958 0 0.37681622178135987 -0.037478248864893933 0 0.37492060598070209 -0.029541567385883479 0 0.36618507092978658 -0.042190580286676958 0 0.37127197734811351 -0.029777955112682001 0 0.36618507092978658 -0.042190580286676958 0 0.37492060598070209 -0.029541567385883479 0 0.36618507092978658 -0.042190580286676958 0 0.37127197734811351 -0.029777955112682001 0 0.37492060598070209 -0.029541567385883479 0 0.36618507092978658 -0.042190580286676958 0 0.36618507092978658 -0.042190580286676958 0 0.37269378129169922 -0.057419697024313023 0 0.35736960086404418 -0.063701321129944199 0 0.36618507092978658 -0.042190580286676958 0 0.35736960086404418 -0.063701321129944199 0 0.38130675307229811 -0.04434643705146863 0 0.36618507092978658 -0.042190580286676958 0 0.37269378129169922 -0.057419697024313023 0 0.37269378129169922 -0.057419697024313023 0 0.37005356554619001 -0.07659827762438684 0 0.35736960086404418 -0.063701321129944199 0 0.37005356554619001 -0.07659827762438684 0 0.34855413079830239 -0.085212061973211656 0 0.36338194566641369 -0.10150792429658349 0 0.38700078851973452 -0.090159798354707762 0 0.37005356554619001 -0.07659827762438684 0 0.36338194566641369 -0.10150792429658349 0 0.34855413079830239 -0.085212061973211656 0 0.35006461325797572 -0.065532925760535751 0 0.33394415558616419 -0.088875271234394176 0 0.34855413079830239 -0.085212061973211656 0 0.35736960086404418 -0.063701321129944199 0 0.34855413079830239 -0.085212061973211656 0 0.35736960086404418 -0.063701321129944199 0 0.35006461325797572 -0.065532925760535751 0 0.37005356554619001 -0.07659827762438684 0 0.34855413079830239 -0.085212061973211656 0 0.35736960086404418 -0.063701321129944199 0 0.38268043090252241 -0.1187307337418545 0 0.36338194566641369 -0.10150792429658349 0 0.3536652365318943 -0.12733519680265429 0 0.34855413079830239 -0.085212061973211656 0 0.3397386607325612 -0.10672280281647931 0 0.34855413079830239 -0.085212061973211656 0 0.36338194566641369 -0.10150792429658349 0 0.3397386607325612 -0.10672280281647931 0 0.3397386607325612 -0.10672280281647931 0 0.3536652365318943 -0.12733519680265429 0 0.36338194566641369 -0.10150792429658349 0 0.3397386607325612 -0.10672280281647931 0 0.3536652365318943 -0.12733519680265429 0 0.33238356573625621 -0.1246700638432007 0 0.3397386607325612 -0.10672280281647931 0 0.3536652365318943 -0.12733519680265429 0 0.33238356573625621 -0.1246700638432007 0 0.3397386607325612 -0.10672280281647931 0 0.33238356573625621 -0.1246700638432007 0 0.32992626371395273 -0.10988115919502391 0 0.3397386607325612 -0.10672280281647931 0 0.32992626371395273 -0.10988115919502391 0 0.33695787000922561 -0.10260702053026589 0 0.33394415558616419 -0.088875271234394176 0 0.34855413079830239 -0.085212061973211656 0 0.3397386607325612 -0.10672280281647931 0 0.33695787000922561 -0.10260702053026589 0 0.32992626371395273 -0.10988115919502391 0 0.3397386607325612 -0.10672280281647931 0 0.33695787000922561 -0.10260702053026589 0 0.3397386607325612 -0.10672280281647931 0 0.33695787000922561 -0.10260702053026589 0 0.3178236979143525 -0.1122176167082527 0 0.31819808276666378 -0.091098456324580912 0 0.30447614669950152 -0.097708086838430852 0 0.3178236979143525 -0.1122176167082527 0 0.33394415558616419 -0.088875271234394176 0 0.31819808276666378 -0.091098456324580912 0 0.3178236979143525 -0.1122176167082527 0 0.33394415558616419 -0.088875271234394176 0 0.32992626371395273 -0.10988115919502391 0 0.3178236979143525 -0.1122176167082527 0 0.33394415558616419 -0.088875271234394176 0 0.33238356573625621 -0.1246700638432007 0 0.3178236979143525 -0.1122176167082527 0 0.30170324024254092 -0.13555996218211119 0 0.33238356573625621 -0.1246700638432007 0 0.32992626371395273 -0.10988115919502391 0 0.3178236979143525 -0.1122176167082527 0 0.35006461325797572 -0.065532925760535751 0 0.33914355508548338 -0.066320794040477693 0 0.33394415558616419 -0.088875271234394176 0 0.33124208916306752 -0.070838285854241803 0 0.33914355508548338 -0.066320794040477693 0 0.33394415558616419 -0.088875271234394176 0 0.35006461325797572 -0.065532925760535751 0 0.33394415558616419 -0.088875271234394176 0 0.32933493726664698 -0.062440336698660712 0 0.33124208916306752 -0.070838285854241803 0 0.33914355508548338 -0.066320794040477693 0 0.34855413079830239 -0.085212061973211656 0 0.33695787000922561 -0.10260702053026589 0 0.33394415558616419 -0.088875271234394176 0 0.33124208916306752 -0.070838285854241803 0 0.33394415558616419 -0.088875271234394176 0 0.32441410858025432 -0.080765262628494594 0 0.33394415558616419 -0.088875271234394176 0 0.32441410858025432 -0.080765262628494594 0 0.31819808276666378 -0.091098456324580912 0 0.31819808276666378 -0.091098456324580912 0 0.31717626352542488 -0.081675693920731651 0 0.30972755686829639 -0.085122337361762723 0 0.31717626352542488 -0.081675693920731651 0 0.3128402789233915 -0.075216489604559275 0 0.30972755686829639 -0.085122337361762723 0 0.32441410858025432 -0.080765262628494594 0 0.31819808276666378 -0.091098456324580912 0 0.31717626352542488 -0.081675693920731651 0 0.31717626352542488 -0.081675693920731651 0 0.3128402789233915 -0.075216489604559275 0 0.32150995185995118 -0.071338605808524455 0 0.31612328822729258 -0.059275095265816258 0 0.3128402789233915 -0.075216489604559275 0 0.32150995185995118 -0.071338605808524455 0 0.32441410858025432 -0.080765262628494594 0 0.31717626352542488 -0.081675693920731651 0 0.32150995185995118 -0.071338605808524455 0 0.33124208916306752 -0.070838285854241803 0 0.32441410858025432 -0.080765262628494594 0 0.32150995185995118 -0.071338605808524455 0 0.32933493726664698 -0.062440336698660712 0 0.33124208916306752 -0.070838285854241803 0 0.32150995185995118 -0.071338605808524455 0 0.31612328822729258 -0.059275095265816258 0 0.32933493726664698 -0.062440336698660712 0 0.32150995185995118 -0.071338605808524455 0 0.31612328822729258 -0.059275095265816258 0 0.30068220208848551 -0.064461724945827859 0 0.29966433413599242 -0.078670715665961205 0 0.31612328822729258 -0.059275095265816258 0 0.3128402789233915 -0.075216489604559275 0 0.29966433413599242 -0.078670715665961205 0 0.31612328822729258 -0.059275095265816258 0 0.29966433413599242 -0.078670715665961205 0 0.30068220208848551 -0.064461724945827859 0 0.29966433413599242 -0.078670715665961205 0 0.29174467363149131 -0.071933042261296418 0 0.3128402789233915 -0.075216489604559275 0 0.30972755686829639 -0.085122337361762723 0 0.29966433413599242 -0.078670715665961205 0 0.30972755686829639 -0.085122337361762723 0 0.29966433413599242 -0.078670715665961205 0 0.30447614669950152 -0.097708086838430852 0 0.31819808276666378 -0.091098456324580912 0 0.30972755686829639 -0.085122337361762723 0 0.30447614669950152 -0.097708086838430852 0 0.29966433413599242 -0.078670715665961205 0 0.28320538004469209 -0.098066336066106055 0 0.29966433413599242 -0.078670715665961205 0 0.30447614669950152 -0.097708086838430852 0 0.28320538004469209 -0.098066336066106055 0 0.29966433413599242 -0.078670715665961205 0 0.28320538004469209 -0.098066336066106055 0 0.27980101819816589 -0.077986999334262799 0 0.28264746743242603 -0.062618378529017776 0 0.29174467363149131 -0.071933042261296418 0 0.27586501636160837 -0.065917900788499934 0 0.29966433413599242 -0.078670715665961205 0 0.29174467363149131 -0.071933042261296418 0 0.27980101819816589 -0.077986999334262799 0 0.28264746743242603 -0.062618378529017776 0 0.29174467363149131 -0.071933042261296418 0 0.29248891400058269 -0.05877025574232575 0 0.30068220208848551 -0.064461724945827859 0 0.29174467363149131 -0.071933042261296418 0 0.29248891400058269 -0.05877025574232575 0 0.3178236979143525 -0.1122176167082527 0 0.29702705167923699 -0.1146271593805115 0 0.30170324024254092 -0.13555996218211119 0 0.3178236979143525 -0.1122176167082527 0 0.30170324024254092 -0.13555996218211119 0 0.3178236979143525 -0.1122176167082527 0 0.29702705167923699 -0.1146271593805115 0 0.30447614669950152 -0.097708086838430852 0 0.29702705167923699 -0.1146271593805115 0 0.30447614669950152 -0.097708086838430852 0 0.28320538004469209 -0.098066336066106055 0 0.29702705167923699 -0.1146271593805115 0 0.28320538004469209 -0.098066336066106055 0 0.27508226902004979 -0.12538382156482611 0 0.28320538004469209 -0.098066336066106055 0 0.2555976831826946 -0.097776824926890368 0 0.27203342762988719 -0.087173556127698018 0 0.28320538004469209 -0.098066336066106055 0 0.2555976831826946 -0.097776824926890368 0 0.27508226902004979 -0.12538382156482611 0 0.2555976831826946 -0.097776824926890368 0 0.27508226902004979 -0.12538382156482611 0 0.24519980570365221 -0.12581360546915299 0 0.2555976831826946 -0.097776824926890368 0 0.24519980570365221 -0.12581360546915299 0 0.29174467363149131 -0.071933042261296418 0 0.26599556066173707 -0.069740044384627706 0 0.29174467363149131 -0.071933042261296418 0 0.26599556066173707 -0.069740044384627706 0 0.27586501636160837 -0.065917900788499934 0 0.29174467363149131 -0.071933042261296418 0 0.26599556066173707 -0.069740044384627706 0 0.27980101819816589 -0.077986999334262799 0 0.27044118367174608 -0.077440070825352605 0 0.26599556066173707 -0.069740044384627706 0 0.27980101819816589 -0.077986999334262799 0 0.26599556066173707 -0.069740044384627706 0 0.26859794288035799 -0.066578580494666084 0 0.27586501636160837 -0.065917900788499934 0 0.26599556066173707 -0.069740044384627706 0 0.26859794288035799 -0.066578580494666084 0 0.26548703533093548 -0.066705310873265977 0 0.26568850322730098 -0.065253537867017541 0 0.26956613604297308 -0.063373692440574003 0 0.26388937419802783 -0.061895847476177879 0 0.26859794288035799 -0.066578580494666084 0 0.26568850322730098 -0.065253537867017541 0 0.26548703533093548 -0.066705310873265977 0 0.26859794288035799 -0.066578580494666084 0 0.26568850322730098 -0.065253537867017541 0 0.26956613604297308 -0.063373692440574003 0 0.26859794288035799 -0.066578580494666084 0 0.26956613604297308 -0.063373692440574003 0 0.27586501636160837 -0.065917900788499934 0 0.26956613604297308 -0.063373692440574003 0 0.27586501636160837 -0.065917900788499934 0 0.27568573979135819 -0.061194152054485709 0 0.28264746743242603 -0.062618378529017776 0 0.27586501636160837 -0.065917900788499934 0 0.27568573979135819 -0.061194152054485709 0 0.28320538004469209 -0.098066336066106055 0 0.27980101819816589 -0.077986999334262799 0 0.27203342762988719 -0.087173556127698018 0 0.2555976831826946 -0.097776824926890368 0 0.27044118367174608 -0.077440070825352605 0 0.27203342762988719 -0.087173556127698018 0 0.27044118367174608 -0.077440070825352605 0 0.27980101819816589 -0.077986999334262799 0 0.27203342762988719 -0.087173556127698018 0 0.2555976831826946 -0.097776824926890368 0 0.27044118367174608 -0.077440070825352605 0 0.26599556066173707 -0.069740044384627706 0 0.2555976831826946 -0.097776824926890368 0 0.26599556066173707 -0.069740044384627706 0 0.252679373456828 -0.080748026421374769 0 0.2555976831826946 -0.097776824926890368 0 0.26599556066173707 -0.069740044384627706 0 0.26599556066173707 -0.069740044384627706 0 0.252679373456828 -0.080748026421374769 0 0.25149583211142079 -0.073284726092292446 0 0.26599556066173707 -0.069740044384627706 0 0.25149583211142079 -0.073284726092292446 0 0.2421906552545611 -0.067019104370792421 0 0.26599556066173707 -0.069740044384627706 0 0.26069403077305697 -0.065513051815335871 0 0.24752958393788471 -0.066322914211265252 0 0.26599556066173707 -0.069740044384627706 0 0.24752958393788471 -0.066322914211265252 0 0.2421906552545611 -0.067019104370792421 0 0.26599556066173707 -0.069740044384627706 0 0.2421906552545611 -0.067019104370792421 0 0.26568850322730098 -0.065253537867017541 0 0.26548703533093548 -0.066705310873265977 0 0.26069403077305697 -0.065513051815335871 0 0.26568850322730098 -0.065253537867017541 0 0.26069403077305697 -0.065513051815335871 0 0.26388937419802783 -0.061895847476177879 0 0.26599556066173707 -0.069740044384627706 0 0.26548703533093548 -0.066705310873265977 0 0.26069403077305697 -0.065513051815335871 0 0.26069403077305697 -0.065513051815335871 0 0.26009896326405968 -0.061456879003810173 0 0.26388937419802783 -0.061895847476177879 0 0.26069403077305697 -0.065513051815335871 0 0.25658122001858491 -0.06274115568125388 0 0.26009896326405968 -0.061456879003810173 0 0.26069403077305697 -0.065513051815335871 0 0.25658122001858491 -0.06274115568125388 0 0.24752958393788471 -0.066322914211265252 0 0.25285255830909897 -0.041201041574646727 0 0.24752958393788471 -0.066322914211265252 0 0.25923122806656901 -0.055677461042473057 0 0.25285255830909897 -0.041201041574646727 0 0.24752958393788471 -0.066322914211265252 0 0.25658122001858491 -0.06274115568125388 0 0.25923122806656901 -0.055677461042473057 0 0.24752958393788471 -0.066322914211265252 0 0.25923122806656901 -0.055677461042473057 0 0.26945131723713062 -0.056971830462735323 0 0.26749680052027319 -0.045995390219771878 0 0.25923122806656901 -0.055677461042473057 0 0.26749680052027319 -0.045995390219771878 0 0.25285255830909897 -0.041201041574646727 0 0.25923122806656901 -0.055677461042473057 0 0.26388937419802783 -0.061895847476177879 0 0.26945131723713062 -0.056971830462735323 0 0.26009896326405968 -0.061456879003810173 0 0.25923122806656901 -0.055677461042473057 0 0.26388937419802783 -0.061895847476177879 0 0.25658122001858491 -0.06274115568125388 0 0.26009896326405968 -0.061456879003810173 0 0.25923122806656901 -0.055677461042473057 0 0.26956613604297308 -0.063373692440574003 0 0.26388937419802783 -0.061895847476177879 0 0.26945131723713062 -0.056971830462735323 0 0.26956613604297308 -0.063373692440574003 0 0.26945131723713062 -0.056971830462735323 0 0.27568573979135819 -0.061194152054485709 0 0.26945131723713062 -0.056971830462735323 0 0.28117618802921668 -0.05235079415072616 0 0.26749680052027319 -0.045995390219771878 0 0.28264746743242603 -0.062618378529017776 0 0.28117618802921668 -0.05235079415072616 0 0.27568573979135819 -0.061194152054485709 0 0.26945131723713062 -0.056971830462735323 0 0.28117618802921668 -0.05235079415072616 0 0.27568573979135819 -0.061194152054485709 0 0.2806107996170556 -0.035355177483722633 0 0.27268398483100359 -0.035273121562662789 0 0.27990939836770551 -0.027893146479206099 0 0.2806107996170556 -0.035355177483722633 0 0.27655083520392448 -0.042269817778551197 0 0.27268398483100359 -0.035273121562662789 0 0.28117618802921668 -0.05235079415072616 0 0.27655083520392448 -0.042269817778551197 0 0.26749680052027319 -0.045995390219771878 0 0.28117618802921668 -0.05235079415072616 0 0.27655083520392448 -0.042269817778551197 0 0.28371797069443588 -0.04180987109130152 0 0.2806107996170556 -0.035355177483722633 0 0.27655083520392448 -0.042269817778551197 0 0.28371797069443588 -0.04180987109130152 0 0.27655083520392448 -0.042269817778551197 0 0.26749680052027319 -0.045995390219771878 0 0.27268398483100359 -0.035273121562662789 0 0.26749680052027319 -0.045995390219771878 0 0.27268398483100359 -0.035273121562662789 0 0.26512551099602011 -0.035224547424097863 0 0.27268398483100359 -0.035273121562662789 0 0.26512551099602011 -0.035224547424097863 0 0.27034983971768772 -0.027497381001413339 0 0.26512551099602011 -0.035224547424097863 0 0.25285255830909897 -0.041201041574646727 0 0.26338654314138682 -0.02666940318757554 0 0.26749680052027319 -0.045995390219771878 0 0.26512551099602011 -0.035224547424097863 0 0.25285255830909897 -0.041201041574646727 0 0.25285255830909897 -0.041201041574646727 0 0.25817553268031312 -0.01607916893802816 0 0.25285255830909897 -0.041201041574646727 0 0.25817553268031312 -0.01607916893802816 0 0.2462810632475016 -0.0267022375416851 0 0.25285255830909897 -0.041201041574646727 0 0.25817553268031312 -0.01607916893802816 0 0.26338654314138682 -0.02666940318757554 0 0.25817553268031312 -0.01607916893802816 0 0.26507354242832087 -0.0183998427927442 0 0.26338654314138682 -0.02666940318757554 0 0.25817553268031312 -0.01607916893802816 0 0.26507354242832087 -0.0183998427927442 0 0.25817553268031312 -0.01607916893802816 0 0.26507354242832087 -0.0183998427927442 0 0.26559496338202748 -0.014161613301403199 0 0.26249141269217191 0.0042897038784872124 0 0.25817553268031312 -0.01607916893802816 0 0.26249141269217191 0.0042897038784872124 0 0.25817553268031312 -0.01607916893802816 0 0.26559496338202748 -0.014161613301403199 0 0.26249141269217191 0.0042897038784872124 0 0.25817553268031312 -0.01607916893802816 0 0.23525203801956171 -0.0083670959399735415 0 0.26620112804302892 0.0052484816967997266 0 0.26249141269217191 0.0042897038784872124 0 0.26559496338202748 -0.014161613301403199 0 0.26620112804302892 0.0052484816967997266 0 0.26559496338202748 -0.014161613301403199 0 0.26620112804302892 0.0052484816967997266 0 0.26559496338202748 -0.014161613301403199 0 0.26882831774364357 -0.0061206532463611418 0 0.26950436116676529 5.0784174151398597e-05 0 0.26620112804302892 0.0052484816967997266 0 0.26882831774364357 -0.0061206532463611418 0 0.26950436116676529 5.0784174151398597e-05 0 0.27342826679344762 -0.001719184532610826 0 0.27047363337969832 -0.003122736703557066 0 0.26950436116676529 5.0784174151398597e-05 0 0.27047363337969832 -0.003122736703557066 0 0.26882831774364357 -0.0061206532463611418 0 0.27342826679344762 -0.001719184532610826 0 0.27047363337969832 -0.003122736703557066 0 0.27251236210179047 -0.0056080626697872877 0 0.26882831774364357 -0.0061206532463611418 0 0.27251236210179047 -0.0056080626697872877 0 0.27254304326544249 -0.010829131196369751 0 0.27047363337969832 -0.003122736703557066 0 0.26882831774364357 -0.0061206532463611418 0 0.27251236210179047 -0.0056080626697872877 0 0.26559496338202748 -0.014161613301403199 0 0.26882831774364357 -0.0061206532463611418 0 0.26901210708933881 -0.01166485402952439 0 0.26882831774364357 -0.0061206532463611418 0 0.27254304326544249 -0.010829131196369751 0 0.26901210708933881 -0.01166485402952439 0 0.26559496338202748 -0.014161613301403199 0 0.26901210708933881 -0.01166485402952439 0 0.26908210396624138 -0.01554801837396344 0 0.27254304326544249 -0.010829131196369751 0 0.26901210708933881 -0.01166485402952439 0 0.26908210396624138 -0.01554801837396344 0 0.27254304326544249 -0.010829131196369751 0 0.26908210396624138 -0.01554801837396344 0 0.2744280876361504 -0.017113085006664679 0 0.27254304326544249 -0.010829131196369751 0 0.27910547273021552 -0.01198476158282614 0 0.2744280876361504 -0.017113085006664679 0 0.27254304326544249 -0.010829131196369751 0 0.27910547273021552 -0.01198476158282614 0 0.27655938171606731 -0.0058674636309922106 0 0.27251236210179047 -0.0056080626697872877 0 0.27254304326544249 -0.010829131196369751 0 0.27655938171606731 -0.0058674636309922106 0 0.27342826679344762 -0.001719184532610826 0 0.27251236210179047 -0.0056080626697872877 0 0.27655938171606731 -0.0058674636309922106 0 0.27910547273021552 -0.01198476158282614 0 0.27655938171606731 -0.0058674636309922106 0 0.28397241609992152 -0.005100297287691383 0 0.27830450817623342 0.00016121309183629701 0 0.27655938171606731 -0.0058674636309922106 0 0.28397241609992152 -0.005100297287691383 0 0.27830450817623342 0.00016121309183629701 0 0.27342826679344762 -0.001719184532610826 0 0.27655938171606731 -0.0058674636309922106 0 0.26512551099602011 -0.035224547424097863 0 0.26338654314138682 -0.02666940318757554 0 0.27034983971768772 -0.027497381001413339 0 0.27034983971768772 -0.027497381001413339 0 0.2696858453667888 -0.021395780115632139 0 0.27566463051677598 -0.022898831679742989 0 0.26338654314138682 -0.02666940318757554 0 0.27034983971768772 -0.027497381001413339 0 0.2696858453667888 -0.021395780115632139 0 0.26507354242832087 -0.0183998427927442 0 0.26338654314138682 -0.02666940318757554 0 0.2696858453667888 -0.021395780115632139 0 0.26507354242832087 -0.0183998427927442 0 0.26559496338202748 -0.014161613301403199 0 0.26908210396624138 -0.01554801837396344 0 0.26507354242832087 -0.0183998427927442 0 0.26908210396624138 -0.01554801837396344 0 0.2696858453667888 -0.021395780115632139 0 0.26908210396624138 -0.01554801837396344 0 0.2696858453667888 -0.021395780115632139 0 0.2744280876361504 -0.017113085006664679 0 0.2696858453667888 -0.021395780115632139 0 0.27566463051677598 -0.022898831679742989 0 0.2744280876361504 -0.017113085006664679 0 0.27910547273021552 -0.01198476158282614 0 0.2744280876361504 -0.017113085006664679 0 0.28281354929038632 -0.018431171153073911 0 0.27566463051677598 -0.022898831679742989 0 0.27990939836770551 -0.027893146479206099 0 0.28281354929038632 -0.018431171153073911 0 0.27566463051677598 -0.022898831679742989 0 0.2744280876361504 -0.017113085006664679 0 0.28281354929038632 -0.018431171153073911 0 0.27034983971768772 -0.027497381001413339 0 0.27566463051677598 -0.022898831679742989 0 0.27990939836770551 -0.027893146479206099 0 0.27268398483100359 -0.035273121562662789 0 0.27034983971768772 -0.027497381001413339 0 0.27990939836770551 -0.027893146479206099 0 0.27990939836770551 -0.027893146479206099 0 0.28854657041947801 -0.02536591679524423 0 0.28281354929038632 -0.018431171153073911 0 0.27990939836770551 -0.027893146479206099 0 0.28854657041947801 -0.02536591679524423 0 0.2888622132689781 -0.033575821226129739 0 0.28281354929038632 -0.018431171153073911 0 0.29348092137777959 -0.017582422929641631 0 0.28800415063365942 -0.01115577843642509 0 0.28854657041947801 -0.02536591679524423 0 0.28281354929038632 -0.018431171153073911 0 0.29348092137777959 -0.017582422929641631 0 0.28854657041947801 -0.02536591679524423 0 0.29348092137777959 -0.017582422929641631 0 0.29707285050847282 -0.027445714552001371 0 0.28854657041947801 -0.02536591679524423 0 0.29707285050847282 -0.027445714552001371 0 0.2888622132689781 -0.033575821226129739 0 0.28397241609992152 -0.005100297287691383 0 0.28800415063365942 -0.01115577843642509 0 0.29480674430808651 -0.0053593656848261971 0 0.28620635765796709 0.003067424845049098 0 0.27830450817623342 0.00016121309183629701 0 0.28397241609992152 -0.005100297287691383 0 0.28620635765796709 0.003067424845049098 0 0.28397241609992152 -0.005100297287691383 0 0.29480674430808651 -0.0053593656848261971 0 0.27910547273021552 -0.01198476158282614 0 0.28397241609992152 -0.005100297287691383 0 0.28800415063365942 -0.01115577843642509 0 0.27910547273021552 -0.01198476158282614 0 0.28281354929038632 -0.018431171153073911 0 0.28800415063365942 -0.01115577843642509 0 0.29348092137777959 -0.017582422929641631 0 0.28800415063365942 -0.01115577843642509 0 0.29480674430808651 -0.0053593656848261971 0 0.3084370594916051 0.00067207699937176261 0 0.29480674430808651 -0.0053593656848261971 0 0.3100633173531816 -0.016291383302169171 0 0.29348092137777959 -0.017582422929641631 0 0.29480674430808651 -0.0053593656848261971 0 0.3100633173531816 -0.016291383302169171 0 0.3100633173531816 -0.016291383302169171 0 0.29707285050847282 -0.027445714552001371 0 0.30514946176226843 -0.034061907447509129 0 0.31785967005234922 -0.033238437166652091 0 0.3100633173531816 -0.016291383302169171 0 0.30514946176226843 -0.034061907447509129 0 0.29348092137777959 -0.017582422929641631 0 0.3100633173531816 -0.016291383302169171 0 0.29707285050847282 -0.027445714552001371 0 0.31785967005234922 -0.033238437166652091 0 0.30514946176226843 -0.034061907447509129 0 0.30292776814632749 -0.041685868699823103 0 0.31785967005234922 -0.033238437166652091 0 0.30514946176226843 -0.034061907447509129 0 0.31785967005234922 -0.033238437166652091 0 0.30338980044706798 -0.053659515793739683 0 0.31785967005234922 -0.033238437166652091 0 0.30292776814632749 -0.041685868699823103 0 0.30338980044706798 -0.053659515793739683 0 0.29707285050847282 -0.027445714552001371 0 0.30514946176226843 -0.034061907447509129 0 0.29670315392566637 -0.037317386518304491 0 0.30514946176226843 -0.034061907447509129 0 0.30292776814632749 -0.041685868699823103 0 0.29670315392566637 -0.037317386518304491 0 0.30292776814632749 -0.041685868699823103 0 0.29670315392566637 -0.037317386518304491 0 0.29271710163509918 -0.045636824575013002 0 0.31612328822729258 -0.059275095265816258 0 0.31785967005234922 -0.033238437166652091 0 0.30338980044706798 -0.053659515793739683 0 0.31612328822729258 -0.059275095265816258 0 0.30068220208848551 -0.064461724945827859 0 0.30338980044706798 -0.053659515793739683 0 0.30068220208848551 -0.064461724945827859 0 0.30338980044706798 -0.053659515793739683 0 0.29248891400058269 -0.05877025574232575 0 0.30292776814632749 -0.041685868699823103 0 0.30338980044706798 -0.053659515793739683 0 0.29271710163509918 -0.045636824575013002 0 0.30338980044706798 -0.053659515793739683 0 0.29248891400058269 -0.05877025574232575 0 0.29271710163509918 -0.045636824575013002 0 0.28264746743242603 -0.062618378529017776 0 0.28117618802921668 -0.05235079415072616 0 0.29248891400058269 -0.05877025574232575 0 0.28117618802921668 -0.05235079415072616 0 0.29248891400058269 -0.05877025574232575 0 0.29271710163509918 -0.045636824575013002 0 0.28371797069443588 -0.04180987109130152 0 0.2888622132689781 -0.033575821226129739 0 0.29271710163509918 -0.045636824575013002 0 0.28117618802921668 -0.05235079415072616 0 0.28371797069443588 -0.04180987109130152 0 0.29271710163509918 -0.045636824575013002 0 0.2806107996170556 -0.035355177483722633 0 0.28371797069443588 -0.04180987109130152 0 0.2888622132689781 -0.033575821226129739 0 0.2806107996170556 -0.035355177483722633 0 0.27990939836770551 -0.027893146479206099 0 0.2888622132689781 -0.033575821226129739 0 0.29707285050847282 -0.027445714552001371 0 0.2888622132689781 -0.033575821226129739 0 0.29670315392566637 -0.037317386518304491 0 0.2888622132689781 -0.033575821226129739 0 0.29670315392566637 -0.037317386518304491 0 0.29271710163509918 -0.045636824575013002 0 0.28971397713005842 -0.20603457687627011 0 0.29404868753522029 -0.21640569891733369 0 0.27739939288663112 -0.21244868276635129 0 0.29404868753522029 -0.21640569891733369 0 0.28759776413990701 -0.22657191141399011 0 0.27739939288663112 -0.21244868276635129 0 0.28971397713005842 -0.20603457687627011 0 0.28596534285256109 -0.1921063307840751 0 0.27739939288663112 -0.21244868276635129 0 0.28971397713005842 -0.20603457687627011 0 0.29404868753522029 -0.21640569891733369 0 0.30261335912915099 -0.2045543973543551 0 0.28971397713005842 -0.20603457687627011 0 0.28596534285256109 -0.1921063307840751 0 0.30261335912915099 -0.2045543973543551 0 0.28596534285256109 -0.1921063307840751 0 0.30261335912915099 -0.2045543973543551 0 0.28596534285256109 -0.1921063307840751 0 0.29891264919088117 -0.19216162270198289 0 0.30261335912915099 -0.2045543973543551 0 0.28596534285256109 -0.1921063307840751 0 0.27821819423612459 -0.18631362731087731 0 0.28596534285256109 -0.1921063307840751 0 0.29891264919088117 -0.19216162270198289 0 0.29902569171846172 -0.18002784805210581 0 0.29891264919088117 -0.19216162270198289 0 0.31063249370683849 -0.19277612657211249 0 0.30261335912915099 -0.2045543973543551 0 0.29891264919088117 -0.19216162270198289 0 0.31063249370683849 -0.19277612657211249 0 0.29902569171846172 -0.18002784805210581 0 0.31063249370683849 -0.19277612657211249 0 0.30261335912915099 -0.2045543973543551 0 0.31438348477095218 -0.20541421950788641 0 0.29404868753522029 -0.21640569891733369 0 0.30261335912915099 -0.2045543973543551 0 0.30585546227474242 -0.22677380164707861 0 0.30261335912915099 -0.2045543973543551 0 0.30585546227474242 -0.22677380164707861 0 0.31438348477095218 -0.20541421950788641 0 0.30585546227474242 -0.22677380164707861 0 0.28917533577701149 -0.23960001680084941 0 0.30585546227474242 -0.22677380164707861 0 0.3019564501337329 -0.24366028749932159 0 0.31511381228511531 -0.24106673712159241 0 0.30585546227474242 -0.22677380164707861 0 0.3019564501337329 -0.24366028749932159 0 0.28917533577701149 -0.23960001680084941 0 0.3019564501337329 -0.24366028749932159 0 0.31511381228511531 -0.24106673712159241 0 0.30555600159032242 -0.2566669108934001 0 0.28917533577701149 -0.23960001680084941 0 0.27672644931797519 -0.23838866835328451 0 0.28934312027097869 -0.25461743690163502 0 0.3019564501337329 -0.24366028749932159 0 0.28917533577701149 -0.23960001680084941 0 0.28934312027097869 -0.25461743690163502 0 0.28917533577701149 -0.23960001680084941 0 0.28759776413990701 -0.22657191141399011 0 0.27672644931797519 -0.23838866835328451 0 0.30585546227474242 -0.22677380164707861 0 0.28917533577701149 -0.23960001680084941 0 0.28759776413990701 -0.22657191141399011 0 0.29404868753522029 -0.21640569891733369 0 0.30585546227474242 -0.22677380164707861 0 0.28759776413990701 -0.22657191141399011 0 0.28759776413990701 -0.22657191141399011 0 0.27672644931797519 -0.23838866835328451 0 0.27739939288663112 -0.21244868276635129 0 0.2649527899029816 -0.23051322114060371 0 0.25596260931772219 -0.21701241972076021 0 0.27739939288663112 -0.21244868276635129 0 0.27672644931797519 -0.23838866835328451 0 0.27739939288663112 -0.21244868276635129 0 0.27672644931797519 -0.23838866835328451 0 0.2649527899029816 -0.23051322114060371 0 0.27739939288663112 -0.21244868276635129 0 0.27672644931797519 -0.23838866835328451 0 0.26201284875209052 -0.24864288363549761 0 0.2649527899029816 -0.23051322114060371 0 0.26201284875209052 -0.24864288363549761 0 0.25266264924048881 -0.23607345122712481 0 0.24106351552099611 -0.25430938085000399 0 0.26201284875209052 -0.24864288363549761 0 0.25266264924048881 -0.23607345122712481 0 0.2649527899029816 -0.23051322114060371 0 0.25266264924048881 -0.23607345122712481 0 0.2649527899029816 -0.23051322114060371 0 0.25596260931772219 -0.21701241972076021 0 0.25266264924048881 -0.23607345122712481 0 0.25596260931772219 -0.21701241972076021 0 0.24412969886453681 -0.22894283192195949 0 0.25596260931772219 -0.21701241972076021 0 0.26467203080016249 -0.19676410507855849 0 0.24689540112038311 -0.19692544440775719 0 0.25596260931772219 -0.21701241972076021 0 0.27739939288663112 -0.21244868276635129 0 0.26467203080016249 -0.19676410507855849 0 0.27739939288663112 -0.21244868276635129 0 0.27821819423612459 -0.18631362731087731 0 0.27739939288663112 -0.21244868276635129 0 0.26467203080016249 -0.19676410507855849 0 0.27821819423612459 -0.18631362731087731 0 0.28596534285256109 -0.1921063307840751 0 0.27739939288663112 -0.21244868276635129 0 0.27821819423612459 -0.18631362731087731 0 0.26467203080016249 -0.19676410507855849 0 0.27821819423612459 -0.18631362731087731 0 0.26931732657597141 -0.1796582642137951 0 0.26467203080016249 -0.19676410507855849 0 0.26931732657597141 -0.1796582642137951 0 0.24689540112038311 -0.19692544440775719 0 0.26931732657597141 -0.1796582642137951 0 0.24689540112038311 -0.19692544440775719 0 0.25200319217637229 -0.18136374100611921 0 0.25205962740029131 -0.16675432511260549 0 0.26931732657597141 -0.1796582642137951 0 0.25200319217637229 -0.18136374100611921 0 0.26931732657597141 -0.1796582642137951 0 0.24689540112038311 -0.19692544440775719 0 0.25205962740029131 -0.16675432511260549 0 0.26931732657597141 -0.1796582642137951 0 0.26546319222197923 -0.15978345364830179 0 0.25205962740029131 -0.16675432511260549 0 0.26931732657597141 -0.1796582642137951 0 0.26546319222197923 -0.15978345364830179 0 0.25205962740029131 -0.16675432511260549 0 0.24719800764502139 -0.15526407084396271 0 0.26546319222197923 -0.15978345364830179 0 0.28178227103384629 -0.1486096845000246 0 0.28662940579849161 -0.16632618922944459 0 0.26546319222197923 -0.15978345364830179 0 0.26931732657597141 -0.1796582642137951 0 0.28662940579849161 -0.16632618922944459 0 0.27821819423612459 -0.18631362731087731 0 0.26931732657597141 -0.1796582642137951 0 0.28523444173637141 -0.17952965806985521 0 0.26931732657597141 -0.1796582642137951 0 0.28662940579849161 -0.16632618922944459 0 0.26931732657597141 -0.1796582642137951 0 0.28523444173637141 -0.17952965806985521 0 0.28662940579849161 -0.16632618922944459 0 0.27821819423612459 -0.18631362731087731 0 0.26931732657597141 -0.1796582642137951 0 0.25466928141146888 -0.14527200608688259 0 0.27508226902004979 -0.12538382156482611 0 0.24519980570365221 -0.12581360546915299 0 0.26546319222197923 -0.15978345364830179 0 0.25466928141146888 -0.14527200608688259 0 0.24719800764502139 -0.15526407084396271 0 0.26546319222197923 -0.15978345364830179 0 0.25466928141146888 -0.14527200608688259 0 0.28178227103384629 -0.1486096845000246 0 0.25466928141146888 -0.14527200608688259 0 0.27508226902004979 -0.12538382156482611 0 0.28178227103384629 -0.1486096845000246 0 0.27508226902004979 -0.12538382156482611 0 0.28178227103384629 -0.1486096845000246 0 0.30170324024254092 -0.13555996218211119 0 0.29702705167923699 -0.1146271593805115 0 0.27508226902004979 -0.12538382156482611 0 0.30170324024254092 -0.13555996218211119 0 0.28178227103384629 -0.1486096845000246 0 0.30170324024254092 -0.13555996218211119 0 0.30714623750854758 -0.15933267428858139 0 0.30170324024254092 -0.13555996218211119 0 0.30714623750854758 -0.15933267428858139 0 0.32502847073995172 -0.14261732486992229 0 0.28523444173637141 -0.17952965806985521 0 0.28662940579849161 -0.16632618922944459 0 0.29902569171846172 -0.18002784805210581 0 0.28596534285256109 -0.1921063307840751 0 0.28523444173637141 -0.17952965806985521 0 0.29902569171846172 -0.18002784805210581 0 0.28596534285256109 -0.1921063307840751 0 0.27821819423612459 -0.18631362731087731 0 0.28523444173637141 -0.17952965806985521 0 0.28178227103384629 -0.1486096845000246 0 0.28662940579849161 -0.16632618922944459 0 0.30714623750854758 -0.15933267428858139 0 0.28662940579849161 -0.16632618922944459 0 0.30714623750854758 -0.15933267428858139 0 0.29902569171846172 -0.18002784805210581 0 0.31063249370683849 -0.19277612657211249 0 0.29902569171846172 -0.18002784805210581 0 0.3178880493198144 -0.1799153141107328 0 0.30714623750854758 -0.15933267428858139 0 0.29902569171846172 -0.18002784805210581 0 0.3178880493198144 -0.1799153141107328 0 0.3178880493198144 -0.1799153141107328 0 0.3292084099802875 -0.16488224995252659 0 0.33105057444836811 -0.18347483885079729 0 0.3178880493198144 -0.1799153141107328 0 0.33105057444836811 -0.18347483885079729 0 0.32327761101866198 -0.19738968062632559 0 0.30714623750854758 -0.15933267428858139 0 0.3178880493198144 -0.1799153141107328 0 0.3292084099802875 -0.16488224995252659 0 0.3292084099802875 -0.16488224995252659 0 0.34550993387316092 -0.15167229139454269 0 0.34566308665287282 -0.17406557822486479 0 0.33105057444836811 -0.18347483885079729 0 0.34566308665287282 -0.17406557822486479 0 0.339215715270204 -0.2011213713395367 0 0.3292084099802875 -0.16488224995252659 0 0.33105057444836811 -0.18347483885079729 0 0.34566308665287282 -0.17406557822486479 0 0.33238356573625621 -0.1246700638432007 0 0.30170324024254092 -0.13555996218211119 0 0.32502847073995172 -0.14261732486992229 0 0.30714623750854758 -0.15933267428858139 0 0.3292084099802875 -0.16488224995252659 0 0.32502847073995172 -0.14261732486992229 0 0.32502847073995172 -0.14261732486992229 0 0.33914680172031569 -0.13657371922757999 0 0.34550993387316092 -0.15167229139454269 0 0.3292084099802875 -0.16488224995252659 0 0.32502847073995172 -0.14261732486992229 0 0.34550993387316092 -0.15167229139454269 0 0.33238356573625621 -0.1246700638432007 0 0.32502847073995172 -0.14261732486992229 0 0.33238356573625621 -0.1246700638432007 0 0.33914680172031569 -0.13657371922757999 0 0.3536652365318943 -0.12733519680265429 0 0.33238356573625621 -0.1246700638432007 0 0.32502847073995172 -0.14261732486992229 0 0.33914680172031569 -0.13657371922757999 0 0.33914680172031569 -0.13657371922757999 0 0.3536652365318943 -0.12733519680265429 0 0.34550993387316092 -0.15167229139454269 0 0.34550993387316092 -0.15167229139454269 0 0.36759181233122712 -0.14794759078882949 0 0.36002084120491118 -0.16273285954793679 0 0.3536652365318943 -0.12733519680265429 0 0.34550993387316092 -0.15167229139454269 0 0.36759181233122712 -0.14794759078882949 0 0.3536652365318943 -0.12733519680265429 0 0.36759181233122712 -0.14794759078882949 0 0.38390448925249981 -0.137867457507165 0 0.38268043090252241 -0.1187307337418545 0 0.3536652365318943 -0.12733519680265429 0 0.38390448925249981 -0.137867457507165 0 0.3536652365318943 -0.12733519680265429 0 0.36759181233122712 -0.14794759078882949 0 0.34566308665287282 -0.17406557822486479 0 0.35986916935657909 -0.17654894330908949 0 0.35194431037084201 -0.19133369380674201 0 0.35986916935657909 -0.17654894330908949 0 0.36557687130629601 -0.18677449891381559 0 0.35194431037084201 -0.19133369380674201 0 0.34550993387316092 -0.15167229139454269 0 0.34566308665287282 -0.17406557822486479 0 0.36002084120491118 -0.16273285954793679 0 0.34566308665287282 -0.17406557822486479 0 0.36002084120491118 -0.16273285954793679 0 0.35986916935657909 -0.17654894330908949 0 0.36759181233122712 -0.14794759078882949 0 0.36002084120491118 -0.16273285954793679 0 0.37351549096646658 -0.16702039940201849 0 0.36613796968121448 -0.17066664626282399 0 0.36002084120491118 -0.16273285954793679 0 0.37351549096646658 -0.16702039940201849 0 0.36759181233122712 -0.14794759078882949 0 0.37351549096646658 -0.16702039940201849 0 0.3815183881305601 -0.16855998477500461 0 0.36759181233122712 -0.14794759078882949 0 0.3815183881305601 -0.16855998477500461 0 0.36613796968121448 -0.17066664626282399 0 0.36002084120491118 -0.16273285954793679 0 0.35986916935657909 -0.17654894330908949 0 0.36613796968121448 -0.17066664626282399 0 0.37351549096646658 -0.16702039940201849 0 0.37114637719690119 -0.17636438279225139 0 0.36613796968121448 -0.17066664626282399 0 0.37114637719690119 -0.17636438279225139 0 0.35986916935657909 -0.17654894330908949 0 0.37114637719690119 -0.17636438279225139 0 0.35986916935657909 -0.17654894330908949 0 0.36557687130629601 -0.18677449891381559 0 0.37114637719690119 -0.17636438279225139 0 0.36557687130629601 -0.18677449891381559 0 0.37324357296736638 -0.1848514472565618 0 0.36557687130629601 -0.18677449891381559 0 0.37324357296736638 -0.1848514472565618 0 0.37277973029657752 -0.19258898053873769 0 0.37277973029657752 -0.19258898053873769 0 0.36234083102103049 -0.19801724373216001 0 0.37584136655445111 -0.20242635099391151 0 0.36557687130629601 -0.18677449891381559 0 0.36234083102103049 -0.19801724373216001 0 0.35194431037084201 -0.19133369380674201 0 0.36557687130629601 -0.18677449891381559 0 0.37277973029657752 -0.19258898053873769 0 0.36234083102103049 -0.19801724373216001 0 0.36234083102103049 -0.19801724373216001 0 0.35565332716364551 -0.20964302089381939 0 0.37584136655445111 -0.20242635099391151 0 0.364239949277744 -0.2118224570903664 0 0.35565332716364551 -0.20964302089381939 0 0.37584136655445111 -0.20242635099391151 0 0.35565332716364551 -0.20964302089381939 0 0.37584136655445111 -0.20242635099391151 0 0.37430879412312978 -0.2114105169084749 0 0.364239949277744 -0.2118224570903664 0 0.36505695777370861 -0.22348269864653189 0 0.37430879412312978 -0.2114105169084749 0 0.364239949277744 -0.2118224570903664 0 0.37584136655445111 -0.20242635099391151 0 0.364239949277744 -0.2118224570903664 0 0.37584136655445111 -0.20242635099391151 0 0.364239949277744 -0.2118224570903664 0 0.35781907257039741 -0.21867145425382639 0 0.36505695777370861 -0.22348269864653189 0 0.35565332716364551 -0.20964302089381939 0 0.33546528777284002 -0.21685969079372761 0 0.35565332716364551 -0.20964302089381939 0 0.33546528777284002 -0.21685969079372761 0 0.34849120938094341 -0.22077007824113079 0 0.35565332716364551 -0.20964302089381939 0 0.34952250612387231 -0.20135463251867511 0 0.33546528777284002 -0.21685969079372761 0 0.35781907257039741 -0.21867145425382639 0 0.35565332716364551 -0.20964302089381939 0 0.34849120938094341 -0.22077007824113079 0 0.364239949277744 -0.2118224570903664 0 0.35781907257039741 -0.21867145425382639 0 0.35565332716364551 -0.20964302089381939 0 0.34566308665287282 -0.17406557822486479 0 0.35194431037084201 -0.19133369380674201 0 0.339215715270204 -0.2011213713395367 0 0.36234083102103049 -0.19801724373216001 0 0.35194431037084201 -0.19133369380674201 0 0.34952250612387231 -0.20135463251867511 0 0.36234083102103049 -0.19801724373216001 0 0.35565332716364551 -0.20964302089381939 0 0.34952250612387231 -0.20135463251867511 0 0.35194431037084201 -0.19133369380674201 0 0.339215715270204 -0.2011213713395367 0 0.35194431037084201 -0.19133369380674201 0 0.34952250612387231 -0.20135463251867511 0 0.339215715270204 -0.2011213713395367 0 0.34566308665287282 -0.17406557822486479 0 0.339215715270204 -0.2011213713395367 0 0.33105057444836811 -0.18347483885079729 0 0.339215715270204 -0.2011213713395367 0 0.32327761101866198 -0.19738968062632559 0 0.339215715270204 -0.2011213713395367 0 0.33546528777284002 -0.21685969079372761 0 0.339215715270204 -0.2011213713395367 0 0.33546528777284002 -0.21685969079372761 0 0.32253558877247318 -0.2139475864933077 0 0.34952250612387231 -0.20135463251867511 0 0.339215715270204 -0.2011213713395367 0 0.33546528777284002 -0.21685969079372761 0 0.339215715270204 -0.2011213713395367 0 0.32253558877247318 -0.2139475864933077 0 0.32327761101866198 -0.19738968062632559 0 0.339215715270204 -0.2011213713395367 0 0.32253558877247318 -0.2139475864933077 0 0.33546528777284002 -0.21685969079372761 0 0.32253558877247318 -0.2139475864933077 0 0.3269628132802827 -0.21989909202320559 0 0.33546528777284002 -0.21685969079372761 0 0.3269628132802827 -0.21989909202320559 0 0.30585546227474242 -0.22677380164707861 0 0.32253558877247318 -0.2139475864933077 0 0.31438348477095218 -0.20541421950788641 0 0.32253558877247318 -0.2139475864933077 0 0.31438348477095218 -0.20541421950788641 0 0.32327761101866198 -0.19738968062632559 0 0.31063249370683849 -0.19277612657211249 0 0.3178880493198144 -0.1799153141107328 0 0.32327761101866198 -0.19738968062632559 0 0.31063249370683849 -0.19277612657211249 0 0.31438348477095218 -0.20541421950788641 0 0.32327761101866198 -0.19738968062632559 0 0.31511381228511531 -0.24106673712159241 0 0.32031297508770268 -0.22737543724808509 0 0.3310971988259 -0.2351899689552413 0 0.31511381228511531 -0.24106673712159241 0 0.3310971988259 -0.2351899689552413 0 0.3267291098789597 -0.25352024711675503 0 0.30585546227474242 -0.22677380164707861 0 0.32253558877247318 -0.2139475864933077 0 0.32031297508770268 -0.22737543724808509 0 0.30585546227474242 -0.22677380164707861 0 0.32253558877247318 -0.2139475864933077 0 0.30585546227474242 -0.22677380164707861 0 0.31511381228511531 -0.24106673712159241 0 0.32031297508770268 -0.22737543724808509 0 0.32253558877247318 -0.2139475864933077 0 0.3269628132802827 -0.21989909202320559 0 0.32031297508770268 -0.22737543724808509 0 0.3269628132802827 -0.21989909202320559 0 0.32031297508770268 -0.22737543724808509 0 0.3310971988259 -0.2351899689552413 0 0.33546528777284002 -0.21685969079372761 0 0.3269628132802827 -0.21989909202320559 0 0.3310971988259 -0.2351899689552413 0 0.33546528777284002 -0.21685969079372761 0 0.34071506904669119 -0.22810292989230219 0 0.3310971988259 -0.2351899689552413 0 0.33546528777284002 -0.21685969079372761 0 0.3310971988259 -0.2351899689552413 0 0.33546528777284002 -0.21685969079372761 0 0.34071506904669119 -0.22810292989230219 0 0.34849120938094341 -0.22077007824113079 0 0.34071506904669119 -0.22810292989230219 0 0.34291683112288501 -0.24736075120898571 0 0.3310971988259 -0.2351899689552413 0 0.3310971988259 -0.2351899689552413 0 0.3267291098789597 -0.25352024711675503 0 0.34291683112288501 -0.24736075120898571 0 0.3310971988259 -0.2351899689552413 0 0.3267291098789597 -0.25352024711675503 0 0.34071506904669119 -0.22810292989230219 0 0.34291683112288501 -0.24736075120898571 0 0.35352975218641408 -0.23015649416455261 0 0.34291683112288501 -0.24736075120898571 0 0.35352975218641408 -0.23015649416455261 0 0.36383203281962961 -0.24618222065141809 0 0.34071506904669119 -0.22810292989230219 0 0.34849120938094341 -0.22077007824113079 0 0.35352975218641408 -0.23015649416455261 0 0.35781907257039741 -0.21867145425382639 0 0.35352975218641408 -0.23015649416455261 0 0.36505695777370861 -0.22348269864653189 0 0.35781907257039741 -0.21867145425382639 0 0.34849120938094341 -0.22077007824113079 0 0.35352975218641408 -0.23015649416455261 0 0.36383203281962961 -0.24618222065141809 0 0.37674590994312501 -0.2218344328209943 0 0.36505695777370861 -0.22348269864653189 0 0.36383203281962961 -0.24618222065141809 0 0.37674590994312501 -0.2218344328209943 0 0.35352975218641408 -0.23015649416455261 0 0.36505695777370861 -0.22348269864653189 0 0.36383203281962961 -0.24618222065141809 0 0.37430879412312978 -0.2114105169084749 0 0.36505695777370861 -0.22348269864653189 0 0.37674590994312501 -0.2218344328209943 0 0.36383203281962961 -0.24618222065141809 0 0.38785060649788589 -0.23926610295104661 0 0.38812440974736068 -0.25584948403710173 0 0.36383203281962961 -0.24618222065141809 0 0.38785060649788589 -0.23926610295104661 0 0.37674590994312501 -0.2218344328209943 0 0.38785060649788589 -0.23926610295104661 0 0.38812440974736068 -0.25584948403710173 0 0.40548157904688631 -0.25073623437051878 0 0.38785060649788589 -0.23926610295104661 0 0.40564166139848168 -0.22986463262839801 0 0.40548157904688631 -0.25073623437051878 0 0.38785060649788589 -0.23926610295104661 0 0.40564166139848168 -0.22986463262839801 0 0.3889793814777408 -0.2264043892394903 0 0.40564166139848168 -0.22986463262839801 0 0.39753520034955608 -0.2206288507200522 0 0.41292673236745098 -0.20695124928664149 0 0.40564166139848168 -0.22986463262839801 0 0.39753520034955608 -0.2206288507200522 0 0.3889793814777408 -0.2264043892394903 0 0.39753520034955608 -0.2206288507200522 0 0.3889793814777408 -0.2264043892394903 0 0.38741723438792941 -0.21483199812469281 0 0.38785060649788589 -0.23926610295104661 0 0.3889793814777408 -0.2264043892394903 0 0.37674590994312501 -0.2218344328209943 0 0.3889793814777408 -0.2264043892394903 0 0.37674590994312501 -0.2218344328209943 0 0.38741723438792941 -0.21483199812469281 0 0.37674590994312501 -0.2218344328209943 0 0.38965978706662058 -0.19748664499057039 0 0.37430879412312978 -0.2114105169084749 0 0.37674590994312501 -0.2218344328209943 0 0.38965978706662058 -0.19748664499057039 0 0.37674590994312501 -0.2218344328209943 0 0.38741723438792941 -0.21483199812469281 0 0.38965978706662058 -0.19748664499057039 0 0.37430879412312978 -0.2114105169084749 0 0.37584136655445111 -0.20242635099391151 0 0.38965978706662058 -0.19748664499057039 0 0.37584136655445111 -0.20242635099391151 0 0.38965978706662058 -0.19748664499057039 0 0.39449856882269918 -0.18836361939352611 0 0.37584136655445111 -0.20242635099391151 0 0.39449856882269918 -0.18836361939352611 0 0.38262153637678559 -0.1889907577025372 0 0.37584136655445111 -0.20242635099391151 0 0.39449856882269918 -0.18836361939352611 0 0.37277973029657752 -0.19258898053873769 0 0.38262153637678559 -0.1889907577025372 0 0.37584136655445111 -0.20242635099391151 0 0.37324357296736638 -0.1848514472565618 0 0.37277973029657752 -0.19258898053873769 0 0.38262153637678559 -0.1889907577025372 0 0.37584136655445111 -0.20242635099391151 0 0.38965978706662058 -0.19748664499057039 0 0.38965978706662058 -0.19748664499057039 0 0.40110954771742202 -0.19339366986553611 0 0.41292673236745098 -0.20695124928664149 0 0.38965978706662058 -0.19748664499057039 0 0.39449856882269918 -0.18836361939352611 0 0.38965978706662058 -0.19748664499057039 0 0.39449856882269918 -0.18836361939352611 0 0.40110954771742202 -0.19339366986553611 0 0.38965978706662058 -0.19748664499057039 0 0.40110954771742202 -0.19339366986553611 0 0.39753520034955608 -0.2206288507200522 0 0.38741723438792941 -0.21483199812469281 0 0.41292673236745098 -0.20695124928664149 0 0.38741723438792941 -0.21483199812469281 0 0.38965978706662058 -0.19748664499057039 0 0.41292673236745098 -0.20695124928664149 0 0.38741723438792941 -0.21483199812469281 0 0.41292673236745098 -0.20695124928664149 0 0.40110954771742202 -0.19339366986553611 0 0.41292673236745098 -0.20695124928664149 0 0.41980221522420941 -0.19051986767327189 0 0.41980221522420941 -0.19051986767327189 0 0.43581852265189658 -0.17900616334583769 0 0.43843623034697271 -0.1990705004485904 0 0.41292673236745098 -0.20695124928664149 0 0.41980221522420941 -0.19051986767327189 0 0.43843623034697271 -0.1990705004485904 0 0.41292673236745098 -0.20695124928664149 0 0.43843623034697271 -0.1990705004485904 0 0.43581852265189658 -0.17900616334583769 0 0.43843623034697271 -0.1990705004485904 0 0.42378849416839809 -0.2226629533764472 0 0.44229604948655321 -0.2286554355877975 0 0.43843623034697271 -0.1990705004485904 0 0.41292673236745098 -0.20695124928664149 0 0.42378849416839809 -0.2226629533764472 0 0.43843623034697271 -0.1990705004485904 0 0.42378849416839809 -0.2226629533764472 0 0.42447166081872628 -0.24276247401476411 0 0.44229604948655321 -0.2286554355877975 0 0.40564166139848168 -0.22986463262839801 0 0.42447166081872628 -0.24276247401476411 0 0.40548157904688631 -0.25073623437051878 0 0.40564166139848168 -0.22986463262839801 0 0.42378849416839809 -0.2226629533764472 0 0.42447166081872628 -0.24276247401476411 0 0.40564166139848168 -0.22986463262839801 0 0.41292673236745098 -0.20695124928664149 0 0.42378849416839809 -0.2226629533764472 0 0.4029285439519591 -0.12917429444513351 0 0.38390448925249981 -0.137867457507165 0 0.39928370438245941 -0.1506454957085735 0 0.38268043090252241 -0.1187307337418545 0 0.4029285439519591 -0.12917429444513351 0 0.38390448925249981 -0.137867457507165 0 0.36759181233122712 -0.14794759078882949 0 0.38390448925249981 -0.137867457507165 0 0.3815183881305601 -0.16855998477500461 0 0.38390448925249981 -0.137867457507165 0 0.39928370438245941 -0.1506454957085735 0 0.3815183881305601 -0.16855998477500461 0 0.4029285439519591 -0.12917429444513351 0 0.39928370438245941 -0.1506454957085735 0 0.41141289483177768 -0.14481752109205129 0 0.39928370438245941 -0.1506454957085735 0 0.3815183881305601 -0.16855998477500461 0 0.41072004303730142 -0.17417775541975289 0 0.3815183881305601 -0.16855998477500461 0 0.41072004303730142 -0.17417775541975289 0 0.37351549096646658 -0.16702039940201849 0 0.3815183881305601 -0.16855998477500461 0 0.37351549096646658 -0.16702039940201849 0 0.37114637719690119 -0.17636438279225139 0 0.3815183881305601 -0.16855998477500461 0 0.3815183881305601 -0.16855998477500461 0 0.39031834039916158 -0.18158458506681821 0 0.3815183881305601 -0.16855998477500461 0 0.38110790107520082 -0.18028756179617161 0 0.39031834039916158 -0.18158458506681821 0 0.37114637719690119 -0.17636438279225139 0 0.3815183881305601 -0.16855998477500461 0 0.38110790107520082 -0.18028756179617161 0 0.37114637719690119 -0.17636438279225139 0 0.37324357296736638 -0.1848514472565618 0 0.38110790107520082 -0.18028756179617161 0 0.37324357296736638 -0.1848514472565618 0 0.38262153637678559 -0.1889907577025372 0 0.38110790107520082 -0.18028756179617161 0 0.38262153637678559 -0.1889907577025372 0 0.39449856882269918 -0.18836361939352611 0 0.38683212066175587 -0.18479123944308959 0 0.38110790107520082 -0.18028756179617161 0 0.39031834039916158 -0.18158458506681821 0 0.38683212066175587 -0.18479123944308959 0 0.38262153637678559 -0.1889907577025372 0 0.38110790107520082 -0.18028756179617161 0 0.38683212066175587 -0.18479123944308959 0 0.39449856882269918 -0.18836361939352611 0 0.39031834039916158 -0.18158458506681821 0 0.38683212066175587 -0.18479123944308959 0 0.3815183881305601 -0.16855998477500461 0 0.39031834039916158 -0.18158458506681821 0 0.41072004303730142 -0.17417775541975289 0 0.39449856882269918 -0.18836361939352611 0 0.40110954771742202 -0.19339366986553611 0 0.41072004303730142 -0.17417775541975289 0 0.39449856882269918 -0.18836361939352611 0 0.41072004303730142 -0.17417775541975289 0 0.39449856882269918 -0.18836361939352611 0 0.39031834039916158 -0.18158458506681821 0 0.41072004303730142 -0.17417775541975289 0 0.40110954771742202 -0.19339366986553611 0 0.41980221522420941 -0.19051986767327189 0 0.41072004303730142 -0.17417775541975289 0 0.41980221522420941 -0.19051986767327189 0 0.41072004303730142 -0.17417775541975289 0 0.43581852265189658 -0.17900616334583769 0 0.41072004303730142 -0.17417775541975289 0 0.43581852265189658 -0.17900616334583769 0 0.43581852265189658 -0.17900616334583769 0 0.43289472663100748 -0.15659570510665111 0 0.44020446596641311 -0.16455167262556891 0 0.43581852265189658 -0.17900616334583769 0 0.4300195154443564 -0.1585469160130531 0 0.43289472663100748 -0.15659570510665111 0 0.41072004303730142 -0.17417775541975289 0 0.43581852265189658 -0.17900616334583769 0 0.4300195154443564 -0.1585469160130531 0 0.43581852265189658 -0.17900616334583769 0 0.43289472663100748 -0.15659570510665111 0 0.43289472663100748 -0.15659570510665111 0 0.43937523047236471 -0.1569093664061697 0 0.44020446596641311 -0.16455167262556891 0 0.41072004303730142 -0.17417775541975289 0 0.4300195154443564 -0.1585469160130531 0 0.39928370438245941 -0.1506454957085735 0 0.41072004303730142 -0.17417775541975289 0 0.41463827740007048 -0.1565783090271623 0 0.41072004303730142 -0.17417775541975289 0 0.4300195154443564 -0.1585469160130531 0 0.41463827740007048 -0.1565783090271623 0 0.39928370438245941 -0.1506454957085735 0 0.41463827740007048 -0.1565783090271623 0 0.41141289483177768 -0.14481752109205129 0 0.41141289483177768 -0.14481752109205129 0 0.42272766421896057 -0.1484267801086856 0 0.41805904906976959 -0.13584368347494519 0 0.41463827740007048 -0.1565783090271623 0 0.41141289483177768 -0.14481752109205129 0 0.42272766421896057 -0.1484267801086856 0 0.4300195154443564 -0.1585469160130531 0 0.41463827740007048 -0.1565783090271623 0 0.42272766421896057 -0.1484267801086856 0 0.4300195154443564 -0.1585469160130531 0 0.43289472663100748 -0.15659570510665111 0 0.42272766421896057 -0.1484267801086856 0 0.43289472663100748 -0.15659570510665111 0 0.43726051855018128 -0.14403166833750369 0 0.42997093061011571 -0.13418524686746491 0 0.43289472663100748 -0.15659570510665111 0 0.42997093061011571 -0.13418524686746491 0 0.43289472663100748 -0.15659570510665111 0 0.42272766421896057 -0.1484267801086856 0 0.42997093061011571 -0.13418524686746491 0 0.43289472663100748 -0.15659570510665111 0 0.43726051855018128 -0.14403166833750369 0 0.43944763960928163 -0.15123749663807079 0 0.43289472663100748 -0.15659570510665111 0 0.43944763960928163 -0.15123749663807079 0 0.43937523047236471 -0.1569093664061697 0 0.42272766421896057 -0.1484267801086856 0 0.42997093061011571 -0.13418524686746491 0 0.41805904906976959 -0.13584368347494519 0 0.43726051855018128 -0.14403166833750369 0 0.42997093061011571 -0.13418524686746491 0 0.44092840394862748 -0.13413780759635199 0 0.43405352689338139 -0.1237898792763122 0 0.42997093061011571 -0.13418524686746491 0 0.44092840394862748 -0.13413780759635199 0 0.41809802924037148 -0.1245556586332161 0 0.42997093061011571 -0.13418524686746491 0 0.41805904906976959 -0.13584368347494519 0 0.4029285439519591 -0.12917429444513351 0 0.41141289483177768 -0.14481752109205129 0 0.41805904906976959 -0.13584368347494519 0 0.41809802924037148 -0.1245556586332161 0 0.4029285439519591 -0.12917429444513351 0 0.41805904906976959 -0.13584368347494519 0 0.45603568459558769 -0.1253646756922662 0 0.46224066433068112 -0.13946798081136741 0 0.47801784229779409 -0.12693947210822021 0 0.45603568459558769 -0.1253646756922662 0 0.46224066433068112 -0.13946798081136741 0 0.44732135909387161 -0.14331756780821289 0 0.45603568459558769 -0.1253646756922662 0 0.47801784229779409 -0.12693947210822021 0 0.45603568459558769 -0.1253646756922662 0 0.44092840394862748 -0.13413780759635199 0 0.44732135909387161 -0.14331756780821289 0 0.43405352689338139 -0.1237898792763122 0 0.45603568459558769 -0.1253646756922662 0 0.44092840394862748 -0.13413780759635199 0 0.43726051855018128 -0.14403166833750369 0 0.44092840394862748 -0.13413780759635199 0 0.44732135909387161 -0.14331756780821289 0 0.43726051855018128 -0.14403166833750369 0 0.44732135909387161 -0.14331756780821289 0 0.43944763960928163 -0.15123749663807079 0 0.44732135909387161 -0.14331756780821289 0 0.43944763960928163 -0.15123749663807079 0 0.44495408968275668 -0.15525259125438809 0 0.43944763960928163 -0.15123749663807079 0 0.44495408968275668 -0.15525259125438809 0 0.43937523047236471 -0.1569093664061697 0 0.44495408968275668 -0.15525259125438809 0 0.45462782785611261 -0.15062476729126831 0 0.45384103907820839 -0.15965432870698679 0 0.44732135909387161 -0.14331756780821289 0 0.44495408968275668 -0.15525259125438809 0 0.45462782785611261 -0.15062476729126831 0 0.45462782785611261 -0.15062476729126831 0 0.46478198709504498 -0.15543136787538631 0 0.45384103907820839 -0.15965432870698679 0 0.46224066433068112 -0.13946798081136741 0 0.45462782785611261 -0.15062476729126831 0 0.46478198709504498 -0.15543136787538631 0 0.46224066433068112 -0.13946798081136741 0 0.44732135909387161 -0.14331756780821289 0 0.45462782785611261 -0.15062476729126831 0 0.46478198709504498 -0.15543136787538631 0 0.45975822693672808 -0.1714798058019682 0 0.45384103907820839 -0.15965432870698679 0 0.45975822693672808 -0.1714798058019682 0 0.45384103907820839 -0.15965432870698679 0 0.44661586001820719 -0.1652986931045709 0 0.44495408968275668 -0.15525259125438809 0 0.45384103907820839 -0.15965432870698679 0 0.44661586001820719 -0.1652986931045709 0 0.44495408968275668 -0.15525259125438809 0 0.44020446596641311 -0.16455167262556891 0 0.44661586001820719 -0.1652986931045709 0 0.44495408968275668 -0.15525259125438809 0 0.43937523047236471 -0.1569093664061697 0 0.44020446596641311 -0.16455167262556891 0 0.44020446596641311 -0.16455167262556891 0 0.44661586001820719 -0.1652986931045709 0 0.4447706730156743 -0.17356678676512199 0 0.45975822693672808 -0.1714798058019682 0 0.44661586001820719 -0.1652986931045709 0 0.4447706730156743 -0.17356678676512199 0 0.45975822693672808 -0.1714798058019682 0 0.4447706730156743 -0.17356678676512199 0 0.4486435361934325 -0.18147342024694549 0 0.43581852265189658 -0.17900616334583769 0 0.4486435361934325 -0.18147342024694549 0 0.43843623034697271 -0.1990705004485904 0 0.43581852265189658 -0.17900616334583769 0 0.44020446596641311 -0.16455167262556891 0 0.4447706730156743 -0.17356678676512199 0 0.43581852265189658 -0.17900616334583769 0 0.4447706730156743 -0.17356678676512199 0 0.4486435361934325 -0.18147342024694549 0 0.43581852265189658 -0.17900616334583769 0 0.4486435361934325 -0.18147342024694549 0 0.45975822693672808 -0.1714798058019682 0 0.4486435361934325 -0.18147342024694549 0 0.4661752840856519 -0.19050096624234161 0 0.45975822693672808 -0.1714798058019682 0 0.47286616667508552 -0.17870811038920389 0 0.4661752840856519 -0.19050096624234161 0 0.47286616667508552 -0.17870811038920389 0 0.48189034731872271 -0.16637093324185459 0 0.4835849203782997 -0.18809547300347121 0 0.45975822693672808 -0.1714798058019682 0 0.47286616667508552 -0.17870811038920389 0 0.48189034731872271 -0.16637093324185459 0 0.47286616667508552 -0.17870811038920389 0 0.4661752840856519 -0.19050096624234161 0 0.4835849203782997 -0.18809547300347121 0 0.5 -0.1793354207594722 0 0.48189034731872271 -0.16637093324185459 0 0.4835849203782997 -0.18809547300347121 0 0.5 -0.1793354207594722 0 0.48189034731872271 -0.16637093324185459 0 0.5 -0.15392484464182329 0 0.46478198709504498 -0.15543136787538631 0 0.45975822693672808 -0.1714798058019682 0 0.48189034731872271 -0.16637093324185459 0 0.46224066433068112 -0.13946798081136741 0 0.46478198709504498 -0.15543136787538631 0 0.48118697129977628 -0.14601331275548121 0 0.46478198709504498 -0.15543136787538631 0 0.48189034731872271 -0.16637093324185459 0 0.48118697129977628 -0.14601331275548121 0 0.48189034731872271 -0.16637093324185459 0 0.48118697129977628 -0.14601331275548121 0 0.5 -0.15392484464182329 0 0.48118697129977628 -0.14601331275548121 0 0.5 -0.15392484464182329 0 0.50000000000000044 -0.12851426852417419 0 0.48118697129977628 -0.14601331275548121 0 0.50000000000000044 -0.12851426852417419 0 0.47801784229779409 -0.12693947210822021 0 0.50000000000000044 -0.12851426852417419 0 0.47801784229779409 -0.12693947210822021 0 0.46224066433068112 -0.13946798081136741 0 0.48118697129977628 -0.14601331275548121 0 0.47801784229779409 -0.12693947210822021 0 0.45467981751373487 -0.23733732564245441 0 0.45890028945874167 -0.2153283928188216 0 0.47327637908969611 -0.2283686974824535 0 0.45467981751373487 -0.23733732564245441 0 0.47327637908969611 -0.2283686974824535 0 0.46897211936132849 -0.2449017698852255 0 0.45467981751373487 -0.23733732564245441 0 0.46897211936132849 -0.2449017698852255 0 0.45552772156092769 -0.25243745756899538 0 0.45467981751373487 -0.23733732564245441 0 0.45552772156092769 -0.25243745756899538 0 0.4461558686261326 -0.2582403707270049 0 0.44229604948655321 -0.2286554355877975 0 0.4461558686261326 -0.2582403707270049 0 0.42447166081872628 -0.24276247401476411 0 0.44229604948655321 -0.2286554355877975 0 0.4461558686261326 -0.2582403707270049 0 0.45467981751373487 -0.23733732564245441 0 0.44229604948655321 -0.2286554355877975 0 0.4461558686261326 -0.2582403707270049 0 0.45467981751373487 -0.23733732564245441 0 0.44229604948655321 -0.2286554355877975 0 0.45890028945874167 -0.2153283928188216 0 0.44229604948655321 -0.2286554355877975 0 0.43843623034697271 -0.1990705004485904 0 0.44229604948655321 -0.2286554355877975 0 0.43843623034697271 -0.1990705004485904 0 0.45890028945874167 -0.2153283928188216 0 0.43843623034697271 -0.1990705004485904 0 0.4661752840856519 -0.19050096624234161 0 0.4486435361934325 -0.18147342024694549 0 0.43843623034697271 -0.1990705004485904 0 0.4661752840856519 -0.19050096624234161 0 0.43843623034697271 -0.1990705004485904 0 0.4661752840856519 -0.19050096624234161 0 0.45890028945874167 -0.2153283928188216 0 0.4661752840856519 -0.19050096624234161 0 0.45890028945874167 -0.2153283928188216 0 0.48054279420225121 -0.20992062096884659 0 0.45890028945874167 -0.2153283928188216 0 0.48054279420225121 -0.20992062096884659 0 0.47327637908969611 -0.2283686974824535 0 0.4661752840856519 -0.19050096624234161 0 0.48054279420225121 -0.20992062096884659 0 0.4835849203782997 -0.18809547300347121 0 0.48054279420225121 -0.20992062096884659 0 0.4835849203782997 -0.18809547300347121 0 0.5 -0.20474599687712119 0 0.5 -0.1793354207594722 0 0.4835849203782997 -0.18809547300347121 0 0.5 -0.20474599687712119 0 0.48054279420225121 -0.20992062096884659 0 0.5 -0.20474599687712119 0 0.5 -0.23015657299476999 0 0.5 -0.23015657299476999 0 0.47327637908969611 -0.2283686974824535 0 0.48548767353917271 -0.24122277598219319 0 0.48054279420225121 -0.20992062096884659 0 0.5 -0.23015657299476999 0 0.47327637908969611 -0.2283686974824535 0 0.47327637908969611 -0.2283686974824535 0 0.46897211936132849 -0.2449017698852255 0 0.48548767353917271 -0.24122277598219319 0 0.46897211936132849 -0.2449017698852255 0 0.48548767353917271 -0.24122277598219319 0 0.48002806034260359 -0.25457739829257647 0 0.5 -0.23015657299476999 0 0.48548767353917271 -0.24122277598219319 0 0.49999999999999772 -0.25556714911241879 0 0.48548767353917271 -0.24122277598219319 0 0.49999999999999772 -0.25556714911241879 0 0.48002806034260359 -0.25457739829257647 0 0.49999999999999772 -0.25556714911241879 0 0.48011656874964048 -0.26812184337486739 0 0.48002806034260359 -0.25457739829257647 0 0.49999999999999772 -0.25556714911241879 0 0.48896257373273599 -0.27745314871623888 0 0.48011656874964048 -0.26812184337486739 0 0.49999999999999772 -0.25556714911241879 0 0.48896257373273599 -0.27745314871623888 0 0.49999999999999772 -0.25556714911241879 0 0.48896257373273599 -0.27745314871623888 0 0.5 -0.28556654911024532 0 0.48011656874964048 -0.26812184337486739 0 0.47027418090554041 -0.25918535441323848 0 0.46672643451320128 -0.27588830294452771 0 0.48896257373273599 -0.27745314871623888 0 0.47816259615139961 -0.28064196019991827 0 0.48011656874964048 -0.26812184337486739 0 0.47816259615139961 -0.28064196019991827 0 0.48011656874964048 -0.26812184337486739 0 0.46672643451320128 -0.27588830294452771 0 0.48011656874964048 -0.26812184337486739 0 0.48002806034260359 -0.25457739829257647 0 0.47027418090554041 -0.25918535441323848 0 0.46897211936132849 -0.2449017698852255 0 0.48002806034260359 -0.25457739829257647 0 0.47027418090554041 -0.25918535441323848 0 0.45552772156092769 -0.25243745756899538 0 0.46672643451320128 -0.27588830294452771 0 0.46897211936132849 -0.2449017698852255 0 0.47027418090554041 -0.25918535441323848 0 0.45552772156092769 -0.25243745756899538 0 0.47027418090554041 -0.25918535441323848 0 0.45552772156092769 -0.25243745756899538 0 0.46672643451320128 -0.27588830294452771 0 0.45552772156092769 -0.25243745756899538 0 0.46672643451320128 -0.27588830294452771 0 0.45599112809264392 -0.27375174428423033 0 0.46672643451320128 -0.27588830294452771 0 0.45599112809264392 -0.27375174428423033 0 0.46273292608764088 -0.28650464575765849 0 0.4461558686261326 -0.2582403707270049 0 0.45001568776571221 -0.2878253058662123 0 0.42346631218590641 -0.26641521739841828 0 0.4461558686261326 -0.2582403707270049 0 0.45001568776571221 -0.2878253058662123 0 0.45599112809264392 -0.27375174428423033 0 0.4461558686261326 -0.2582403707270049 0 0.45001568776571221 -0.2878253058662123 0 0.45552772156092769 -0.25243745756899538 0 0.45599112809264392 -0.27375174428423033 0 0.4461558686261326 -0.2582403707270049 0 0.45001568776571221 -0.2878253058662123 0 0.45348050052947952 -0.31438257634410449 0 0.45001568776571221 -0.2878253058662123 0 0.45348050052947952 -0.31438257634410449 0 0.43092484188059299 -0.30904602540650661 0 0.46672643451320128 -0.27588830294452771 0 0.46273292608764088 -0.28650464575765849 0 0.46765083456251583 -0.2960920893180321 0 0.45001568776571221 -0.2878253058662123 0 0.46273292608764088 -0.28650464575765849 0 0.4594865641100489 -0.29891267694249829 0 0.45001568776571221 -0.2878253058662123 0 0.46273292608764088 -0.28650464575765849 0 0.45599112809264392 -0.27375174428423033 0 0.45001568776571221 -0.2878253058662123 0 0.46273292608764088 -0.28650464575765849 0 0.46273292608764088 -0.28650464575765849 0 0.46765083456251583 -0.2960920893180321 0 0.4594865641100489 -0.29891267694249829 0 0.46765083456251583 -0.2960920893180321 0 0.4594865641100489 -0.29891267694249829 0 0.46472628860809628 -0.30691193190695593 0 0.45001568776571221 -0.2878253058662123 0 0.4594865641100489 -0.29891267694249829 0 0.45348050052947952 -0.31438257634410449 0 0.4594865641100489 -0.29891267694249829 0 0.46472628860809628 -0.30691193190695593 0 0.45348050052947952 -0.31438257634410449 0 0.47792514746547571 -0.2993391483200597 0 0.46743523037936158 -0.32013949757102839 0 0.47792514746547571 -0.2993391483200597 0 0.48481798592447872 -0.31377320780434959 0 0.46743523037936158 -0.32013949757102839 0 0.46472628860809628 -0.30691193190695593 0 0.47792514746547571 -0.2993391483200597 0 0.46743523037936158 -0.32013949757102839 0 0.46765083456251583 -0.2960920893180321 0 0.46472628860809628 -0.30691193190695593 0 0.47792514746547571 -0.2993391483200597 0 0.47792514746547571 -0.2993391483200597 0 0.48481798592447872 -0.31377320780434959 0 0.46672643451320128 -0.27588830294452771 0 0.46765083456251583 -0.2960920893180321 0 0.47792514746547571 -0.2993391483200597 0 0.48896257373273599 -0.27745314871623888 0 0.47816259615139961 -0.28064196019991827 0 0.47792514746547571 -0.2993391483200597 0 0.47816259615139961 -0.28064196019991827 0 0.46672643451320128 -0.27588830294452771 0 0.47792514746547571 -0.2993391483200597 0 0.48896257373273599 -0.27745314871623888 0 0.47792514746547571 -0.2993391483200597 0 0.46672643451320128 -0.27588830294452771 0 0.47792514746547571 -0.2993391483200597 0 0.48896257373273599 -0.27745314871623888 0 0.47792514746547571 -0.2993391483200597 0 0.49296240512384037 -0.2943401217596831 0 0.48896257373273599 -0.27745314871623888 0 0.5 -0.28556654911024532 0 0.49296240512384037 -0.2943401217596831 0 0.49296240512384037 -0.2943401217596831 0 0.5 -0.31556594910807151 0 0.48481798592447872 -0.31377320780434959 0 0.47792514746547571 -0.2993391483200597 0 0.49296240512384037 -0.2943401217596831 0 0.48481798592447872 -0.31377320780434959 0 0.49296240512384037 -0.2943401217596831 0 0.48481798592447872 -0.31377320780434959 0 0.5 -0.28556654911024532 0 0.49296240512384037 -0.2943401217596831 0 0.5 -0.31556594910807151 0 0.5 -0.31556594910807151 0 0.48481798592447872 -0.31377320780434959 0 0.49240899296223789 -0.32966927845512412 0 0.48481798592447872 -0.31377320780434959 0 0.49240899296223789 -0.32966927845512412 0 0.48481798592447872 -0.31377320780434959 0 0.49240899296223789 -0.32966927845512412 0 0.47683176194058341 -0.33282883031739691 0 0.49240899296223789 -0.32966927845512412 0 0.49999999999999872 -0.3455653491058977 0 0.48387749969612498 -0.34546934435223309 0 0.49240899296223789 -0.32966927845512412 0 0.49999999999999872 -0.3455653491058977 0 0.5 -0.31556594910807151 0 0.49240899296223789 -0.32966927845512412 0 0.49999999999999872 -0.3455653491058977 0 0.49240899296223789 -0.32966927845512412 0 0.47683176194058341 -0.33282883031739691 0 0.48387749969612498 -0.34546934435223309 0 0.47683176194058341 -0.33282883031739691 0 0.48387749969612498 -0.34546934435223309 0 0.46884553795668737 -0.35188445283044378 0 0.47683176194058341 -0.33282883031739691 0 0.46884553795668737 -0.35188445283044378 0 0.48481798592447872 -0.31377320780434959 0 0.47683176194058341 -0.33282883031739691 0 0.48481798592447872 -0.31377320780434959 0 0.47683176194058341 -0.33282883031739691 0 0.46743523037936158 -0.32013949757102839 0 0.49999999999999872 -0.3455653491058977 0 0.48130120562111872 -0.36739881105230271 0 0.5 -0.38091007834664159 0 0.49999999999999872 -0.3455653491058977 0 0.48387749969612498 -0.34546934435223309 0 0.48130120562111872 -0.36739881105230271 0 0.48387749969612498 -0.34546934435223309 0 0.46884553795668737 -0.35188445283044378 0 0.48130120562111872 -0.36739881105230271 0 0.46884553795668737 -0.35188445283044378 0 0.48130120562111872 -0.36739881105230271 0 0.46085931397278929 -0.37094007534348988 0 0.46085931397278929 -0.37094007534348988 0 0.45237178336746903 -0.36876261071416477 0 0.456945313293247 -0.34093984682199691 0 0.46884553795668737 -0.35188445283044378 0 0.46085931397278929 -0.37094007534348988 0 0.46085931397278929 -0.37094007534348988 0 0.45987565248166612 -0.37328715227162362 0 0.45237178336746903 -0.36876261071416477 0 0.46085931397278929 -0.37094007534348988 0 0.45987565248166612 -0.37328715227162362 0 0.46884553795668737 -0.35188445283044378 0 0.46085931397278929 -0.37094007534348988 0 0.456945313293247 -0.34093984682199691 0 0.46085931397278929 -0.37094007534348988 0 0.456945313293247 -0.34093984682199691 0 0.44588430581635302 -0.36287260536510452 0 0.45237178336746903 -0.36876261071416477 0 0.456945313293247 -0.34093984682199691 0 0.43828042526866579 -0.34784089634659632 0 0.44588430581635302 -0.36287260536510452 0 0.456945313293247 -0.34093984682199691 0 0.44588430581635302 -0.36287260536510452 0 0.456945313293247 -0.34093984682199691 0 0.44588430581635302 -0.36287260536510452 0 0.45237178336746903 -0.36876261071416477 0 0.43482329833945899 -0.38480536390821202 0 0.44588430581635302 -0.36287260536510452 0 0.43482329833945899 -0.38480536390821202 0 0.45348050052947952 -0.31438257634410449 0 0.46743523037936158 -0.32013949757102839 0 0.456945313293247 -0.34093984682199691 0 0.45348050052947952 -0.31438257634410449 0 0.456945313293247 -0.34093984682199691 0 0.46472628860809628 -0.30691193190695593 0 0.45348050052947952 -0.31438257634410449 0 0.46743523037936158 -0.32013949757102839 0 0.47683176194058341 -0.33282883031739691 0 0.46884553795668737 -0.35188445283044378 0 0.456945313293247 -0.34093984682199691 0 0.46743523037936158 -0.32013949757102839 0 0.456945313293247 -0.34093984682199691 0 0.47683176194058341 -0.33282883031739691 0 0.46743523037936158 -0.32013949757102839 0 0.456945313293247 -0.34093984682199691 0 0.45348050052947952 -0.31438257634410449 0 0.456945313293247 -0.34093984682199691 0 0.43628149660596932 -0.32983340006086881 0 0.43828042526866579 -0.34784089634659632 0 0.456945313293247 -0.34093984682199691 0 0.43628149660596932 -0.32983340006086881 0 0.45348050052947952 -0.31438257634410449 0 0.43628149660596932 -0.32983340006086881 0 0.43092484188059299 -0.30904602540650661 0 0.43628149660596932 -0.32983340006086881 0 0.41458473269078772 -0.32373097187068872 0 0.43092484188059299 -0.30904602540650661 0 0.43628149660596932 -0.32983340006086881 0 0.42422457250317708 -0.34308428380434791 0 0.41458473269078772 -0.32373097187068872 0 0.43828042526866579 -0.34784089634659632 0 0.43628149660596932 -0.32983340006086881 0 0.42422457250317708 -0.34308428380434791 0 0.42422457250317708 -0.34308428380434791 0 0.41458473269078772 -0.32373097187068872 0 0.40478897816076931 -0.33914027469010971 0 0.41458473269078772 -0.32373097187068872 0 0.43092484188059299 -0.30904602540650661 0 0.4093633932181433 -0.30758022574527211 0 0.44588430581635302 -0.36287260536510452 0 0.42806643812458273 -0.36247434568066328 0 0.43482329833945899 -0.38480536390821202 0 0.42806643812458273 -0.36247434568066328 0 0.43482329833945899 -0.38480536390821202 0 0.41482136141528692 -0.37584837039035562 0 0.43828042526866579 -0.34784089634659632 0 0.44588430581635302 -0.36287260536510452 0 0.42806643812458273 -0.36247434568066328 0 0.43828042526866579 -0.34784089634659632 0 0.42422457250317708 -0.34308428380434791 0 0.42806643812458273 -0.36247434568066328 0 0.42422457250317708 -0.34308428380434791 0 0.40682757229895727 -0.35963381513623122 0 0.40478897816076931 -0.33914027469010971 0 0.42422457250317708 -0.34308428380434791 0 0.42806643812458273 -0.36247434568066328 0 0.40682757229895727 -0.35963381513623122 0 0.42806643812458273 -0.36247434568066328 0 0.40682757229895727 -0.35963381513623122 0 0.41482136141528692 -0.37584837039035562 0 0.40682757229895727 -0.35963381513623122 0 0.41482136141528692 -0.37584837039035562 0 0.39800288984005783 -0.37801533290038491 0 0.40682757229895727 -0.35963381513623122 0 0.38896916079744459 -0.36567426066007391 0 0.39800288984005783 -0.37801533290038491 0 0.38896916079744459 -0.36567426066007391 0 0.39800288984005783 -0.37801533290038491 0 0.3850910293602145 -0.37990840779429941 0 0.40682757229895727 -0.35963381513623122 0 0.38852825282261239 -0.34978877813009462 0 0.38896916079744459 -0.36567426066007391 0 0.40682757229895727 -0.35963381513623122 0 0.38852825282261239 -0.34978877813009462 0 0.40478897816076931 -0.33914027469010971 0 0.38852825282261239 -0.34978877813009462 0 0.37121840188661642 -0.33577984796825039 0 0.37295616137165088 -0.36570703907621399 0 0.38896916079744459 -0.36567426066007391 0 0.3850910293602145 -0.37990840779429941 0 0.37295616137165088 -0.36570703907621399 0 0.38852825282261239 -0.34978877813009462 0 0.38896916079744459 -0.36567426066007391 0 0.37295616137165088 -0.36570703907621399 0 0.41458473269078772 -0.32373097187068872 0 0.40478897816076931 -0.33914027469010971 0 0.38977976048831198 -0.31946352450918619 0 0.41458473269078772 -0.32373097187068872 0 0.38977976048831198 -0.31946352450918619 0 0.4093633932181433 -0.30758022574527211 0 0.38852825282261239 -0.34978877813009462 0 0.40478897816076931 -0.33914027469010971 0 0.38977976048831198 -0.31946352450918619 0 0.38852825282261239 -0.34978877813009462 0 0.38977976048831198 -0.31946352450918619 0 0.37121840188661642 -0.33577984796825039 0 0.38977976048831198 -0.31946352450918619 0 0.39799346276306879 -0.29322771129257719 0 0.37198235026174742 -0.29592891400576299 0 0.38977976048831198 -0.31946352450918619 0 0.39799346276306879 -0.29322771129257719 0 0.4093633932181433 -0.30758022574527211 0 0.39799346276306879 -0.29322771129257719 0 0.37198235026174742 -0.29592891400576299 0 0.39799346276306879 -0.29322771129257719 0 0.37940807851883712 -0.27232152391431907 0 0.37198235026174742 -0.29592891400576299 0 0.37940807851883712 -0.27232152391431907 0 0.38812440974736068 -0.25584948403710173 0 0.40315190114151772 -0.27213715685946099 0 0.36383203281962961 -0.24618222065141809 0 0.37940807851883712 -0.27232152391431907 0 0.38812440974736068 -0.25584948403710173 0 0.38812440974736068 -0.25584948403710173 0 0.40548157904688631 -0.25073623437051878 0 0.40315190114151772 -0.27213715685946099 0 0.39799346276306879 -0.29322771129257719 0 0.37940807851883712 -0.27232152391431907 0 0.40315190114151772 -0.27213715685946099 0 0.40315190114151772 -0.27213715685946099 0 0.42346631218590641 -0.26641521739841828 0 0.42400457526439028 -0.29052650857939138 0 0.40548157904688631 -0.25073623437051878 0 0.40315190114151772 -0.27213715685946099 0 0.42346631218590641 -0.26641521739841828 0 0.42447166081872628 -0.24276247401476411 0 0.40548157904688631 -0.25073623437051878 0 0.42346631218590641 -0.26641521739841828 0 0.42447166081872628 -0.24276247401476411 0 0.4461558686261326 -0.2582403707270049 0 0.42346631218590641 -0.26641521739841828 0 0.45001568776571221 -0.2878253058662123 0 0.42400457526439028 -0.29052650857939138 0 0.45001568776571221 -0.2878253058662123 0 0.42346631218590641 -0.26641521739841828 0 0.42400457526439028 -0.29052650857939138 0 0.45001568776571221 -0.2878253058662123 0 0.42400457526439028 -0.29052650857939138 0 0.43092484188059299 -0.30904602540650661 0 0.42400457526439028 -0.29052650857939138 0 0.43092484188059299 -0.30904602540650661 0 0.4093633932181433 -0.30758022574527211 0 0.39799346276306879 -0.29322771129257719 0 0.42400457526439028 -0.29052650857939138 0 0.4093633932181433 -0.30758022574527211 0 0.39799346276306879 -0.29322771129257719 0 0.40315190114151772 -0.27213715685946099 0 0.42400457526439028 -0.29052650857939138 0 0.39799346276306879 -0.29322771129257719 0 0.42400457526439028 -0.29052650857939138 0 0.5 -0.5 0 0.46732909817997881 -0.46983845281198588 0 0.4328388304215689 -0.49999999999999889 0 0.5 -0.5 0 0.46732909817997881 -0.46983845281198588 0 0.5 -0.43047938547919312 0 0.43890701971264512 -0.47541192361627538 0 0.46732909817997881 -0.46983845281198588 0 0.4328388304215689 -0.49999999999999889 0 0.46732909817997881 -0.46983845281198588 0 0.46999952589132332 -0.44099842963155123 0 0.5 -0.43047938547919312 0 0.46732909817997881 -0.46983845281198588 0 0.46999952589132332 -0.44099842963155123 0 0.45565980309991377 -0.448490867787115 0 0.46999952589132332 -0.44099842963155123 0 0.45565980309991377 -0.448490867787115 0 0.45188602644840142 -0.43214937180040219 0 0.46732909817997881 -0.46983845281198588 0 0.45565980309991377 -0.448490867787115 0 0.4423526780154543 -0.45731115431110481 0 0.43890701971264512 -0.47541192361627538 0 0.4423526780154543 -0.45731115431110481 0 0.43222286374566149 -0.46479889321230661 0 0.43890701971264512 -0.47541192361627538 0 0.46732909817997881 -0.46983845281198588 0 0.4423526780154543 -0.45731115431110481 0 0.45565980309991377 -0.448490867787115 0 0.43942373113660121 -0.44424904110188002 0 0.45188602644840142 -0.43214937180040219 0 0.45565980309991377 -0.448490867787115 0 0.4423526780154543 -0.45731115431110481 0 0.43942373113660121 -0.44424904110188002 0 0.45188602644840142 -0.43214937180040219 0 0.44695528862468509 -0.4139867918361792 0 0.43263469414452499 -0.42952346727145158 0 0.43942373113660121 -0.44424904110188002 0 0.45188602644840142 -0.43214937180040219 0 0.43263469414452499 -0.42952346727145158 0 0.44695528862468509 -0.4139867918361792 0 0.442513334463769 -0.3982356942716917 0 0.42376229086256489 -0.40673812245131957 0 0.45188602644840142 -0.43214937180040219 0 0.44695528862468509 -0.4139867918361792 0 0.46695278858514472 -0.41764564486886419 0 0.44695528862468509 -0.4139867918361792 0 0.46695278858514472 -0.41764564486886419 0 0.463906051278966 -0.39429286010617731 0 0.46999952589132332 -0.44099842963155123 0 0.46695278858514472 -0.41764564486886419 0 0.46999952589132332 -0.44099842963155123 0 0.45188602644840142 -0.43214937180040219 0 0.46695278858514472 -0.41764564486886419 0 0.46999952589132332 -0.44099842963155123 0 0.46695278858514472 -0.41764564486886419 0 0.5 -0.43047938547919312 0 0.46695278858514472 -0.41764564486886419 0 0.5 -0.43047938547919312 0 0.5 -0.38091007834664159 0 0.48130120562111872 -0.36739881105230271 0 0.5 -0.38091007834664159 0 0.463906051278966 -0.39429286010617731 0 0.46695278858514472 -0.41764564486886419 0 0.5 -0.38091007834664159 0 0.463906051278966 -0.39429286010617731 0 0.48130120562111872 -0.36739881105230271 0 0.46085931397278929 -0.37094007534348988 0 0.463906051278966 -0.39429286010617731 0 0.45987565248166612 -0.37328715227162362 0 0.463906051278966 -0.39429286010617731 0 0.45052810737700361 -0.38404441779702397 0 0.46085931397278929 -0.37094007534348988 0 0.463906051278966 -0.39429286010617731 0 0.46085931397278929 -0.37094007534348988 0 0.45987565248166612 -0.37328715227162362 0 0.463906051278966 -0.39429286010617731 0 0.45987565248166612 -0.37328715227162362 0 0.45237178336746903 -0.36876261071416477 0 0.45052810737700361 -0.38404441779702397 0 0.46695278858514472 -0.41764564486886419 0 0.463906051278966 -0.39429286010617731 0 0.44695528862468509 -0.4139867918361792 0 0.463906051278966 -0.39429286010617731 0 0.442513334463769 -0.3982356942716917 0 0.463906051278966 -0.39429286010617731 0 0.442513334463769 -0.3982356942716917 0 0.45052810737700361 -0.38404441779702397 0 0.45237178336746903 -0.36876261071416477 0 0.45052810737700361 -0.38404441779702397 0 0.43482329833945899 -0.38480536390821202 0 0.442513334463769 -0.3982356942716917 0 0.45052810737700361 -0.38404441779702397 0 0.43482329833945899 -0.38480536390821202 0 0.442513334463769 -0.3982356942716917 0 0.43482329833945899 -0.38480536390821202 0 0.42376229086256489 -0.40673812245131957 0 0.43482329833945899 -0.38480536390821202 0 0.42376229086256489 -0.40673812245131957 0 0.43482329833945899 -0.38480536390821202 0 0.40638660847337782 -0.3943129943262863 0 0.42376229086256489 -0.40673812245131957 0 0.40638660847337782 -0.3943129943262863 0 0.41482136141528692 -0.37584837039035562 0 0.39800288984005783 -0.37801533290038491 0 0.43482329833945899 -0.38480536390821202 0 0.40638660847337782 -0.3943129943262863 0 0.41482136141528692 -0.37584837039035562 0 0.40638660847337782 -0.3943129943262863 0 0.39800288984005783 -0.37801533290038491 0 0.39089043695276682 -0.39335864435168599 0 0.39800288984005783 -0.37801533290038491 0 0.3850910293602145 -0.37990840779429941 0 0.39089043695276682 -0.39335864435168599 0 0.3850910293602145 -0.37990840779429941 0 0.39089043695276682 -0.39335864435168599 0 0.3746939208566854 -0.39563423018417743 0 0.3850910293602145 -0.37990840779429941 0 0.3746939208566854 -0.39563423018417743 0 0.37295616137165088 -0.36570703907621399 0 0.39089043695276682 -0.39335864435168599 0 0.39077846494638729 -0.40887217926635 0 0.3746939208566854 -0.39563423018417743 0 0.40638660847337782 -0.3943129943262863 0 0.39089043695276682 -0.39335864435168599 0 0.39077846494638729 -0.40887217926635 0 0.40638660847337782 -0.3943129943262863 0 0.40479523520150917 -0.41850108622351029 0 0.39077846494638729 -0.40887217926635 0 0.40479523520150917 -0.41850108622351029 0 0.39077846494638729 -0.40887217926635 0 0.39121494721315009 -0.42315227544103651 0 0.37643168034171992 -0.42556142129214097 0 0.3746939208566854 -0.39563423018417743 0 0.39077846494638729 -0.40887217926635 0 0.37643168034171992 -0.42556142129214097 0 0.39121494721315009 -0.42315227544103651 0 0.39077846494638729 -0.40887217926635 0 0.37643168034171992 -0.42556142129214097 0 0.3746939208566854 -0.39563423018417743 0 0.37643168034171992 -0.42556142129214097 0 0.38591688278237968 -0.43376969007073191 0 0.37948242698450058 -0.44489909307822328 0 0.37643168034171992 -0.42556142129214097 0 0.38591688278237968 -0.43376969007073191 0 0.39121494721315009 -0.42315227544103651 0 0.38591688278237968 -0.43376969007073191 0 0.39610709707141822 -0.43256655232152308 0 0.39121494721315009 -0.42315227544103651 0 0.38591688278237968 -0.43376969007073191 0 0.39610709707141822 -0.43256655232152308 0 0.39060471922189077 -0.44004118718738572 0 0.40479523520150917 -0.41850108622351029 0 0.39610709707141822 -0.43256655232152308 0 0.40752669804717151 -0.43613841108015028 0 0.40479523520150917 -0.41850108622351029 0 0.39610709707141822 -0.43256655232152308 0 0.39121494721315009 -0.42315227544103651 0 0.39610709707141822 -0.43256655232152308 0 0.40752669804717151 -0.43613841108015028 0 0.3977003584278534 -0.44097169967842748 0 0.40752669804717151 -0.43613841108015028 0 0.41736441985434181 -0.42845822533813072 0 0.41490987713121052 -0.44153185286748342 0 0.40479523520150917 -0.41850108622351029 0 0.40752669804717151 -0.43613841108015028 0 0.41736441985434181 -0.42845822533813072 0 0.41736441985434181 -0.42845822533813072 0 0.42298575637157459 -0.43592669488680802 0 0.41490987713121052 -0.44153185286748342 0 0.40479523520150917 -0.41850108622351029 0 0.41736441985434181 -0.42845822533813072 0 0.42376229086256489 -0.40673812245131957 0 0.40638660847337782 -0.3943129943262863 0 0.40479523520150917 -0.41850108622351029 0 0.42376229086256489 -0.40673812245131957 0 0.41736441985434181 -0.42845822533813072 0 0.42376229086256489 -0.40673812245131957 0 0.43263469414452499 -0.42952346727145158 0 0.44695528862468509 -0.4139867918361792 0 0.42376229086256489 -0.40673812245131957 0 0.43263469414452499 -0.42952346727145158 0 0.41736441985434181 -0.42845822533813072 0 0.43263469414452499 -0.42952346727145158 0 0.42298575637157459 -0.43592669488680802 0 0.43263469414452499 -0.42952346727145158 0 0.42298575637157459 -0.43592669488680802 0 0.42703403435622123 -0.44419323407016681 0 0.42703403435622123 -0.44419323407016681 0 0.4269751507550914 -0.45382615137104021 0 0.42146324059782342 -0.45210316792899519 0 0.43942373113660121 -0.44424904110188002 0 0.43263469414452499 -0.42952346727145158 0 0.42703403435622123 -0.44419323407016681 0 0.4423526780154543 -0.45731115431110481 0 0.43942373113660121 -0.44424904110188002 0 0.4269751507550914 -0.45382615137104021 0 0.43942373113660121 -0.44424904110188002 0 0.42703403435622123 -0.44419323407016681 0 0.4269751507550914 -0.45382615137104021 0 0.4423526780154543 -0.45731115431110481 0 0.43222286374566149 -0.46479889321230661 0 0.4269751507550914 -0.45382615137104021 0 0.43222286374566149 -0.46479889321230661 0 0.42432962196164098 -0.4630888583407628 0 0.4285498482834757 -0.47435637842234968 0 0.4269751507550914 -0.45382615137104021 0 0.4177210226500338 -0.45650153471163119 0 0.42146324059782342 -0.45210316792899519 0 0.43222286374566149 -0.46479889321230661 0 0.42432962196164098 -0.4630888583407628 0 0.4269751507550914 -0.45382615137104021 0 0.42432962196164098 -0.4630888583407628 0 0.4269751507550914 -0.45382615137104021 0 0.4177210226500338 -0.45650153471163119 0 0.4177210226500338 -0.45650153471163119 0 0.41682732493633567 -0.46330205681075348 0 0.41182871458061582 -0.45959613372677999 0 0.4177210226500338 -0.45650153471163119 0 0.41402274106291992 -0.45355889745509609 0 0.41182871458061582 -0.45959613372677999 0 0.42432962196164098 -0.4630888583407628 0 0.41682732493633567 -0.46330205681075348 0 0.41873520387560809 -0.47061925864809712 0 0.42432962196164098 -0.4630888583407628 0 0.4177210226500338 -0.45650153471163119 0 0.41682732493633567 -0.46330205681075348 0 0.41682732493633567 -0.46330205681075348 0 0.4115220616137798 -0.46670449862649599 0 0.41873520387560809 -0.47061925864809712 0 0.4115220616137798 -0.46670449862649599 0 0.41182871458061582 -0.45959613372677999 0 0.40004082851704231 -0.46612965766530162 0 0.41682732493633567 -0.46330205681075348 0 0.4115220616137798 -0.46670449862649599 0 0.41182871458061582 -0.45959613372677999 0 0.41182871458061582 -0.45959613372677999 0 0.40958522797564528 -0.45193258926738422 0 0.40004082851704231 -0.46612965766530162 0 0.41402274106291992 -0.45355889745509609 0 0.41182871458061582 -0.45959613372677999 0 0.40958522797564528 -0.45193258926738422 0 0.40702751353882688 -0.45335724396762878 0 0.40958522797564528 -0.45193258926738422 0 0.40293414107250591 -0.45810730411024408 0 0.40735261946390511 -0.45007058748010098 0 0.40958522797564528 -0.45193258926738422 0 0.4107596083510795 -0.447465397520592 0 0.40702751353882688 -0.45335724396762878 0 0.40735261946390511 -0.45007058748010098 0 0.40958522797564528 -0.45193258926738422 0 0.4107596083510795 -0.447465397520592 0 0.4086335805136192 -0.44166032470654393 0 0.40562696328654813 -0.44700620022080878 0 0.40735261946390511 -0.45007058748010098 0 0.4107596083510795 -0.447465397520592 0 0.40562696328654813 -0.44700620022080878 0 0.4107596083510795 -0.447465397520592 0 0.41270547259737722 -0.45054648721529089 0 0.41645431299986407 -0.44922906461809142 0 0.4107596083510795 -0.447465397520592 0 0.41645431299986407 -0.44922906461809142 0 0.41490987713121052 -0.44153185286748342 0 0.40958522797564528 -0.45193258926738422 0 0.4107596083510795 -0.447465397520592 0 0.41270547259737722 -0.45054648721529089 0 0.41402274106291992 -0.45355889745509609 0 0.40958522797564528 -0.45193258926738422 0 0.41270547259737722 -0.45054648721529089 0 0.41402274106291992 -0.45355889745509609 0 0.41270547259737722 -0.45054648721529089 0 0.41645431299986407 -0.44922906461809142 0 0.42703403435622123 -0.44419323407016681 0 0.41645431299986407 -0.44922906461809142 0 0.42146324059782342 -0.45210316792899519 0 0.4177210226500338 -0.45650153471163119 0 0.41402274106291992 -0.45355889745509609 0 0.41645431299986407 -0.44922906461809142 0 0.4177210226500338 -0.45650153471163119 0 0.41645431299986407 -0.44922906461809142 0 0.42146324059782342 -0.45210316792899519 0 0.42703403435622123 -0.44419323407016681 0 0.41645431299986407 -0.44922906461809142 0 0.41490987713121052 -0.44153185286748342 0 0.42298575637157459 -0.43592669488680802 0 0.42703403435622123 -0.44419323407016681 0 0.41490987713121052 -0.44153185286748342 0 0.40752669804717151 -0.43613841108015028 0 0.41490987713121052 -0.44153185286748342 0 0.4086335805136192 -0.44166032470654393 0 0.4107596083510795 -0.447465397520592 0 0.41490987713121052 -0.44153185286748342 0 0.4086335805136192 -0.44166032470654393 0 0.40752669804717151 -0.43613841108015028 0 0.4086335805136192 -0.44166032470654393 0 0.40389534749696671 -0.44343887379424229 0 0.40752669804717151 -0.43613841108015028 0 0.40389534749696671 -0.44343887379424229 0 0.3977003584278534 -0.44097169967842748 0 0.4086335805136192 -0.44166032470654393 0 0.40389534749696671 -0.44343887379424229 0 0.40562696328654813 -0.44700620022080878 0 0.40389534749696671 -0.44343887379424229 0 0.40023166324445009 -0.44750997076462951 0 0.3977003584278534 -0.44097169967842748 0 0.40702751353882688 -0.45335724396762878 0 0.40376378416742559 -0.45059150642409068 0 0.39904886346648621 -0.4540517726458127 0 0.40702751353882688 -0.45335724396762878 0 0.40735261946390511 -0.45007058748010098 0 0.40376378416742559 -0.45059150642409068 0 0.40735261946390511 -0.45007058748010098 0 0.40376378416742559 -0.45059150642409068 0 0.40562696328654813 -0.44700620022080878 0 0.40389534749696671 -0.44343887379424229 0 0.40562696328654813 -0.44700620022080878 0 0.40023166324445009 -0.44750997076462951 0 0.40376378416742559 -0.45059150642409068 0 0.40562696328654813 -0.44700620022080878 0 0.40023166324445009 -0.44750997076462951 0 0.40376378416742559 -0.45059150642409068 0 0.40023166324445009 -0.44750997076462951 0 0.39904886346648621 -0.4540517726458127 0 0.40023166324445009 -0.44750997076462951 0 0.39381683084330238 -0.44799890078802268 0 0.39904886346648621 -0.4540517726458127 0 0.40023166324445009 -0.44750997076462951 0 0.39381683084330238 -0.44799890078802268 0 0.3977003584278534 -0.44097169967842748 0 0.39381683084330238 -0.44799890078802268 0 0.3977003584278534 -0.44097169967842748 0 0.39060471922189077 -0.44004118718738572 0 0.39610709707141822 -0.43256655232152308 0 0.3977003584278534 -0.44097169967842748 0 0.39060471922189077 -0.44004118718738572 0 0.39381683084330238 -0.44799890078802268 0 0.37948242698450058 -0.44489909307822328 0 0.39508299425851051 -0.46100972554066039 0 0.37948242698450058 -0.44489909307822328 0 0.39508299425851051 -0.46100972554066039 0 0.39381683084330238 -0.44799890078802268 0 0.39060471922189077 -0.44004118718738572 0 0.37948242698450058 -0.44489909307822328 0 0.38591688278237968 -0.43376969007073191 0 0.39060471922189077 -0.44004118718738572 0 0.37948242698450058 -0.44489909307822328 0 0.37948242698450058 -0.44489909307822328 0 0.38194399216685121 -0.45636163213584868 0 0.37005743112052492 -0.45645939833263988 0 0.38194399216685121 -0.45636163213584868 0 0.38828211823714798 -0.4653668350410583 0 0.37005743112052492 -0.45645939833263988 0 0.38828211823714798 -0.4653668350410583 0 0.37005743112052492 -0.45645939833263988 0 0.37948242698450058 -0.44489909307822328 0 0.38194399216685121 -0.45636163213584868 0 0.39508299425851051 -0.46100972554066039 0 0.38828211823714798 -0.4653668350410583 0 0.37026284337219001 -0.47691122336070513 0 0.37005743112052492 -0.45645939833263988 0 0.38194399216685121 -0.45636163213584868 0 0.38828211823714798 -0.4653668350410583 0 0.39508299425851051 -0.46100972554066039 0 0.38828211823714798 -0.4653668350410583 0 0.39751869419366592 -0.46988127280389852 0 0.38828211823714798 -0.4653668350410583 0 0.39523115880159182 -0.46559687276272982 0 0.39751869419366592 -0.46988127280389852 0 0.38828211823714798 -0.4653668350410583 0 0.39508299425851051 -0.46100972554066039 0 0.38828211823714798 -0.4653668350410583 0 0.39508299425851051 -0.46100972554066039 0 0.39523115880159182 -0.46559687276272982 0 0.39508299425851051 -0.46100972554066039 0 0.39523115880159182 -0.46559687276272982 0 0.40004082851704231 -0.46612965766530162 0 0.39508299425851051 -0.46100972554066039 0 0.40004082851704231 -0.46612965766530162 0 0.39523115880159182 -0.46559687276272982 0 0.40004082851704231 -0.46612965766530162 0 0.39751869419366592 -0.46988127280389852 0 0.39381683084330238 -0.44799890078802268 0 0.39508299425851051 -0.46100972554066039 0 0.39904886346648621 -0.4540517726458127 0 0.40702751353882688 -0.45335724396762878 0 0.39508299425851051 -0.46100972554066039 0 0.39904886346648621 -0.4540517726458127 0 0.40958522797564528 -0.45193258926738422 0 0.40293414107250591 -0.45810730411024408 0 0.40004082851704231 -0.46612965766530162 0 0.40702751353882688 -0.45335724396762878 0 0.39508299425851051 -0.46100972554066039 0 0.40958522797564528 -0.45193258926738422 0 0.40004082851704231 -0.46612965766530162 0 0.40702751353882688 -0.45335724396762878 0 0.39508299425851051 -0.46100972554066039 0 0.40293414107250591 -0.45810730411024408 0 0.39508299425851051 -0.46100972554066039 0 0.40293414107250591 -0.45810730411024408 0 0.40004082851704231 -0.46612965766530162 0 0.40004082851704231 -0.46612965766530162 0 0.39751869419366592 -0.46988127280389852 0 0.39751869419366592 -0.46988127280389852 0 0.40920422384254462 -0.47559265292722258 0 0.38828211823714798 -0.4653668350410583 0 0.39751869419366592 -0.46988127280389852 0 0.38739459126314779 -0.48494063640194829 0 0.40004082851704231 -0.46612965766530162 0 0.40920422384254462 -0.47559265292722258 0 0.40004082851704231 -0.46612965766530162 0 0.39751869419366592 -0.46988127280389852 0 0.40920422384254462 -0.47559265292722258 0 0.40034649665374328 -0.48267964331002489 0 0.39751869419366592 -0.46988127280389852 0 0.40920422384254462 -0.47559265292722258 0 0.40034649665374328 -0.48267964331002489 0 0.39751869419366592 -0.46988127280389852 0 0.38739459126314779 -0.48494063640194829 0 0.39751869419366592 -0.46988127280389852 0 0.38739459126314779 -0.48494063640194829 0 0.38828211823714798 -0.4653668350410583 0 0.37026284337219001 -0.47691122336070513 0 0.38828211823714798 -0.4653668350410583 0 0.38739459126314779 -0.48494063640194829 0 0.37026284337219001 -0.47691122336070513 0 0.37727048833263022 -0.49999999999999839 0 0.38739459126314779 -0.48494063640194829 0 0.4050546593770995 -0.5 0 0.37727048833263022 -0.49999999999999839 0 0.38739459126314779 -0.48494063640194829 0 0.36686769564251098 -0.49038901122409662 0 0.37727048833263022 -0.49999999999999839 0 0.38739459126314779 -0.48494063640194829 0 0.40034649665374328 -0.48267964331002489 0 0.38739459126314779 -0.48494063640194829 0 0.4050546593770995 -0.5 0 0.40034649665374328 -0.48267964331002489 0 0.4050546593770995 -0.5 0 0.40928727128562181 -0.48733565434068837 0 0.4050546593770995 -0.5 0 0.42102152713205732 -0.48779632646361032 0 0.40928727128562181 -0.48733565434068837 0 0.4050546593770995 -0.5 0 0.42102152713205732 -0.48779632646361032 0 0.4328388304215689 -0.49999999999999889 0 0.40034649665374328 -0.48267964331002489 0 0.40928727128562181 -0.48733565434068837 0 0.40920422384254462 -0.47559265292722258 0 0.42102152713205732 -0.48779632646361032 0 0.40928727128562181 -0.48733565434068837 0 0.40920422384254462 -0.47559265292722258 0 0.4115220616137798 -0.46670449862649599 0 0.40004082851704231 -0.46612965766530162 0 0.40920422384254462 -0.47559265292722258 0 0.4115220616137798 -0.46670449862649599 0 0.40920422384254462 -0.47559265292722258 0 0.41873520387560809 -0.47061925864809712 0 0.40920422384254462 -0.47559265292722258 0 0.41873520387560809 -0.47061925864809712 0 0.42072506188793191 -0.48122353893698211 0 0.42102152713205732 -0.48779632646361032 0 0.40920422384254462 -0.47559265292722258 0 0.40920422384254462 -0.47559265292722258 0 0.42072506188793191 -0.48122353893698211 0 0.42102152713205732 -0.48779632646361032 0 0.40920422384254462 -0.47559265292722258 0 0.42072506188793191 -0.48122353893698211 0 0.42102152713205732 -0.48779632646361032 0 0.42072506188793191 -0.48122353893698211 0 0.4285498482834757 -0.47435637842234968 0 0.43890701971264512 -0.47541192361627538 0 0.42102152713205732 -0.48779632646361032 0 0.4285498482834757 -0.47435637842234968 0 0.42432962196164098 -0.4630888583407628 0 0.41873520387560809 -0.47061925864809712 0 0.4285498482834757 -0.47435637842234968 0 0.41873520387560809 -0.47061925864809712 0 0.42072506188793191 -0.48122353893698211 0 0.4285498482834757 -0.47435637842234968 0 0.43890701971264512 -0.47541192361627538 0 0.43222286374566149 -0.46479889321230661 0 0.4285498482834757 -0.47435637842234968 0 0.43890701971264512 -0.47541192361627538 0 0.42102152713205732 -0.48779632646361032 0 0.4328388304215689 -0.49999999999999889 0 0.42102152713205732 -0.48779632646361032 0 0.4328388304215689 -0.49999999999999889 0 0.31531711244953953 -0.5 0 0.32244358875765011 -0.48397730744308848 0 0.30794199884827189 -0.47984073696357721 0 0.31531711244953953 -0.5 0 0.32244358875765011 -0.48397730744308848 0 0.33422429364227441 -0.49999999999999928 0 0.32244358875765011 -0.48397730744308848 0 0.34070668525660869 -0.4681175966897469 0 0.3194401219017734 -0.46734083576544788 0 0.32244358875765011 -0.48397730744308848 0 0.3194401219017734 -0.46734083576544788 0 0.30794199884827189 -0.47984073696357721 0 0.33779534477279383 -0.48321027214773399 0 0.35224356850723199 -0.48845561168035201 0 0.34070668525660869 -0.4681175966897469 0 0.32244358875765011 -0.48397730744308848 0 0.33779534477279383 -0.48321027214773399 0 0.34070668525660869 -0.4681175966897469 0 0.32244358875765011 -0.48397730744308848 0 0.33779534477279383 -0.48321027214773399 0 0.33422429364227441 -0.49999999999999928 0 0.33779534477279383 -0.48321027214773399 0 0.33422429364227441 -0.49999999999999928 0 0.35224356850723199 -0.48845561168035201 0 0.33422429364227441 -0.49999999999999928 0 0.35224356850723199 -0.48845561168035201 0 0.33422429364227441 -0.49999999999999928 0 0.35224356850723199 -0.48845561168035201 0 0.35574739098745217 -0.5 0 0.35224356850723199 -0.48845561168035201 0 0.35574739098745217 -0.5 0 0.36686769564251098 -0.49038901122409662 0 0.37727048833263022 -0.49999999999999839 0 0.35574739098745217 -0.5 0 0.36686769564251098 -0.49038901122409662 0 0.35224356850723199 -0.48845561168035201 0 0.36686769564251098 -0.49038901122409662 0 0.37026284337219001 -0.47691122336070513 0 0.35224356850723199 -0.48845561168035201 0 0.37026284337219001 -0.47691122336070513 0 0.35718026651999468 -0.46681567693715942 0 0.35224356850723199 -0.48845561168035201 0 0.37026284337219001 -0.47691122336070513 0 0.38739459126314779 -0.48494063640194829 0 0.36686769564251098 -0.49038901122409662 0 0.37026284337219001 -0.47691122336070513 0 0.35224356850723199 -0.48845561168035201 0 0.35718026651999468 -0.46681567693715942 0 0.34070668525660869 -0.4681175966897469 0 0.35718026651999468 -0.46681567693715942 0 0.35183274400390191 -0.44755196162422139 0 0.34070668525660869 -0.4681175966897469 0 0.37026284337219001 -0.47691122336070513 0 0.35718026651999468 -0.46681567693715942 0 0.37005743112052492 -0.45645939833263988 0 0.35718026651999468 -0.46681567693715942 0 0.37005743112052492 -0.45645939833263988 0 0.35183274400390191 -0.44755196162422139 0 0.37005743112052492 -0.45645939833263988 0 0.35183274400390191 -0.44755196162422139 0 0.37948242698450058 -0.44489909307822328 0 0.3653461148467318 -0.44297920567679577 0 0.36388185971049042 -0.42878846061578629 0 0.37005743112052492 -0.45645939833263988 0 0.3653461148467318 -0.44297920567679577 0 0.35183274400390191 -0.44755196162422139 0 0.37948242698450058 -0.44489909307822328 0 0.37005743112052492 -0.45645939833263988 0 0.3653461148467318 -0.44297920567679577 0 0.35183274400390191 -0.44755196162422139 0 0.33360805688727879 -0.43864452491580291 0 0.35278914069502387 -0.43356016779577411 0 0.3653461148467318 -0.44297920567679577 0 0.35183274400390191 -0.44755196162422139 0 0.35278914069502387 -0.43356016779577411 0 0.35183274400390191 -0.44755196162422139 0 0.33360805688727879 -0.43864452491580291 0 0.35183274400390191 -0.44755196162422139 0 0.33360805688727879 -0.43864452491580291 0 0.32908604864277591 -0.45497889906627348 0 0.35183274400390191 -0.44755196162422139 0 0.34070668525660869 -0.4681175966897469 0 0.32908604864277591 -0.45497889906627348 0 0.34070668525660869 -0.4681175966897469 0 0.32908604864277591 -0.45497889906627348 0 0.3194401219017734 -0.46734083576544788 0 0.3194401219017734 -0.46734083576544788 0 0.31333313680318098 -0.45052541186043449 0 0.30714888890801562 -0.46554375409781501 0 0.32908604864277591 -0.45497889906627348 0 0.3194401219017734 -0.46734083576544788 0 0.31333313680318098 -0.45052541186043449 0 0.33360805688727879 -0.43864452491580291 0 0.31333313680318098 -0.45052541186043449 0 0.31529353463598558 -0.43563630298067318 0 0.33360805688727879 -0.43864452491580291 0 0.32908604864277591 -0.45497889906627348 0 0.31333313680318098 -0.45052541186043449 0 0.33360805688727879 -0.43864452491580291 0 0.31529353463598558 -0.43563630298067318 0 0.32957349544036119 -0.42492623089047438 0 0.31529353463598558 -0.43563630298067318 0 0.31626031829554868 -0.42465806744652712 0 0.32957349544036119 -0.42492623089047438 0 0.31626031829554868 -0.42465806744652712 0 0.3163640708182886 -0.41292455899926511 0 0.32544447940149462 -0.41520174675046428 0 0.3163640708182886 -0.41292455899926511 0 0.31494815871221649 -0.40552511063673552 0 0.30703341364337111 -0.41134355311833642 0 0.3163640708182886 -0.41292455899926511 0 0.32183009818567798 -0.40780927714224863 0 0.31494815871221649 -0.40552511063673552 0 0.32183009818567798 -0.40780927714224863 0 0.32544447940149462 -0.41520174675046428 0 0.33074168703066198 -0.40587861457972879 0 0.3163640708182886 -0.41292455899926511 0 0.32183009818567798 -0.40780927714224863 0 0.32544447940149462 -0.41520174675046428 0 0.31626031829554868 -0.42465806744652712 0 0.32544447940149462 -0.41520174675046428 0 0.32957349544036119 -0.42492623089047438 0 0.33789720663842893 -0.41501373144454229 0 0.34784476508732598 -0.40884622473346932 0 0.33074168703066198 -0.40587861457972879 0 0.32544447940149462 -0.41520174675046428 0 0.33789720663842893 -0.41501373144454229 0 0.32957349544036119 -0.42492623089047438 0 0.32544447940149462 -0.41520174675046428 0 0.33789720663842893 -0.41501373144454229 0 0.33074168703066198 -0.40587861457972879 0 0.33789720663842893 -0.41501373144454229 0 0.32957349544036119 -0.42492623089047438 0 0.34429890336326752 -0.42302949252137417 0 0.33789720663842893 -0.41501373144454229 0 0.34429890336326752 -0.42302949252137417 0 0.34784476508732598 -0.40884622473346932 0 0.33360805688727879 -0.43864452491580291 0 0.34429890336326752 -0.42302949252137417 0 0.35278914069502387 -0.43356016779577411 0 0.33360805688727879 -0.43864452491580291 0 0.32957349544036119 -0.42492623089047438 0 0.34429890336326752 -0.42302949252137417 0 0.34429890336326752 -0.42302949252137417 0 0.35278914069502387 -0.43356016779577411 0 0.3573541544388027 -0.42017312966494291 0 0.35278914069502387 -0.43356016779577411 0 0.36388185971049042 -0.42878846061578629 0 0.3573541544388027 -0.42017312966494291 0 0.37643168034171992 -0.42556142129214097 0 0.37948242698450058 -0.44489909307822328 0 0.36388185971049042 -0.42878846061578629 0 0.3653461148467318 -0.44297920567679577 0 0.35278914069502387 -0.43356016779577411 0 0.36388185971049042 -0.42878846061578629 0 0.37948242698450058 -0.44489909307822328 0 0.36388185971049042 -0.42878846061578629 0 0.37643168034171992 -0.42556142129214097 0 0.36388185971049042 -0.42878846061578629 0 0.36684053551134421 -0.41564238868227887 0 0.36684053551134421 -0.41564238868227887 0 0.36142805128935213 -0.40786046989862529 0 0.3746939208566854 -0.39563423018417743 0 0.37643168034171992 -0.42556142129214097 0 0.36684053551134421 -0.41564238868227887 0 0.3746939208566854 -0.39563423018417743 0 0.36388185971049042 -0.42878846061578629 0 0.36684053551134421 -0.41564238868227887 0 0.3573541544388027 -0.42017312966494291 0 0.36684053551134421 -0.41564238868227887 0 0.36142805128935213 -0.40786046989862529 0 0.3573541544388027 -0.42017312966494291 0 0.36142805128935213 -0.40786046989862529 0 0.3573541544388027 -0.42017312966494291 0 0.34784476508732598 -0.40884622473346932 0 0.34429890336326752 -0.42302949252137417 0 0.3573541544388027 -0.42017312966494291 0 0.34784476508732598 -0.40884622473346932 0 0.34784476508732598 -0.40884622473346932 0 0.35872418755303798 -0.39523854881529619 0 0.34121435963392238 -0.39335469915018101 0 0.36142805128935213 -0.40786046989862529 0 0.34784476508732598 -0.40884622473346932 0 0.35872418755303798 -0.39523854881529619 0 0.36142805128935213 -0.40786046989862529 0 0.35872418755303798 -0.39523854881529619 0 0.3746939208566854 -0.39563423018417743 0 0.35872418755303798 -0.39523854881529619 0 0.3746939208566854 -0.39563423018417743 0 0.36188421270622761 -0.3860387683583037 0 0.3746939208566854 -0.39563423018417743 0 0.37295616137165088 -0.36570703907621399 0 0.3746939208566854 -0.39563423018417743 0 0.37295616137165088 -0.36570703907621399 0 0.36470107201732499 -0.37231361713882499 0 0.3746939208566854 -0.39563423018417743 0 0.36188421270622761 -0.3860387683583037 0 0.36470107201732499 -0.37231361713882499 0 0.36188421270622761 -0.3860387683583037 0 0.34941767039786159 -0.3809686772949159 0 0.36470107201732499 -0.37231361713882499 0 0.35872418755303798 -0.39523854881529619 0 0.34941767039786159 -0.3809686772949159 0 0.34121435963392238 -0.39335469915018101 0 0.35872418755303798 -0.39523854881529619 0 0.36188421270622761 -0.3860387683583037 0 0.34941767039786159 -0.3809686772949159 0 0.34941767039786159 -0.3809686772949159 0 0.33124532239560439 -0.37823301910301921 0 0.34121435963392238 -0.39335469915018101 0 0.33124532239560439 -0.37823301910301921 0 0.34121435963392238 -0.39335469915018101 0 0.32931252533904259 -0.39096311037465681 0 0.34784476508732598 -0.40884622473346932 0 0.34121435963392238 -0.39335469915018101 0 0.33074168703066198 -0.40587861457972879 0 0.34121435963392238 -0.39335469915018101 0 0.33074168703066198 -0.40587861457972879 0 0.32931252533904259 -0.39096311037465681 0 0.32931252533904259 -0.39096311037465681 0 0.32175996503536308 -0.39845531375755328 0 0.31988823849012932 -0.38593244015328232 0 0.33074168703066198 -0.40587861457972879 0 0.32931252533904259 -0.39096311037465681 0 0.32175996503536308 -0.39845531375755328 0 0.32183009818567798 -0.40780927714224863 0 0.33074168703066198 -0.40587861457972879 0 0.32175996503536308 -0.39845531375755328 0 0.32183009818567798 -0.40780927714224863 0 0.32175996503536308 -0.39845531375755328 0 0.31494815871221649 -0.40552511063673552 0 0.32175996503536308 -0.39845531375755328 0 0.3151604115840726 -0.39927007105820478 0 0.31494815871221649 -0.40552511063673552 0 0.3151604115840726 -0.39927007105820478 0 0.31494815871221649 -0.40552511063673552 0 0.30943889046679668 -0.39944244639504728 0 0.32175996503536308 -0.39845531375755328 0 0.31366156956861913 -0.39337091956528902 0 0.31988823849012932 -0.38593244015328232 0 0.32175996503536308 -0.39845531375755328 0 0.3151604115840726 -0.39927007105820478 0 0.31366156956861913 -0.39337091956528902 0 0.3151604115840726 -0.39927007105820478 0 0.31366156956861913 -0.39337091956528902 0 0.30943889046679668 -0.39944244639504728 0 0.31366156956861913 -0.39337091956528902 0 0.31988823849012932 -0.38593244015328232 0 0.30755326019307339 -0.38464230292200358 0 0.33124532239560439 -0.37823301910301921 0 0.31988823849012932 -0.38593244015328232 0 0.31511382326667542 -0.37455977839225429 0 0.31988823849012932 -0.38593244015328232 0 0.30755326019307339 -0.38464230292200358 0 0.31511382326667542 -0.37455977839225429 0 0.33124532239560439 -0.37823301910301921 0 0.32931252533904259 -0.39096311037465681 0 0.31988823849012932 -0.38593244015328232 0 0.30127091559097119 -0.3891294992474047 0 0.3002132253607403 -0.38353179507299051 0 0.29231327721022282 -0.3873697961029901 0 0.30127091559097119 -0.3891294992474047 0 0.3002132253607403 -0.38353179507299051 0 0.30755326019307339 -0.38464230292200358 0 0.3002132253607403 -0.38353179507299051 0 0.30755326019307339 -0.38464230292200358 0 0.29971544844869391 -0.37298558201956378 0 0.3002132253607403 -0.38353179507299051 0 0.29231327721022282 -0.3873697961029901 0 0.29971544844869391 -0.37298558201956378 0 0.30755326019307339 -0.38464230292200358 0 0.31511382326667542 -0.37455977839225429 0 0.29971544844869391 -0.37298558201956378 0 0.31366156956861913 -0.39337091956528902 0 0.30755326019307339 -0.38464230292200358 0 0.30654531312008249 -0.39220858776707451 0 0.30127091559097119 -0.3891294992474047 0 0.30755326019307339 -0.38464230292200358 0 0.30654531312008249 -0.39220858776707451 0 0.30158296211263302 -0.39805435788846388 0 0.29231327721022282 -0.3873697961029901 0 0.29699518058167729 -0.41202416323351859 0 0.30654531312008249 -0.39220858776707451 0 0.30943889046679668 -0.39944244639504728 0 0.30158296211263302 -0.39805435788846388 0 0.31366156956861913 -0.39337091956528902 0 0.30654531312008249 -0.39220858776707451 0 0.30943889046679668 -0.39944244639504728 0 0.30588784261219382 -0.40370846976913188 0 0.30943889046679668 -0.39944244639504728 0 0.30158296211263302 -0.39805435788846388 0 0.31494815871221649 -0.40552511063673552 0 0.30588784261219382 -0.40370846976913188 0 0.30943889046679668 -0.39944244639504728 0 0.30588784261219382 -0.40370846976913188 0 0.30158296211263302 -0.39805435788846388 0 0.29699518058167729 -0.41202416323351859 0 0.30127091559097119 -0.3891294992474047 0 0.30158296211263302 -0.39805435788846388 0 0.29231327721022282 -0.3873697961029901 0 0.30127091559097119 -0.3891294992474047 0 0.30654531312008249 -0.39220858776707451 0 0.30158296211263302 -0.39805435788846388 0 0.29344273016090422 -0.4000912696315202 0 0.29231327721022282 -0.3873697961029901 0 0.29699518058167729 -0.41202416323351859 0 0.29344273016090422 -0.4000912696315202 0 0.28688110369458758 -0.38915915503329152 0 0.29699518058167729 -0.41202416323351859 0 0.28490335995308252 -0.39259741843007723 0 0.28474476225410061 -0.40645592105432871 0 0.29699518058167729 -0.41202416323351859 0 0.29344273016090422 -0.4000912696315202 0 0.28688110369458758 -0.38915915503329152 0 0.29231327721022282 -0.3873697961029901 0 0.28490335995308252 -0.39259741843007723 0 0.28688110369458758 -0.38915915503329152 0 0.29699518058167729 -0.41202416323351859 0 0.29231327721022282 -0.3873697961029901 0 0.29699518058167729 -0.41202416323351859 0 0.28688110369458758 -0.38915915503329152 0 0.29699518058167729 -0.41202416323351859 0 0.28490335995308252 -0.39259741843007723 0 0.27659700962194778 -0.40784714297977198 0 0.28474476225410061 -0.40645592105432871 0 0.28688110369458758 -0.38915915503329152 0 0.28557892230701942 -0.37606573252756781 0 0.27676702680749982 -0.36629414683306349 0 0.28688110369458758 -0.38915915503329152 0 0.27676702680749982 -0.36629414683306349 0 0.28490335995308252 -0.39259741843007723 0 0.28688110369458758 -0.38915915503329152 0 0.27838987018473021 -0.38671768173084359 0 0.29231327721022282 -0.3873697961029901 0 0.28704519526331568 -0.36292762804969958 0 0.29231327721022282 -0.3873697961029901 0 0.28557892230701942 -0.37606573252756781 0 0.28704519526331568 -0.36292762804969958 0 0.28688110369458758 -0.38915915503329152 0 0.29231327721022282 -0.3873697961029901 0 0.28557892230701942 -0.37606573252756781 0 0.28688110369458758 -0.38915915503329152 0 0.27616762034734937 -0.37960006174152611 0 0.27676702680749982 -0.36629414683306349 0 0.28688110369458758 -0.38915915503329152 0 0.27616762034734937 -0.37960006174152611 0 0.27838987018473021 -0.38671768173084359 0 0.27616762034734937 -0.37960006174152611 0 0.27838987018473021 -0.38671768173084359 0 0.27098521632083927 -0.3822592211409252 0 0.27838987018473021 -0.38671768173084359 0 0.27098521632083927 -0.3822592211409252 0 0.26943119930783732 -0.39285764314052019 0 0.27098521632083927 -0.3822592211409252 0 0.26027769248478289 -0.38299983190099313 0 0.26943119930783732 -0.39285764314052019 0 0.27616762034734937 -0.37960006174152611 0 0.27098521632083927 -0.3822592211409252 0 0.26781488472909032 -0.37357010396950652 0 0.27098521632083927 -0.3822592211409252 0 0.26027769248478289 -0.38299983190099313 0 0.26781488472909032 -0.37357010396950652 0 0.26027769248478289 -0.38299983190099313 0 0.26781488472909032 -0.37357010396950652 0 0.25777313178627231 -0.36957024550709572 0 0.26027769248478289 -0.38299983190099313 0 0.25839105614575453 -0.3960188506821592 0 0.24909063106523199 -0.38936043408226417 0 0.26027769248478289 -0.38299983190099313 0 0.25777313178627231 -0.36957024550709572 0 0.24884497561725441 -0.37604231901838492 0 0.26027769248478289 -0.38299983190099313 0 0.24884497561725441 -0.37604231901838492 0 0.24909063106523199 -0.38936043408226417 0 0.25839105614575453 -0.3960188506821592 0 0.26521645709598363 -0.40608287143497168 0 0.2492721161217317 -0.40414112237106442 0 0.25839105614575453 -0.3960188506821592 0 0.2492721161217317 -0.40414112237106442 0 0.24909063106523199 -0.38936043408226417 0 0.26027769248478289 -0.38299983190099313 0 0.25839105614575453 -0.3960188506821592 0 0.26943119930783732 -0.39285764314052019 0 0.25839105614575453 -0.3960188506821592 0 0.26521645709598363 -0.40608287143497168 0 0.26943119930783732 -0.39285764314052019 0 0.28490335995308252 -0.39259741843007723 0 0.26521645709598363 -0.40608287143497168 0 0.28490335995308252 -0.39259741843007723 0 0.26521645709598363 -0.40608287143497168 0 0.26943119930783732 -0.39285764314052019 0 0.28490335995308252 -0.39259741843007723 0 0.26521645709598363 -0.40608287143497168 0 0.27659700962194778 -0.40784714297977198 0 0.28490335995308252 -0.39259741843007723 0 0.27838987018473021 -0.38671768173084359 0 0.26943119930783732 -0.39285764314052019 0 0.27954469531037879 -0.4183413113296684 0 0.26209421003908029 -0.42465845942581831 0 0.27659700962194778 -0.40784714297977198 0 0.27954469531037879 -0.4183413113296684 0 0.28474476225410061 -0.40645592105432871 0 0.27954469531037879 -0.4183413113296684 0 0.26857577349619333 -0.41575819264981367 0 0.26209421003908029 -0.42465845942581831 0 0.27659700962194778 -0.40784714297977198 0 0.27954469531037879 -0.4183413113296684 0 0.26857577349619333 -0.41575819264981367 0 0.26521645709598363 -0.40608287143497168 0 0.27659700962194778 -0.40784714297977198 0 0.26857577349619333 -0.41575819264981367 0 0.26521645709598363 -0.40608287143497168 0 0.2455295542388847 -0.41956832443986619 0 0.26521645709598363 -0.40608287143497168 0 0.2455295542388847 -0.41956832443986619 0 0.2492721161217317 -0.40414112237106442 0 0.26521645709598363 -0.40608287143497168 0 0.26857577349619333 -0.41575819264981367 0 0.26093193715532559 -0.42210664275047832 0 0.26521645709598363 -0.40608287143497168 0 0.26093193715532559 -0.42210664275047832 0 0.2455295542388847 -0.41956832443986619 0 0.26857577349619333 -0.41575819264981367 0 0.26093193715532559 -0.42210664275047832 0 0.26209421003908029 -0.42465845942581831 0 0.25584682968397537 -0.43558523313127762 0 0.26209421003908029 -0.42465845942581831 0 0.2406838634771726 -0.43263540959969637 0 0.26209421003908029 -0.42465845942581831 0 0.2406838634771726 -0.43263540959969637 0 0.26093193715532559 -0.42210664275047832 0 0.26209421003908029 -0.42465845942581831 0 0.2455295542388847 -0.41956832443986619 0 0.26093193715532559 -0.42210664275047832 0 0.26209421003908029 -0.42465845942581831 0 0.26209421003908029 -0.42465845942581831 0 0.26891084591225478 -0.43962465655044403 0 0.25584682968397537 -0.43558523313127762 0 0.26209421003908029 -0.42465845942581831 0 0.26891084591225478 -0.43962465655044403 0 0.26209421003908029 -0.42465845942581831 0 0.27290526564861051 -0.42883618425956671 0 0.26891084591225478 -0.43962465655044403 0 0.27954469531037879 -0.4183413113296684 0 0.26209421003908029 -0.42465845942581831 0 0.27290526564861051 -0.42883618425956671 0 0.27954469531037879 -0.4183413113296684 0 0.27290526564861051 -0.42883618425956671 0 0.28107131133272789 -0.43272030973233599 0 0.27290526564861051 -0.42883618425956671 0 0.28107131133272789 -0.43272030973233599 0 0.26891084591225478 -0.43962465655044403 0 0.28107131133272789 -0.43272030973233599 0 0.29604577630185941 -0.4337577063371677 0 0.2943081771672314 -0.42077547280273969 0 0.27954469531037879 -0.4183413113296684 0 0.28107131133272789 -0.43272030973233599 0 0.2943081771672314 -0.42077547280273969 0 0.27954469531037879 -0.4183413113296684 0 0.28474476225410061 -0.40645592105432871 0 0.29699518058167729 -0.41202416323351859 0 0.27954469531037879 -0.4183413113296684 0 0.29699518058167729 -0.41202416323351859 0 0.27954469531037879 -0.4183413113296684 0 0.2943081771672314 -0.42077547280273969 0 0.29699518058167729 -0.41202416323351859 0 0.2943081771672314 -0.42077547280273969 0 0.29822759940965587 -0.41481030643991201 0 0.29699518058167729 -0.41202416323351859 0 0.2943081771672314 -0.42077547280273969 0 0.2987674497970742 -0.41731503473113712 0 0.30339324883361152 -0.41828082360186919 0 0.3163640708182886 -0.41292455899926511 0 0.29604577630185941 -0.4337577063371677 0 0.30339324883361152 -0.41828082360186919 0 0.31494815871221649 -0.40552511063673552 0 0.29699518058167729 -0.41202416323351859 0 0.31494815871221649 -0.40552511063673552 0 0.30588784261219382 -0.40370846976913188 0 0.29699518058167729 -0.41202416323351859 0 0.31494815871221649 -0.40552511063673552 0 0.29699518058167729 -0.41202416323351859 0 0.30703341364337111 -0.41134355311833642 0 0.2987674497970742 -0.41731503473113712 0 0.29822759940965587 -0.41481030643991201 0 0.2943081771672314 -0.42077547280273969 0 0.2987674497970742 -0.41731503473113712 0 0.29822759940965587 -0.41481030643991201 0 0.29822759940965587 -0.41481030643991201 0 0.30051069098688299 -0.41523275113424529 0 0.30149269880714269 -0.41330086451465359 0 0.2987674497970742 -0.41731503473113712 0 0.29822759940965587 -0.41481030643991201 0 0.30051069098688299 -0.41523275113424529 0 0.30051069098688299 -0.41523275113424529 0 0.30322190791749992 -0.41457913380217221 0 0.30339324883361152 -0.41828082360186919 0 0.30322190791749992 -0.41457913380217221 0 0.30339324883361152 -0.41828082360186919 0 0.30703341364337111 -0.41134355311833642 0 0.2987674497970742 -0.41731503473113712 0 0.30051069098688299 -0.41523275113424529 0 0.30339324883361152 -0.41828082360186919 0 0.30051069098688299 -0.41523275113424529 0 0.30322190791749992 -0.41457913380217221 0 0.30149269880714269 -0.41330086451465359 0 0.29699518058167729 -0.41202416323351859 0 0.30149269880714269 -0.41330086451465359 0 0.30703341364337111 -0.41134355311833642 0 0.29822759940965587 -0.41481030643991201 0 0.29699518058167729 -0.41202416323351859 0 0.30149269880714269 -0.41330086451465359 0 0.29822759940965587 -0.41481030643991201 0 0.29699518058167729 -0.41202416323351859 0 0.30322190791749992 -0.41457913380217221 0 0.30149269880714269 -0.41330086451465359 0 0.30703341364337111 -0.41134355311833642 0 0.3163640708182886 -0.41292455899926511 0 0.30339324883361152 -0.41828082360186919 0 0.30703341364337111 -0.41134355311833642 0 0.3163640708182886 -0.41292455899926511 0 0.29604577630185941 -0.4337577063371677 0 0.31529353463598558 -0.43563630298067318 0 0.31626031829554868 -0.42465806744652712 0 0.29604577630185941 -0.4337577063371677 0 0.31626031829554868 -0.42465806744652712 0 0.3163640708182886 -0.41292455899926511 0 0.29604577630185941 -0.4337577063371677 0 0.29604577630185941 -0.4337577063371677 0 0.2943081771672314 -0.42077547280273969 0 0.30339324883361152 -0.41828082360186919 0 0.31529353463598558 -0.43563630298067318 0 0.29604577630185941 -0.4337577063371677 0 0.30210234209355868 -0.44592412016498928 0 0.31333313680318098 -0.45052541186043449 0 0.30210234209355868 -0.44592412016498928 0 0.29726398111214453 -0.45848898933130983 0 0.30210234209355868 -0.44592412016498928 0 0.29726398111214453 -0.45848898933130983 0 0.29166833067281422 -0.45119803711613371 0 0.31333313680318098 -0.45052541186043449 0 0.31529353463598558 -0.43563630298067318 0 0.30210234209355868 -0.44592412016498928 0 0.31333313680318098 -0.45052541186043449 0 0.30714888890801562 -0.46554375409781501 0 0.29726398111214453 -0.45848898933130983 0 0.30714888890801562 -0.46554375409781501 0 0.29726398111214453 -0.45848898933130983 0 0.29776520587470701 -0.47152279656830531 0 0.29726398111214453 -0.45848898933130983 0 0.28874859660017438 -0.46322143947251793 0 0.29166833067281422 -0.45119803711613371 0 0.28874859660017438 -0.46322143947251793 0 0.27572748178542938 -0.45459085367506979 0 0.2860687065211171 -0.47729542683753462 0 0.28874859660017438 -0.46322143947251793 0 0.29166833067281422 -0.45119803711613371 0 0.27572748178542938 -0.45459085367506979 0 0.29726398111214453 -0.45848898933130983 0 0.28874859660017438 -0.46322143947251793 0 0.29776520587470701 -0.47152279656830531 0 0.29604577630185941 -0.4337577063371677 0 0.30210234209355868 -0.44592412016498928 0 0.29166833067281422 -0.45119803711613371 0 0.29604577630185941 -0.4337577063371677 0 0.29166833067281422 -0.45119803711613371 0 0.27572748178542938 -0.45459085367506979 0 0.29604577630185941 -0.4337577063371677 0 0.27572748178542938 -0.45459085367506979 0 0.28107131133272789 -0.43272030973233599 0 0.29604577630185941 -0.4337577063371677 0 0.27572748178542938 -0.45459085367506979 0 0.28107131133272789 -0.43272030973233599 0 0.26891084591225478 -0.43962465655044403 0 0.27572748178542938 -0.45459085367506979 0 0.26891084591225478 -0.43962465655044403 0 0.27572748178542938 -0.45459085367506979 0 0.25584682968397537 -0.43558523313127762 0 0.26891084591225478 -0.43962465655044403 0 0.25117529495687341 -0.44583808875036729 0 0.26891084591225478 -0.43962465655044403 0 0.25117529495687341 -0.44583808875036729 0 0.27572748178542938 -0.45459085367506979 0 0.25117529495687341 -0.44583808875036729 0 0.26603106987168568 -0.46453296657655729 0 0.27572748178542938 -0.45459085367506979 0 0.25117529495687341 -0.44583808875036729 0 0.25230213972055199 -0.4623473954534576 0 0.26603106987168568 -0.46453296657655729 0 0.25117529495687341 -0.44583808875036729 0 0.26603106987168568 -0.46453296657655729 0 0.25230213972055199 -0.4623473954534576 0 0.26603106987168568 -0.46453296657655729 0 0.25353028064809929 -0.47735051794753891 0 0.27572748178542938 -0.45459085367506979 0 0.2860687065211171 -0.47729542683753462 0 0.26603106987168568 -0.46453296657655729 0 0.27572748178542938 -0.45459085367506979 0 0.2860687065211171 -0.47729542683753462 0 0.26603106987168568 -0.46453296657655729 0 0.27572748178542938 -0.45459085367506979 0 0.26603106987168568 -0.46453296657655729 0 0.27889028805885713 -0.4807153275996634 0 0.26603106987168568 -0.46453296657655729 0 0.27889028805885713 -0.4807153275996634 0 0.26642415204434311 -0.47742103776791361 0 0.26603106987168568 -0.46453296657655729 0 0.27889028805885713 -0.4807153275996634 0 0.2860687065211171 -0.47729542683753462 0 0.27889028805885713 -0.4807153275996634 0 0.26642415204434311 -0.47742103776791361 0 0.26973020488866112 -0.486375466898259 0 0.26642415204434311 -0.47742103776791361 0 0.25353028064809929 -0.47735051794753891 0 0.26973020488866112 -0.486375466898259 0 0.26603106987168568 -0.46453296657655729 0 0.26642415204434311 -0.47742103776791361 0 0.25353028064809929 -0.47735051794753891 0 0.26603106987168568 -0.46453296657655729 0 0.25353028064809929 -0.47735051794753891 0 0.25353028064809929 -0.47735051794753891 0 0.26775481558337461 -0.5 0 0.2390996999099444 -0.5 0 0.25353028064809929 -0.47735051794753891 0 0.26775481558337461 -0.5 0 0.26973020488866112 -0.486375466898259 0 0.26775481558337461 -0.5 0 0.26973020488866112 -0.486375466898259 0 0.27703120369423029 -0.49099712078017288 0 0.26775481558337461 -0.5 0 0.27703120369423029 -0.49099712078017288 0 0.29174950624602869 -0.49689768862276951 0 0.27889028805885713 -0.4807153275996634 0 0.26973020488866112 -0.486375466898259 0 0.27703120369423029 -0.49099712078017288 0 0.27889028805885713 -0.4807153275996634 0 0.27703120369423029 -0.49099712078017288 0 0.29174950624602869 -0.49689768862276951 0 0.27889028805885713 -0.4807153275996634 0 0.29174950624602869 -0.49689768862276951 0 0.2964099312568047 -0.49999999999999911 0 0.2860687065211171 -0.47729542683753462 0 0.3001772389130189 -0.48822007202940521 0 0.26775481558337461 -0.5 0 0.2964099312568047 -0.49999999999999911 0 0.29174950624602869 -0.49689768862276951 0 0.2964099312568047 -0.49999999999999911 0 0.29174950624602869 -0.49689768862276951 0 0.2860687065211171 -0.47729542683753462 0 0.2964099312568047 -0.49999999999999911 0 0.2860687065211171 -0.47729542683753462 0 0.27889028805885713 -0.4807153275996634 0 0.29174950624602869 -0.49689768862276951 0 0.2860687065211171 -0.47729542683753462 0 0.2860687065211171 -0.47729542683753462 0 0.29767274953373229 -0.47974691790483992 0 0.29776520587470701 -0.47152279656830531 0 0.28874859660017438 -0.46322143947251793 0 0.2860687065211171 -0.47729542683753462 0 0.29776520587470701 -0.47152279656830531 0 0.2860687065211171 -0.47729542683753462 0 0.29767274953373229 -0.47974691790483992 0 0.3001772389130189 -0.48822007202940521 0 0.29767274953373229 -0.47974691790483992 0 0.29776520587470701 -0.47152279656830531 0 0.30794199884827189 -0.47984073696357721 0 0.29767274953373229 -0.47974691790483992 0 0.30794199884827189 -0.47984073696357721 0 0.3001772389130189 -0.48822007202940521 0 0.30714888890801562 -0.46554375409781501 0 0.29776520587470701 -0.47152279656830531 0 0.30794199884827189 -0.47984073696357721 0 0.3194401219017734 -0.46734083576544788 0 0.30714888890801562 -0.46554375409781501 0 0.30794199884827189 -0.47984073696357721 0 0.31531711244953953 -0.5 0 0.30794199884827189 -0.47984073696357721 0 0.3001772389130189 -0.48822007202940521 0 0.31531711244953953 -0.5 0 0.2964099312568047 -0.49999999999999911 0 0.3001772389130189 -0.48822007202940521 0 0.32775184346130398 -0.28440849299773352 0 0.3341542791119505 -0.26853471337745871 0 0.34547991936167921 -0.29333040170409502 0 0.3255630306005502 -0.30572743082962511 0 0.32775184346130398 -0.28440849299773352 0 0.34547991936167921 -0.29333040170409502 0 0.3255630306005502 -0.30572743082962511 0 0.34547991936167921 -0.29333040170409502 0 0.34242853186188688 -0.31549106366762197 0 0.3255630306005502 -0.30572743082962511 0 0.3117226979922243 -0.32472502700032352 0 0.30981759667710929 -0.30490735047805301 0 0.3255630306005502 -0.30572743082962511 0 0.31312655104276799 -0.28969622974457099 0 0.30981759667710929 -0.30490735047805301 0 0.32775184346130398 -0.28440849299773352 0 0.31312655104276799 -0.28969622974457099 0 0.31750642397248152 -0.27135412922208813 0 0.3255630306005502 -0.30572743082962511 0 0.32775184346130398 -0.28440849299773352 0 0.31312655104276799 -0.28969622974457099 0 0.32775184346130398 -0.28440849299773352 0 0.31750642397248152 -0.27135412922208813 0 0.3341542791119505 -0.26853471337745871 0 0.31750642397248152 -0.27135412922208813 0 0.3267291098789597 -0.25352024711675503 0 0.30555600159032242 -0.2566669108934001 0 0.31750642397248152 -0.27135412922208813 0 0.3267291098789597 -0.25352024711675503 0 0.3341542791119505 -0.26853471337745871 0 0.31511381228511531 -0.24106673712159241 0 0.3267291098789597 -0.25352024711675503 0 0.30555600159032242 -0.2566669108934001 0 0.34291683112288501 -0.24736075120898571 0 0.3341542791119505 -0.26853471337745871 0 0.35091815569613433 -0.27053000848184178 0 0.34291683112288501 -0.24736075120898571 0 0.3267291098789597 -0.25352024711675503 0 0.3341542791119505 -0.26853471337745871 0 0.3341542791119505 -0.26853471337745871 0 0.35091815569613433 -0.27053000848184178 0 0.34547991936167921 -0.29333040170409502 0 0.34291683112288501 -0.24736075120898571 0 0.36383203281962961 -0.24618222065141809 0 0.35091815569613433 -0.27053000848184178 0 0.36383203281962961 -0.24618222065141809 0 0.35091815569613433 -0.27053000848184178 0 0.36383203281962961 -0.24618222065141809 0 0.37940807851883712 -0.27232152391431907 0 0.35091815569613433 -0.27053000848184178 0 0.37940807851883712 -0.27232152391431907 0 0.35091815569613433 -0.27053000848184178 0 0.37198235026174742 -0.29592891400576299 0 0.35091815569613433 -0.27053000848184178 0 0.37198235026174742 -0.29592891400576299 0 0.34547991936167921 -0.29333040170409502 0 0.34547991936167921 -0.29333040170409502 0 0.36272452986471571 -0.31588292910559412 0 0.34242853186188688 -0.31549106366762197 0 0.38977976048831198 -0.31946352450918619 0 0.37198235026174742 -0.29592891400576299 0 0.36272452986471571 -0.31588292910559412 0 0.37198235026174742 -0.29592891400576299 0 0.34547991936167921 -0.29333040170409502 0 0.36272452986471571 -0.31588292910559412 0 0.38977976048831198 -0.31946352450918619 0 0.36272452986471571 -0.31588292910559412 0 0.37121840188661642 -0.33577984796825039 0 0.36272452986471571 -0.31588292910559412 0 0.37121840188661642 -0.33577984796825039 0 0.34638618375488889 -0.33720910130847997 0 0.37121840188661642 -0.33577984796825039 0 0.34638618375488889 -0.33720910130847997 0 0.35837536903553691 -0.35594872607243722 0 0.36272452986471571 -0.31588292910559412 0 0.34638618375488889 -0.33720910130847997 0 0.34242853186188688 -0.31549106366762197 0 0.37295616137165088 -0.36570703907621399 0 0.36470107201732499 -0.37231361713882499 0 0.35837536903553691 -0.35594872607243722 0 0.37121840188661642 -0.33577984796825039 0 0.37295616137165088 -0.36570703907621399 0 0.37121840188661642 -0.33577984796825039 0 0.37295616137165088 -0.36570703907621399 0 0.35837536903553691 -0.35594872607243722 0 0.34638618375488889 -0.33720910130847997 0 0.35837536903553691 -0.35594872607243722 0 0.34146586520757433 -0.36062770652982951 0 0.34941767039786159 -0.3809686772949159 0 0.36470107201732499 -0.37231361713882499 0 0.34146586520757433 -0.36062770652982951 0 0.36470107201732499 -0.37231361713882499 0 0.34146586520757433 -0.36062770652982951 0 0.36470107201732499 -0.37231361713882499 0 0.35837536903553691 -0.35594872607243722 0 0.34146586520757433 -0.36062770652982951 0 0.34941767039786159 -0.3809686772949159 0 0.33124532239560439 -0.37823301910301921 0 0.34146586520757433 -0.36062770652982951 0 0.33124532239560439 -0.37823301910301921 0 0.34146586520757433 -0.36062770652982951 0 0.32346025474346879 -0.36514636275694418 0 0.34638618375488889 -0.33720910130847997 0 0.34146586520757433 -0.36062770652982951 0 0.31823065839782372 -0.34894179592083402 0 0.34146586520757433 -0.36062770652982951 0 0.31823065839782372 -0.34894179592083402 0 0.31823065839782372 -0.34894179592083402 0 0.32346025474346879 -0.36514636275694418 0 0.31124560444966631 -0.36336951383878441 0 0.34146586520757433 -0.36062770652982951 0 0.31823065839782372 -0.34894179592083402 0 0.32346025474346879 -0.36514636275694418 0 0.33124532239560439 -0.37823301910301921 0 0.32346025474346879 -0.36514636275694418 0 0.31511382326667542 -0.37455977839225429 0 0.32346025474346879 -0.36514636275694418 0 0.31511382326667542 -0.37455977839225429 0 0.31124560444966631 -0.36336951383878441 0 0.3255630306005502 -0.30572743082962511 0 0.32901671595410809 -0.32686312246526877 0 0.34242853186188688 -0.31549106366762197 0 0.34638618375488889 -0.33720910130847997 0 0.32901671595410809 -0.32686312246526877 0 0.34242853186188688 -0.31549106366762197 0 0.34638618375488889 -0.33720910130847997 0 0.31823065839782372 -0.34894179592083402 0 0.32901671595410809 -0.32686312246526877 0 0.31823065839782372 -0.34894179592083402 0 0.32901671595410809 -0.32686312246526877 0 0.3117226979922243 -0.32472502700032352 0 0.3255630306005502 -0.30572743082962511 0 0.32901671595410809 -0.32686312246526877 0 0.3117226979922243 -0.32472502700032352 0 0.29837335346972499 -0.31330367155418842 0 0.3117226979922243 -0.32472502700032352 0 0.30981759667710929 -0.30490735047805301 0 0.29837335346972499 -0.31330367155418842 0 0.29964405047644033 -0.32522290433110868 0 0.3117226979922243 -0.32472502700032352 0 0.31823065839782372 -0.34894179592083402 0 0.3117226979922243 -0.32472502700032352 0 0.294995451588073 -0.33725588531183848 0 0.29964405047644033 -0.32522290433110868 0 0.3117226979922243 -0.32472502700032352 0 0.294995451588073 -0.33725588531183848 0 0.31823065839782372 -0.34894179592083402 0 0.294995451588073 -0.33725588531183848 0 0.294995451588073 -0.33725588531183848 0 0.2817771133164087 -0.338485459996409 0 0.27176024477832228 -0.32556997470284299 0 0.29964405047644033 -0.32522290433110868 0 0.294995451588073 -0.33725588531183848 0 0.29203420624268839 -0.32237731506624151 0 0.294995451588073 -0.33725588531183848 0 0.27176024477832228 -0.32556997470284299 0 0.294995451588073 -0.33725588531183848 0 0.28358988415041969 -0.32284122890424261 0 0.27176024477832228 -0.32556997470284299 0 0.294995451588073 -0.33725588531183848 0 0.2817771133164087 -0.338485459996409 0 0.29116260154598639 -0.34930942536833293 0 0.28358988415041969 -0.32284122890424261 0 0.28640106906587182 -0.31349920648280383 0 0.27470761861200782 -0.3162086251140841 0 0.28358988415041969 -0.32284122890424261 0 0.28640106906587182 -0.31349920648280383 0 0.29203420624268839 -0.32237731506624151 0 0.29837335346972499 -0.31330367155418842 0 0.28640106906587182 -0.31349920648280383 0 0.29203420624268839 -0.32237731506624151 0 0.29837335346972499 -0.31330367155418842 0 0.29964405047644033 -0.32522290433110868 0 0.29203420624268839 -0.32237731506624151 0 0.294995451588073 -0.33725588531183848 0 0.28358988415041969 -0.32284122890424261 0 0.29203420624268839 -0.32237731506624151 0 0.31511382326667542 -0.37455977839225429 0 0.29971544844869391 -0.37298558201956378 0 0.31124560444966631 -0.36336951383878441 0 0.29971544844869391 -0.37298558201956378 0 0.31124560444966631 -0.36336951383878441 0 0.30052569464461659 -0.3577454317051556 0 0.31823065839782372 -0.34894179592083402 0 0.31124560444966631 -0.36336951383878441 0 0.30052569464461659 -0.3577454317051556 0 0.31823065839782372 -0.34894179592083402 0 0.294995451588073 -0.33725588531183848 0 0.30052569464461659 -0.3577454317051556 0 0.2817771133164087 -0.338485459996409 0 0.28704519526331568 -0.36292762804969958 0 0.2817771133164087 -0.338485459996409 0 0.29116260154598639 -0.34930942536833293 0 0.28704519526331568 -0.36292762804969958 0 0.294995451588073 -0.33725588531183848 0 0.30052569464461659 -0.3577454317051556 0 0.29116260154598639 -0.34930942536833293 0 0.2817771133164087 -0.338485459996409 0 0.28704519526331568 -0.36292762804969958 0 0.27782663286435222 -0.35215601445474221 0 0.30052569464461659 -0.3577454317051556 0 0.29116260154598639 -0.34930942536833293 0 0.28704519526331568 -0.36292762804969958 0 0.29231327721022282 -0.3873697961029901 0 0.29971544844869391 -0.37298558201956378 0 0.28704519526331568 -0.36292762804969958 0 0.29971544844869391 -0.37298558201956378 0 0.30052569464461659 -0.3577454317051556 0 0.28704519526331568 -0.36292762804969958 0 0.28557892230701942 -0.37606573252756781 0 0.28704519526331568 -0.36292762804969958 0 0.27676702680749982 -0.36629414683306349 0 0.26781488472909032 -0.37357010396950652 0 0.27676702680749982 -0.36629414683306349 0 0.26455459389853619 -0.36520576389029952 0 0.27616762034734937 -0.37960006174152611 0 0.26781488472909032 -0.37357010396950652 0 0.27676702680749982 -0.36629414683306349 0 0.28704519526331568 -0.36292762804969958 0 0.27676702680749982 -0.36629414683306349 0 0.27782663286435222 -0.35215601445474221 0 0.27676702680749982 -0.36629414683306349 0 0.26390236101412479 -0.35626434805112678 0 0.26455459389853619 -0.36520576389029952 0 0.27676702680749982 -0.36629414683306349 0 0.27782663286435222 -0.35215601445474221 0 0.26665294992041211 -0.34342913863283558 0 0.27676702680749982 -0.36629414683306349 0 0.26390236101412479 -0.35626434805112678 0 0.26665294992041211 -0.34342913863283558 0 0.27676702680749982 -0.36629414683306349 0 0.26665294992041211 -0.34342913863283558 0 0.2817771133164087 -0.338485459996409 0 0.27782663286435222 -0.35215601445474221 0 0.26665294992041211 -0.34342913863283558 0 0.25577361421002948 -0.34936586525465058 0 0.26390236101412479 -0.35626434805112678 0 0.26665294992041211 -0.34342913863283558 0 0.25577361421002948 -0.34936586525465058 0 0.2565155651556944 -0.3603299750907048 0 0.24834160719301851 -0.35624689525115733 0 0.25577361421002948 -0.34936586525465058 0 0.26390236101412479 -0.35626434805112678 0 0.2565155651556944 -0.3603299750907048 0 0.26455459389853619 -0.36520576389029952 0 0.2565155651556944 -0.3603299750907048 0 0.25777313178627231 -0.36957024550709572 0 0.26390236101412479 -0.35626434805112678 0 0.26455459389853619 -0.36520576389029952 0 0.2565155651556944 -0.3603299750907048 0 0.2565155651556944 -0.3603299750907048 0 0.25777313178627231 -0.36957024550709572 0 0.24854849572627649 -0.36540640846097788 0 0.2565155651556944 -0.3603299750907048 0 0.24854849572627649 -0.36540640846097788 0 0.24834160719301851 -0.35624689525115733 0 0.25777313178627231 -0.36957024550709572 0 0.24854849572627649 -0.36540640846097788 0 0.24884497561725441 -0.37604231901838492 0 0.26781488472909032 -0.37357010396950652 0 0.26455459389853619 -0.36520576389029952 0 0.25777313178627231 -0.36957024550709572 0 0.28358988415041969 -0.32284122890424261 0 0.27176024477832228 -0.32556997470284299 0 0.27470761861200782 -0.3162086251140841 0 0.2817771133164087 -0.338485459996409 0 0.27176024477832228 -0.32556997470284299 0 0.27121738162130599 -0.33542928728790061 0 0.2817771133164087 -0.338485459996409 0 0.26665294992041211 -0.34342913863283558 0 0.27121738162130599 -0.33542928728790061 0 0.27176024477832228 -0.32556997470284299 0 0.27121738162130599 -0.33542928728790061 0 0.25640862481954441 -0.33434173066108652 0 0.26665294992041211 -0.34342913863283558 0 0.27121738162130599 -0.33542928728790061 0 0.25640862481954441 -0.33434173066108652 0 0.25577361421002948 -0.34936586525465058 0 0.26665294992041211 -0.34342913863283558 0 0.25640862481954441 -0.33434173066108652 0 0.25577361421002948 -0.34936586525465058 0 0.25640862481954441 -0.33434173066108652 0 0.24232520286868889 -0.34630877690949952 0 0.27176024477832228 -0.32556997470284299 0 0.2485250379685715 -0.31388406409384761 0 0.27176024477832228 -0.32556997470284299 0 0.25640862481954441 -0.33434173066108652 0 0.2485250379685715 -0.31388406409384761 0 0.27176024477832228 -0.32556997470284299 0 0.27470761861200782 -0.3162086251140841 0 0.2485250379685715 -0.31388406409384761 0 0.26236365528042349 -0.29500099275464298 0 0.27397998969108239 -0.30009076219265518 0 0.2485250379685715 -0.31388406409384761 0 0.27397998969108239 -0.30009076219265518 0 0.2485250379685715 -0.31388406409384761 0 0.25225517647982437 -0.29074300662273977 0 0.26236365528042349 -0.29500099275464298 0 0.2485250379685715 -0.31388406409384761 0 0.25225517647982437 -0.29074300662273977 0 0.26167751008197548 -0.28001849133682138 0 0.24408226279292131 -0.27538555051393981 0 0.25225517647982437 -0.29074300662273977 0 0.26236365528042349 -0.29500099275464298 0 0.26167751008197548 -0.28001849133682138 0 0.27538056218066359 -0.29026863952715087 0 0.28952693468184038 -0.2894388978769839 0 0.27605350574931942 -0.26432865394021771 0 0.26236365528042349 -0.29500099275464298 0 0.27538056218066359 -0.29026863952715087 0 0.26167751008197548 -0.28001849133682138 0 0.26236365528042349 -0.29500099275464298 0 0.27538056218066359 -0.29026863952715087 0 0.27397998969108239 -0.30009076219265518 0 0.27538056218066359 -0.29026863952715087 0 0.28169672864762041 -0.30398686146426851 0 0.28283495559997818 -0.2963530189299341 0 0.27470761861200782 -0.3162086251140841 0 0.27538056218066359 -0.29026863952715087 0 0.27397998969108239 -0.30009076219265518 0 0.27470761861200782 -0.3162086251140841 0 0.27538056218066359 -0.29026863952715087 0 0.28169672864762041 -0.30398686146426851 0 0.27470761861200782 -0.3162086251140841 0 0.27538056218066359 -0.29026863952715087 0 0.27470761861200782 -0.3162086251140841 0 0.27397998969108239 -0.30009076219265518 0 0.2485250379685715 -0.31388406409384761 0 0.28640106906587182 -0.31349920648280383 0 0.27470761861200782 -0.3162086251140841 0 0.28169672864762041 -0.30398686146426851 0 0.28640106906587182 -0.31349920648280383 0 0.28915943777958047 -0.3036048172673696 0 0.28169672864762041 -0.30398686146426851 0 0.29837335346972499 -0.31330367155418842 0 0.28915943777958047 -0.3036048172673696 0 0.29962077206676779 -0.29604152468729589 0 0.29837335346972499 -0.31330367155418842 0 0.28640106906587182 -0.31349920648280383 0 0.28915943777958047 -0.3036048172673696 0 0.28915943777958047 -0.3036048172673696 0 0.28169672864762041 -0.30398686146426851 0 0.28283495559997818 -0.2963530189299341 0 0.28915943777958047 -0.3036048172673696 0 0.28283495559997818 -0.2963530189299341 0 0.28952693468184038 -0.2894388978769839 0 0.27538056218066359 -0.29026863952715087 0 0.28283495559997818 -0.2963530189299341 0 0.28952693468184038 -0.2894388978769839 0 0.28952693468184038 -0.2894388978769839 0 0.29962077206676779 -0.29604152468729589 0 0.29849963947839508 -0.27573845025263072 0 0.28915943777958047 -0.3036048172673696 0 0.28952693468184038 -0.2894388978769839 0 0.29962077206676779 -0.29604152468729589 0 0.31312655104276799 -0.28969622974457099 0 0.29962077206676779 -0.29604152468729589 0 0.29849963947839508 -0.27573845025263072 0 0.31312655104276799 -0.28969622974457099 0 0.29962077206676779 -0.29604152468729589 0 0.30981759667710929 -0.30490735047805301 0 0.29837335346972499 -0.31330367155418842 0 0.29962077206676779 -0.29604152468729589 0 0.30981759667710929 -0.30490735047805301 0 0.3019564501337329 -0.24366028749932159 0 0.30555600159032242 -0.2566669108934001 0 0.28934312027097869 -0.25461743690163502 0 0.30555600159032242 -0.2566669108934001 0 0.29849963947839508 -0.27573845025263072 0 0.28934312027097869 -0.25461743690163502 0 0.31750642397248152 -0.27135412922208813 0 0.30555600159032242 -0.2566669108934001 0 0.29849963947839508 -0.27573845025263072 0 0.31312655104276799 -0.28969622974457099 0 0.31750642397248152 -0.27135412922208813 0 0.29849963947839508 -0.27573845025263072 0 0.28952693468184038 -0.2894388978769839 0 0.29849963947839508 -0.27573845025263072 0 0.27605350574931942 -0.26432865394021771 0 0.29849963947839508 -0.27573845025263072 0 0.28934312027097869 -0.25461743690163502 0 0.27605350574931942 -0.26432865394021771 0 0.27672644931797519 -0.23838866835328451 0 0.28934312027097869 -0.25461743690163502 0 0.27605350574931942 -0.26432865394021771 0 0.27672644931797519 -0.23838866835328451 0 0.26201284875209052 -0.24864288363549761 0 0.27605350574931942 -0.26432865394021771 0 0.27672644931797519 -0.23838866835328451 0 0.27605350574931942 -0.26432865394021771 0 0.27538056218066359 -0.29026863952715087 0 0.27605350574931942 -0.26432865394021771 0 0.26167751008197548 -0.28001849133682138 0 0.27538056218066359 -0.29026863952715087 0 0.27605350574931942 -0.26432865394021771 0 0.26167751008197548 -0.28001849133682138 0 0.25591977640570329 -0.26415382514756458 0 0.24408226279292131 -0.27538555051393981 0 0.27605350574931942 -0.26432865394021771 0 0.26167751008197548 -0.28001849133682138 0 0.25591977640570329 -0.26415382514756458 0 0.26201284875209052 -0.24864288363549761 0 0.27605350574931942 -0.26432865394021771 0 0.25591977640570329 -0.26415382514756458 0 0.26201284875209052 -0.24864288363549761 0 0.25591977640570329 -0.26415382514756458 0 0.24106351552099611 -0.25430938085000399 0 0.24106351552099611 -0.25430938085000399 0 0.24408226279292131 -0.27538555051393981 0 0.22750030083881589 -0.26284629705022849 0 0.25591977640570329 -0.26415382514756458 0 0.24106351552099611 -0.25430938085000399 0 0.24408226279292131 -0.27538555051393981 0 0.24408226279292131 -0.27538555051393981 0 0.2248352709428928 -0.27885619063465372 0 0.22750030083881589 -0.26284629705022849 0 0.24106351552099611 -0.25430938085000399 0 0.22750030083881589 -0.26284629705022849 0 0.21794513624863049 -0.25021170180138103 0 0.22750030083881589 -0.26284629705022849 0 0.21794513624863049 -0.25021170180138103 0 0.20054283241948981 -0.26729971332757158 0 0.21794513624863049 -0.25021170180138103 0 0.20054283241948981 -0.26729971332757158 0 0.2056729391587073 -0.24359465449947981 0 0.20054283241948981 -0.26729971332757158 0 0.21098408579488551 -0.29500322456139461 0 0.2248352709428928 -0.27885619063465372 0 0.22750030083881589 -0.26284629705022849 0 0.20054283241948981 -0.26729971332757158 0 0.2248352709428928 -0.27885619063465372 0 0.20054283241948981 -0.26729971332757158 0 0.21098408579488551 -0.29500322456139461 0 0.20054283241948981 -0.26729971332757158 0 0.19087704166009439 -0.28043785276814742 0 0.20187404955813651 -0.29042142462395248 0 0.20054283241948981 -0.26729971332757158 0 0.19087704166009439 -0.28043785276814742 0 0.17688500001321411 -0.27065022192902882 0 0.20054283241948981 -0.26729971332757158 0 0.2056729391587073 -0.24359465449947981 0 0.19010157904409439 -0.23959620209374871 0 0.20054283241948981 -0.26729971332757158 0 0.18448204354290951 -0.25641715725236403 0 0.19010157904409439 -0.23959620209374871 0 0.20054283241948981 -0.26729971332757158 0 0.19010157904409439 -0.23959620209374871 0 0.19680750256473839 -0.30351112431789018 0 0.1898574746499678 -0.31570568246887148 0 0.18337123733158989 -0.29317795219895049 0 0.19680750256473839 -0.30351112431789018 0 0.20187404955813651 -0.29042142462395248 0 0.20456384181872059 -0.30226562166731019 0 0.19680750256473839 -0.30351112431789018 0 0.198697185824425 -0.31122667715489027 0 0.20456384181872059 -0.30226562166731019 0 0.19680750256473839 -0.30351112431789018 0 0.198697185824425 -0.31122667715489027 0 0.1898574746499678 -0.31570568246887148 0 0.19680750256473839 -0.30351112431789018 0 0.19323245777863979 -0.29188708847723521 0 0.18337123733158989 -0.29317795219895049 0 0.19087704166009439 -0.28043785276814742 0 0.19323245777863979 -0.29188708847723521 0 0.18337123733158989 -0.29317795219895049 0 0.19087704166009439 -0.28043785276814742 0 0.19323245777863979 -0.29188708847723521 0 0.20187404955813651 -0.29042142462395248 0 0.19680750256473839 -0.30351112431789018 0 0.19323245777863979 -0.29188708847723521 0 0.20187404955813651 -0.29042142462395248 0 0.20187404955813651 -0.29042142462395248 0 0.21098408579488551 -0.29500322456139461 0 0.20187404955813651 -0.29042142462395248 0 0.21098408579488551 -0.29500322456139461 0 0.20456384181872059 -0.30226562166731019 0 0.20054283241948981 -0.26729971332757158 0 0.20187404955813651 -0.29042142462395248 0 0.21098408579488551 -0.29500322456139461 0 0.21098408579488551 -0.29500322456139461 0 0.22087842086224829 -0.32125561139991698 0 0.21098408579488551 -0.29500322456139461 0 0.20456384181872059 -0.30226562166731019 0 0.20878983749409721 -0.31082096605040821 0 0.21098408579488551 -0.29500322456139461 0 0.20878983749409721 -0.31082096605040821 0 0.22087842086224829 -0.32125561139991698 0 0.198697185824425 -0.31122667715489027 0 0.20456384181872059 -0.30226562166731019 0 0.20878983749409721 -0.31082096605040821 0 0.21098408579488551 -0.29500322456139461 0 0.2297545618817286 -0.30444364432762078 0 0.2380892849463784 -0.29184359748069699 0 0.21098408579488551 -0.29500322456139461 0 0.2297545618817286 -0.30444364432762078 0 0.22087842086224829 -0.32125561139991698 0 0.21098408579488551 -0.29500322456139461 0 0.2297545618817286 -0.30444364432762078 0 0.2248352709428928 -0.27885619063465372 0 0.21098408579488551 -0.29500322456139461 0 0.2380892849463784 -0.29184359748069699 0 0.24408226279292131 -0.27538555051393981 0 0.2248352709428928 -0.27885619063465372 0 0.2380892849463784 -0.29184359748069699 0 0.25225517647982437 -0.29074300662273977 0 0.24408226279292131 -0.27538555051393981 0 0.2380892849463784 -0.29184359748069699 0 0.2297545618817286 -0.30444364432762078 0 0.2485250379685715 -0.31388406409384761 0 0.25225517647982437 -0.29074300662273977 0 0.2380892849463784 -0.29184359748069699 0 0.2485250379685715 -0.31388406409384761 0 0.2297545618817286 -0.30444364432762078 0 0.2380892849463784 -0.29184359748069699 0 0.2485250379685715 -0.31388406409384761 0 0.2485250379685715 -0.31388406409384761 0 0.2395249635091283 -0.33300909932935813 0 0.22292331311821681 -0.32775689810672531 0 0.2485250379685715 -0.31388406409384761 0 0.22292331311821681 -0.32775689810672531 0 0.25640862481954441 -0.33434173066108652 0 0.2485250379685715 -0.31388406409384761 0 0.2395249635091283 -0.33300909932935813 0 0.25640862481954441 -0.33434173066108652 0 0.2395249635091283 -0.33300909932935813 0 0.24232520286868889 -0.34630877690949952 0 0.2395249635091283 -0.33300909932935813 0 0.22744263877062029 -0.34275402687563161 0 0.24232520286868889 -0.34630877690949952 0 0.2395249635091283 -0.33300909932935813 0 0.22744263877062029 -0.34275402687563161 0 0.22292331311821681 -0.32775689810672531 0 0.22744263877062029 -0.34275402687563161 0 0.21872447335115791 -0.34533232563087501 0 0.21462003541063049 -0.33696037002233409 0 0.22744263877062029 -0.34275402687563161 0 0.22292331311821681 -0.32775689810672531 0 0.21462003541063049 -0.33696037002233409 0 0.2297545618817286 -0.30444364432762078 0 0.2485250379685715 -0.31388406409384761 0 0.22087842086224829 -0.32125561139991698 0 0.2485250379685715 -0.31388406409384761 0 0.22292331311821681 -0.32775689810672531 0 0.22087842086224829 -0.32125561139991698 0 0.23944365777930071 -0.3700579890543757 0 0.23365158520298809 -0.36443832111919261 0 0.2322477440849838 -0.37535830567224659 0 0.23944365777930071 -0.3700579890543757 0 0.24854849572627649 -0.36540640846097788 0 0.24884497561725441 -0.37604231901838492 0 0.23944365777930071 -0.3700579890543757 0 0.24854849572627649 -0.36540640846097788 0 0.2398766625374241 -0.36091669991265629 0 0.24854849572627649 -0.36540640846097788 0 0.2398766625374241 -0.36091669991265629 0 0.24834160719301851 -0.35624689525115733 0 0.23944365777930071 -0.3700579890543757 0 0.2398766625374241 -0.36091669991265629 0 0.23365158520298809 -0.36443832111919261 0 0.2398766625374241 -0.36091669991265629 0 0.2299340982757746 -0.35662716332863859 0 0.23365158520298809 -0.36443832111919261 0 0.2398766625374241 -0.36091669991265629 0 0.24232520286868889 -0.34630877690949952 0 0.2299340982757746 -0.35662716332863859 0 0.2398766625374241 -0.36091669991265629 0 0.24834160719301851 -0.35624689525115733 0 0.24232520286868889 -0.34630877690949952 0 0.25577361421002948 -0.34936586525465058 0 0.24834160719301851 -0.35624689525115733 0 0.24232520286868889 -0.34630877690949952 0 0.22744263877062029 -0.34275402687563161 0 0.24232520286868889 -0.34630877690949952 0 0.2299340982757746 -0.35662716332863859 0 0.22744263877062029 -0.34275402687563161 0 0.2299340982757746 -0.35662716332863859 0 0.2183885806796084 -0.35350204166600607 0 0.22744263877062029 -0.34275402687563161 0 0.2183885806796084 -0.35350204166600607 0 0.21872447335115791 -0.34533232563087501 0 0.2299340982757746 -0.35662716332863859 0 0.22077656655698791 -0.36241747094600352 0 0.2183885806796084 -0.35350204166600607 0 0.2299340982757746 -0.35662716332863859 0 0.23365158520298809 -0.36443832111919261 0 0.2262472836212481 -0.36863212693597119 0 0.2299340982757746 -0.35662716332863859 0 0.22077656655698791 -0.36241747094600352 0 0.2262472836212481 -0.36863212693597119 0 0.2262472836212481 -0.36863212693597119 0 0.21742159630496369 -0.3744142517261862 0 0.22439642646764241 -0.38039452328566919 0 0.22077656655698791 -0.36241747094600352 0 0.2262472836212481 -0.36863212693597119 0 0.21742159630496369 -0.3744142517261862 0 0.23365158520298809 -0.36443832111919261 0 0.2262472836212481 -0.36863212693597119 0 0.2322477440849838 -0.37535830567224659 0 0.2262472836212481 -0.36863212693597119 0 0.2322477440849838 -0.37535830567224659 0 0.22439642646764241 -0.38039452328566919 0 0.20579536302122681 -0.37314080263987759 0 0.21250568262194819 -0.36363557130019608 0 0.205233056926624 -0.3647982741317734 0 0.20579536302122681 -0.37314080263987759 0 0.21742159630496369 -0.3744142517261862 0 0.21250568262194819 -0.36363557130019608 0 0.22077656655698791 -0.36241747094600352 0 0.21742159630496369 -0.3744142517261862 0 0.21250568262194819 -0.36363557130019608 0 0.22077656655698791 -0.36241747094600352 0 0.21250568262194819 -0.36363557130019608 0 0.2183885806796084 -0.35350204166600607 0 0.21250568262194819 -0.36363557130019608 0 0.205233056926624 -0.3647982741317734 0 0.2068426593901759 -0.35953205978580988 0 0.205233056926624 -0.3647982741317734 0 0.2068426593901759 -0.35953205978580988 0 0.2019681244314753 -0.35776788868793358 0 0.2019681244314753 -0.35776788868793358 0 0.21462003541063049 -0.33696037002233409 0 0.2122926506822693 -0.35283746744697381 0 0.21872447335115791 -0.34533232563087501 0 0.21462003541063049 -0.33696037002233409 0 0.2019681244314753 -0.35776788868793358 0 0.21462003541063049 -0.33696037002233409 0 0.1973215882678612 -0.34162973211960163 0 0.2122926506822693 -0.35283746744697381 0 0.2019681244314753 -0.35776788868793358 0 0.21462003541063049 -0.33696037002233409 0 0.21250568262194819 -0.36363557130019608 0 0.2068426593901759 -0.35953205978580988 0 0.2122926506822693 -0.35283746744697381 0 0.2068426593901759 -0.35953205978580988 0 0.2122926506822693 -0.35283746744697381 0 0.2019681244314753 -0.35776788868793358 0 0.21250568262194819 -0.36363557130019608 0 0.2122926506822693 -0.35283746744697381 0 0.2183885806796084 -0.35350204166600607 0 0.2122926506822693 -0.35283746744697381 0 0.2183885806796084 -0.35350204166600607 0 0.21872447335115791 -0.34533232563087501 0 0.2019681244314753 -0.35776788868793358 0 0.1973215882678612 -0.34162973211960163 0 0.19573058108122099 -0.35181379078233599 0 0.2019681244314753 -0.35776788868793358 0 0.1973215882678612 -0.34162973211960163 0 0.1973215882678612 -0.34162973211960163 0 0.18725747656507299 -0.34708318308651748 0 0.19573058108122099 -0.35181379078233599 0 0.1973215882678612 -0.34162973211960163 0 0.18725747656507299 -0.34708318308651748 0 0.19319480683266119 -0.35652751062628579 0 0.19573058108122099 -0.35181379078233599 0 0.18725747656507299 -0.34708318308651748 0 0.19319480683266119 -0.35652751062628579 0 0.18601098627647999 -0.36218348642302173 0 0.18725747656507299 -0.34708318308651748 0 0.19914945021016869 -0.35697624898682012 0 0.19573058108122099 -0.35181379078233599 0 0.2019681244314753 -0.35776788868793358 0 0.19319480683266119 -0.35652751062628579 0 0.19914945021016869 -0.35697624898682012 0 0.19782554003036329 -0.3645808438527337 0 0.19319480683266119 -0.35652751062628579 0 0.19914945021016869 -0.35697624898682012 0 0.19573058108122099 -0.35181379078233599 0 0.19782554003036329 -0.3645808438527337 0 0.18576662782764289 -0.38441310801886552 0 0.19782554003036329 -0.3645808438527337 0 0.18601098627647999 -0.36218348642302173 0 0.18576662782764289 -0.38441310801886552 0 0.2019681244314753 -0.35776788868793358 0 0.19782554003036329 -0.3645808438527337 0 0.19914945021016869 -0.35697624898682012 0 0.2019681244314753 -0.35776788868793358 0 0.19782554003036329 -0.3645808438527337 0 0.205233056926624 -0.3647982741317734 0 0.2019681244314753 -0.35776788868793358 0 0.19782554003036329 -0.3645808438527337 0 0.19914945021016869 -0.35697624898682012 0 0.19782554003036329 -0.3645808438527337 0 0.19319480683266119 -0.35652751062628579 0 0.19782554003036329 -0.3645808438527337 0 0.18601098627647999 -0.36218348642302173 0 0.20579536302122681 -0.37314080263987759 0 0.205233056926624 -0.3647982741317734 0 0.19782554003036329 -0.3645808438527337 0 0.198697185824425 -0.31122667715489027 0 0.20878983749409721 -0.31082096605040821 0 0.2046086011868149 -0.31656402389983862 0 0.20878983749409721 -0.31082096605040821 0 0.2046086011868149 -0.31656402389983862 0 0.21072439896081441 -0.31818596656553078 0 0.20862073630009739 -0.32410326491195979 0 0.2046086011868149 -0.31656402389983862 0 0.21072439896081441 -0.31818596656553078 0 0.20878983749409721 -0.31082096605040821 0 0.22087842086224829 -0.32125561139991698 0 0.21072439896081441 -0.31818596656553078 0 0.22087842086224829 -0.32125561139991698 0 0.20862073630009739 -0.32410326491195979 0 0.21072439896081441 -0.31818596656553078 0 0.22292331311821681 -0.32775689810672531 0 0.22087842086224829 -0.32125561139991698 0 0.20862073630009739 -0.32410326491195979 0 0.22292331311821681 -0.32775689810672531 0 0.20862073630009739 -0.32410326491195979 0 0.1973215882678612 -0.34162973211960163 0 0.22292331311821681 -0.32775689810672531 0 0.21462003541063049 -0.33696037002233409 0 0.1973215882678612 -0.34162973211960163 0 0.22292331311821681 -0.32775689810672531 0 0.1973215882678612 -0.34162973211960163 0 0.1973215882678612 -0.34162973211960163 0 0.1898574746499678 -0.31570568246887148 0 0.1973215882678612 -0.34162973211960163 0 0.1898574746499678 -0.31570568246887148 0 0.18217116499213759 -0.33233378195402191 0 0.1973215882678612 -0.34162973211960163 0 0.18217116499213759 -0.33233378195402191 0 0.18725747656507299 -0.34708318308651748 0 0.20862073630009739 -0.32410326491195979 0 0.1973215882678612 -0.34162973211960163 0 0.1946455748328686 -0.31823416409099459 0 0.1973215882678612 -0.34162973211960163 0 0.1946455748328686 -0.31823416409099459 0 0.1898574746499678 -0.31570568246887148 0 0.20862073630009739 -0.32410326491195979 0 0.2046086011868149 -0.31656402389983862 0 0.1946455748328686 -0.31823416409099459 0 0.198697185824425 -0.31122667715489027 0 0.2046086011868149 -0.31656402389983862 0 0.1946455748328686 -0.31823416409099459 0 0.198697185824425 -0.31122667715489027 0 0.1946455748328686 -0.31823416409099459 0 0.1898574746499678 -0.31570568246887148 0 0.1946455748328686 -0.31823416409099459 0 0.1898574746499678 -0.31570568246887148 0 0.1898574746499678 -0.31570568246887148 0 0.17368082561560591 -0.31730438906621172 0 0.18217116499213759 -0.33233378195402191 0 0.17368082561560591 -0.31730438906621172 0 0.18217116499213759 -0.33233378195402191 0 0.17022073835618279 -0.33027513077510701 0 0.18217116499213759 -0.33233378195402191 0 0.1744997261120301 -0.3417614858746385 0 0.18725747656507299 -0.34708318308651748 0 0.18217116499213759 -0.33233378195402191 0 0.1744997261120301 -0.3417614858746385 0 0.17022073835618279 -0.33027513077510701 0 0.17022073835618279 -0.33027513077510701 0 0.16477588933798981 -0.3378373880545642 0 0.15954639376907789 -0.33082826160739992 0 0.1744997261120301 -0.3417614858746385 0 0.17022073835618279 -0.33027513077510701 0 0.16477588933798981 -0.3378373880545642 0 0.1744997261120301 -0.3417614858746385 0 0.16477588933798981 -0.3378373880545642 0 0.16212934814370131 -0.34710552713221682 0 0.16477588933798981 -0.3378373880545642 0 0.16212934814370131 -0.34710552713221682 0 0.1527527043331437 -0.33826368195735612 0 0.16477588933798981 -0.3378373880545642 0 0.15954639376907789 -0.33082826160739992 0 0.1527527043331437 -0.33826368195735612 0 0.15954639376907789 -0.33082826160739992 0 0.16372010451773489 -0.32255966433985089 0 0.15131662198139781 -0.32442275194582559 0 0.15131662198139781 -0.32442275194582559 0 0.16426102859342009 -0.30992667203654989 0 0.16372010451773489 -0.32255966433985089 0 0.15131662198139781 -0.32442275194582559 0 0.16426102859342009 -0.30992667203654989 0 0.17368082561560591 -0.31730438906621172 0 0.16372010451773489 -0.32255966433985089 0 0.16426102859342009 -0.30992667203654989 0 0.17368082561560591 -0.31730438906621172 0 0.17022073835618279 -0.33027513077510701 0 0.16372010451773489 -0.32255966433985089 0 0.17022073835618279 -0.33027513077510701 0 0.15954639376907789 -0.33082826160739992 0 0.16372010451773489 -0.32255966433985089 0 0.1747811706356979 -0.36822016564850152 0 0.18601098627647999 -0.36218348642302173 0 0.18576662782764289 -0.38441310801886552 0 0.1747811706356979 -0.36822016564850152 0 0.18601098627647999 -0.36218348642302173 0 0.17421435378549741 -0.35469879235619661 0 0.18601098627647999 -0.36218348642302173 0 0.17421435378549741 -0.35469879235619661 0 0.18725747656507299 -0.34708318308651748 0 0.1744997261120301 -0.3417614858746385 0 0.17421435378549741 -0.35469879235619661 0 0.18725747656507299 -0.34708318308651748 0 0.1744997261120301 -0.3417614858746385 0 0.17421435378549741 -0.35469879235619661 0 0.16212934814370131 -0.34710552713221682 0 0.16212934814370131 -0.34710552713221682 0 0.16060741498000239 -0.36183890597228402 0 0.15110093000835889 -0.35061786179725501 0 0.17421435378549741 -0.35469879235619661 0 0.16212934814370131 -0.34710552713221682 0 0.16060741498000239 -0.36183890597228402 0 0.1747811706356979 -0.36822016564850152 0 0.16060741498000239 -0.36183890597228402 0 0.1631916679950996 -0.38325295569362372 0 0.1747811706356979 -0.36822016564850152 0 0.17421435378549741 -0.35469879235619661 0 0.16060741498000239 -0.36183890597228402 0 0.16060741498000239 -0.36183890597228402 0 0.14235507647168069 -0.36670870954680179 0 0.15110093000835889 -0.35061786179725501 0 0.16060741498000239 -0.36183890597228402 0 0.14235507647168069 -0.36670870954680179 0 0.1631916679950996 -0.38325295569362372 0 0.14235507647168069 -0.36670870954680179 0 0.15110093000835889 -0.35061786179725501 0 0.13837221536937491 -0.33891883185510091 0 0.16212934814370131 -0.34710552713221682 0 0.15110093000835889 -0.35061786179725501 0 0.1527527043331437 -0.33826368195735612 0 0.14235507647168069 -0.36670870954680179 0 0.13837221536937491 -0.33891883185510091 0 0.13837221536937491 -0.33891883185510091 0 0.1205545949648919 -0.35887228796305831 0 0.12250173402609441 -0.3479549796538271 0 0.13837221536937491 -0.33891883185510091 0 0.1205545949648919 -0.35887228796305831 0 0.14235507647168069 -0.36670870954680179 0 0.13837221536937491 -0.33891883185510091 0 0.1205545949648919 -0.35887228796305831 0 0.14235507647168069 -0.36670870954680179 0 0.13074812791438861 -0.37691635541169582 0 0.1205545949648919 -0.35887228796305831 0 0.14248049653994191 -0.31831416388627731 0 0.15131662198139781 -0.32442275194582559 0 0.14896147241548749 -0.30864647612763563 0 0.15131662198139781 -0.32442275194582559 0 0.14896147241548749 -0.30864647612763563 0 0.16426102859342009 -0.30992667203654989 0 0.14248049653994191 -0.31831416388627731 0 0.15131662198139781 -0.32442275194582559 0 0.13989203232043171 -0.32584018886430832 0 0.14248049653994191 -0.31831416388627731 0 0.1358186422350488 -0.31172695802316952 0 0.14896147241548749 -0.30864647612763563 0 0.15954639376907789 -0.33082826160739992 0 0.15131662198139781 -0.32442275194582559 0 0.1527527043331437 -0.33826368195735612 0 0.15110093000835889 -0.35061786179725501 0 0.1527527043331437 -0.33826368195735612 0 0.13837221536937491 -0.33891883185510091 0 0.15131662198139781 -0.32442275194582559 0 0.13837221536937491 -0.33891883185510091 0 0.13989203232043171 -0.32584018886430832 0 0.15131662198139781 -0.32442275194582559 0 0.13837221536937491 -0.33891883185510091 0 0.15131662198139781 -0.32442275194582559 0 0.1527527043331437 -0.33826368195735612 0 0.13837221536937491 -0.33891883185510091 0 0.137021036098672 -0.32949116021207481 0 0.13837221536937491 -0.33891883185510091 0 0.13989203232043171 -0.32584018886430832 0 0.137021036098672 -0.32949116021207481 0 0.13837221536937491 -0.33891883185510091 0 0.12250173402609441 -0.3479549796538271 0 0.137021036098672 -0.32949116021207481 0 0.13837221536937491 -0.33891883185510091 0 0.137021036098672 -0.32949116021207481 0 0.12485570640720769 -0.33690899376267192 0 0.12250173402609441 -0.3479549796538271 0 0.137021036098672 -0.32949116021207481 0 0.12250173402609441 -0.3479549796538271 0 0.137021036098672 -0.32949116021207481 0 0.13140283115837759 -0.32893722481639293 0 0.13657752922695071 -0.32639665066127482 0 0.13140283115837759 -0.32893722481639293 0 0.12605220128796429 -0.32681737417240919 0 0.12485570640720769 -0.33690899376267192 0 0.137021036098672 -0.32949116021207481 0 0.13140283115837759 -0.32893722481639293 0 0.12485570640720769 -0.33690899376267192 0 0.12605220128796429 -0.32681737417240919 0 0.13185061961267791 -0.32429540743708829 0 0.12880682264275331 -0.31839134306491701 0 0.13185061961267791 -0.32429540743708829 0 0.13641371374734371 -0.32093444447044761 0 0.12880682264275331 -0.31839134306491701 0 0.13140283115837759 -0.32893722481639293 0 0.12605220128796429 -0.32681737417240919 0 0.13185061961267791 -0.32429540743708829 0 0.13140283115837759 -0.32893722481639293 0 0.13185061961267791 -0.32429540743708829 0 0.13657752922695071 -0.32639665066127482 0 0.13185061961267791 -0.32429540743708829 0 0.13657752922695071 -0.32639665066127482 0 0.13641371374734371 -0.32093444447044761 0 0.14248049653994191 -0.31831416388627731 0 0.13641371374734371 -0.32093444447044761 0 0.13989203232043171 -0.32584018886430832 0 0.13657752922695071 -0.32639665066127482 0 0.13641371374734371 -0.32093444447044761 0 0.13989203232043171 -0.32584018886430832 0 0.137021036098672 -0.32949116021207481 0 0.13657752922695071 -0.32639665066127482 0 0.13989203232043171 -0.32584018886430832 0 0.137021036098672 -0.32949116021207481 0 0.13657752922695071 -0.32639665066127482 0 0.137021036098672 -0.32949116021207481 0 0.13989203232043171 -0.32584018886430832 0 0.14248049653994191 -0.31831416388627731 0 0.13641371374734371 -0.32093444447044761 0 0.1358186422350488 -0.31172695802316952 0 0.13641371374734371 -0.32093444447044761 0 0.12880682264275331 -0.31839134306491701 0 0.1358186422350488 -0.31172695802316952 0 0.12880682264275331 -0.31839134306491701 0 0.1358186422350488 -0.31172695802316952 0 0.1228611360240791 -0.30974440104163709 0 0.13112624590944799 -0.29937981238276429 0 0.1358186422350488 -0.31172695802316952 0 0.14896147241548749 -0.30864647612763563 0 0.13112624590944799 -0.29937981238276429 0 0.1358186422350488 -0.31172695802316952 0 0.1228611360240791 -0.30974440104163709 0 0.13112624590944799 -0.29937981238276429 0 0.14896147241548749 -0.30864647612763563 0 0.14510658903927659 -0.29207380604228128 0 0.14896147241548749 -0.30864647612763563 0 0.14510658903927659 -0.29207380604228128 0 0.16748203184462249 -0.30388974425557569 0 0.14510658903927659 -0.29207380604228128 0 0.13670542655428411 -0.27421110755209488 0 0.1482421927275788 -0.27776111170095552 0 0.14510658903927659 -0.29207380604228128 0 0.1482421927275788 -0.27776111170095552 0 0.1675968200343588 -0.28691958875399448 0 0.13112624590944799 -0.29937981238276429 0 0.14510658903927659 -0.29207380604228128 0 0.12273114623393069 -0.28025786782898687 0 0.14510658903927659 -0.29207380604228128 0 0.13670542655428411 -0.27421110755209488 0 0.12273114623393069 -0.28025786782898687 0 0.14510658903927659 -0.29207380604228128 0 0.12273114623393069 -0.28025786782898687 0 0.13670542655428411 -0.27421110755209488 0 0.12752033777596139 -0.25976181002646398 0 0.14494457241053929 -0.26516824111442588 0 0.13670542655428411 -0.27421110755209488 0 0.12752033777596139 -0.25976181002646398 0 0.12273114623393069 -0.28025786782898687 0 0.12752033777596139 -0.25976181002646398 0 0.14630097989667429 -0.25329462579220818 0 0.14494457241053929 -0.26516824111442588 0 0.12752033777596139 -0.25976181002646398 0 0.14630097989667429 -0.25329462579220818 0 0.13780653894568981 -0.24584975280280799 0 0.14494457241053929 -0.26516824111442588 0 0.15530866697063109 -0.25877943248274082 0 0.1600206355675555 -0.27173404355465042 0 0.14630097989667429 -0.25329462579220818 0 0.14494457241053929 -0.26516824111442588 0 0.15530866697063109 -0.25877943248274082 0 0.14630097989667429 -0.25329462579220818 0 0.15530866697063109 -0.25877943248274082 0 0.15423259464829611 -0.2507802058041485 0 0.13670542655428411 -0.27421110755209488 0 0.14494457241053929 -0.26516824111442588 0 0.1482421927275788 -0.27776111170095552 0 0.14494457241053929 -0.26516824111442588 0 0.1482421927275788 -0.27776111170095552 0 0.1600206355675555 -0.27173404355465042 0 0.1600206355675555 -0.27173404355465042 0 0.16533987591903451 -0.25848030478246392 0 0.17688500001321411 -0.27065022192902882 0 0.1482421927275788 -0.27776111170095552 0 0.1600206355675555 -0.27173404355465042 0 0.1675968200343588 -0.28691958875399448 0 0.1600206355675555 -0.27173404355465042 0 0.17688500001321411 -0.27065022192902882 0 0.1675968200343588 -0.28691958875399448 0 0.16533987591903451 -0.25848030478246392 0 0.17688500001321411 -0.27065022192902882 0 0.17039876269483961 -0.24812249165910691 0 0.15530866697063109 -0.25877943248274082 0 0.16048490849461761 -0.25284243025010789 0 0.16533987591903451 -0.25848030478246392 0 0.15530866697063109 -0.25877943248274082 0 0.15423259464829611 -0.2507802058041485 0 0.16048490849461761 -0.25284243025010789 0 0.15530866697063109 -0.25877943248274082 0 0.1600206355675555 -0.27173404355465042 0 0.16533987591903451 -0.25848030478246392 0 0.16533987591903451 -0.25848030478246392 0 0.17039876269483961 -0.24812249165910691 0 0.16894128177334919 -0.24875320881914839 0 0.16048490849461761 -0.25284243025010789 0 0.16533987591903451 -0.25848030478246392 0 0.16894128177334919 -0.24875320881914839 0 0.17688500001321411 -0.27065022192902882 0 0.17039876269483961 -0.24812249165910691 0 0.18448204354290951 -0.25641715725236403 0 0.17688500001321411 -0.27065022192902882 0 0.17039876269483961 -0.24812249165910691 0 0.20054283241948981 -0.26729971332757158 0 0.18448204354290951 -0.25641715725236403 0 0.17688500001321411 -0.27065022192902882 0 0.19087704166009439 -0.28043785276814742 0 0.17688500001321411 -0.27065022192902882 0 0.18337123733158989 -0.29317795219895049 0 0.17688500001321411 -0.27065022192902882 0 0.18337123733158989 -0.29317795219895049 0 0.1675968200343588 -0.28691958875399448 0 0.17688500001321411 -0.27065022192902882 0 0.18337123733158989 -0.29317795219895049 0 0.18337123733158989 -0.29317795219895049 0 0.1752483144964288 -0.2977292914049563 0 0.1675968200343588 -0.28691958875399448 0 0.1898574746499678 -0.31570568246887148 0 0.18337123733158989 -0.29317795219895049 0 0.1898574746499678 -0.31570568246887148 0 0.17368082561560591 -0.31730438906621172 0 0.16748203184462249 -0.30388974425557569 0 0.1898574746499678 -0.31570568246887148 0 0.16748203184462249 -0.30388974425557569 0 0.1898574746499678 -0.31570568246887148 0 0.1752483144964288 -0.2977292914049563 0 0.16748203184462249 -0.30388974425557569 0 0.1898574746499678 -0.31570568246887148 0 0.18337123733158989 -0.29317795219895049 0 0.1752483144964288 -0.2977292914049563 0 0.14896147241548749 -0.30864647612763563 0 0.16748203184462249 -0.30388974425557569 0 0.16426102859342009 -0.30992667203654989 0 0.14510658903927659 -0.29207380604228128 0 0.16748203184462249 -0.30388974425557569 0 0.17368082561560591 -0.31730438906621172 0 0.16748203184462249 -0.30388974425557569 0 0.16426102859342009 -0.30992667203654989 0 0.14510658903927659 -0.29207380604228128 0 0.16748203184462249 -0.30388974425557569 0 0.1675968200343588 -0.28691958875399448 0 0.1752483144964288 -0.2977292914049563 0 0.16748203184462249 -0.30388974425557569 0 0.1675968200343588 -0.28691958875399448 0 0.19805699684201611 -0.48362212877357191 0 0.21044458423651441 -0.5 0 0.18178946856308431 -0.5 0 0.19150203538286911 -0.46963876385959957 0 0.19805699684201611 -0.48362212877357191 0 0.20427520205536881 -0.46561202865708629 0 0.19150203538286911 -0.46963876385959957 0 0.19805699684201611 -0.48362212877357191 0 0.17575694389534419 -0.48335135991882849 0 0.19805699684201611 -0.48362212877357191 0 0.21666511831859911 -0.47379981025376272 0 0.2120763517870059 -0.49417282665826379 0 0.19805699684201611 -0.48362212877357191 0 0.21666511831859911 -0.47379981025376272 0 0.20427520205536881 -0.46561202865708629 0 0.21666511831859911 -0.47379981025376272 0 0.2120763517870059 -0.49417282665826379 0 0.21666511831859911 -0.47379981025376272 0 0.2120763517870059 -0.49417282665826379 0 0.22341837864740821 -0.48904729024432131 0 0.19805699684201611 -0.48362212877357191 0 0.21044458423651441 -0.5 0 0.2120763517870059 -0.49417282665826379 0 0.21044458423651441 -0.5 0 0.2120763517870059 -0.49417282665826379 0 0.22341837864740821 -0.48904729024432131 0 0.22341837864740821 -0.48904729024432131 0 0.2390996999099444 -0.5 0 0.23554252412850779 -0.47948475080059272 0 0.21044458423651441 -0.5 0 0.22341837864740821 -0.48904729024432131 0 0.2390996999099444 -0.5 0 0.25353028064809929 -0.47735051794753891 0 0.2390996999099444 -0.5 0 0.23554252412850779 -0.47948475080059272 0 0.25353028064809929 -0.47735051794753891 0 0.23554252412850779 -0.47948475080059272 0 0.23847191340554971 -0.46166800853936713 0 0.21666511831859911 -0.47379981025376272 0 0.23554252412850779 -0.47948475080059272 0 0.23847191340554971 -0.46166800853936713 0 0.21666511831859911 -0.47379981025376272 0 0.22341837864740821 -0.48904729024432131 0 0.23554252412850779 -0.47948475080059272 0 0.21666511831859911 -0.47379981025376272 0 0.22125388485019229 -0.4534267938492616 0 0.21666511831859911 -0.47379981025376272 0 0.22125388485019229 -0.4534267938492616 0 0.23847191340554971 -0.46166800853936713 0 0.22125388485019229 -0.4534267938492616 0 0.23847191340554971 -0.46166800853936713 0 0.2348166958745086 -0.44440345533176129 0 0.25230213972055199 -0.4623473954534576 0 0.25353028064809929 -0.47735051794753891 0 0.23847191340554971 -0.46166800853936713 0 0.25117529495687341 -0.44583808875036729 0 0.25230213972055199 -0.4623473954534576 0 0.23847191340554971 -0.46166800853936713 0 0.25117529495687341 -0.44583808875036729 0 0.23847191340554971 -0.46166800853936713 0 0.2348166958745086 -0.44440345533176129 0 0.25117529495687341 -0.44583808875036729 0 0.2348166958745086 -0.44440345533176129 0 0.2406838634771726 -0.43263540959969637 0 0.25117529495687341 -0.44583808875036729 0 0.2406838634771726 -0.43263540959969637 0 0.25584682968397537 -0.43558523313127762 0 0.25117529495687341 -0.44583808875036729 0 0.2406838634771726 -0.43263540959969637 0 0.22125388485019229 -0.4534267938492616 0 0.22584265138178569 -0.43305377744476048 0 0.22125388485019229 -0.4534267938492616 0 0.2348166958745086 -0.44440345533176129 0 0.22584265138178569 -0.43305377744476048 0 0.20175456183446741 -0.44955402646442411 0 0.22584265138178569 -0.43305377744476048 0 0.20175456183446741 -0.44955402646442411 0 0.2112664427074353 -0.43080553380557252 0 0.22584265138178569 -0.43305377744476048 0 0.22125388485019229 -0.4534267938492616 0 0.20175456183446741 -0.44955402646442411 0 0.22584265138178569 -0.43305377744476048 0 0.20175456183446741 -0.44955402646442411 0 0.19885429721073111 -0.43236399430697708 0 0.2112664427074353 -0.43080553380557252 0 0.21666511831859911 -0.47379981025376272 0 0.22125388485019229 -0.4534267938492616 0 0.20427520205536881 -0.46561202865708629 0 0.22125388485019229 -0.4534267938492616 0 0.20427520205536881 -0.46561202865708629 0 0.20175456183446741 -0.44955402646442411 0 0.19150203538286911 -0.46963876385959957 0 0.20427520205536881 -0.46561202865708629 0 0.20175456183446741 -0.44955402646442411 0 0.20175456183446741 -0.44955402646442411 0 0.18349400015686571 -0.44690180203030261 0 0.17766647228714899 -0.4660542754840874 0 0.20175456183446741 -0.44955402646442411 0 0.17766647228714899 -0.4660542754840874 0 0.19150203538286911 -0.46963876385959957 0 0.20175456183446741 -0.44955402646442411 0 0.17766647228714899 -0.4660542754840874 0 0.20175456183446741 -0.44955402646442411 0 0.19885429721073111 -0.43236399430697708 0 0.18349400015686571 -0.44690180203030261 0 0.19885429721073111 -0.43236399430697708 0 0.18665278597191229 -0.42875760557495712 0 0.18349400015686571 -0.44690180203030261 0 0.19885429721073111 -0.43236399430697708 0 0.1977452807590302 -0.41930701977129359 0 0.20931837019388011 -0.41987764943619271 0 0.19885429721073111 -0.43236399430697708 0 0.1977452807590302 -0.41930701977129359 0 0.18665278597191229 -0.42875760557495712 0 0.18981157178695221 -0.41061340911961058 0 0.18665278597191229 -0.42875760557495712 0 0.18981157178695221 -0.41061340911961058 0 0.1977452807590302 -0.41930701977129359 0 0.2085885398431378 -0.40163640226596942 0 0.18981157178695221 -0.41061340911961058 0 0.1977452807590302 -0.41930701977129359 0 0.18665278597191229 -0.42875760557495712 0 0.1977452807590302 -0.41930701977129359 0 0.20931837019388011 -0.41987764943619271 0 0.2085885398431378 -0.40163640226596942 0 0.20931837019388011 -0.41987764943619271 0 0.21970186373297609 -0.4070508724565543 0 0.2085885398431378 -0.40163640226596942 0 0.20931837019388011 -0.41987764943619271 0 0.22056233291631211 -0.41917822137550792 0 0.21970186373297609 -0.4070508724565543 0 0.20931837019388011 -0.41987764943619271 0 0.2112664427074353 -0.43080553380557252 0 0.22056233291631211 -0.41917822137550792 0 0.19885429721073111 -0.43236399430697708 0 0.20931837019388011 -0.41987764943619271 0 0.2112664427074353 -0.43080553380557252 0 0.2348166958745086 -0.44440345533176129 0 0.22584265138178569 -0.43305377744476048 0 0.23631952004206111 -0.42714321092417717 0 0.2112664427074353 -0.43080553380557252 0 0.22584265138178569 -0.43305377744476048 0 0.22056233291631211 -0.41917822137550792 0 0.26209421003908029 -0.42465845942581831 0 0.2406838634771726 -0.43263540959969637 0 0.2455295542388847 -0.41956832443986619 0 0.22584265138178569 -0.43305377744476048 0 0.2455295542388847 -0.41956832443986619 0 0.2348166958745086 -0.44440345533176129 0 0.2406838634771726 -0.43263540959969637 0 0.23631952004206111 -0.42714321092417717 0 0.22584265138178569 -0.43305377744476048 0 0.23631952004206111 -0.42714321092417717 0 0.2455295542388847 -0.41956832443986619 0 0.2406838634771726 -0.43263540959969637 0 0.23631952004206111 -0.42714321092417717 0 0.2406838634771726 -0.43263540959969637 0 0.23631952004206111 -0.42714321092417717 0 0.2455295542388847 -0.41956832443986619 0 0.2455295542388847 -0.41956832443986619 0 0.23153841431895739 -0.40776596405172111 0 0.2492721161217317 -0.40414112237106442 0 0.22584265138178569 -0.43305377744476048 0 0.23153841431895739 -0.40776596405172111 0 0.22056233291631211 -0.41917822137550792 0 0.22584265138178569 -0.43305377744476048 0 0.2455295542388847 -0.41956832443986619 0 0.23153841431895739 -0.40776596405172111 0 0.22584265138178569 -0.43305377744476048 0 0.23153841431895739 -0.40776596405172111 0 0.23153841431895739 -0.40776596405172111 0 0.22056233291631211 -0.41917822137550792 0 0.21970186373297609 -0.4070508724565543 0 0.21970186373297609 -0.4070508724565543 0 0.22725872398507219 -0.39703747226465858 0 0.21738530211971641 -0.38954436116454327 0 0.23153841431895739 -0.40776596405172111 0 0.21970186373297609 -0.4070508724565543 0 0.22725872398507219 -0.39703747226465858 0 0.22725872398507219 -0.39703747226465858 0 0.23004840682405339 -0.38633589639193888 0 0.21738530211971641 -0.38954436116454327 0 0.22725872398507219 -0.39703747226465858 0 0.23761963292965771 -0.39449026725853542 0 0.23004840682405339 -0.38633589639193888 0 0.23153841431895739 -0.40776596405172111 0 0.22725872398507219 -0.39703747226465858 0 0.23761963292965771 -0.39449026725853542 0 0.23153841431895739 -0.40776596405172111 0 0.23761963292965771 -0.39449026725853542 0 0.2492721161217317 -0.40414112237106442 0 0.23761963292965771 -0.39449026725853542 0 0.2492721161217317 -0.40414112237106442 0 0.24909063106523199 -0.38936043408226417 0 0.23944365777930071 -0.3700579890543757 0 0.24884497561725441 -0.37604231901838492 0 0.23969910461467031 -0.38229097724633232 0 0.24884497561725441 -0.37604231901838492 0 0.24909063106523199 -0.38936043408226417 0 0.23969910461467031 -0.38229097724633232 0 0.23761963292965771 -0.39449026725853542 0 0.24909063106523199 -0.38936043408226417 0 0.23969910461467031 -0.38229097724633232 0 0.23761963292965771 -0.39449026725853542 0 0.23969910461467031 -0.38229097724633232 0 0.23004840682405339 -0.38633589639193888 0 0.23944365777930071 -0.3700579890543757 0 0.23969910461467031 -0.38229097724633232 0 0.2322477440849838 -0.37535830567224659 0 0.2322477440849838 -0.37535830567224659 0 0.23004840682405339 -0.38633589639193888 0 0.22439642646764241 -0.38039452328566919 0 0.23969910461467031 -0.38229097724633232 0 0.2322477440849838 -0.37535830567224659 0 0.23004840682405339 -0.38633589639193888 0 0.23004840682405339 -0.38633589639193888 0 0.22439642646764241 -0.38039452328566919 0 0.21738530211971641 -0.38954436116454327 0 0.21742159630496369 -0.3744142517261862 0 0.22439642646764241 -0.38039452328566919 0 0.21738530211971641 -0.38954436116454327 0 0.20579536302122681 -0.37314080263987759 0 0.21742159630496369 -0.3744142517261862 0 0.20712537653327309 -0.38521336544923063 0 0.21742159630496369 -0.3744142517261862 0 0.20712537653327309 -0.38521336544923063 0 0.21738530211971641 -0.38954436116454327 0 0.20712537653327309 -0.38521336544923063 0 0.2085885398431378 -0.40163640226596942 0 0.19381855590866109 -0.38759712648617273 0 0.21970186373297609 -0.4070508724565543 0 0.21738530211971641 -0.38954436116454327 0 0.2085885398431378 -0.40163640226596942 0 0.20712537653327309 -0.38521336544923063 0 0.21738530211971641 -0.38954436116454327 0 0.2085885398431378 -0.40163640226596942 0 0.18981157178695221 -0.41061340911961058 0 0.19381855590866109 -0.38759712648617273 0 0.18981157178695221 -0.41061340911961058 0 0.19381855590866109 -0.38759712648617273 0 0.18518987534969181 -0.39764473013934443 0 0.18981157178695221 -0.41061340911961058 0 0.2085885398431378 -0.40163640226596942 0 0.19381855590866109 -0.38759712648617273 0 0.18981157178695221 -0.41061340911961058 0 0.2085885398431378 -0.40163640226596942 0 0.19782554003036329 -0.3645808438527337 0 0.19381855590866109 -0.38759712648617273 0 0.19782554003036329 -0.3645808438527337 0 0.19381855590866109 -0.38759712648617273 0 0.18576662782764289 -0.38441310801886552 0 0.20579536302122681 -0.37314080263987759 0 0.19782554003036329 -0.3645808438527337 0 0.19381855590866109 -0.38759712648617273 0 0.19381855590866109 -0.38759712648617273 0 0.18576662782764289 -0.38441310801886552 0 0.18518987534969181 -0.39764473013934443 0 0.20579536302122681 -0.37314080263987759 0 0.20712537653327309 -0.38521336544923063 0 0.19381855590866109 -0.38759712648617273 0 0.1747811706356979 -0.36822016564850152 0 0.18576662782764289 -0.38441310801886552 0 0.1631916679950996 -0.38325295569362372 0 0.18576662782764289 -0.38441310801886552 0 0.17370771562492229 -0.40424537218499712 0 0.1631916679950996 -0.38325295569362372 0 0.18981157178695221 -0.41061340911961058 0 0.17370771562492229 -0.40424537218499712 0 0.18518987534969181 -0.39764473013934443 0 0.18576662782764289 -0.38441310801886552 0 0.17370771562492229 -0.40424537218499712 0 0.18518987534969181 -0.39764473013934443 0 0.18576662782764289 -0.38441310801886552 0 0.17370771562492229 -0.40424537218499712 0 0.17370771562492229 -0.40424537218499712 0 0.1602190065835101 -0.39855877275046958 0 0.15763870514003081 -0.41223817588475509 0 0.17370771562492229 -0.40424537218499712 0 0.1602190065835101 -0.39855877275046958 0 0.1631916679950996 -0.38325295569362372 0 0.1602190065835101 -0.39855877275046958 0 0.1631916679950996 -0.38325295569362372 0 0.14633793757398761 -0.39449858723850262 0 0.14235507647168069 -0.36670870954680179 0 0.1631916679950996 -0.38325295569362372 0 0.14633793757398761 -0.39449858723850262 0 0.14235507647168069 -0.36670870954680179 0 0.14633793757398761 -0.39449858723850262 0 0.1252552839695579 -0.38883391848445581 0 0.13074812791438861 -0.37691635541169582 0 0.14633793757398761 -0.39449858723850262 0 0.14235507647168069 -0.36670870954680179 0 0.13074812791438861 -0.37691635541169582 0 0.14633793757398761 -0.39449858723850262 0 0.1252552839695579 -0.38883391848445581 0 0.13103624404022221 -0.40422303690221328 0 0.14633793757398761 -0.39449858723850262 0 0.1602190065835101 -0.39855877275046958 0 0.14633793757398761 -0.39449858723850262 0 0.15763870514003081 -0.41223817588475509 0 0.14633793757398761 -0.39449858723850262 0 0.15032079867629439 -0.42228846493020339 0 0.14633793757398761 -0.39449858723850262 0 0.15032079867629439 -0.42228846493020339 0 0.15763870514003081 -0.41223817588475509 0 0.13103624404022221 -0.40422303690221328 0 0.14633793757398761 -0.39449858723850262 0 0.15032079867629439 -0.42228846493020339 0 0.15032079867629439 -0.42228846493020339 0 0.15503124269100771 -0.42547315335827701 0 0.15763870514003081 -0.41223817588475509 0 0.13103624404022221 -0.40422303690221328 0 0.1289831015042302 -0.42028616243494049 0 0.15032079867629439 -0.42228846493020339 0 0.13103624404022221 -0.40422303690221328 0 0.1289831015042302 -0.42028616243494049 0 0.1164459844785509 -0.40899926064631642 0 0.1289831015042302 -0.42028616243494049 0 0.15032079867629439 -0.42228846493020339 0 0.13220902229130629 -0.43815238559664271 0 0.15498568210569219 -0.42726318183142908 0 0.13220902229130629 -0.43815238559664271 0 0.15498568210569219 -0.42726318183142908 0 0.15477920435768819 -0.43537547989393971 0 0.13220902229130629 -0.43815238559664271 0 0.15032079867629439 -0.42228846493020339 0 0.15498568210569219 -0.42726318183142908 0 0.13220902229130629 -0.43815238559664271 0 0.15498568210569219 -0.42726318183142908 0 0.15503124269100771 -0.42547315335827701 0 0.15032079867629439 -0.42228846493020339 0 0.15498568210569219 -0.42726318183142908 0 0.15503124269100771 -0.42547315335827701 0 0.15498568210569219 -0.42726318183142908 0 0.15477920435768819 -0.43537547989393971 0 0.16164880342220719 -0.42407763635113199 0 0.17573018760458001 -0.41734552273537201 0 0.1718786689646026 -0.43423375548071091 0 0.15477920435768819 -0.43537547989393971 0 0.16164880342220719 -0.42407763635113199 0 0.1718786689646026 -0.43423375548071091 0 0.15477920435768819 -0.43537547989393971 0 0.16164880342220719 -0.42407763635113199 0 0.15498568210569219 -0.42726318183142908 0 0.15477920435768819 -0.43537547989393971 0 0.16164880342220719 -0.42407763635113199 0 0.15498568210569219 -0.42726318183142908 0 0.16164880342220719 -0.42407763635113199 0 0.15498568210569219 -0.42726318183142908 0 0.15503124269100771 -0.42547315335827701 0 0.16164880342220719 -0.42407763635113199 0 0.17370771562492229 -0.40424537218499712 0 0.16164880342220719 -0.42407763635113199 0 0.15763870514003081 -0.41223817588475509 0 0.15503124269100771 -0.42547315335827701 0 0.16164880342220719 -0.42407763635113199 0 0.15763870514003081 -0.41223817588475509 0 0.17370771562492229 -0.40424537218499712 0 0.16164880342220719 -0.42407763635113199 0 0.17370771562492229 -0.40424537218499712 0 0.16164880342220719 -0.42407763635113199 0 0.17573018760458001 -0.41734552273537201 0 0.16164880342220719 -0.42407763635113199 0 0.17573018760458001 -0.41734552273537201 0 0.18981157178695221 -0.41061340911961058 0 0.17370771562492229 -0.40424537218499712 0 0.17573018760458001 -0.41734552273537201 0 0.18981157178695221 -0.41061340911961058 0 0.17573018760458001 -0.41734552273537201 0 0.18665278597191229 -0.42875760557495712 0 0.18981157178695221 -0.41061340911961058 0 0.17573018760458001 -0.41734552273537201 0 0.17573018760458001 -0.41734552273537201 0 0.18665278597191229 -0.42875760557495712 0 0.1718786689646026 -0.43423375548071091 0 0.18665278597191229 -0.42875760557495712 0 0.1718786689646026 -0.43423375548071091 0 0.18349400015686571 -0.44690180203030261 0 0.18665278597191229 -0.42875760557495712 0 0.18349400015686571 -0.44690180203030261 0 0.1718786689646026 -0.43423375548071091 0 0.18349400015686571 -0.44690180203030261 0 0.16839942786301301 -0.44830606301757719 0 0.18349400015686571 -0.44690180203030261 0 0.17766647228714899 -0.4660542754840874 0 0.16839942786301301 -0.44830606301757719 0 0.17766647228714899 -0.4660542754840874 0 0.16839942786301301 -0.44830606301757719 0 0.15417879354876021 -0.45896500219884562 0 0.15477920435768819 -0.43537547989393971 0 0.16839942786301301 -0.44830606301757719 0 0.15417879354876021 -0.45896500219884562 0 0.15477920435768819 -0.43537547989393971 0 0.1718786689646026 -0.43423375548071091 0 0.16839942786301301 -0.44830606301757719 0 0.15477920435768819 -0.43537547989393971 0 0.15417879354876021 -0.45896500219884562 0 0.15477920435768819 -0.43537547989393971 0 0.14085486003061889 -0.45827566113684848 0 0.15477920435768819 -0.43537547989393971 0 0.14085486003061889 -0.45827566113684848 0 0.15417879354876021 -0.45896500219884562 0 0.15477920435768819 -0.43537547989393971 0 0.13220902229130629 -0.43815238559664271 0 0.14085486003061889 -0.45827566113684848 0 0.13220902229130629 -0.43815238559664271 0 0.1260710098470107 -0.45295252139791142 0 0.14085486003061889 -0.45827566113684848 0 0.1260710098470107 -0.45295252139791142 0 0.14085486003061889 -0.45827566113684848 0 0.12693051570354841 -0.48117584237975669 0 0.1260710098470107 -0.45295252139791142 0 0.12693051570354841 -0.48117584237975669 0 0.14085486003061889 -0.45827566113684848 0 0.1468633672181735 -0.47100858659246231 0 0.1399556028006454 -0.47560711032160702 0 0.14085486003061889 -0.45827566113684848 0 0.15417879354876021 -0.45896500219884562 0 0.1468633672181735 -0.47100858659246231 0 0.15417879354876021 -0.45896500219884562 0 0.15357838273983099 -0.48255452450375153 0 0.15417879354876021 -0.45896500219884562 0 0.15357838273983099 -0.48255452450375153 0 0.1468633672181735 -0.47100858659246231 0 0.15357838273983099 -0.48255452450375153 0 0.14626335384590011 -0.48059348077266162 0 0.1468633672181735 -0.47100858659246231 0 0.15357838273983099 -0.48255452450375153 0 0.15197479750624651 -0.48365297424283921 0 0.15357838273983099 -0.48255452450375153 0 0.15197479750624651 -0.48365297424283921 0 0.14626335384590011 -0.48059348077266162 0 0.14626335384590011 -0.48059348077266162 0 0.1399556028006454 -0.47560711032160702 0 0.1396960235856646 -0.48447374995924558 0 0.15197479750624651 -0.48365297424283921 0 0.14626335384590011 -0.48059348077266162 0 0.14568488805414589 -0.48574139093959351 0 0.14626335384590011 -0.48059348077266162 0 0.1396960235856646 -0.48447374995924558 0 0.14568488805414589 -0.48574139093959351 0 0.14626335384590011 -0.48059348077266162 0 0.1468633672181735 -0.47100858659246231 0 0.1399556028006454 -0.47560711032160702 0 0.14085486003061889 -0.45827566113684848 0 0.12693051570354841 -0.48117584237975669 0 0.14085486003061889 -0.45827566113684848 0 0.1399556028006454 -0.47560711032160702 0 0.12693051570354841 -0.48117584237975669 0 0.1399556028006454 -0.47560711032160702 0 0.12693051570354841 -0.48117584237975669 0 0.1396960235856646 -0.48447374995924558 0 0.12693051570354841 -0.48117584237975669 0 0.1275037818237672 -0.49999999999999961 0 0.12693051570354841 -0.48117584237975669 0 0.1275037818237672 -0.49999999999999961 0 0.13482742674097081 -0.48949980727313341 0 0.1275037818237672 -0.49999999999999961 0 0.13482742674097081 -0.48949980727313341 0 0.1451793858509037 -0.49234963675353188 0 0.13482742674097081 -0.48949980727313341 0 0.1396960235856646 -0.48447374995924558 0 0.1451793858509037 -0.49234963675353188 0 0.12693051570354841 -0.48117584237975669 0 0.13482742674097081 -0.48949980727313341 0 0.1396960235856646 -0.48447374995924558 0 0.15197479750624651 -0.48365297424283921 0 0.1451793858509037 -0.49234963675353188 0 0.1531343528896543 -0.49999999999999672 0 0.15357838273983099 -0.48255452450375153 0 0.1531343528896543 -0.49999999999999672 0 0.15357838273983099 -0.48255452450375153 0 0.15197479750624651 -0.48365297424283921 0 0.1531343528896543 -0.49999999999999672 0 0.1275037818237672 -0.49999999999999961 0 0.1451793858509037 -0.49234963675353188 0 0.1531343528896543 -0.49999999999999672 0 0.15197479750624651 -0.48365297424283921 0 0.1451793858509037 -0.49234963675353188 0 0.14568488805414589 -0.48574139093959351 0 0.1396960235856646 -0.48447374995924558 0 0.1451793858509037 -0.49234963675353188 0 0.14568488805414589 -0.48574139093959351 0 0.1531343528896543 -0.49999999999999672 0 0.17575694389534419 -0.48335135991882849 0 0.18178946856308431 -0.5 0 0.15357838273983099 -0.48255452450375153 0 0.1531343528896543 -0.49999999999999672 0 0.17575694389534419 -0.48335135991882849 0 0.17766647228714899 -0.4660542754840874 0 0.15417879354876021 -0.45896500219884562 0 0.15357838273983099 -0.48255452450375153 0 0.17766647228714899 -0.4660542754840874 0 0.15357838273983099 -0.48255452450375153 0 0.17575694389534419 -0.48335135991882849 0 0.17766647228714899 -0.4660542754840874 0 0.15357838273983099 -0.48255452450375153 0 0.19150203538286911 -0.46963876385959957 0 0.17766647228714899 -0.4660542754840874 0 0.17575694389534419 -0.48335135991882849 0 0.19805699684201611 -0.48362212877357191 0 0.17575694389534419 -0.48335135991882849 0 0.18178946856308431 -0.5 0 0.07390478750403906 -0.48802897354695818 0 0.0873244336803497 -0.5 0 0.059164289555673988 -0.5 0 0.07390478750403906 -0.48802897354695818 0 0.057023029560160823 -0.48793772675262159 0 0.059164289555673988 -0.5 0 0.07390478750403906 -0.48802897354695818 0 0.06387904284814741 -0.47081999689228149 0 0.08665570266253371 -0.45993079312706858 0 0.07390478750403906 -0.48802897354695818 0 0.06387904284814741 -0.47081999689228149 0 0.057023029560160823 -0.48793772675262159 0 0.07390478750403906 -0.48802897354695818 0 0.1006422239037784 -0.48279167972169668 0 0.08665570266253371 -0.45993079312706858 0 0.07390478750403906 -0.48802897354695818 0 0.0873244336803497 -0.5 0 0.1006422239037784 -0.48279167972169668 0 0.0873244336803497 -0.5 0 0.1154845778050254 -0.499999999999999 0 0.1006422239037784 -0.48279167972169668 0 0.12693051570354841 -0.48117584237975669 0 0.1154845778050254 -0.499999999999999 0 0.1006422239037784 -0.48279167972169668 0 0.12693051570354841 -0.48117584237975669 0 0.1154845778050254 -0.499999999999999 0 0.12693051570354841 -0.48117584237975669 0 0.1275037818237672 -0.49999999999999961 0 0.1154845778050254 -0.499999999999999 0 0.12693051570354841 -0.48117584237975669 0 0.1006422239037784 -0.48279167972169668 0 0.10994636291875839 -0.46517848519765792 0 0.1006422239037784 -0.48279167972169668 0 0.10994636291875839 -0.46517848519765792 0 0.08665570266253371 -0.45993079312706858 0 0.10943236247691999 -0.44904158936185568 0 0.08665570266253371 -0.45993079312706858 0 0.10994636291875839 -0.46517848519765792 0 0.10943236247691999 -0.44904158936185568 0 0.08665570266253371 -0.45993079312706858 0 0.1260710098470107 -0.45295252139791142 0 0.12693051570354841 -0.48117584237975669 0 0.10994636291875839 -0.46517848519765792 0 0.1260710098470107 -0.45295252139791142 0 0.10994636291875839 -0.46517848519765792 0 0.10943236247691999 -0.44904158936185568 0 0.13220902229130629 -0.43815238559664271 0 0.10943236247691999 -0.44904158936185568 0 0.13220902229130629 -0.43815238559664271 0 0.1260710098470107 -0.45295252139791142 0 0.10943236247691999 -0.44904158936185568 0 0.13220902229130629 -0.43815238559664271 0 0.10943236247691999 -0.44904158936185568 0 0.1128453972816206 -0.4288538200396998 0 0.10943236247691999 -0.44904158936185568 0 0.089026629946536026 -0.44061302335509089 0 0.1128453972816206 -0.4288538200396998 0 0.10943236247691999 -0.44904158936185568 0 0.089026629946536026 -0.44061302335509089 0 0.08665570266253371 -0.45993079312706858 0 0.089026629946536026 -0.44061302335509089 0 0.08665570266253371 -0.45993079312706858 0 0.072062038177769183 -0.45456784827839769 0 0.06387904284814741 -0.47081999689228149 0 0.08665570266253371 -0.45993079312706858 0 0.06387904284814741 -0.47081999689228149 0 0.072062038177769183 -0.45456784827839769 0 0.061666705505012277 -0.45750532403242511 0 0.06387904284814741 -0.47081999689228149 0 0.08665570266253371 -0.45993079312706858 0 0.072062038177769183 -0.45456784827839769 0 0.072062038177769183 -0.45456784827839769 0 0.059974960671737819 -0.44755425647113978 0 0.061666705505012277 -0.45750532403242511 0 0.089026629946536026 -0.44061302335509089 0 0.072062038177769183 -0.45456784827839769 0 0.071517002237156846 -0.43930650869214599 0 0.072062038177769183 -0.45456784827839769 0 0.071517002237156846 -0.43930650869214599 0 0.059974960671737819 -0.44755425647113978 0 0.071517002237156846 -0.43930650869214599 0 0.061967213283657119 -0.43534654655071281 0 0.059974960671737819 -0.44755425647113978 0 0.069724238685054896 -0.43032192441900591 0 0.067101733751441378 -0.41873265628692918 0 0.061967213283657119 -0.43534654655071281 0 0.069724238685054896 -0.43032192441900591 0 0.067101733751441378 -0.41873265628692918 0 0.078311005467964254 -0.4279019861462352 0 0.071517002237156846 -0.43930650869214599 0 0.069724238685054896 -0.43032192441900591 0 0.078311005467964254 -0.4279019861462352 0 0.071517002237156846 -0.43930650869214599 0 0.069724238685054896 -0.43032192441900591 0 0.061967213283657119 -0.43534654655071281 0 0.067101733751441378 -0.41873265628692918 0 0.082186797473875584 -0.41427107007851632 0 0.084919354155924887 -0.39877920017897228 0 0.067101733751441378 -0.41873265628692918 0 0.078943827808363509 -0.40334643797908559 0 0.084919354155924887 -0.39877920017897228 0 0.067101733751441378 -0.41873265628692918 0 0.084919354155924887 -0.39877920017897228 0 0.067101733751441378 -0.41873265628692918 0 0.069573445466074635 -0.40838474577747341 0 0.058961304938323508 -0.40914044686337009 0 0.067101733751441378 -0.41873265628692918 0 0.069573445466074635 -0.40838474577747341 0 0.078943827808363509 -0.40334643797908559 0 0.067101733751441378 -0.41873265628692918 0 0.082186797473875584 -0.41427107007851632 0 0.078311005467964254 -0.4279019861462352 0 0.082186797473875584 -0.41427107007851632 0 0.089050703285118937 -0.40604931846695119 0 0.084919354155924887 -0.39877920017897228 0 0.082186797473875584 -0.41427107007851632 0 0.09452747501463904 -0.41033430661162967 0 0.089050703285118937 -0.40604931846695119 0 0.082186797473875584 -0.41427107007851632 0 0.093951598242391299 -0.42386613262280431 0 0.09452747501463904 -0.41033430661162967 0 0.089026629946536026 -0.44061302335509089 0 0.071517002237156846 -0.43930650869214599 0 0.078311005467964254 -0.4279019861462352 0 0.082186797473875584 -0.41427107007851632 0 0.078311005467964254 -0.4279019861462352 0 0.093951598242391299 -0.42386613262280431 0 0.089026629946536026 -0.44061302335509089 0 0.078311005467964254 -0.4279019861462352 0 0.093951598242391299 -0.42386613262280431 0 0.089026629946536026 -0.44061302335509089 0 0.093951598242391299 -0.42386613262280431 0 0.1128453972816206 -0.4288538200396998 0 0.093951598242391299 -0.42386613262280431 0 0.1128453972816206 -0.4288538200396998 0 0.1055521074704445 -0.41740156700738812 0 0.1289831015042302 -0.42028616243494049 0 0.13220902229130629 -0.43815238559664271 0 0.1128453972816206 -0.4288538200396998 0 0.1128453972816206 -0.4288538200396998 0 0.1164459844785509 -0.40899926064631642 0 0.1055521074704445 -0.41740156700738812 0 0.1289831015042302 -0.42028616243494049 0 0.1128453972816206 -0.4288538200396998 0 0.1164459844785509 -0.40899926064631642 0 0.1055521074704445 -0.41740156700738812 0 0.09452747501463904 -0.41033430661162967 0 0.1047162595067124 -0.39998479682176968 0 0.1164459844785509 -0.40899926064631642 0 0.1055521074704445 -0.41740156700738812 0 0.1047162595067124 -0.39998479682176968 0 0.093951598242391299 -0.42386613262280431 0 0.1055521074704445 -0.41740156700738812 0 0.09452747501463904 -0.41033430661162967 0 0.09452747501463904 -0.41033430661162967 0 0.094569186496036239 -0.40081269699868649 0 0.1047162595067124 -0.39998479682176968 0 0.094569186496036239 -0.40081269699868649 0 0.099610484619845244 -0.39336232948942479 0 0.1047162595067124 -0.39998479682176968 0 0.099610484619845244 -0.39336232948942479 0 0.1047162595067124 -0.39998479682176968 0 0.1111106483801443 -0.38840920937667989 0 0.1164459844785509 -0.40899926064631642 0 0.1047162595067124 -0.39998479682176968 0 0.11771288407503749 -0.39809004444628698 0 0.1047162595067124 -0.39998479682176968 0 0.11771288407503749 -0.39809004444628698 0 0.1111106483801443 -0.38840920937667989 0 0.1252552839695579 -0.38883391848445581 0 0.13103624404022221 -0.40422303690221328 0 0.11771288407503749 -0.39809004444628698 0 0.1252552839695579 -0.38883391848445581 0 0.11771288407503749 -0.39809004444628698 0 0.1111106483801443 -0.38840920937667989 0 0.13103624404022221 -0.40422303690221328 0 0.1164459844785509 -0.40899926064631642 0 0.11771288407503749 -0.39809004444628698 0 0.1252552839695579 -0.38883391848445581 0 0.13074812791438861 -0.37691635541169582 0 0.1181850630163722 -0.37801311877864191 0 0.1252552839695579 -0.38883391848445581 0 0.1181850630163722 -0.37801311877864191 0 0.1111106483801443 -0.38840920937667989 0 0.1181850630163722 -0.37801311877864191 0 0.1111106483801443 -0.38840920937667989 0 0.1027369745604084 -0.37882574407101532 0 0.1027369745604084 -0.37882574407101532 0 0.093463129880940451 -0.3848826185373328 0 0.10798243195351739 -0.36641879909558001 0 0.099610484619845244 -0.39336232948942479 0 0.1027369745604084 -0.37882574407101532 0 0.084919354155924887 -0.39877920017897228 0 0.093463129880940451 -0.3848826185373328 0 0.10798243195351739 -0.36641879909558001 0 0.1027369745604084 -0.37882574407101532 0 0.084919354155924887 -0.39877920017897228 0 0.099610484619845244 -0.39336232948942479 0 0.1111106483801443 -0.38840920937667989 0 0.1027369745604084 -0.37882574407101532 0 0.083380758220188048 -0.37618037829979523 0 0.093463129880940451 -0.3848826185373328 0 0.092605800843708994 -0.36836744400317561 0 0.083380758220188048 -0.37618037829979523 0 0.081260656971457276 -0.38659890048689061 0 0.093463129880940451 -0.3848826185373328 0 0.1027369745604084 -0.37882574407101532 0 0.093463129880940451 -0.3848826185373328 0 0.084919354155924887 -0.39877920017897228 0 0.081260656971457276 -0.38659890048689061 0 0.093463129880940451 -0.3848826185373328 0 0.078943827808363509 -0.40334643797908559 0 0.093463129880940451 -0.3848826185373328 0 0.078943827808363509 -0.40334643797908559 0 0.084919354155924887 -0.39877920017897228 0 0.094569186496036239 -0.40081269699868649 0 0.099610484619845244 -0.39336232948942479 0 0.084919354155924887 -0.39877920017897228 0 0.093463129880940451 -0.3848826185373328 0 0.078943827808363509 -0.40334643797908559 0 0.09452747501463904 -0.41033430661162967 0 0.094569186496036239 -0.40081269699868649 0 0.089050703285118937 -0.40604931846695119 0 0.094569186496036239 -0.40081269699868649 0 0.089050703285118937 -0.40604931846695119 0 0.084919354155924887 -0.39877920017897228 0 0.069254911976337125 -0.38198616713134859 0 0.058961304938323508 -0.40914044686337009 0 0.081260656971457276 -0.38659890048689061 0 0.078943827808363509 -0.40334643797908559 0 0.069254911976337125 -0.38198616713134859 0 0.069573445466074635 -0.40838474577747341 0 0.078943827808363509 -0.40334643797908559 0 0.069254911976337125 -0.38198616713134859 0 0.069573445466074635 -0.40838474577747341 0 0.069254911976337125 -0.38198616713134859 0 0.058961304938323508 -0.40914044686337009 0 0.083380758220188048 -0.37618037829979523 0 0.081260656971457276 -0.38659890048689061 0 0.069254911976337125 -0.38198616713134859 0 0.069254911976337125 -0.38198616713134859 0 0.052817510961897352 -0.38890292274703098 0 0.051593261684324918 -0.36827324196572819 0 0.052817510961897352 -0.38890292274703098 0 0.040245104814165211 -0.38373928364939192 0 0.051593261684324918 -0.36827324196572819 0 0.069254911976337125 -0.38198616713134859 0 0.052817510961897352 -0.38890292274703098 0 0.058961304938323508 -0.40914044686337009 0 0.052817510961897352 -0.38890292274703098 0 0.044032971396336031 -0.40137547412531599 0 0.058961304938323508 -0.40914044686337009 0 0.052817510961897352 -0.38890292274703098 0 0.044032971396336031 -0.40137547412531599 0 0.040245104814165211 -0.38373928364939192 0 0.044032971396336031 -0.40137547412531599 0 0.040245104814165211 -0.38373928364939192 0 0.02284401828611652 -0.39341067868703927 0 0.044032971396336031 -0.40137547412531599 0 0.02284401828611652 -0.39341067868703927 0 0.034652847362305603 -0.41457183073148302 0 0.0071573240810073246 -0.3785539547048164 0 0.02284401828611652 -0.39341067868703927 0 0.029364003315145219 -0.37131652208711541 0 0.040245104814165211 -0.38373928364939192 0 0.02284401828611652 -0.39341067868703927 0 0.029364003315145219 -0.37131652208711541 0 -0.0062829033893789252 -0.39530308145853871 0 0.0071573240810073246 -0.3785539547048164 0 0.02284401828611652 -0.39341067868703927 0 -0.0062829033893789252 -0.39530308145853871 0 0.02284401828611652 -0.39341067868703927 0 0.01073878042323523 -0.40901460405261397 0 0.02284401828611652 -0.39341067868703927 0 0.01073878042323523 -0.40901460405261397 0 0.034652847362305603 -0.41457183073148302 0 0.01073878042323523 -0.40901460405261397 0 0.021102636682855981 -0.43382708627772848 0 0.01073878042323523 -0.40901460405261397 0 0.021102636682855981 -0.43382708627772848 0 0.034652847362305603 -0.41457183073148302 0 -0.001223291168959903 -0.42551787017524489 0 -0.0017335022559463321 -0.44294690443588852 0 0.021102636682855981 -0.43382708627772848 0 -0.001223291168959903 -0.42551787017524489 0 0.01073878042323523 -0.40901460405261397 0 0.021102636682855981 -0.43382708627772848 0 0.021102636682855981 -0.43382708627772848 0 0.03583120082861433 -0.42902639645664231 0 0.034652847362305603 -0.41457183073148302 0 0.021102636682855981 -0.43382708627772848 0 0.03583120082861433 -0.42902639645664231 0 0.034329710995488531 -0.44126569515551128 0 0.041273780530704449 -0.43360378419581103 0 0.03583120082861433 -0.42902639645664231 0 0.034329710995488531 -0.44126569515551128 0 0.041273780530704449 -0.43360378419581103 0 0.045838677350944053 -0.4220666262494524 0 0.04866769790030992 -0.43629472659539142 0 0.041273780530704449 -0.43360378419581103 0 0.04866769790030992 -0.43629472659539142 0 0.041701615578165437 -0.43936547652205749 0 0.041273780530704449 -0.43360378419581103 0 0.045838677350944053 -0.4220666262494524 0 0.03583120082861433 -0.42902639645664231 0 0.045838677350944053 -0.4220666262494524 0 0.03583120082861433 -0.42902639645664231 0 0.034652847362305603 -0.41457183073148302 0 0.044032971396336031 -0.40137547412531599 0 0.034652847362305603 -0.41457183073148302 0 0.045871450261977288 -0.41178859449240529 0 0.045838677350944053 -0.4220666262494524 0 0.034652847362305603 -0.41457183073148302 0 0.045871450261977288 -0.41178859449240529 0 0.067101733751441378 -0.41873265628692918 0 0.058961304938323508 -0.40914044686337009 0 0.04866769790030992 -0.43629472659539142 0 0.045838677350944053 -0.4220666262494524 0 0.045871450261977288 -0.41178859449240529 0 0.058961304938323508 -0.40914044686337009 0 0.044032971396336031 -0.40137547412531599 0 0.045871450261977288 -0.41178859449240529 0 0.058961304938323508 -0.40914044686337009 0 0.067101733751441378 -0.41873265628692918 0 0.04866769790030992 -0.43629472659539142 0 0.049284113346957828 -0.4386861123948862 0 0.045838677350944053 -0.4220666262494524 0 0.058961304938323508 -0.40914044686337009 0 0.04866769790030992 -0.43629472659539142 0 0.067101733751441378 -0.41873265628692918 0 0.049284113346957828 -0.4386861123948862 0 0.058961304938323508 -0.40914044686337009 0 0.04866769790030992 -0.43629472659539142 0 0.067101733751441378 -0.41873265628692918 0 0.061967213283657119 -0.43534654655071281 0 0.049284113346957828 -0.4386861123948862 0 0.050504025888358048 -0.44809362748399961 0 0.050750780322394717 -0.45707919448788109 0 0.043956336848257421 -0.4521664314246559 0 0.050504025888358048 -0.44809362748399961 0 0.059974960671737819 -0.44755425647113978 0 0.050750780322394717 -0.45707919448788109 0 0.050504025888358048 -0.44809362748399961 0 0.053499242975987987 -0.4435782759371083 0 0.059974960671737819 -0.44755425647113978 0 0.050504025888358048 -0.44809362748399961 0 0.049284113346957828 -0.4386861123948862 0 0.043956336848257421 -0.4521664314246559 0 0.050504025888358048 -0.44809362748399961 0 0.049284113346957828 -0.4386861123948862 0 0.053499242975987987 -0.4435782759371083 0 0.049284113346957828 -0.4386861123948862 0 0.053499242975987987 -0.4435782759371083 0 0.056621375028472448 -0.4407189563998371 0 0.061967213283657119 -0.43534654655071281 0 0.049284113346957828 -0.4386861123948862 0 0.056621375028472448 -0.4407189563998371 0 0.061967213283657119 -0.43534654655071281 0 0.056621375028472448 -0.4407189563998371 0 0.059974960671737819 -0.44755425647113978 0 0.053499242975987987 -0.4435782759371083 0 0.056621375028472448 -0.4407189563998371 0 0.059974960671737819 -0.44755425647113978 0 0.059974960671737819 -0.44755425647113978 0 0.061666705505012277 -0.45750532403242511 0 0.050750780322394717 -0.45707919448788109 0 0.06387904284814741 -0.47081999689228149 0 0.050750780322394717 -0.45707919448788109 0 0.042204954701851753 -0.46406721696000519 0 0.06387904284814741 -0.47081999689228149 0 0.061666705505012277 -0.45750532403242511 0 0.050750780322394717 -0.45707919448788109 0 0.042204954701851753 -0.46406721696000519 0 0.031466492942474888 -0.45863956850284382 0 0.041102383033761111 -0.48170920065749429 0 0.050750780322394717 -0.45707919448788109 0 0.03935002154527184 -0.45820772443959351 0 0.043956336848257421 -0.4521664314246559 0 0.031466492942474888 -0.45863956850284382 0 0.027075969990078871 -0.46355639269332571 0 0.041102383033761111 -0.48170920065749429 0 0.050750780322394717 -0.45707919448788109 0 0.03935002154527184 -0.45820772443959351 0 0.042204954701851753 -0.46406721696000519 0 0.03935002154527184 -0.45820772443959351 0 0.042204954701851753 -0.46406721696000519 0 0.031466492942474888 -0.45863956850284382 0 0.03935002154527184 -0.45820772443959351 0 0.031466492942474888 -0.45863956850284382 0 0.043956336848257421 -0.4521664314246559 0 0.049284113346957828 -0.4386861123948862 0 0.031466492942474888 -0.45863956850284382 0 0.031466492942474888 -0.45863956850284382 0 0.041701615578165437 -0.43936547652205749 0 0.034329710995488531 -0.44126569515551128 0 0.049284113346957828 -0.4386861123948862 0 0.031466492942474888 -0.45863956850284382 0 0.041701615578165437 -0.43936547652205749 0 0.049284113346957828 -0.4386861123948862 0 0.031466492942474888 -0.45863956850284382 0 0.043956336848257421 -0.4521664314246559 0 0.04866769790030992 -0.43629472659539142 0 0.049284113346957828 -0.4386861123948862 0 0.041701615578165437 -0.43936547652205749 0 0.041273780530704449 -0.43360378419581103 0 0.041701615578165437 -0.43936547652205749 0 0.034329710995488531 -0.44126569515551128 0 0.021102636682855981 -0.43382708627772848 0 0.031466492942474888 -0.45863956850284382 0 0.021102636682855981 -0.43382708627772848 0 0.031466492942474888 -0.45863956850284382 0 0.015791870737939601 -0.45277591123750621 0 0.021102636682855981 -0.43382708627772848 0 0.031466492942474888 -0.45863956850284382 0 0.034329710995488531 -0.44126569515551128 0 -0.0017335022559463321 -0.44294690443588852 0 -0.00048262364615160141 -0.46154445275086259 0 0.015791870737939601 -0.45277591123750621 0 -0.0017335022559463321 -0.44294690443588852 0 0.021102636682855981 -0.43382708627772848 0 0.015791870737939601 -0.45277591123750621 0 -0.00048262364615160141 -0.46154445275086259 0 0.015791870737939601 -0.45277591123750621 0 0.015068504845151751 -0.4642732824187884 0 -0.00048262364615160141 -0.46154445275086259 0 0.015068504845151751 -0.4642732824187884 0 0.01107617217244561 -0.47469162294083372 0 0.015068504845151751 -0.4642732824187884 0 0.027075969990078871 -0.46355639269332571 0 0.024726773507342561 -0.47724329177756353 0 0.031466492942474888 -0.45863956850284382 0 0.015791870737939601 -0.45277591123750621 0 0.027075969990078871 -0.46355639269332571 0 0.015791870737939601 -0.45277591123750621 0 0.015068504845151751 -0.4642732824187884 0 0.027075969990078871 -0.46355639269332571 0 0.031466492942474888 -0.45863956850284382 0 0.027075969990078871 -0.46355639269332571 0 0.024726773507342561 -0.47724329177756353 0 0.02197319217004166 -0.49085460032874562 0 0.041102383033761111 -0.48170920065749429 0 0.027075969990078871 -0.46355639269332571 0 0.024726773507342561 -0.47724329177756353 0 0.041102383033761111 -0.48170920065749429 0 0.024726773507342561 -0.47724329177756353 0 0.01107617217244561 -0.47469162294083372 0 0.02197319217004166 -0.49085460032874562 0 0.015068504845151751 -0.4642732824187884 0 0.024726773507342561 -0.47724329177756353 0 0.01107617217244561 -0.47469162294083372 0 -0.0047679081857238109 -0.47930991420262192 0 0.01107617217244561 -0.47469162294083372 0 0.0053629893529604936 -0.48717195375217709 0 0.01107617217244561 -0.47469162294083372 0 0.0053629893529604936 -0.48717195375217709 0 0.02197319217004166 -0.49085460032874562 0 -0.00048262364615160141 -0.46154445275086259 0 -0.0047679081857238109 -0.47930991420262192 0 0.01107617217244561 -0.47469162294083372 0 0.0053629893529604936 -0.48717195375217709 0 0.0028440013063228981 -0.49999999999999822 0 0.02197319217004166 -0.49085460032874562 0 0.0028440013063228981 -0.49999999999999822 0 0.02197319217004166 -0.49085460032874562 0 0.0028440013063228981 -0.49999999999999822 0 0.02197319217004166 -0.49085460032874562 0 0.031004145430998501 -0.5 0 0.02197319217004166 -0.49085460032874562 0 0.031004145430998501 -0.5 0 0.036293313991822902 -0.49242280969867441 0 0.02197319217004166 -0.49085460032874562 0 0.041102383033761111 -0.48170920065749429 0 0.031004145430998501 -0.5 0 0.059164289555673988 -0.5 0 0.047725070745209763 -0.49756481627067711 0 0.02197319217004166 -0.49085460032874562 0 0.036293313991822902 -0.49242280969867441 0 0.041102383033761111 -0.48170920065749429 0 0.036293313991822902 -0.49242280969867441 0 0.041102383033761111 -0.48170920065749429 0 0.047725070745209763 -0.49756481627067711 0 0.031004145430998501 -0.5 0 0.036293313991822902 -0.49242280969867441 0 0.047725070745209763 -0.49756481627067711 0 0.041102383033761111 -0.48170920065749429 0 0.047725070745209763 -0.49756481627067711 0 0.031466492942474888 -0.45863956850284382 0 0.041102383033761111 -0.48170920065749429 0 0.06387904284814741 -0.47081999689228149 0 0.042204954701851753 -0.46406721696000519 0 0.041102383033761111 -0.48170920065749429 0 0.06387904284814741 -0.47081999689228149 0 0.041102383033761111 -0.48170920065749429 0 0.057023029560160823 -0.48793772675262159 0 0.06387904284814741 -0.47081999689228149 0 0.041102383033761111 -0.48170920065749429 0 0.041102383033761111 -0.48170920065749429 0 0.057023029560160823 -0.48793772675262159 0 0.047725070745209763 -0.49756481627067711 0 0.057023029560160823 -0.48793772675262159 0 0.059164289555673988 -0.5 0 0.047725070745209763 -0.49756481627067711 0 0.093569581027979604 -0.2851751628514505 0 0.077037169620972873 -0.30717304683073587 0 0.076364915303236969 -0.28279742630705779 0 0.093569581027979604 -0.2851751628514505 0 0.077037169620972873 -0.30717304683073587 0 0.097012244729710262 -0.30213164488441241 0 0.077037169620972873 -0.30717304683073587 0 0.097012244729710262 -0.30213164488441241 0 0.089842126052364385 -0.32767760766730569 0 0.077037169620972873 -0.30717304683073587 0 0.097012244729710262 -0.30213164488441241 0 0.077037169620972873 -0.30717304683073587 0 0.057062094512235539 -0.31221444877705951 0 0.077037169620972873 -0.30717304683073587 0 0.063962269155073526 -0.29746097868483767 0 0.057062094512235539 -0.31221444877705951 0 0.077037169620972873 -0.30717304683073587 0 0.063962269155073526 -0.29746097868483767 0 0.076364915303236969 -0.28279742630705779 0 0.063962269155073526 -0.29746097868483767 0 0.076364915303236969 -0.28279742630705779 0 0.063978833292972659 -0.27953136369815268 0 0.063978833292972659 -0.27953136369815268 0 0.071759951248744291 -0.26862680450986848 0 0.055505886997743607 -0.26916911799809973 0 0.071759951248744291 -0.26862680450986848 0 0.068975589279495805 -0.26213604699578957 0 0.055505886997743607 -0.26916911799809973 0 0.076364915303236969 -0.28279742630705779 0 0.071759951248744291 -0.26862680450986848 0 0.085687062191660862 -0.26207038517706949 0 0.076364915303236969 -0.28279742630705779 0 0.063978833292972659 -0.27953136369815268 0 0.071759951248744291 -0.26862680450986848 0 0.06935354968618497 -0.25010479107439831 0 0.070747261212473184 -0.25322756598660068 0 0.055505886997743607 -0.26916911799809973 0 0.068975589279495805 -0.26213604699578957 0 0.070747261212473184 -0.25322756598660068 0 0.055505886997743607 -0.26916911799809973 0 0.06935354968618497 -0.25010479107439831 0 0.070747261212473184 -0.25322756598660068 0 0.071759951248744291 -0.26862680450986848 0 0.068975589279495805 -0.26213604699578957 0 0.077889257659022118 -0.25752069948858941 0 0.068975589279495805 -0.26213604699578957 0 0.077889257659022118 -0.25752069948858941 0 0.070747261212473184 -0.25322756598660068 0 0.077889257659022118 -0.25752069948858941 0 0.075141354202361899 -0.25034161192270421 0 0.070747261212473184 -0.25322756598660068 0 0.077889257659022118 -0.25752069948858941 0 0.075141354202361899 -0.25034161192270421 0 0.080979785658451264 -0.2509150266257687 0 0.06935354968618497 -0.25010479107439831 0 0.075141354202361899 -0.25034161192270421 0 0.070747261212473184 -0.25322756598660068 0 0.080979785658451264 -0.2509150266257687 0 0.085687062191660862 -0.26207038517706949 0 0.089759607835018448 -0.24550930487237099 0 0.085687062191660862 -0.26207038517706949 0 0.089759607835018448 -0.24550930487237099 0 0.10502222179617909 -0.24976688139034459 0 0.077889257659022118 -0.25752069948858941 0 0.080979785658451264 -0.2509150266257687 0 0.085687062191660862 -0.26207038517706949 0 0.071759951248744291 -0.26862680450986848 0 0.077889257659022118 -0.25752069948858941 0 0.085687062191660862 -0.26207038517706949 0 0.093569581027979604 -0.2851751628514505 0 0.076364915303236969 -0.28279742630705779 0 0.085687062191660862 -0.26207038517706949 0 0.093569581027979604 -0.2851751628514505 0 0.085687062191660862 -0.26207038517706949 0 0.10035570342858489 -0.26844192961569252 0 0.085687062191660862 -0.26207038517706949 0 0.10035570342858489 -0.26844192961569252 0 0.10502222179617909 -0.24976688139034459 0 0.12752033777596139 -0.25976181002646398 0 0.10035570342858489 -0.26844192961569252 0 0.10502222179617909 -0.24976688139034459 0 0.12752033777596139 -0.25976181002646398 0 0.10502222179617909 -0.24976688139034459 0 0.12647501325493751 -0.24071415537261021 0 0.10035570342858489 -0.26844192961569252 0 0.12273114623393069 -0.28025786782898687 0 0.10035570342858489 -0.26844192961569252 0 0.12273114623393069 -0.28025786782898687 0 0.1112784895088656 -0.29382936523287623 0 0.12752033777596139 -0.25976181002646398 0 0.10035570342858489 -0.26844192961569252 0 0.12273114623393069 -0.28025786782898687 0 0.13112624590944799 -0.29937981238276429 0 0.12273114623393069 -0.28025786782898687 0 0.1112784895088656 -0.29382936523287623 0 0.093569581027979604 -0.2851751628514505 0 0.1112784895088656 -0.29382936523287623 0 0.097012244729710262 -0.30213164488441241 0 0.093569581027979604 -0.2851751628514505 0 0.10035570342858489 -0.26844192961569252 0 0.1112784895088656 -0.29382936523287623 0 0.1112784895088656 -0.29382936523287623 0 0.097012244729710262 -0.30213164488441241 0 0.10799172367879591 -0.31557794142475781 0 0.13112624590944799 -0.29937981238276429 0 0.1112784895088656 -0.29382936523287623 0 0.1228611360240791 -0.30974440104163709 0 0.1112784895088656 -0.29382936523287623 0 0.1228611360240791 -0.30974440104163709 0 0.10799172367879591 -0.31557794142475781 0 0.12880682264275331 -0.31839134306491701 0 0.1228611360240791 -0.30974440104163709 0 0.1186457880246987 -0.32126759456228071 0 0.1228611360240791 -0.30974440104163709 0 0.1186457880246987 -0.32126759456228071 0 0.10799172367879591 -0.31557794142475781 0 0.1186457880246987 -0.32126759456228071 0 0.1181810544054899 -0.33145266332219658 0 0.10806064130263859 -0.32982083763244507 0 0.1186457880246987 -0.32126759456228071 0 0.10806064130263859 -0.32982083763244507 0 0.10799172367879591 -0.31557794142475781 0 0.12605220128796429 -0.32681737417240919 0 0.12880682264275331 -0.31839134306491701 0 0.1186457880246987 -0.32126759456228071 0 0.12605220128796429 -0.32681737417240919 0 0.1186457880246987 -0.32126759456228071 0 0.1181810544054899 -0.33145266332219658 0 0.12605220128796429 -0.32681737417240919 0 0.1181810544054899 -0.33145266332219658 0 0.12485570640720769 -0.33690899376267192 0 0.12485570640720769 -0.33690899376267192 0 0.11375957562954769 -0.34064200912734027 0 0.12250173402609441 -0.3479549796538271 0 0.1181810544054899 -0.33145266332219658 0 0.12485570640720769 -0.33690899376267192 0 0.11375957562954769 -0.34064200912734027 0 0.1181810544054899 -0.33145266332219658 0 0.11375957562954769 -0.34064200912734027 0 0.10806064130263859 -0.32982083763244507 0 0.10806064130263859 -0.32982083763244507 0 0.099976434688905158 -0.34405679022607238 0 0.089842126052364385 -0.32767760766730569 0 0.11375957562954769 -0.34064200912734027 0 0.10806064130263859 -0.32982083763244507 0 0.099976434688905158 -0.34405679022607238 0 0.097012244729710262 -0.30213164488441241 0 0.10799172367879591 -0.31557794142475781 0 0.089842126052364385 -0.32767760766730569 0 0.10806064130263859 -0.32982083763244507 0 0.10799172367879591 -0.31557794142475781 0 0.089842126052364385 -0.32767760766730569 0 0.13074812791438861 -0.37691635541169582 0 0.1181850630163722 -0.37801311877864191 0 0.1205545949648919 -0.35887228796305831 0 0.1181850630163722 -0.37801311877864191 0 0.1027369745604084 -0.37882574407101532 0 0.1205545949648919 -0.35887228796305831 0 0.1027369745604084 -0.37882574407101532 0 0.1205545949648919 -0.35887228796305831 0 0.1027369745604084 -0.37882574407101532 0 0.1205545949648919 -0.35887228796305831 0 0.10798243195351739 -0.36641879909558001 0 0.12250173402609441 -0.3479549796538271 0 0.10798243195351739 -0.36641879909558001 0 0.1205545949648919 -0.35887228796305831 0 0.12250173402609441 -0.3479549796538271 0 0.10798243195351739 -0.36641879909558001 0 0.12250173402609441 -0.3479549796538271 0 0.1088478766186238 -0.35136613784838688 0 0.10798243195351739 -0.36641879909558001 0 0.11375957562954769 -0.34064200912734027 0 0.12250173402609441 -0.3479549796538271 0 0.1088478766186238 -0.35136613784838688 0 0.1088478766186238 -0.35136613784838688 0 0.099976434688905158 -0.34405679022607238 0 0.10001920679505449 -0.3577581111391146 0 0.11375957562954769 -0.34064200912734027 0 0.1088478766186238 -0.35136613784838688 0 0.099976434688905158 -0.34405679022607238 0 0.1088478766186238 -0.35136613784838688 0 0.10001920679505449 -0.3577581111391146 0 0.10798243195351739 -0.36641879909558001 0 0.093463129880940451 -0.3848826185373328 0 0.10798243195351739 -0.36641879909558001 0 0.092605800843708994 -0.36836744400317561 0 0.10001920679505449 -0.3577581111391146 0 0.10798243195351739 -0.36641879909558001 0 0.092605800843708994 -0.36836744400317561 0 0.10001920679505449 -0.3577581111391146 0 0.092605800843708994 -0.36836744400317561 0 0.079548519014350755 -0.35483188739932719 0 0.083380758220188048 -0.37618037829979523 0 0.092605800843708994 -0.36836744400317561 0 0.079548519014350755 -0.35483188739932719 0 0.099976434688905158 -0.34405679022607238 0 0.10001920679505449 -0.3577581111391146 0 0.079548519014350755 -0.35483188739932719 0 0.083380758220188048 -0.37618037829979523 0 0.069254911976337125 -0.38198616713134859 0 0.079548519014350755 -0.35483188739932719 0 0.069254911976337125 -0.38198616713134859 0 0.079548519014350755 -0.35483188739932719 0 0.051593261684324918 -0.36827324196572819 0 0.069254911976337125 -0.38198616713134859 0 0.079548519014350755 -0.35483188739932719 0 0.077037169620972873 -0.30717304683073587 0 0.089842126052364385 -0.32767760766730569 0 0.06871262473031596 -0.32768483260590531 0 0.079548519014350755 -0.35483188739932719 0 0.089842126052364385 -0.32767760766730569 0 0.099976434688905158 -0.34405679022607238 0 0.079548519014350755 -0.35483188739932719 0 0.089842126052364385 -0.32767760766730569 0 0.079548519014350755 -0.35483188739932719 0 0.089842126052364385 -0.32767760766730569 0 0.06871262473031596 -0.32768483260590531 0 0.079548519014350755 -0.35483188739932719 0 0.06871262473031596 -0.32768483260590531 0 0.052321177522103378 -0.34188396430452211 0 0.077037169620972873 -0.30717304683073587 0 0.06871262473031596 -0.32768483260590531 0 0.057062094512235539 -0.31221444877705951 0 0.048730407066459681 -0.32638612834878289 0 0.037087019403498227 -0.31725585072338269 0 0.057062094512235539 -0.31221444877705951 0 0.037087019403498227 -0.31725585072338269 0 0.057062094512235539 -0.31221444877705951 0 0.06871262473031596 -0.32768483260590531 0 0.048730407066459681 -0.32638612834878289 0 0.057062094512235539 -0.31221444877705951 0 0.06871262473031596 -0.32768483260590531 0 0.048730407066459681 -0.32638612834878289 0 0.052321177522103378 -0.34188396430452211 0 0.048730407066459681 -0.32638612834878289 0 0.052321177522103378 -0.34188396430452211 0 0.027110454296001198 -0.33768855205052728 0 0.048730407066459681 -0.32638612834878289 0 0.037087019403498227 -0.31725585072338269 0 0.027110454296001198 -0.33768855205052728 0 0.037087019403498227 -0.31725585072338269 0 0.027110454296001198 -0.33768855205052728 0 0.079548519014350755 -0.35483188739932719 0 0.052321177522103378 -0.34188396430452211 0 0.051593261684324918 -0.36827324196572819 0 0.052321177522103378 -0.34188396430452211 0 0.051593261684324918 -0.36827324196572819 0 0.035381314255444107 -0.35489808650021171 0 0.052321177522103378 -0.34188396430452211 0 0.035381314255444107 -0.35489808650021171 0 0.027110454296001198 -0.33768855205052728 0 0.051593261684324918 -0.36827324196572819 0 0.035381314255444107 -0.35489808650021171 0 0.029364003315145219 -0.37131652208711541 0 0.040245104814165211 -0.38373928364939192 0 0.051593261684324918 -0.36827324196572819 0 0.029364003315145219 -0.37131652208711541 0 0.035381314255444107 -0.35489808650021171 0 0.029364003315145219 -0.37131652208711541 0 0.017133889188504271 -0.35812125337767181 0 0.0071573240810073246 -0.3785539547048164 0 0.029364003315145219 -0.37131652208711541 0 0.017133889188504271 -0.35812125337767181 0 0.017133889188504271 -0.35812125337767181 0 0.027110454296001198 -0.33768855205052728 0 0.0039484790034304256 -0.34229917506297192 0 0.017133889188504271 -0.35812125337767181 0 0.027110454296001198 -0.33768855205052728 0 0.035381314255444107 -0.35489808650021171 0 0.017133889188504271 -0.35812125337767181 0 0.027110454296001198 -0.33768855205052728 0 -0.002490395708879795 -0.36117497802836229 0 0.017133889188504271 -0.35812125337767181 0 0.0039484790034304256 -0.34229917506297192 0 0.0071573240810073246 -0.3785539547048164 0 0.017133889188504271 -0.35812125337767181 0 -0.002490395708879795 -0.36117497802836229 0 0.0071573240810073246 -0.3785539547048164 0 0.017133889188504271 -0.35812125337767181 0 0.037087019403498227 -0.31725585072338269 0 0.01235625904661445 -0.32349751453283321 0 0.037087019403498227 -0.31725585072338269 0 0.027110454296001198 -0.33768855205052728 0 0.01235625904661445 -0.32349751453283321 0 0.037087019403498227 -0.31725585072338269 0 0.01235625904661445 -0.32349751453283321 0 0.01692496503682319 -0.30204186996350008 0 -0.012374501310269291 -0.32973917834228328 0 0.0039484790034304256 -0.34229917506297192 0 0.01235625904661445 -0.32349751453283321 0 0.027110454296001198 -0.33768855205052728 0 0.0039484790034304256 -0.34229917506297192 0 0.01235625904661445 -0.32349751453283321 0 -0.00099669197394388351 -0.3087205103267594 0 0.01235625904661445 -0.32349751453283321 0 0.01692496503682319 -0.30204186996350008 0 -0.00099669197394388351 -0.3087205103267594 0 0.00095968447781457202 -0.28794634655103107 0 0.01692496503682319 -0.30204186996350008 0 0.00095968447781457202 -0.28794634655103107 0 0.01692496503682319 -0.30204186996350008 0 0.024042013305983111 -0.28121605078612488 0 0.01692496503682319 -0.30204186996350008 0 0.032881856915011887 -0.29808343358469502 0 0.024042013305983111 -0.28121605078612488 0 0.037087019403498227 -0.31725585072338269 0 0.01692496503682319 -0.30204186996350008 0 0.032881856915011887 -0.29808343358469502 0 0.037087019403498227 -0.31725585072338269 0 0.044697062519452047 -0.30166995152866571 0 0.057062094512235539 -0.31221444877705951 0 0.037087019403498227 -0.31725585072338269 0 0.044697062519452047 -0.30166995152866571 0 0.032881856915011887 -0.29808343358469502 0 0.037087019403498227 -0.31725585072338269 0 0.044697062519452047 -0.30166995152866571 0 0.032881856915011887 -0.29808343358469502 0 0.041658224309302903 -0.28823344492180158 0 0.024042013305983111 -0.28121605078612488 0 0.044697062519452047 -0.30166995152866571 0 0.041658224309302903 -0.28823344492180158 0 0.052307105635405977 -0.28608405233394862 0 0.044697062519452047 -0.30166995152866571 0 0.032881856915011887 -0.29808343358469502 0 0.041658224309302903 -0.28823344492180158 0 0.044697062519452047 -0.30166995152866571 0 0.052307105635405977 -0.28608405233394862 0 0.063962269155073526 -0.29746097868483767 0 0.063978833292972659 -0.27953136369815268 0 0.052307105635405977 -0.28608405233394862 0 0.044697062519452047 -0.30166995152866571 0 0.052307105635405977 -0.28608405233394862 0 0.054507132955541771 -0.29935735783112782 0 0.063962269155073526 -0.29746097868483767 0 0.052307105635405977 -0.28608405233394862 0 0.054507132955541771 -0.29935735783112782 0 0.063962269155073526 -0.29746097868483767 0 0.057062094512235539 -0.31221444877705951 0 0.054507132955541771 -0.29935735783112782 0 0.044697062519452047 -0.30166995152866571 0 0.057062094512235539 -0.31221444877705951 0 0.054507132955541771 -0.29935735783112782 0 0.06935354968618497 -0.25010479107439831 0 0.055505886997743607 -0.26916911799809973 0 0.06935354968618497 -0.25010479107439831 0 0.055505886997743607 -0.26916911799809973 0 0.056300946588371793 -0.2482343324371877 0 0.055505886997743607 -0.26916911799809973 0 0.04504688969510235 -0.25182052131303673 0 0.056300946588371793 -0.2482343324371877 0 0.041658224309302903 -0.28823344492180158 0 0.055505886997743607 -0.26916911799809973 0 0.063978833292972659 -0.27953136369815268 0 0.052307105635405977 -0.28608405233394862 0 0.055505886997743607 -0.26916911799809973 0 0.041658224309302903 -0.28823344492180158 0 0.052307105635405977 -0.28608405233394862 0 0.055505886997743607 -0.26916911799809973 0 0.041658224309302903 -0.28823344492180158 0 0.055505886997743607 -0.26916911799809973 0 0.03902902229524019 -0.27176229095027482 0 0.041658224309302903 -0.28823344492180158 0 0.03902902229524019 -0.27176229095027482 0 0.024042013305983111 -0.28121605078612488 0 0.055505886997743607 -0.26916911799809973 0 0.03902902229524019 -0.27176229095027482 0 0.04504688969510235 -0.25182052131303673 0 0.03902902229524019 -0.27176229095027482 0 0.04504688969510235 -0.25182052131303673 0 0.030122703941951479 -0.25765948591814131 0 0.030122703941951479 -0.25765948591814131 0 0.024042013305983111 -0.28121605078612488 0 0.0048410001038069238 -0.26607636639245469 0 0.03902902229524019 -0.27176229095027482 0 0.030122703941951479 -0.25765948591814131 0 0.024042013305983111 -0.28121605078612488 0 0.00095968447781457202 -0.28794634655103107 0 0.024042013305983111 -0.28121605078612488 0 0.0048410001038069238 -0.26607636639245469 0 0.030122703941951479 -0.25765948591814131 0 0.0048410001038069238 -0.26607636639245469 0 0.0096229953273914148 -0.2417426688876598 0 -0.010876713287168681 -0.22582585185717829 0 0.0096229953273914148 -0.2417426688876598 0 0.0095263734719681324 -0.22522742924394201 0 -0.010876713287168681 -0.22582585185717829 0 0.0095263734719681324 -0.22522742924394201 0 0.0051179138250316966 -0.20931114953373001 0 0.0095263734719681324 -0.22522742924394201 0 0.0301478975463246 -0.23654835524241619 0 0.024080308087842891 -0.2174206716923579 0 0.030122703941951479 -0.25765948591814131 0 0.0096229953273914148 -0.2417426688876598 0 0.0096229953273914148 -0.2417426688876598 0 0.0095263734719681324 -0.22522742924394201 0 0.0301478975463246 -0.23654835524241619 0 0.030122703941951479 -0.25765948591814131 0 0.0096229953273914148 -0.2417426688876598 0 0.0301478975463246 -0.23654835524241619 0 -5.7340653001114007e-05 -0.18571861917824961 0 0.0051179138250316966 -0.20931114953373001 0 0.01777728751628008 -0.1900686374663843 0 0.0095263734719681324 -0.22522742924394201 0 0.0051179138250316966 -0.20931114953373001 0 0.024080308087842891 -0.2174206716923579 0 0.0051179138250316966 -0.20931114953373001 0 0.024080308087842891 -0.2174206716923579 0 0.0051179138250316966 -0.20931114953373001 0 0.024080308087842891 -0.2174206716923579 0 0.01777728751628008 -0.1900686374663843 0 0.024080308087842891 -0.2174206716923579 0 0.01777728751628008 -0.1900686374663843 0 0.03454607069867123 -0.2026358671680217 0 0.01777728751628008 -0.1900686374663843 0 0.03454607069867123 -0.2026358671680217 0 0.040538679554516413 -0.18554167894658541 0 0.051271888083991177 -0.20959069747809941 0 0.040538679554516413 -0.18554167894658541 0 0.03454607069867123 -0.2026358671680217 0 0.051271888083991177 -0.20959069747809941 0 0.040538679554516413 -0.18554167894658541 0 0.03454607069867123 -0.2026358671680217 0 0.051271888083991177 -0.20959069747809941 0 0.04304270235065414 -0.22553019385098591 0 0.024080308087842891 -0.2174206716923579 0 0.03454607069867123 -0.2026358671680217 0 0.04304270235065414 -0.22553019385098591 0 0.051271888083991177 -0.20959069747809941 0 0.053869315491951328 -0.18733226605960071 0 0.040538679554516413 -0.18554167894658541 0 0.051271888083991177 -0.20959069747809941 0 0.065168013447249748 -0.1939207521623896 0 0.053869315491951328 -0.18733226605960071 0 0.04504688969510235 -0.25182052131303673 0 0.0301478975463246 -0.23654835524241619 0 0.048427695974577092 -0.23782379537235029 0 0.04504688969510235 -0.25182052131303673 0 0.030122703941951479 -0.25765948591814131 0 0.0301478975463246 -0.23654835524241619 0 0.0301478975463246 -0.23654835524241619 0 0.04304270235065414 -0.22553019385098591 0 0.048427695974577092 -0.23782379537235029 0 0.0301478975463246 -0.23654835524241619 0 0.024080308087842891 -0.2174206716923579 0 0.04304270235065414 -0.22553019385098591 0 0.024080308087842891 -0.2174206716923579 0 0.04304270235065414 -0.22553019385098591 0 0.04304270235065414 -0.22553019385098591 0 0.062005096613465503 -0.23363971600961361 0 0.048427695974577092 -0.23782379537235029 0 0.051271888083991177 -0.20959069747809941 0 0.04304270235065414 -0.22553019385098591 0 0.062005096613465503 -0.23363971600961361 0 0.051271888083991177 -0.20959069747809941 0 0.062005096613465503 -0.23363971600961361 0 0.069792463658948464 -0.21911263296938491 0 0.051271888083991177 -0.20959069747809941 0 0.062005096613465503 -0.23363971600961361 0 0.04304270235065414 -0.22553019385098591 0 0.062005096613465503 -0.23363971600961361 0 0.062005096613465503 -0.23363971600961361 0 0.048427695974577092 -0.23782379537235029 0 0.056300946588371793 -0.2482343324371877 0 0.04504688969510235 -0.25182052131303673 0 0.048427695974577092 -0.23782379537235029 0 0.056300946588371793 -0.2482343324371877 0 0.06935354968618497 -0.25010479107439831 0 0.062005096613465503 -0.23363971600961361 0 0.056300946588371793 -0.2482343324371877 0 0.06935354968618497 -0.25010479107439831 0 0.062005096613465503 -0.23363971600961361 0 0.076736916795678539 -0.239939976438165 0 0.06935354968618497 -0.25010479107439831 0 0.062005096613465503 -0.23363971600961361 0 0.062005096613465503 -0.23363971600961361 0 0.076736916795678539 -0.239939976438165 0 0.075141354202361899 -0.25034161192270421 0 0.080979785658451264 -0.2509150266257687 0 0.076736916795678539 -0.239939976438165 0 0.06935354968618497 -0.25010479107439831 0 0.076736916795678539 -0.239939976438165 0 0.06935354968618497 -0.25010479107439831 0 0.075141354202361899 -0.25034161192270421 0 0.076736916795678539 -0.239939976438165 0 0.076736916795678539 -0.239939976438165 0 0.089759607835018448 -0.24550930487237099 0 0.076736916795678539 -0.239939976438165 0 0.089759607835018448 -0.24550930487237099 0 0.095091034915211953 -0.23645963091930611 0 0.080979785658451264 -0.2509150266257687 0 0.076736916795678539 -0.239939976438165 0 0.089759607835018448 -0.24550930487237099 0 0.076736916795678539 -0.239939976438165 0 0.089605712678267765 -0.22222327309696591 0 0.095091034915211953 -0.23645963091930611 0 0.076736916795678539 -0.239939976438165 0 0.089605712678267765 -0.22222327309696591 0 0.075705256980276511 -0.2265996423390424 0 0.076736916795678539 -0.239939976438165 0 0.089605712678267765 -0.22222327309696591 0 0.089605712678267765 -0.22222327309696591 0 0.075705256980276511 -0.2265996423390424 0 0.080386095155022499 -0.2180826131810821 0 0.075705256980276511 -0.2265996423390424 0 0.069792463658948464 -0.21911263296938491 0 0.080386095155022499 -0.2180826131810821 0 0.062005096613465503 -0.23363971600961361 0 0.076736916795678539 -0.239939976438165 0 0.075705256980276511 -0.2265996423390424 0 0.062005096613465503 -0.23363971600961361 0 0.075705256980276511 -0.2265996423390424 0 0.069792463658948464 -0.21911263296938491 0 0.051271888083991177 -0.20959069747809941 0 0.069792463658948464 -0.21911263296938491 0 0.076064209211064424 -0.20578195846933689 0 0.069792463658948464 -0.21911263296938491 0 0.076064209211064424 -0.20578195846933689 0 0.080386095155022499 -0.2180826131810821 0 0.076064209211064424 -0.20578195846933689 0 0.065168013447249748 -0.1939207521623896 0 0.081290955049897265 -0.18971522482454189 0 0.051271888083991177 -0.20959069747809941 0 0.076064209211064424 -0.20578195846933689 0 0.065168013447249748 -0.1939207521623896 0 0.081290955049897265 -0.18971522482454189 0 0.09923821070045058 -0.2022468356687139 0 0.081290955049897265 -0.18971522482454189 0 0.086433020888780937 -0.20301307251770451 0 0.09923821070045058 -0.2022468356687139 0 0.081290955049897265 -0.18971522482454189 0 0.09923821070045058 -0.2022468356687139 0 0.098934405536257292 -0.1829482209817499 0 0.076064209211064424 -0.20578195846933689 0 0.081290955049897265 -0.18971522482454189 0 0.086433020888780937 -0.20301307251770451 0 0.089605712678267765 -0.22222327309696591 0 0.089138708593712132 -0.21430827110822459 0 0.1024745085608578 -0.20450656975576731 0 0.076064209211064424 -0.20578195846933689 0 0.080386095155022499 -0.2180826131810821 0 0.089138708593712132 -0.21430827110822459 0 0.076064209211064424 -0.20578195846933689 0 0.086433020888780937 -0.20301307251770451 0 0.089138708593712132 -0.21430827110822459 0 0.086433020888780937 -0.20301307251770451 0 0.089138708593712132 -0.21430827110822459 0 0.09923821070045058 -0.2022468356687139 0 0.089605712678267765 -0.22222327309696591 0 0.080386095155022499 -0.2180826131810821 0 0.089138708593712132 -0.21430827110822459 0 0.089605712678267765 -0.22222327309696591 0 0.1024745085608578 -0.20450656975576731 0 0.089605712678267765 -0.22222327309696591 0 0.1024745085608578 -0.20450656975576731 0 0.1044798504217531 -0.2161774952244617 0 0.089138708593712132 -0.21430827110822459 0 0.1024745085608578 -0.20450656975576731 0 0.09923821070045058 -0.2022468356687139 0 0.089138708593712132 -0.21430827110822459 0 0.09923821070045058 -0.2022468356687139 0 0.1024745085608578 -0.20450656975576731 0 0.09923821070045058 -0.2022468356687139 0 0.1024745085608578 -0.20450656975576731 0 0.1077039781262656 -0.2081580292764309 0 0.1044798504217531 -0.2161774952244617 0 0.1024745085608578 -0.20450656975576731 0 0.1077039781262656 -0.2081580292764309 0 0.1153419320006286 -0.20237281755321981 0 0.1024745085608578 -0.20450656975576731 0 0.1077039781262656 -0.2081580292764309 0 0.1077039781262656 -0.2081580292764309 0 0.1044798504217531 -0.2161774952244617 0 0.1146851416243108 -0.21328604395880199 0 0.09923821070045058 -0.2022468356687139 0 0.11764030132843969 -0.18026994752950279 0 0.1024745085608578 -0.20450656975576731 0 0.09923821070045058 -0.2022468356687139 0 0.11764030132843969 -0.18026994752950279 0 0.09923821070045058 -0.2022468356687139 0 0.11764030132843969 -0.18026994752950279 0 0.098934405536257292 -0.1829482209817499 0 0.1153419320006286 -0.20237281755321981 0 0.1192584502586433 -0.18139981457302959 0 0.12518869747691971 -0.1970947524398107 0 0.1024745085608578 -0.20450656975576731 0 0.1192584502586433 -0.18139981457302959 0 0.11764030132843969 -0.18026994752950279 0 0.1024745085608578 -0.20450656975576731 0 0.1192584502586433 -0.18139981457302959 0 0.1024745085608578 -0.20450656975576731 0 0.1153419320006286 -0.20237281755321981 0 0.1192584502586433 -0.18139981457302959 0 0.1153419320006286 -0.20237281755321981 0 0.1246801754173678 -0.20908561605720799 0 0.12518869747691971 -0.1970947524398107 0 0.1044798504217531 -0.2161774952244617 0 0.1146851416243108 -0.21328604395880199 0 0.1113524548978769 -0.22355102766004109 0 0.1077039781262656 -0.2081580292764309 0 0.1153419320006286 -0.20237281755321981 0 0.1146851416243108 -0.21328604395880199 0 0.1153419320006286 -0.20237281755321981 0 0.1146851416243108 -0.21328604395880199 0 0.1246801754173678 -0.20908561605720799 0 0.1146851416243108 -0.21328604395880199 0 0.1246801754173678 -0.20908561605720799 0 0.1242406923374533 -0.22077828949577141 0 0.1242406923374533 -0.22077828949577141 0 0.1176448253277322 -0.22987447598736729 0 0.12647501325493751 -0.24071415537261021 0 0.1242406923374533 -0.22077828949577141 0 0.1113524548978769 -0.22355102766004109 0 0.1176448253277322 -0.22987447598736729 0 0.1146851416243108 -0.21328604395880199 0 0.1242406923374533 -0.22077828949577141 0 0.1113524548978769 -0.22355102766004109 0 0.1113524548978769 -0.22355102766004109 0 0.1176448253277322 -0.22987447598736729 0 0.10816875371488061 -0.2347731164762859 0 0.10816875371488061 -0.2347731164762859 0 0.10502222179617909 -0.24976688139034459 0 0.12647501325493751 -0.24071415537261021 0 0.1176448253277322 -0.22987447598736729 0 0.10816875371488061 -0.2347731164762859 0 0.12647501325493751 -0.24071415537261021 0 0.10816875371488061 -0.2347731164762859 0 0.10502222179617909 -0.24976688139034459 0 0.095091034915211953 -0.23645963091930611 0 0.089759607835018448 -0.24550930487237099 0 0.10502222179617909 -0.24976688139034459 0 0.095091034915211953 -0.23645963091930611 0 0.10816875371488061 -0.2347731164762859 0 0.095091034915211953 -0.23645963091930611 0 0.1012529966712483 -0.22654523324170539 0 0.089605712678267765 -0.22222327309696591 0 0.095091034915211953 -0.23645963091930611 0 0.1012529966712483 -0.22654523324170539 0 0.089605712678267765 -0.22222327309696591 0 0.1044798504217531 -0.2161774952244617 0 0.1012529966712483 -0.22654523324170539 0 0.1044798504217531 -0.2161774952244617 0 0.1113524548978769 -0.22355102766004109 0 0.1012529966712483 -0.22654523324170539 0 0.1113524548978769 -0.22355102766004109 0 0.10816875371488061 -0.2347731164762859 0 0.1012529966712483 -0.22654523324170539 0 0.1066066963767399 -0.1560013930198097 0 0.088955415333706836 -0.15261765417286999 0 0.092168358092496572 -0.13644063557570391 0 0.1066066963767399 -0.1560013930198097 0 0.1084127028583548 -0.12533687496356241 0 0.092168358092496572 -0.13644063557570391 0 0.1084127028583548 -0.12533687496356241 0 0.092168358092496572 -0.13644063557570391 0 0.088621741028487425 -0.1170862111718346 0 0.1084127028583548 -0.12533687496356241 0 0.1211969328539569 -0.14532151129590021 0 0.1282036646882222 -0.1335875387552902 0 0.1084127028583548 -0.12533687496356241 0 0.1301035997378964 -0.1214645167163456 0 0.1282036646882222 -0.1335875387552902 0 0.1084127028583548 -0.12533687496356241 0 0.1282036646882222 -0.1335875387552902 0 0.1066066963767399 -0.1560013930198097 0 0.1211969328539569 -0.14532151129590021 0 0.13604239195642881 -0.1582930593902917 0 0.1066066963767399 -0.1560013930198097 0 0.1084127028583548 -0.12533687496356241 0 0.1211969328539569 -0.14532151129590021 0 0.1066066963767399 -0.1560013930198097 0 0.11764030132843969 -0.18026994752950279 0 0.13604239195642881 -0.1582930593902917 0 0.1192584502586433 -0.18139981457302959 0 0.11764030132843969 -0.18026994752950279 0 0.13604239195642881 -0.1582930593902917 0 0.1066066963767399 -0.1560013930198097 0 0.11764030132843969 -0.18026994752950279 0 0.098934405536257292 -0.1829482209817499 0 0.1066066963767399 -0.1560013930198097 0 0.086233222385870389 -0.16920365126638909 0 0.088955415333706836 -0.15261765417286999 0 0.1066066963767399 -0.1560013930198097 0 0.098934405536257292 -0.1829482209817499 0 0.086233222385870389 -0.16920365126638909 0 0.086233222385870389 -0.16920365126638909 0 0.07195232853571587 -0.16192824045993989 0 0.088955415333706836 -0.15261765417286999 0 0.081290955049897265 -0.18971522482454189 0 0.098934405536257292 -0.1829482209817499 0 0.086233222385870389 -0.16920365126638909 0 0.081290955049897265 -0.18971522482454189 0 0.086233222385870389 -0.16920365126638909 0 0.063343699399344505 -0.177183613980369 0 0.081290955049897265 -0.18971522482454189 0 0.063343699399344505 -0.177183613980369 0 0.065168013447249748 -0.1939207521623896 0 0.081290955049897265 -0.18971522482454189 0 0.063343699399344505 -0.177183613980369 0 0.063343699399344505 -0.177183613980369 0 0.07195232853571587 -0.16192824045993989 0 0.058202312305617662 -0.15259452637310769 0 0.086233222385870389 -0.16920365126638909 0 0.063343699399344505 -0.177183613980369 0 0.07195232853571587 -0.16192824045993989 0 0.07195232853571587 -0.16192824045993989 0 0.075647201257177665 -0.14712818035580241 0 0.058202312305617662 -0.15259452637310769 0 0.075647201257177665 -0.14712818035580241 0 0.058202312305617662 -0.15259452637310769 0 0.075647201257177665 -0.14712818035580241 0 0.064089502321738628 -0.14081313376006399 0 0.058202312305617662 -0.15259452637310769 0 0.07195232853571587 -0.16192824045993989 0 0.075647201257177665 -0.14712818035580241 0 0.088955415333706836 -0.15261765417286999 0 0.075647201257177665 -0.14712818035580241 0 0.088955415333706836 -0.15261765417286999 0 0.092168358092496572 -0.13644063557570391 0 0.075647201257177665 -0.14712818035580241 0 0.092168358092496572 -0.13644063557570391 0 0.075175055075759833 -0.13079505837176039 0 0.092168358092496572 -0.13644063557570391 0 0.075175055075759833 -0.13079505837176039 0 0.088621741028487425 -0.1170862111718346 0 0.075647201257177665 -0.14712818035580241 0 0.064089502321738628 -0.14081313376006399 0 0.075175055075759833 -0.13079505837176039 0 0.064089502321738628 -0.14081313376006399 0 0.075175055075759833 -0.13079505837176039 0 0.060151367922528343 -0.1282452653790557 0 0.064089502321738628 -0.14081313376006399 0 0.060151367922528343 -0.1282452653790557 0 0.045187077728504027 -0.14162800924632171 0 0.060151367922528343 -0.1282452653790557 0 0.045187077728504027 -0.14162800924632171 0 0.045706544736458937 -0.1264574996773114 0 0.058202312305617662 -0.15259452637310769 0 0.040757423354057389 -0.15806087239041211 0 0.064089502321738628 -0.14081313376006399 0 0.058202312305617662 -0.15259452637310769 0 0.045187077728504027 -0.14162800924632171 0 0.058202312305617662 -0.15259452637310769 0 0.045187077728504027 -0.14162800924632171 0 0.040757423354057389 -0.15806087239041211 0 0.040757423354057389 -0.15806087239041211 0 0.028223335228012469 -0.14025241142486289 0 0.040757423354057389 -0.15806087239041211 0 0.037443896849375297 -0.1590991640334469 0 0.028223335228012469 -0.14025241142486289 0 0.045187077728504027 -0.14162800924632171 0 0.040757423354057389 -0.15806087239041211 0 0.028223335228012469 -0.14025241142486289 0 0.045187077728504027 -0.14162800924632171 0 0.033400244218237923 -0.12706864591646369 0 0.028223335228012469 -0.14025241142486289 0 0.045187077728504027 -0.14162800924632171 0 0.033400244218237923 -0.12706864591646369 0 0.045706544736458937 -0.1264574996773114 0 0.065168013447249748 -0.1939207521623896 0 0.063343699399344505 -0.177183613980369 0 0.053869315491951328 -0.18733226605960071 0 0.063343699399344505 -0.177183613980369 0 0.053869315491951328 -0.18733226605960071 0 0.049602028147084122 -0.17062730703075341 0 0.053869315491951328 -0.18733226605960071 0 0.049602028147084122 -0.17062730703075341 0 0.040538679554516413 -0.18554167894658541 0 0.063343699399344505 -0.177183613980369 0 0.058202312305617662 -0.15259452637310769 0 0.045396443748791933 -0.16465200313619591 0 0.058202312305617662 -0.15259452637310769 0 0.040757423354057389 -0.15806087239041211 0 0.045396443748791933 -0.16465200313619591 0 0.063343699399344505 -0.177183613980369 0 0.045396443748791933 -0.16465200313619591 0 0.063343699399344505 -0.177183613980369 0 0.049602028147084122 -0.17062730703075341 0 0.045396443748791933 -0.16465200313619591 0 0.049602028147084122 -0.17062730703075341 0 0.045396443748791933 -0.16465200313619591 0 0.045396443748791933 -0.16465200313619591 0 0.040538679554516413 -0.18554167894658541 0 0.029805471025041792 -0.16149266041507129 0 0.040757423354057389 -0.15806087239041211 0 0.037443896849375297 -0.1590991640334469 0 0.045396443748791933 -0.16465200313619591 0 0.037443896849375297 -0.1590991640334469 0 0.045396443748791933 -0.16465200313619591 0 0.040757423354057389 -0.15806087239041211 0 0.045396443748791933 -0.16465200313619591 0 0.040757423354057389 -0.15806087239041211 0 0.037443896849375297 -0.1590991640334469 0 0.037443896849375297 -0.1590991640334469 0 0.045396443748791933 -0.16465200313619591 0 0.029805471025041792 -0.16149266041507129 0 0.037443896849375297 -0.1590991640334469 0 0.029805471025041792 -0.16149266041507129 0 0.02886196179484548 -0.15937861679993701 0 0.037443896849375297 -0.1590991640334469 0 0.029805471025041792 -0.16149266041507129 0 0.049602028147084122 -0.17062730703075341 0 0.045396443748791933 -0.16465200313619591 0 0.040538679554516413 -0.18554167894658541 0 0.040538679554516413 -0.18554167894658541 0 0.029805471025041792 -0.16149266041507129 0 0.040538679554516413 -0.18554167894658541 0 0.02355294882915001 -0.17650668866170871 0 0.029805471025041792 -0.16149266041507129 0 0.01777728751628008 -0.1900686374663843 0 0.040538679554516413 -0.18554167894658541 0 0.02355294882915001 -0.17650668866170871 0 0.01777728751628008 -0.1900686374663843 0 0.02355294882915001 -0.17650668866170871 0 0.0060903572207618986 -0.1689237778187937 0 0.029805471025041792 -0.16149266041507129 0 0.0060903572207618986 -0.1689237778187937 0 0.029805471025041792 -0.16149266041507129 0 0.02886196179484548 -0.15937861679993701 0 0.0060903572207618986 -0.1689237778187937 0 0.02355294882915001 -0.17650668866170871 0 0.029805471025041792 -0.16149266041507129 0 0.0060903572207618986 -0.1689237778187937 0 0.029805471025041792 -0.16149266041507129 0 0.02886196179484548 -0.15937861679993701 0 0.02886196179484548 -0.15937861679993701 0 0.0060903572207618986 -0.1689237778187937 0 0.0079424845942499232 -0.15244881847954789 0 -0.010502669693092969 -0.15277666781688409 0 0.0060903572207618986 -0.1689237778187937 0 0.0079424845942499232 -0.15244881847954789 0 -5.7340653001114007e-05 -0.18571861917824961 0 0.01777728751628008 -0.1900686374663843 0 0.0060903572207618986 -0.1689237778187937 0 0.033400244218237923 -0.12706864591646369 0 0.028223335228012469 -0.14025241142486289 0 0.01568924710196519 -0.12244395045931521 0 0.028223335228012469 -0.14025241142486289 0 0.01568924710196519 -0.12244395045931521 0 0.028223335228012469 -0.14025241142486289 0 0.014693798201897101 -0.14015148119107709 0 0.01568924710196519 -0.12244395045931521 0 0.02886196179484548 -0.15937861679993701 0 0.021205889663268331 -0.14776103017591749 0 0.0079424845942499232 -0.15244881847954789 0 0.037443896849375297 -0.1590991640334469 0 0.02886196179484548 -0.15937861679993701 0 0.021205889663268331 -0.14776103017591749 0 0.037443896849375297 -0.1590991640334469 0 0.028223335228012469 -0.14025241142486289 0 0.021205889663268331 -0.14776103017591749 0 0.037443896849375297 -0.1590991640334469 0 0.021205889663268331 -0.14776103017591749 0 0.028223335228012469 -0.14025241142486289 0 0.021205889663268331 -0.14776103017591749 0 0.014693798201897101 -0.14015148119107709 0 0.021205889663268331 -0.14776103017591749 0 0.0079424845942499232 -0.15244881847954789 0 0.014693798201897101 -0.14015148119107709 0 0.0079424845942499232 -0.15244881847954789 0 0.001792487512032919 -0.13702172144501751 0 0.014693798201897101 -0.14015148119107709 0 0.001792487512032919 -0.13702172144501751 0 0.014693798201897101 -0.14015148119107709 0 0.01568924710196519 -0.12244395045931521 0 -0.0047205678392477426 -0.12093393385180171 0 0.001792487512032919 -0.13702172144501751 0 0.01568924710196519 -0.12244395045931521 0 0.01568924710196519 -0.12244395045931521 0 0.020574227538559281 -0.1030577688924096 0 0.0031551589759171821 -0.10463548949376809 0 0.01568924710196519 -0.12244395045931521 0 0.0031551589759171821 -0.10463548949376809 0 -0.0047205678392477426 -0.12093393385180171 0 0.01568924710196519 -0.12244395045931521 0 0.0031551589759171821 -0.10463548949376809 0 0.033400244218237923 -0.12706864591646369 0 0.01568924710196519 -0.12244395045931521 0 0.027207047282475309 -0.11447754899526059 0 0.01568924710196519 -0.12244395045931521 0 0.027207047282475309 -0.11447754899526059 0 0.020574227538559281 -0.1030577688924096 0 0.027207047282475309 -0.11447754899526059 0 0.020574227538559281 -0.1030577688924096 0 0.037993296101201238 -0.1014800482910496 0 0.020574227538559281 -0.1030577688924096 0 0.026494844306596581 -0.088986475253023695 0 0.037993296101201238 -0.1014800482910496 0 0.020574227538559281 -0.1030577688924096 0 0.037993296101201238 -0.1014800482910496 0 0.020574227538559281 -0.1030577688924096 0 0.0075821068109006521 -0.096728999931004589 0 0.01401967087468102 -0.08885357624306453 0 0.020574227538559281 -0.1030577688924096 0 0.0031551589759171821 -0.10463548949376809 0 0.020574227538559281 -0.1030577688924096 0 0.0031551589759171821 -0.10463548949376809 0 0.0075821068109006521 -0.096728999931004589 0 -0.00087162142712868609 -0.098914230723018651 0 0.0031551589759171821 -0.10463548949376809 0 -0.00087162142712868609 -0.098914230723018651 0 0.0031551589759171821 -0.10463548949376809 0 0.0075821068109006521 -0.096728999931004589 0 -0.00087162142712868609 -0.098914230723018651 0 0.0075821068109006521 -0.096728999931004589 0 0.001033098092474416 -0.088183934302761627 0 -0.0084861465490325798 -0.079153840751582771 0 0.001033098092474416 -0.088183934302761627 0 0.0075159774620815563 -0.076024487720319611 0 0.0075821068109006521 -0.096728999931004589 0 0.001033098092474416 -0.088183934302761627 0 0.01401967087468102 -0.08885357624306453 0 0.001033098092474416 -0.088183934302761627 0 0.01401967087468102 -0.08885357624306453 0 0.0075159774620815563 -0.076024487720319611 0 0.01401967087468102 -0.08885357624306453 0 0.0075159774620815563 -0.076024487720319611 0 0.021413065670189059 -0.078645907617468702 0 0.0075159774620815563 -0.076024487720319611 0 0.02179567729469413 -0.067813135933952398 0 0.0096219929077403735 -0.059432917446110303 0 -0.0024740827135137089 -0.066048241574000729 0 0.0075159774620815563 -0.076024487720319611 0 0.0096219929077403735 -0.059432917446110303 0 0.02179567729469413 -0.067813135933952398 0 0.021413065670189059 -0.078645907617468702 0 0.037239158412891979 -0.071551862936983263 0 0.02179567729469413 -0.067813135933952398 0 0.037239158412891979 -0.071551862936983263 0 0.02310435080532533 -0.051769483945397099 0 0.0075159774620815563 -0.076024487720319611 0 0.02179567729469413 -0.067813135933952398 0 0.021413065670189059 -0.078645907617468702 0 0.021413065670189059 -0.078645907617468702 0 0.026494844306596581 -0.088986475253023695 0 0.037239158412891979 -0.071551862936983263 0 0.020574227538559281 -0.1030577688924096 0 0.01401967087468102 -0.08885357624306453 0 0.026494844306596581 -0.088986475253023695 0 0.01401967087468102 -0.08885357624306453 0 0.021413065670189059 -0.078645907617468702 0 0.026494844306596581 -0.088986475253023695 0 0.026494844306596581 -0.088986475253023695 0 0.037239158412891979 -0.071551862936983263 0 0.037993296101201238 -0.1014800482910496 0 0.037239158412891979 -0.071551862936983263 0 0.050758177267417152 -0.086184801563630647 0 0.037993296101201238 -0.1014800482910496 0 0.037239158412891979 -0.071551862936983263 0 0.037993296101201238 -0.1014800482910496 0 0.037239158412891979 -0.071551862936983263 0 0.050758177267417152 -0.086184801563630647 0 0.053348100153022202 -0.05769023986447297 0 0.050758177267417152 -0.086184801563630647 0 0.053348100153022202 -0.05769023986447297 0 0.070151567486094177 -0.077365277539874461 0 0.050758177267417152 -0.086184801563630647 0 0.066063492354589207 -0.098937608851542541 0 0.070151567486094177 -0.077365277539874461 0 0.053249874209702418 -0.1148241659722358 0 0.037993296101201238 -0.1014800482910496 0 0.066063492354589207 -0.098937608851542541 0 0.050758177267417152 -0.086184801563630647 0 0.037993296101201238 -0.1014800482910496 0 0.066063492354589207 -0.098937608851542541 0 0.037993296101201238 -0.1014800482910496 0 0.066063492354589207 -0.098937608851542541 0 0.060151367922528343 -0.1282452653790557 0 0.053249874209702418 -0.1148241659722358 0 0.072899203199840695 -0.1143805798597439 0 0.060151367922528343 -0.1282452653790557 0 0.045706544736458937 -0.1264574996773114 0 0.053249874209702418 -0.1148241659722358 0 0.027207047282475309 -0.11447754899526059 0 0.038388213232011602 -0.1171524556957107 0 0.037993296101201238 -0.1014800482910496 0 0.053249874209702418 -0.1148241659722358 0 0.038388213232011602 -0.1171524556957107 0 0.037993296101201238 -0.1014800482910496 0 0.033400244218237923 -0.12706864591646369 0 0.045706544736458937 -0.1264574996773114 0 0.038388213232011602 -0.1171524556957107 0 0.045706544736458937 -0.1264574996773114 0 0.053249874209702418 -0.1148241659722358 0 0.038388213232011602 -0.1171524556957107 0 0.033400244218237923 -0.12706864591646369 0 0.027207047282475309 -0.11447754899526059 0 0.038388213232011602 -0.1171524556957107 0 0.038388213232011602 -0.1171524556957107 0 0.037993296101201238 -0.1014800482910496 0 0.0114216298260333 0.016579660846854079 0 0.029042560596205781 -0.0039160125723961998 0 0.016445881501026369 -0.012814459394094471 0 0.029042560596205781 -0.0039160125723961998 0 0.025350149754928639 -0.0111069545102536 0 0.029042560596205781 -0.0039160125723961998 0 0.025350149754928639 -0.0111069545102536 0 0.033827302294350978 -0.0094813544104601511 0 0.029042560596205781 -0.0039160125723961998 0 0.025350149754928639 -0.0111069545102536 0 0.016445881501026369 -0.012814459394094471 0 0.025350149754928639 -0.0111069545102536 0 0.033827302294350978 -0.0094813544104601511 0 0.025350149754928639 -0.0111069545102536 0 0.016445881501026369 -0.012814459394094471 0 0.0114216298260333 0.016579660846854079 0 0.016445881501026369 -0.012814459394094471 0 0.01479436547087698 -0.013131158263312249 0 -0.0016637341516267971 -0.002949234294761292 0 0.0060726463263767599 -0.01438707961740017 0 0.01479436547087698 -0.013131158263312249 0 -0.004047477331530447 -0.016636231309710429 0 -0.0016637341516267971 -0.002949234294761292 0 0.0060726463263767599 -0.01438707961740017 0 0.0060726463263767599 -0.01438707961740017 0 0.01479436547087698 -0.013131158263312249 0 0.0097017567742483379 -0.01725998586504748 0 0.016445881501026369 -0.012814459394094471 0 0.01479436547087698 -0.013131158263312249 0 0.01282804353660257 -0.019175391367995571 0 0.016445881501026369 -0.012814459394094471 0 0.01479436547087698 -0.013131158263312249 0 0.01479436547087698 -0.013131158263312249 0 0.01282804353660257 -0.019175391367995571 0 0.0097017567742483379 -0.01725998586504748 0 0.01282804353660257 -0.019175391367995571 0 0.010843873638232551 -0.026333911582579281 0 0.01845070457236167 -0.024543571355957309 0 0.01282804353660257 -0.019175391367995571 0 0.0051119717631370387 -0.022346314211481949 0 0.010843873638232551 -0.026333911582579281 0 0.01282804353660257 -0.019175391367995571 0 0.0097017567742483379 -0.01725998586504748 0 0.0051119717631370387 -0.022346314211481949 0 0.0060726463263767599 -0.01438707961740017 0 0.0097017567742483379 -0.01725998586504748 0 0.0051119717631370387 -0.022346314211481949 0 -0.004047477331530447 -0.016636231309710429 0 0.0060726463263767599 -0.01438707961740017 0 0.0051119717631370387 -0.022346314211481949 0 0.0051119717631370387 -0.022346314211481949 0 0.010843873638232551 -0.026333911582579281 0 0.0034873442352273418 -0.033819840985324548 0 -0.004476297631638846 -0.026131926890842441 0 0.0051119717631370387 -0.022346314211481949 0 0.0034873442352273418 -0.033819840985324548 0 0.010843873638232551 -0.026333911582579281 0 0.01494625371548455 -0.031368462658458073 0 0.0034873442352273418 -0.033819840985324548 0 0.010843873638232551 -0.026333911582579281 0 0.01845070457236167 -0.024543571355957309 0 0.01494625371548455 -0.031368462658458073 0 0.01845070457236167 -0.024543571355957309 0 0.01494625371548455 -0.031368462658458073 0 0.016445881501026369 -0.012814459394094471 0 0.01282804353660257 -0.019175391367995571 0 0.01845070457236167 -0.024543571355957309 0 0.016445881501026369 -0.012814459394094471 0 0.01845070457236167 -0.024543571355957309 0 0.025350149754928639 -0.0111069545102536 0 0.01845070457236167 -0.024543571355957309 0 0.025350149754928639 -0.0111069545102536 0 0.016445881501026369 -0.012814459394094471 0 0.01845070457236167 -0.024543571355957309 0 0.025350149754928639 -0.0111069545102536 0 0.028526358833144558 -0.024590758272436439 0 0.035730883036275557 -0.01169549222885081 0 0.025350149754928639 -0.0111069545102536 0 0.01845070457236167 -0.024543571355957309 0 0.028526358833144558 -0.024590758272436439 0 0.01845070457236167 -0.024543571355957309 0 0.028526358833144558 -0.024590758272436439 0 0.02664160873385274 -0.035631872789177087 0 0.028526358833144558 -0.024590758272436439 0 0.02664160873385274 -0.035631872789177087 0 0.036485020724582803 -0.041623677582916928 0 0.02664160873385274 -0.035631872789177087 0 0.02310435080532533 -0.051769483945397099 0 0.036485020724582803 -0.041623677582916928 0 0.01845070457236167 -0.024543571355957309 0 0.02664160873385274 -0.035631872789177087 0 0.02310435080532533 -0.051769483945397099 0 0.01845070457236167 -0.024543571355957309 0 0.01494625371548455 -0.031368462658458073 0 0.02310435080532533 -0.051769483945397099 0 0.01845070457236167 -0.024543571355957309 0 0.02310435080532533 -0.051769483945397099 0 0.01494625371548455 -0.031368462658458073 0 0.01001501121106468 -0.04525298503009037 0 0.02310435080532533 -0.051769483945397099 0 -0.0016381569070474391 -0.049966506661174373 0 0.0034873442352273418 -0.033819840985324548 0 0.01001501121106468 -0.04525298503009037 0 0.01494625371548455 -0.031368462658458073 0 0.0034873442352273418 -0.033819840985324548 0 0.01001501121106468 -0.04525298503009037 0 -0.0016381569070474391 -0.049966506661174373 0 -0.0024740827135137089 -0.066048241574000729 0 0.0096219929077403735 -0.059432917446110303 0 0.01001501121106468 -0.04525298503009037 0 0.0096219929077403735 -0.059432917446110303 0 0.02310435080532533 -0.051769483945397099 0 -0.0016381569070474391 -0.049966506661174373 0 0.01001501121106468 -0.04525298503009037 0 0.0096219929077403735 -0.059432917446110303 0 0.02179567729469413 -0.067813135933952398 0 0.0096219929077403735 -0.059432917446110303 0 0.02310435080532533 -0.051769483945397099 0 0.037239158412891979 -0.071551862936983263 0 0.036485020724582803 -0.041623677582916928 0 0.037239158412891979 -0.071551862936983263 0 0.02310435080532533 -0.051769483945397099 0 0.036485020724582803 -0.041623677582916928 0 0.037239158412891979 -0.071551862936983263 0 0.053348100153022202 -0.05769023986447297 0 0.036485020724582803 -0.041623677582916928 0 0.053348100153022202 -0.05769023986447297 0 0.054605426376601193 -0.033649297126348413 0 0.073479969716924942 -0.055603102023847648 0 0.053348100153022202 -0.05769023986447297 0 0.054605426376601193 -0.033649297126348413 0 0.036485020724582803 -0.041623677582916928 0 0.054605426376601193 -0.033649297126348413 0 0.036485020724582803 -0.041623677582916928 0 0.035730883036275557 -0.01169549222885081 0 0.028526358833144558 -0.024590758272436439 0 0.036485020724582803 -0.041623677582916928 0 0.035730883036275557 -0.01169549222885081 0 0.036485020724582803 -0.041623677582916928 0 0.035730883036275557 -0.01169549222885081 0 0.054605426376601193 -0.033649297126348413 0 0.035730883036275557 -0.01169549222885081 0 0.054605426376601193 -0.033649297126348413 0 0.051738188413168899 -0.016921359104358231 0 0.077152140842315739 -0.021306646670069519 0 0.054605426376601193 -0.033649297126348413 0 0.051738188413168899 -0.016921359104358231 0 0.035730883036275557 -0.01169549222885081 0 0.060051642762946361 -0.0044525089007890492 0 0.035666204931526668 -0.0091287218140131271 0 0.051738188413168899 -0.016921359104358231 0 0.060051642762946361 -0.0044525089007890492 0 0.035666204931526668 -0.0091287218140131271 0 0.049526999433650652 0.0076288011374604676 0 0.060051642762946361 -0.0044525089007890492 0 0.035666204931526668 -0.0091287218140131271 0 0.051738188413168899 -0.016921359104358231 0 0.035730883036275557 -0.01169549222885081 0 0.035666204931526668 -0.0091287218140131271 0 0.035231158369571837 0.0081362343681430777 0 0.029042560596205781 -0.0039160125723961998 0 0.035666204931526668 -0.0091287218140131271 0 0.035231158369571837 0.0081362343681430777 0 0.035666204931526668 -0.0091287218140131271 0 0.025350149754928639 -0.0111069545102536 0 0.035730883036275557 -0.01169549222885081 0 0.033827302294350978 -0.0094813544104601511 0 0.035730883036275557 -0.01169549222885081 0 0.035666204931526668 -0.0091287218140131271 0 0.035666204931526668 -0.0091287218140131271 0 0.033827302294350978 -0.0094813544104601511 0 0.035730883036275557 -0.01169549222885081 0 0.033827302294350978 -0.0094813544104601511 0 0.035730883036275557 -0.01169549222885081 0 0.035666204931526668 -0.0091287218140131271 0 0.033827302294350978 -0.0094813544104601511 0 0.029042560596205781 -0.0039160125723961998 0 0.033827302294350978 -0.0094813544104601511 0 0.029042560596205781 -0.0039160125723961998 0 0.035666204931526668 -0.0091287218140131271 0 0.033827302294350978 -0.0094813544104601511 0 0.084437080594366276 0.00022370401243423409 0 0.077152140842315739 -0.021306646670069519 0 0.1037890227047604 -0.015775835526728552 0 0.084437080594366276 0.00022370401243423409 0 0.060051642762946361 -0.0044525089007890492 0 0.077152140842315739 -0.021306646670069519 0 0.084437080594366276 0.00022370401243423409 0 0.060051642762946361 -0.0044525089007890492 0 0.051738188413168899 -0.016921359104358231 0 0.060051642762946361 -0.0044525089007890492 0 0.077152140842315739 -0.021306646670069519 0 0.077152140842315739 -0.021306646670069519 0 0.081641697296998619 -0.040873138551797673 0 0.1020297719672123 -0.036029759873211872 0 0.054605426376601193 -0.033649297126348413 0 0.073479969716924942 -0.055603102023847648 0 0.054605426376601193 -0.033649297126348413 0 0.081641697296998619 -0.040873138551797673 0 0.073479969716924942 -0.055603102023847648 0 0.054605426376601193 -0.033649297126348413 0 0.077152140842315739 -0.021306646670069519 0 0.081641697296998619 -0.040873138551797673 0 0.081641697296998619 -0.040873138551797673 0 0.073479969716924942 -0.055603102023847648 0 0.10094117758193891 -0.057776887065510839 0 0.10094117758193891 -0.057776887065510839 0 0.11988213130785411 -0.046752510799267302 0 0.12499095335543089 -0.066839839868332723 0 0.11988213130785411 -0.046752510799267302 0 0.12003819415947931 -0.028092548612440749 0 0.13464634783310259 -0.036502810727865848 0 0.11988213130785411 -0.046752510799267302 0 0.1020297719672123 -0.036029759873211872 0 0.12003819415947931 -0.028092548612440749 0 0.081641697296998619 -0.040873138551797673 0 0.10094117758193891 -0.057776887065510839 0 0.1020297719672123 -0.036029759873211872 0 0.10094117758193891 -0.057776887065510839 0 0.11988213130785411 -0.046752510799267302 0 0.1020297719672123 -0.036029759873211872 0 0.077152140842315739 -0.021306646670069519 0 0.1020297719672123 -0.036029759873211872 0 0.1037890227047604 -0.015775835526728552 0 0.1020297719672123 -0.036029759873211872 0 0.1037890227047604 -0.015775835526728552 0 0.12003819415947931 -0.028092548612440749 0 0.1037890227047604 -0.015775835526728552 0 0.12003819415947931 -0.028092548612440749 0 0.12486439925096959 -0.01283452254075974 0 0.1088225184257862 0.0048999169256575097 0 0.12486439925096959 -0.01283452254075974 0 0.1251470615708736 -0.00050432347332847721 0 0.1088225184257862 0.0048999169256575097 0 0.1037890227047604 -0.015775835526728552 0 0.12486439925096959 -0.01283452254075974 0 0.084437080594366276 0.00022370401243423409 0 0.1088225184257862 0.0048999169256575097 0 0.1037890227047604 -0.015775835526728552 0 0.066063492354589207 -0.098937608851542541 0 0.080675815376477264 -0.08756374068119957 0 0.094133688607976995 -0.096395169412034382 0 0.088621741028487425 -0.1170862111718346 0 0.072899203199840695 -0.1143805798597439 0 0.094133688607976995 -0.096395169412034382 0 0.066063492354589207 -0.098937608851542541 0 0.094133688607976995 -0.096395169412034382 0 0.075175055075759833 -0.13079505837176039 0 0.088621741028487425 -0.1170862111718346 0 0.072899203199840695 -0.1143805798597439 0 0.075175055075759833 -0.13079505837176039 0 0.060151367922528343 -0.1282452653790557 0 0.072899203199840695 -0.1143805798597439 0 0.053249874209702418 -0.1148241659722358 0 0.072899203199840695 -0.1143805798597439 0 0.066063492354589207 -0.098937608851542541 0 0.072899203199840695 -0.1143805798597439 0 0.066063492354589207 -0.098937608851542541 0 0.094133688607976995 -0.096395169412034382 0 0.066063492354589207 -0.098937608851542541 0 0.070151567486094177 -0.077365277539874461 0 0.080675815376477264 -0.08756374068119957 0 0.053348100153022202 -0.05769023986447297 0 0.073479969716924942 -0.055603102023847648 0 0.070151567486094177 -0.077365277539874461 0 0.073479969716924942 -0.055603102023847648 0 0.10094117758193891 -0.057776887065510839 0 0.092354513057248691 -0.077556906921346896 0 0.073479969716924942 -0.055603102023847648 0 0.070151567486094177 -0.077365277539874461 0 0.092354513057248691 -0.077556906921346896 0 0.073479969716924942 -0.055603102023847648 0 0.092354513057248691 -0.077556906921346896 0 0.070151567486094177 -0.077365277539874461 0 0.092354513057248691 -0.077556906921346896 0 0.080675815376477264 -0.08756374068119957 0 0.092354513057248691 -0.077556906921346896 0 0.080675815376477264 -0.08756374068119957 0 0.094133688607976995 -0.096395169412034382 0 0.092354513057248691 -0.077556906921346896 0 0.1112290563975725 -0.099510711818846256 0 0.094133688607976995 -0.096395169412034382 0 0.092354513057248691 -0.077556906921346896 0 0.1118238332714178 -0.079617980384474457 0 0.1112290563975725 -0.099510711818846256 0 0.092354513057248691 -0.077556906921346896 0 0.1112290563975725 -0.099510711818846256 0 0.10094117758193891 -0.057776887065510839 0 0.092354513057248691 -0.077556906921346896 0 0.1118238332714178 -0.079617980384474457 0 0.10094117758193891 -0.057776887065510839 0 0.12499095335543089 -0.066839839868332723 0 0.1118238332714178 -0.079617980384474457 0 0.1118238332714178 -0.079617980384474457 0 0.1112290563975725 -0.099510711818846256 0 0.13381379307686889 -0.090249255438407727 0 0.12499095335543089 -0.066839839868332723 0 0.1118238332714178 -0.079617980384474457 0 0.13381379307686889 -0.090249255438407727 0 0.1112290563975725 -0.099510711818846256 0 0.1301035997378964 -0.1214645167163456 0 0.1288500436343773 -0.10548739684873019 0 0.1112290563975725 -0.099510711818846256 0 0.1288500436343773 -0.10548739684873019 0 0.13381379307686889 -0.090249255438407727 0 0.1112290563975725 -0.099510711818846256 0 0.094133688607976995 -0.096395169412034382 0 0.10059929722309791 -0.10958224184156939 0 0.088621741028487425 -0.1170862111718346 0 0.094133688607976995 -0.096395169412034382 0 0.10059929722309791 -0.10958224184156939 0 0.1084127028583548 -0.12533687496356241 0 0.1112290563975725 -0.099510711818846256 0 0.10059929722309791 -0.10958224184156939 0 0.1084127028583548 -0.12533687496356241 0 0.088621741028487425 -0.1170862111718346 0 0.1084127028583548 -0.12533687496356241 0 0.088621741028487425 -0.1170862111718346 0 0.10059929722309791 -0.10958224184156939 0 0.1112290563975725 -0.099510711818846256 0 0.1301035997378964 -0.1214645167163456 0 0.1084127028583548 -0.12533687496356241 0 0.1112290563975725 -0.099510711818846256 0 0.1301035997378964 -0.1214645167163456 0 0.1301035997378964 -0.1214645167163456 0 0.14263663279830691 -0.1136586710084828 0 0.1407277358159143 -0.1293399356073851 0 0.1301035997378964 -0.1214645167163456 0 0.14263663279830691 -0.1136586710084828 0 0.1288500436343773 -0.10548739684873019 0 0.14263663279830691 -0.1136586710084828 0 0.15309341538007859 -0.1216113587722765 0 0.1514594725197467 -0.13706808657855721 0 0.14263663279830691 -0.1136586710084828 0 0.15309341538007859 -0.1216113587722765 0 0.1578257956947117 -0.11103043594490621 0 0.14263663279830691 -0.1136586710084828 0 0.1551771513008024 -0.095846369372108192 0 0.1578257956947117 -0.11103043594490621 0 0.14263663279830691 -0.1136586710084828 0 0.1551771513008024 -0.095846369372108192 0 0.13381379307686889 -0.090249255438407727 0 0.14263663279830691 -0.1136586710084828 0 0.13381379307686889 -0.090249255438407727 0 0.14263663279830691 -0.1136586710084828 0 0.1288500436343773 -0.10548739684873019 0 0.13381379307686889 -0.090249255438407727 0 0.12499095335543089 -0.066839839868332723 0 0.13381379307686889 -0.090249255438407727 0 0.12499095335543089 -0.066839839868332723 0 0.13381379307686889 -0.090249255438407727 0 0.14812817778713591 -0.070604667468968083 0 0.12499095335543089 -0.066839839868332723 0 0.14812817778713591 -0.070604667468968083 0 0.1375352778143748 -0.05181557762484823 0 0.1551771513008024 -0.095846369372108192 0 0.14812817778713591 -0.070604667468968083 0 0.16484668869905339 -0.074464717785360166 0 0.1551771513008024 -0.095846369372108192 0 0.13381379307686889 -0.090249255438407727 0 0.14812817778713591 -0.070604667468968083 0 0.1551771513008024 -0.095846369372108192 0 0.16484668869905339 -0.074464717785360166 0 0.1746556769601752 -0.086092922184893741 0 0.14812817778713591 -0.070604667468968083 0 0.16484668869905339 -0.074464717785360166 0 0.168596718018234 -0.059721289813228287 0 0.16484668869905339 -0.074464717785360166 0 0.18362916583890251 -0.076444553597864354 0 0.168596718018234 -0.059721289813228287 0 0.18362916583890251 -0.076444553597864354 0 0.168596718018234 -0.059721289813228287 0 0.18908505994837119 -0.061752980542288803 0 0.18362916583890251 -0.076444553597864354 0 0.1746556769601752 -0.086092922184893741 0 0.18405901026331109 -0.09306632939108625 0 0.16484668869905339 -0.074464717785360166 0 0.18362916583890251 -0.076444553597864354 0 0.1746556769601752 -0.086092922184893741 0 0.1746556769601752 -0.086092922184893741 0 0.18405901026331109 -0.09306632939108625 0 0.17026871614332489 -0.1007276868906412 0 0.18405901026331109 -0.09306632939108625 0 0.18045061414559679 -0.10602166791509381 0 0.19311208281143491 -0.10542613841370049 0 0.18405901026331109 -0.09306632939108625 0 0.18045061414559679 -0.10602166791509381 0 0.17026871614332489 -0.1007276868906412 0 0.18045061414559679 -0.10602166791509381 0 0.1694440484953523 -0.11230839653575871 0 0.17026871614332489 -0.1007276868906412 0 0.18045061414559679 -0.10602166791509381 0 0.1839501003838396 -0.11820448533272671 0 0.19311208281143491 -0.10542613841370049 0 0.1839501003838396 -0.11820448533272671 0 0.19311208281143491 -0.10542613841370049 0 0.18488142327789919 -0.12624687198487691 0 0.1839501003838396 -0.11820448533272671 0 0.18488142327789919 -0.12624687198487691 0 0.1839501003838396 -0.11820448533272671 0 0.17412126317076421 -0.12227380262522029 0 0.18488142327789919 -0.12624687198487691 0 0.1839501003838396 -0.11820448533272671 0 0.17412126317076421 -0.12227380262522029 0 0.1694440484953523 -0.11230839653575871 0 0.18045061414559679 -0.10602166791509381 0 0.1839501003838396 -0.11820448533272671 0 0.1694440484953523 -0.11230839653575871 0 0.17412126317076421 -0.12227380262522029 0 0.1694440484953523 -0.11230839653575871 0 0.16045176050755089 -0.124688241557159 0 0.1694440484953523 -0.11230839653575871 0 0.16045176050755089 -0.124688241557159 0 0.15309341538007859 -0.1216113587722765 0 0.16045176050755089 -0.124688241557159 0 0.1578257956947117 -0.11103043594490621 0 0.1694440484953523 -0.11230839653575871 0 0.16045176050755089 -0.124688241557159 0 0.1578257956947117 -0.11103043594490621 0 0.1551771513008024 -0.095846369372108192 0 0.1746556769601752 -0.086092922184893741 0 0.17026871614332489 -0.1007276868906412 0 0.1551771513008024 -0.095846369372108192 0 0.1578257956947117 -0.11103043594490621 0 0.17026871614332489 -0.1007276868906412 0 0.1694440484953523 -0.11230839653575871 0 0.1578257956947117 -0.11103043594490621 0 0.17026871614332489 -0.1007276868906412 0 0.1397517678826096 0.010830987620639641 0 0.15552397108787841 -0.010267160165718081 0 0.14877752971119221 -0.0127142096578973 0 0.13320795625720591 0.0095761298388824297 0 0.14877752971119221 -0.0127142096578973 0 0.14877752971119221 -0.0127142096578973 0 0.1363824548019949 -0.012975518455053099 0 0.13686213803713171 -0.020957933759979439 0 0.13320795625720591 0.0095761298388824297 0 0.14877752971119221 -0.0127142096578973 0 0.1350257522086861 -0.0053954078615759448 0 0.12486439925096959 -0.01283452254075974 0 0.1350257522086861 -0.0053954078615759448 0 0.1251470615708736 -0.00050432347332847721 0 0.12486439925096959 -0.01283452254075974 0 0.1363824548019949 -0.012975518455053099 0 0.13686213803713171 -0.020957933759979439 0 0.12486439925096959 -0.01283452254075974 0 0.1350257522086861 -0.0053954078615759448 0 0.1363824548019949 -0.012975518455053099 0 0.14877752971119221 -0.0127142096578973 0 0.1350257522086861 -0.0053954078615759448 0 0.1363824548019949 -0.012975518455053099 0 0.12003819415947931 -0.028092548612440749 0 0.12486439925096959 -0.01283452254075974 0 0.13686213803713171 -0.020957933759979439 0 0.12003819415947931 -0.028092548612440749 0 0.13686213803713171 -0.020957933759979439 0 0.13464634783310259 -0.036502810727865848 0 0.13686213803713171 -0.020957933759979439 0 0.14864565010719699 -0.029389089618587619 0 0.13464634783310259 -0.036502810727865848 0 0.15552397108787841 -0.010267160165718081 0 0.14877752971119221 -0.0127142096578973 0 0.16434710316517531 -0.035004549154679369 0 0.14877752971119221 -0.0127142096578973 0 0.14864565010719699 -0.029389089618587619 0 0.16434710316517531 -0.035004549154679369 0 0.14877752971119221 -0.0127142096578973 0 0.13686213803713171 -0.020957933759979439 0 0.14864565010719699 -0.029389089618587619 0 0.14864565010719699 -0.029389089618587619 0 0.15482182200725639 -0.040069741346466792 0 0.16434710316517531 -0.035004549154679369 0 0.14864565010719699 -0.029389089618587619 0 0.15482182200725639 -0.040069741346466792 0 0.14542165912253999 -0.040903787389997379 0 0.15482182200725639 -0.040069741346466792 0 0.14542165912253999 -0.040903787389997379 0 0.1528255971096015 -0.051837981357097752 0 0.14864565010719699 -0.029389089618587619 0 0.14542165912253999 -0.040903787389997379 0 0.13464634783310259 -0.036502810727865848 0 0.11988213130785411 -0.046752510799267302 0 0.13464634783310259 -0.036502810727865848 0 0.1375352778143748 -0.05181557762484823 0 0.14542165912253999 -0.040903787389997379 0 0.13464634783310259 -0.036502810727865848 0 0.1375352778143748 -0.05181557762484823 0 0.11988213130785411 -0.046752510799267302 0 0.12499095335543089 -0.066839839868332723 0 0.1375352778143748 -0.05181557762484823 0 0.14812817778713591 -0.070604667468968083 0 0.1375352778143748 -0.05181557762484823 0 0.1528255971096015 -0.051837981357097752 0 0.14542165912253999 -0.040903787389997379 0 0.1375352778143748 -0.05181557762484823 0 0.1528255971096015 -0.051837981357097752 0 0.1528255971096015 -0.051837981357097752 0 0.168596718018234 -0.059721289813228287 0 0.16355230016118469 -0.045761431074411517 0 0.14812817778713591 -0.070604667468968083 0 0.1528255971096015 -0.051837981357097752 0 0.168596718018234 -0.059721289813228287 0 0.168596718018234 -0.059721289813228287 0 0.17452185020279501 -0.045978871991199807 0 0.16355230016118469 -0.045761431074411517 0 0.168596718018234 -0.059721289813228287 0 0.1873361225874732 -0.048757973752836498 0 0.17452185020279501 -0.045978871991199807 0 0.168596718018234 -0.059721289813228287 0 0.1873361225874732 -0.048757973752836498 0 0.18908505994837119 -0.061752980542288803 0 0.168596718018234 -0.059721289813228287 0 0.18908505994837119 -0.061752980542288803 0 0.18212618816592591 -0.038628178802628331 0 0.17129617429315161 -0.031365307952072582 0 0.19249483294514419 -0.029045206942180778 0 0.17452185020279501 -0.045978871991199807 0 0.18212618816592591 -0.038628178802628331 0 0.17116872319764651 -0.03934766779499832 0 0.1873361225874732 -0.048757973752836498 0 0.17452185020279501 -0.045978871991199807 0 0.18212618816592591 -0.038628178802628331 0 0.18212618816592591 -0.038628178802628331 0 0.17129617429315161 -0.031365307952072582 0 0.17116872319764651 -0.03934766779499832 0 0.17129617429315161 -0.031365307952072582 0 0.16434710316517531 -0.035004549154679369 0 0.17116872319764651 -0.03934766779499832 0 0.16434710316517531 -0.035004549154679369 0 0.17116872319764651 -0.03934766779499832 0 0.16355230016118469 -0.045761431074411517 0 0.17452185020279501 -0.045978871991199807 0 0.17116872319764651 -0.03934766779499832 0 0.16355230016118469 -0.045761431074411517 0 0.15482182200725639 -0.040069741346466792 0 0.16434710316517531 -0.035004549154679369 0 0.16355230016118469 -0.045761431074411517 0 0.15482182200725639 -0.040069741346466792 0 0.1528255971096015 -0.051837981357097752 0 0.16355230016118469 -0.045761431074411517 0 0.15552397108787841 -0.010267160165718081 0 0.17129617429315161 -0.031365307952072582 0 0.15552397108787841 -0.010267160165718081 0 0.17129617429315161 -0.031365307952072582 0 0.16833748644182361 -0.01596802623162092 0 0.15552397108787841 -0.010267160165718081 0 0.17129617429315161 -0.031365307952072582 0 0.16434710316517531 -0.035004549154679369 0 0.14877752971119221 -0.0127142096578973 0 0.16434710316517531 -0.035004549154679369 0 0.17129617429315161 -0.031365307952072582 0 0.16833748644182361 -0.01596802623162092 0 0.19249483294514419 -0.029045206942180778 0 0.16833748644182361 -0.01596802623162092 0 0.19249483294514419 -0.029045206942180778 0 0.16833748644182361 -0.01596802623162092 0 0.18332357284743481 -0.010167604778728591 0 0.19249483294514419 -0.029045206942180778 0 0.16833748644182361 -0.01596802623162092 0 0.18332357284743481 -0.010167604778728591 0 0.16864449832550751 -0.0016996597302522179 0 0.1882807964057244 0.0074352784142036506 0 0.18332357284743481 -0.010167604778728591 0 0.16864449832550751 -0.0016996597302522179 0 0.15552397108787841 -0.010267160165718081 0 0.16833748644182361 -0.01596802623162092 0 0.16864449832550751 -0.0016996597302522179 0 0.15703832168715839 0.0035974368737494611 0 0.15552397108787841 -0.010267160165718081 0 0.16864449832550751 -0.0016996597302522179 0 0.21232854335881091 -0.00065502294191741852 0 0.2150235866455453 -0.0048891783810504699 0 0.20986458600383279 -0.010806169372371241 0 0.21232854335881091 -0.00065502294191741852 0 0.2150235866455453 -0.0048891783810504699 0 0.2150235866455453 -0.0048891783810504699 0 0.20986458600383279 -0.010806169372371241 0 0.2157847965569526 -0.016561380961865619 0 0.20986458600383279 -0.010806169372371241 0 0.19886025011897451 -0.011560409403792689 0 0.20565013036354879 -0.019625923632939531 0 0.21232854335881091 -0.00065502294191741852 0 0.20986458600383279 -0.010806169372371241 0 0.19886025011897451 -0.011560409403792689 0 0.1882807964057244 0.0074352784142036506 0 0.18332357284743481 -0.010167604778728591 0 0.19886025011897451 -0.011560409403792689 0 0.1882807964057244 0.0074352784142036506 0 0.21232854335881091 -0.00065502294191741852 0 0.19886025011897451 -0.011560409403792689 0 0.19886025011897451 -0.011560409403792689 0 0.19249483294514419 -0.029045206942180778 0 0.20565013036354879 -0.019625923632939531 0 0.18332357284743481 -0.010167604778728591 0 0.19886025011897451 -0.011560409403792689 0 0.19249483294514419 -0.029045206942180778 0 0.19249483294514419 -0.029045206942180778 0 0.20789494024217511 -0.0286785884039094 0 0.20565013036354879 -0.019625923632939531 0 0.20789494024217511 -0.0286785884039094 0 0.2157847965569526 -0.016561380961865619 0 0.21665217944846571 -0.042122387652738798 0 0.2157847965569526 -0.016561380961865619 0 0.21665217944846571 -0.042122387652738798 0 0.2157847965569526 -0.016561380961865619 0 0.21665217944846571 -0.042122387652738798 0 0.2233264960140893 -0.031518794107058608 0 0.20789494024217511 -0.0286785884039094 0 0.20565013036354879 -0.019625923632939531 0 0.2157847965569526 -0.016561380961865619 0 0.20986458600383279 -0.010806169372371241 0 0.20565013036354879 -0.019625923632939531 0 0.2157847965569526 -0.016561380961865619 0 0.19249483294514419 -0.029045206942180778 0 0.21665217944846571 -0.042122387652738798 0 0.20434071259089939 -0.043308728310539883 0 0.19249483294514419 -0.029045206942180778 0 0.20789494024217511 -0.0286785884039094 0 0.21665217944846571 -0.042122387652738798 0 0.19249483294514419 -0.029045206942180778 0 0.21665217944846571 -0.042122387652738798 0 0.21665217944846571 -0.042122387652738798 0 0.20434071259089939 -0.043308728310539883 0 0.2150059700704513 -0.050042144992517933 0 0.19249483294514419 -0.029045206942180778 0 0.20434071259089939 -0.043308728310539883 0 0.1950743530843112 -0.042533901043980707 0 0.18212618816592591 -0.038628178802628331 0 0.19249483294514419 -0.029045206942180778 0 0.1950743530843112 -0.042533901043980707 0 0.1873361225874732 -0.048757973752836498 0 0.18212618816592591 -0.038628178802628331 0 0.1950743530843112 -0.042533901043980707 0 0.20434071259089939 -0.043308728310539883 0 0.1950743530843112 -0.042533901043980707 0 0.20247622740612431 -0.052800000921281162 0 0.20247622740612431 -0.052800000921281162 0 0.18908505994837119 -0.061752980542288803 0 0.20957340187850859 -0.063784671271348792 0 0.1873361225874732 -0.048757973752836498 0 0.1950743530843112 -0.042533901043980707 0 0.20247622740612431 -0.052800000921281162 0 0.1873361225874732 -0.048757973752836498 0 0.20247622740612431 -0.052800000921281162 0 0.18908505994837119 -0.061752980542288803 0 0.21665217944846571 -0.042122387652738798 0 0.22146978234022299 -0.056991370745811579 0 0.21741364606609589 -0.064562135425540776 0 0.21665217944846571 -0.042122387652738798 0 0.2150059700704513 -0.050042144992517933 0 0.21741364606609589 -0.064562135425540776 0 0.21665217944846571 -0.042122387652738798 0 0.21741364606609589 -0.064562135425540776 0 0.20247622740612431 -0.052800000921281162 0 0.2150059700704513 -0.050042144992517933 0 0.20957340187850859 -0.063784671271348792 0 0.20434071259089939 -0.043308728310539883 0 0.20247622740612431 -0.052800000921281162 0 0.2150059700704513 -0.050042144992517933 0 0.2150059700704513 -0.050042144992517933 0 0.20957340187850859 -0.063784671271348792 0 0.2150059700704513 -0.050042144992517933 0 0.20957340187850859 -0.063784671271348792 0 0.21741364606609589 -0.064562135425540776 0 0.21665217944846571 -0.042122387652738798 0 0.23616783631037419 -0.052686866306610403 0 0.21665217944846571 -0.042122387652738798 0 0.22499240316574021 -0.053953686441119607 0 0.23616783631037419 -0.052686866306610403 0 0.22146978234022299 -0.056991370745811579 0 0.22499240316574021 -0.053953686441119607 0 0.229733660613957 -0.059515677672598223 0 0.22146978234022299 -0.056991370745811579 0 0.229733660613957 -0.059515677672598223 0 0.21741364606609589 -0.064562135425540776 0 0.21665217944846571 -0.042122387652738798 0 0.22146978234022299 -0.056991370745811579 0 0.22499240316574021 -0.053953686441119607 0 0.229733660613957 -0.059515677672598223 0 0.2369261717793954 -0.059846633008410192 0 0.23616783631037419 -0.052686866306610403 0 0.22499240316574021 -0.053953686441119607 0 0.229733660613957 -0.059515677672598223 0 0.23616783631037419 -0.052686866306610403 0 0.25285255830909897 -0.041201041574646727 0 0.24290784975610091 -0.05770071003422466 0 0.24752958393788471 -0.066322914211265252 0 0.229733660613957 -0.059515677672598223 0 0.2369261717793954 -0.059846633008410192 0 0.2421906552545611 -0.067019104370792421 0 0.25285255830909897 -0.041201041574646727 0 0.24290784975610091 -0.05770071003422466 0 0.23616783631037419 -0.052686866306610403 0 0.2369261717793954 -0.059846633008410192 0 0.24290784975610091 -0.05770071003422466 0 0.2421906552545611 -0.067019104370792421 0 0.2369261717793954 -0.059846633008410192 0 0.24290784975610091 -0.05770071003422466 0 0.23616783631037419 -0.052686866306610403 0 0.23616783631037419 -0.052686866306610403 0 0.24040325828117259 -0.037452541757126603 0 0.2299952922027563 -0.038778602783819949 0 0.25285255830909897 -0.041201041574646727 0 0.23616783631037419 -0.052686866306610403 0 0.24040325828117259 -0.037452541757126603 0 0.25285255830909897 -0.041201041574646727 0 0.24040325828117259 -0.037452541757126603 0 0.2462810632475016 -0.0267022375416851 0 0.24040325828117259 -0.037452541757126603 0 0.2299952922027563 -0.038778602783819949 0 0.23333459047066449 -0.028418249355616279 0 0.21665217944846571 -0.042122387652738798 0 0.23616783631037419 -0.052686866306610403 0 0.2299952922027563 -0.038778602783819949 0 0.2299952922027563 -0.038778602783819949 0 0.2233264960140893 -0.031518794107058608 0 0.23333459047066449 -0.028418249355616279 0 0.21665217944846571 -0.042122387652738798 0 0.2299952922027563 -0.038778602783819949 0 0.2233264960140893 -0.031518794107058608 0 0.22494405490816799 -0.022386234292976429 0 0.23333459047066449 -0.028418249355616279 0 0.23525203801956171 -0.0083670959399735415 0 0.2157847965569526 -0.016561380961865619 0 0.22494405490816799 -0.022386234292976429 0 0.23525203801956171 -0.0083670959399735415 0 0.2157847965569526 -0.016561380961865619 0 0.2233264960140893 -0.031518794107058608 0 0.22494405490816799 -0.022386234292976429 0 0.2233264960140893 -0.031518794107058608 0 0.22494405490816799 -0.022386234292976429 0 0.23333459047066449 -0.028418249355616279 0 0.25817553268031312 -0.01607916893802816 0 0.2462810632475016 -0.0267022375416851 0 0.23525203801956171 -0.0083670959399735415 0 0.23333459047066449 -0.028418249355616279 0 0.2462810632475016 -0.0267022375416851 0 0.23525203801956171 -0.0083670959399735415 0 0.24040325828117259 -0.037452541757126603 0 0.23333459047066449 -0.028418249355616279 0 0.2462810632475016 -0.0267022375416851 0 0.25817553268031312 -0.01607916893802816 0 0.23525203801956171 -0.0083670959399735415 0 0.2150235866455453 -0.0048891783810504699 0 0.2157847965569526 -0.016561380961865619 0 0.23525203801956171 -0.0083670959399735415 0 0.21232854335881091 -0.00065502294191741852 0 0.23525203801956171 -0.0083670959399735415 0 0.21232854335881091 -0.00065502294191741852 0 0.2150235866455453 -0.0048891783810504699 0 0.23525203801956171 -0.0083670959399735415 0 0.2068908377677913 -0.1036088531852091 0 0.2184782463390566 -0.095934963926718658 0 0.2158162647056627 -0.1142621797889386 0 0.2068908377677913 -0.1036088531852091 0 0.2184782463390566 -0.095934963926718658 0 0.20134274234497079 -0.084605404842524323 0 0.2068908377677913 -0.1036088531852091 0 0.2158162647056627 -0.1142621797889386 0 0.2021050337538646 -0.1194886669798487 0 0.2158162647056627 -0.1142621797889386 0 0.2021050337538646 -0.1194886669798487 0 0.21254522213992541 -0.13197551267416369 0 0.19311208281143491 -0.10542613841370049 0 0.18488142327789919 -0.12624687198487691 0 0.2021050337538646 -0.1194886669798487 0 0.19311208281143491 -0.10542613841370049 0 0.18488142327789919 -0.12624687198487691 0 0.2068908377677913 -0.1036088531852091 0 0.2021050337538646 -0.1194886669798487 0 0.19311208281143491 -0.10542613841370049 0 0.18405901026331109 -0.09306632939108625 0 0.19311208281143491 -0.10542613841370049 0 0.20134274234497079 -0.084605404842524323 0 0.2068908377677913 -0.1036088531852091 0 0.19311208281143491 -0.10542613841370049 0 0.20134274234497079 -0.084605404842524323 0 0.19311208281143491 -0.10542613841370049 0 0.20134274234497079 -0.084605404842524323 0 0.18362916583890251 -0.076444553597864354 0 0.18405901026331109 -0.09306632939108625 0 0.20134274234497079 -0.084605404842524323 0 0.20134274234497079 -0.084605404842524323 0 0.19647404103838609 -0.071955208142372343 0 0.20957340187850859 -0.063784671271348792 0 0.18908505994837119 -0.061752980542288803 0 0.20957340187850859 -0.063784671271348792 0 0.18908505994837119 -0.061752980542288803 0 0.19647404103838609 -0.071955208142372343 0 0.20957340187850859 -0.063784671271348792 0 0.18362916583890251 -0.076444553597864354 0 0.20134274234497079 -0.084605404842524323 0 0.19647404103838609 -0.071955208142372343 0 0.18362916583890251 -0.076444553597864354 0 0.18908505994837119 -0.061752980542288803 0 0.19647404103838609 -0.071955208142372343 0 0.20134274234497079 -0.084605404842524323 0 0.20957340187850859 -0.063784671271348792 0 0.20134274234497079 -0.084605404842524323 0 0.20957340187850859 -0.063784671271348792 0 0.21266032760673509 -0.07257567234957768 0 0.21266032760673509 -0.07257567234957768 0 0.21741364606609589 -0.064562135425540776 0 0.21794594620257479 -0.080248549676129793 0 0.21741364606609589 -0.064562135425540776 0 0.21794594620257479 -0.080248549676129793 0 0.20957340187850859 -0.063784671271348792 0 0.21741364606609589 -0.064562135425540776 0 0.20957340187850859 -0.063784671271348792 0 0.21266032760673509 -0.07257567234957768 0 0.21741364606609589 -0.064562135425540776 0 0.2184782463390566 -0.095934963926718658 0 0.21794594620257479 -0.080248549676129793 0 0.2184782463390566 -0.095934963926718658 0 0.20134274234497079 -0.084605404842524323 0 0.21794594620257479 -0.080248549676129793 0 0.20134274234497079 -0.084605404842524323 0 0.21266032760673509 -0.07257567234957768 0 0.21794594620257479 -0.080248549676129793 0 0.2184782463390566 -0.095934963926718658 0 0.21794594620257479 -0.080248549676129793 0 0.23680260875837561 -0.084709294036524274 0 0.21794594620257479 -0.080248549676129793 0 0.23005316493024111 -0.073312919172136767 0 0.23680260875837561 -0.084709294036524274 0 0.229733660613957 -0.059515677672598223 0 0.21741364606609589 -0.064562135425540776 0 0.2421906552545611 -0.067019104370792421 0 0.21741364606609589 -0.064562135425540776 0 0.23005316493024111 -0.073312919172136767 0 0.2421906552545611 -0.067019104370792421 0 0.21741364606609589 -0.064562135425540776 0 0.2421906552545611 -0.067019104370792421 0 0.21741364606609589 -0.064562135425540776 0 0.21794594620257479 -0.080248549676129793 0 0.23005316493024111 -0.073312919172136767 0 0.23005316493024111 -0.073312919172136767 0 0.2381519615519741 -0.074760837536637856 0 0.2421906552545611 -0.067019104370792421 0 0.23005316493024111 -0.073312919172136767 0 0.2381519615519741 -0.074760837536637856 0 0.23680260875837561 -0.084709294036524274 0 0.2381519615519741 -0.074760837536637856 0 0.2451177390725571 -0.07563172919237493 0 0.2421906552545611 -0.067019104370792421 0 0.25149583211142079 -0.073284726092292446 0 0.2451177390725571 -0.07563172919237493 0 0.2421906552545611 -0.067019104370792421 0 0.252679373456828 -0.080748026421374769 0 0.25149583211142079 -0.073284726092292446 0 0.2451177390725571 -0.07563172919237493 0 0.24290784975610091 -0.05770071003422466 0 0.24752958393788471 -0.066322914211265252 0 0.2421906552545611 -0.067019104370792421 0 0.2555976831826946 -0.097776824926890368 0 0.252679373456828 -0.080748026421374769 0 0.23680260875837561 -0.084709294036524274 0 0.252679373456828 -0.080748026421374769 0 0.2451177390725571 -0.07563172919237493 0 0.23680260875837561 -0.084709294036524274 0 0.2381519615519741 -0.074760837536637856 0 0.2451177390725571 -0.07563172919237493 0 0.23680260875837561 -0.084709294036524274 0 0.2555976831826946 -0.097776824926890368 0 0.23680260875837561 -0.084709294036524274 0 0.23345556581474861 -0.107916322923488 0 0.2184782463390566 -0.095934963926718658 0 0.23680260875837561 -0.084709294036524274 0 0.23345556581474861 -0.107916322923488 0 0.2184782463390566 -0.095934963926718658 0 0.2158162647056627 -0.1142621797889386 0 0.23345556581474861 -0.107916322923488 0 0.2158162647056627 -0.1142621797889386 0 0.23345556581474861 -0.107916322923488 0 0.22801738394902449 -0.12931076613438211 0 0.23345556581474861 -0.107916322923488 0 0.24519980570365221 -0.12581360546915299 0 0.22801738394902449 -0.12931076613438211 0 0.2555976831826946 -0.097776824926890368 0 0.23345556581474861 -0.107916322923488 0 0.24519980570365221 -0.12581360546915299 0 0.24519980570365221 -0.12581360546915299 0 0.23480192822461099 -0.1538503860114161 0 0.24519980570365221 -0.12581360546915299 0 0.23480192822461099 -0.1538503860114161 0 0.22801738394902449 -0.12931076613438211 0 0.25466928141146888 -0.14527200608688259 0 0.24519980570365221 -0.12581360546915299 0 0.23480192822461099 -0.1538503860114161 0 0.25466928141146888 -0.14527200608688259 0 0.24719800764502139 -0.15526407084396271 0 0.23480192822461099 -0.1538503860114161 0 0.23480192822461099 -0.1538503860114161 0 0.22212692425896791 -0.1442586509438912 0 0.22801738394902449 -0.12931076613438211 0 0.23480192822461099 -0.1538503860114161 0 0.22212692425896791 -0.1442586509438912 0 0.22140433964611009 -0.15942157446682631 0 0.2158162647056627 -0.1142621797889386 0 0.22801738394902449 -0.12931076613438211 0 0.21254522213992541 -0.13197551267416369 0 0.22212692425896791 -0.1442586509438912 0 0.22801738394902449 -0.12931076613438211 0 0.21254522213992541 -0.13197551267416369 0 0.2021050337538646 -0.1194886669798487 0 0.21254522213992541 -0.13197551267416369 0 0.199384371820474 -0.1354124458322033 0 0.21254522213992541 -0.13197551267416369 0 0.20946913836945 -0.14221109048455319 0 0.199384371820474 -0.1354124458322033 0 0.22212692425896791 -0.1442586509438912 0 0.21254522213992541 -0.13197551267416369 0 0.20946913836945 -0.14221109048455319 0 0.22212692425896791 -0.1442586509438912 0 0.21242454082845941 -0.15139496578475639 0 0.20946913836945 -0.14221109048455319 0 0.22212692425896791 -0.1442586509438912 0 0.21242454082845941 -0.15139496578475639 0 0.22140433964611009 -0.15942157446682631 0 0.21242454082845941 -0.15139496578475639 0 0.20086463279942349 -0.14801387718775161 0 0.2053015306231786 -0.16147511706753581 0 0.20946913836945 -0.14221109048455319 0 0.20086463279942349 -0.14801387718775161 0 0.199384371820474 -0.1354124458322033 0 0.21242454082845941 -0.15139496578475639 0 0.20946913836945 -0.14221109048455319 0 0.20086463279942349 -0.14801387718775161 0 0.18919872160024701 -0.16352865966824401 0 0.1870400724390732 -0.14488776582656041 0 0.20086463279942349 -0.14801387718775161 0 0.199384371820474 -0.1354124458322033 0 0.1870400724390732 -0.14488776582656041 0 0.20086463279942349 -0.14801387718775161 0 0.18919872160024701 -0.16352865966824401 0 0.1870400724390732 -0.14488776582656041 0 0.2021050337538646 -0.1194886669798487 0 0.199384371820474 -0.1354124458322033 0 0.18488142327789919 -0.12624687198487691 0 0.199384371820474 -0.1354124458322033 0 0.18488142327789919 -0.12624687198487691 0 0.1870400724390732 -0.14488776582656041 0 0.19127061824665029 -0.18142040703099899 0 0.18919872160024701 -0.16352865966824401 0 0.19127061824665029 -0.18142040703099899 0 0.20153326013240361 -0.1732023233829928 0 0.20768137691429989 -0.1863235371576068 0 0.19127061824665029 -0.18142040703099899 0 0.20153326013240361 -0.1732023233829928 0 0.18919872160024701 -0.16352865966824401 0 0.20086463279942349 -0.14801387718775161 0 0.18919872160024701 -0.16352865966824401 0 0.2053015306231786 -0.16147511706753581 0 0.20153326013240361 -0.1732023233829928 0 0.18919872160024701 -0.16352865966824401 0 0.2053015306231786 -0.16147511706753581 0 0.18919872160024701 -0.16352865966824401 0 0.2053015306231786 -0.16147511706753581 0 0.20153326013240361 -0.1732023233829928 0 0.2053015306231786 -0.16147511706753581 0 0.21311328761178161 -0.17150580666157239 0 0.2053015306231786 -0.16147511706753581 0 0.22140433964611009 -0.15942157446682631 0 0.2053015306231786 -0.16147511706753581 0 0.21311328761178161 -0.17150580666157239 0 0.22140433964611009 -0.15942157446682631 0 0.21242454082845941 -0.15139496578475639 0 0.2053015306231786 -0.16147511706753581 0 0.22140433964611009 -0.15942157446682631 0 0.21311328761178161 -0.17150580666157239 0 0.20768137691429989 -0.1863235371576068 0 0.22597692023837671 -0.1776460897684978 0 0.20153326013240361 -0.1732023233829928 0 0.21311328761178161 -0.17150580666157239 0 0.20768137691429989 -0.1863235371576068 0 0.22597692023837671 -0.1776460897684978 0 0.24021017282722021 -0.1817014238397707 0 0.2310967341209624 -0.19307915044939869 0 0.21311328761178161 -0.17150580666157239 0 0.22597692023837671 -0.1776460897684978 0 0.22140433964611009 -0.15942157446682631 0 0.23480192822461099 -0.1538503860114161 0 0.22597692023837671 -0.1776460897684978 0 0.23480192822461099 -0.1538503860114161 0 0.22597692023837671 -0.1776460897684978 0 0.23814472236803061 -0.17009193279570961 0 0.23480192822461099 -0.1538503860114161 0 0.22597692023837671 -0.1776460897684978 0 0.22140433964611009 -0.15942157446682631 0 0.25205962740029131 -0.16675432511260549 0 0.23480192822461099 -0.1538503860114161 0 0.25205962740029131 -0.16675432511260549 0 0.24719800764502139 -0.15526407084396271 0 0.23480192822461099 -0.1538503860114161 0 0.25205962740029131 -0.16675432511260549 0 0.23480192822461099 -0.1538503860114161 0 0.23814472236803061 -0.17009193279570961 0 0.22597692023837671 -0.1776460897684978 0 0.23814472236803061 -0.17009193279570961 0 0.24021017282722021 -0.1817014238397707 0 0.25205962740029131 -0.16675432511260549 0 0.23814472236803061 -0.17009193279570961 0 0.24021017282722021 -0.1817014238397707 0 0.25200319217637229 -0.18136374100611921 0 0.25205962740029131 -0.16675432511260549 0 0.24021017282722021 -0.1817014238397707 0 0.25200319217637229 -0.18136374100611921 0 0.24021017282722021 -0.1817014238397707 0 0.24689540112038311 -0.19692544440775719 0 0.24021017282722021 -0.1817014238397707 0 0.24689540112038311 -0.19692544440775719 0 0.2310967341209624 -0.19307915044939869 0 0.24689540112038311 -0.19692544440775719 0 0.24018281513586209 -0.217923812058709 0 0.224473475664795 -0.2141926246017197 0 0.24689540112038311 -0.19692544440775719 0 0.224473475664795 -0.2141926246017197 0 0.25596260931772219 -0.21701241972076021 0 0.24689540112038311 -0.19692544440775719 0 0.24018281513586209 -0.217923812058709 0 0.24689540112038311 -0.19692544440775719 0 0.224473475664795 -0.2141926246017197 0 0.2310967341209624 -0.19307915044939869 0 0.22597692023837671 -0.1776460897684978 0 0.21715191225214359 -0.20144179352558009 0 0.224473475664795 -0.2141926246017197 0 0.2310967341209624 -0.19307915044939869 0 0.21715191225214359 -0.20144179352558009 0 0.22597692023837671 -0.1776460897684978 0 0.2310967341209624 -0.19307915044939869 0 0.21715191225214359 -0.20144179352558009 0 0.25266264924048881 -0.23607345122712481 0 0.24106351552099611 -0.25430938085000399 0 0.23406929700326451 -0.2363167846568156 0 0.25266264924048881 -0.23607345122712481 0 0.24412969886453681 -0.22894283192195949 0 0.23406929700326451 -0.2363167846568156 0 0.25596260931772219 -0.21701241972076021 0 0.24018281513586209 -0.217923812058709 0 0.24412969886453681 -0.22894283192195949 0 0.24018281513586209 -0.217923812058709 0 0.24412969886453681 -0.22894283192195949 0 0.23406929700326451 -0.2363167846568156 0 0.24018281513586209 -0.217923812058709 0 0.23406929700326451 -0.2363167846568156 0 0.21514219708997739 -0.2287600070762269 0 0.24018281513586209 -0.217923812058709 0 0.21514219708997739 -0.2287600070762269 0 0.24018281513586209 -0.217923812058709 0 0.224473475664795 -0.2141926246017197 0 0.21514219708997739 -0.2287600070762269 0 0.24106351552099611 -0.25430938085000399 0 0.21794513624863049 -0.25021170180138103 0 0.23406929700326451 -0.2363167846568156 0 0.21794513624863049 -0.25021170180138103 0 0.23406929700326451 -0.2363167846568156 0 0.21514219708997739 -0.2287600070762269 0 0.21794513624863049 -0.25021170180138103 0 0.2056729391587073 -0.24359465449947981 0 0.21514219708997739 -0.2287600070762269 0 0.2056729391587073 -0.24359465449947981 0 0.21514219708997739 -0.2287600070762269 0 0.19010157904409439 -0.23959620209374871 0 0.224473475664795 -0.2141926246017197 0 0.20205155020920679 -0.23145980479568221 0 0.224473475664795 -0.2141926246017197 0 0.20205155020920679 -0.23145980479568221 0 0.2075629926308524 -0.21542522519134891 0 0.224473475664795 -0.2141926246017197 0 0.21514219708997739 -0.2287600070762269 0 0.20205155020920679 -0.23145980479568221 0 0.20205155020920679 -0.23145980479568221 0 0.19010157904409439 -0.23959620209374871 0 0.19650123040038869 -0.21742231465022091 0 0.21514219708997739 -0.2287600070762269 0 0.19010157904409439 -0.23959620209374871 0 0.20205155020920679 -0.23145980479568221 0 0.2075629926308524 -0.21542522519134891 0 0.19650123040038869 -0.21742231465022091 0 0.21514219708997739 -0.2287600070762269 0 0.20205155020920679 -0.23145980479568221 0 0.19010157904409439 -0.23959620209374871 0 0.19010157904409439 -0.23959620209374871 0 0.19650123040038869 -0.21742231465022091 0 0.180969597741578 -0.21536654905252539 0 0.20768137691429989 -0.1863235371576068 0 0.21715191225214359 -0.20144179352558009 0 0.20497914788354701 -0.20337395237426631 0 0.20768137691429989 -0.1863235371576068 0 0.22597692023837671 -0.1776460897684978 0 0.21715191225214359 -0.20144179352558009 0 0.224473475664795 -0.2141926246017197 0 0.21715191225214359 -0.20144179352558009 0 0.2075629926308524 -0.21542522519134891 0 0.21715191225214359 -0.20144179352558009 0 0.2075629926308524 -0.21542522519134891 0 0.20497914788354701 -0.20337395237426631 0 0.19650123040038869 -0.21742231465022091 0 0.19334251489305351 -0.1993121543937541 0 0.180969597741578 -0.21536654905252539 0 0.20497914788354701 -0.20337395237426631 0 0.19650123040038869 -0.21742231465022091 0 0.19334251489305351 -0.1993121543937541 0 0.2075629926308524 -0.21542522519134891 0 0.20497914788354701 -0.20337395237426631 0 0.19650123040038869 -0.21742231465022091 0 0.19127061824665029 -0.18142040703099899 0 0.19334251489305351 -0.1993121543937541 0 0.19127061824665029 -0.18142040703099899 0 0.20768137691429989 -0.1863235371576068 0 0.19334251489305351 -0.1993121543937541 0 0.20768137691429989 -0.1863235371576068 0 0.20497914788354701 -0.20337395237426631 0 0.19334251489305351 -0.1993121543937541 0 0.19127061824665029 -0.18142040703099899 0 0.19334251489305351 -0.1993121543937541 0 0.17183761643906151 -0.19113689601130221 0 0.19334251489305351 -0.1993121543937541 0 0.180969597741578 -0.21536654905252539 0 0.17183761643906151 -0.19113689601130221 0 0.180969597741578 -0.21536654905252539 0 0.16398201132905971 -0.207933866008779 0 0.17183761643906151 -0.19113689601130221 0 0.180969597741578 -0.21536654905252539 0 0.17183761643906151 -0.19113689601130221 0 0.16398201132905971 -0.207933866008779 0 0.16334458063820481 -0.22362219929445001 0 0.15112182591065601 -0.21225926869323161 0 0.180969597741578 -0.21536654905252539 0 0.16398201132905971 -0.207933866008779 0 0.16334458063820481 -0.22362219929445001 0 0.17183761643906151 -0.19113689601130221 0 0.1526364359157984 -0.1972844169923858 0 0.15095570439822051 -0.18032338121576341 0 0.16398201132905971 -0.207933866008779 0 0.17183761643906151 -0.19113689601130221 0 0.1526364359157984 -0.1972844169923858 0 0.19010157904409439 -0.23959620209374871 0 0.1756945367946631 -0.23333204530612339 0 0.17039876269483961 -0.24812249165910691 0 0.19010157904409439 -0.23959620209374871 0 0.17039876269483961 -0.24812249165910691 0 0.18448204354290951 -0.25641715725236403 0 0.19010157904409439 -0.23959620209374871 0 0.17039876269483961 -0.24812249165910691 0 0.19010157904409439 -0.23959620209374871 0 0.180969597741578 -0.21536654905252539 0 0.1756945367946631 -0.23333204530612339 0 0.180969597741578 -0.21536654905252539 0 0.1756945367946631 -0.23333204530612339 0 0.16334458063820481 -0.22362219929445001 0 0.19010157904409439 -0.23959620209374871 0 0.180969597741578 -0.21536654905252539 0 0.16334458063820481 -0.22362219929445001 0 0.17039876269483961 -0.24812249165910691 0 0.1756945367946631 -0.23333204530612339 0 0.16334458063820481 -0.22362219929445001 0 0.17039876269483961 -0.24812249165910691 0 0.16334458063820481 -0.22362219929445001 0 0.17039876269483961 -0.24812249165910691 0 0.15615835699215369 -0.2334429439452832 0 0.16048490849461761 -0.25284243025010789 0 0.16003575748426621 -0.2456768469946661 0 0.16894128177334919 -0.24875320881914839 0 0.16003575748426621 -0.2456768469946661 0 0.17039876269483961 -0.24812249165910691 0 0.15615835699215369 -0.2334429439452832 0 0.15423259464829611 -0.2507802058041485 0 0.16048490849461761 -0.25284243025010789 0 0.16003575748426621 -0.2456768469946661 0 0.16003575748426621 -0.2456768469946661 0 0.17039876269483961 -0.24812249165910691 0 0.16894128177334919 -0.24875320881914839 0 0.17039876269483961 -0.24812249165910691 0 0.16894128177334919 -0.24875320881914839 0 0.1490326603952912 -0.24330769350101941 0 0.15615835699215369 -0.2334429439452832 0 0.1397037034055848 -0.23217047932173829 0 0.14630097989667429 -0.25329462579220818 0 0.1490326603952912 -0.24330769350101941 0 0.13780653894568981 -0.24584975280280799 0 0.15423259464829611 -0.2507802058041485 0 0.16003575748426621 -0.2456768469946661 0 0.1490326603952912 -0.24330769350101941 0 0.14630097989667429 -0.25329462579220818 0 0.15423259464829611 -0.2507802058041485 0 0.1490326603952912 -0.24330769350101941 0 0.16003575748426621 -0.2456768469946661 0 0.1490326603952912 -0.24330769350101941 0 0.15615835699215369 -0.2334429439452832 0 0.1490326603952912 -0.24330769350101941 0 0.1397037034055848 -0.23217047932173829 0 0.13780653894568981 -0.24584975280280799 0 0.16334458063820481 -0.22362219929445001 0 0.14769728601676929 -0.2243330190654807 0 0.15112182591065601 -0.21225926869323161 0 0.15615835699215369 -0.2334429439452832 0 0.14769728601676929 -0.2243330190654807 0 0.1397037034055848 -0.23217047932173829 0 0.16334458063820481 -0.22362219929445001 0 0.15615835699215369 -0.2334429439452832 0 0.14769728601676929 -0.2243330190654807 0 0.14769728601676929 -0.2243330190654807 0 0.1397037034055848 -0.23217047932173829 0 0.13729246343905629 -0.21699935438594731 0 0.1242406923374533 -0.22077828949577141 0 0.1397037034055848 -0.23217047932173829 0 0.12647501325493751 -0.24071415537261021 0 0.1242406923374533 -0.22077828949577141 0 0.1397037034055848 -0.23217047932173829 0 0.13729246343905629 -0.21699935438594731 0 0.12752033777596139 -0.25976181002646398 0 0.12647501325493751 -0.24071415537261021 0 0.13780653894568981 -0.24584975280280799 0 0.1397037034055848 -0.23217047932173829 0 0.12647501325493751 -0.24071415537261021 0 0.13780653894568981 -0.24584975280280799 0 0.1526364359157984 -0.1972844169923858 0 0.1363110975465068 -0.20336945368225401 0 0.13636381901286751 -0.187625238857522 0 0.1526364359157984 -0.1972844169923858 0 0.13636381901286751 -0.187625238857522 0 0.15095570439822051 -0.18032338121576341 0 0.1526364359157984 -0.1972844169923858 0 0.15112182591065601 -0.21225926869323161 0 0.1363110975465068 -0.20336945368225401 0 0.16398201132905971 -0.207933866008779 0 0.1526364359157984 -0.1972844169923858 0 0.15112182591065601 -0.21225926869323161 0 0.14769728601676929 -0.2243330190654807 0 0.15112182591065601 -0.21225926869323161 0 0.13729246343905629 -0.21699935438594731 0 0.15112182591065601 -0.21225926869323161 0 0.1363110975465068 -0.20336945368225401 0 0.13729246343905629 -0.21699935438594731 0 0.1246801754173678 -0.20908561605720799 0 0.1242406923374533 -0.22077828949577141 0 0.13729246343905629 -0.21699935438594731 0 0.1246801754173678 -0.20908561605720799 0 0.1363110975465068 -0.20336945368225401 0 0.13729246343905629 -0.21699935438594731 0 0.1246801754173678 -0.20908561605720799 0 0.1363110975465068 -0.20336945368225401 0 0.12518869747691971 -0.1970947524398107 0 0.1192584502586433 -0.18139981457302959 0 0.12518869747691971 -0.1970947524398107 0 0.13636381901286751 -0.187625238857522 0 0.1363110975465068 -0.20336945368225401 0 0.12518869747691971 -0.1970947524398107 0 0.13636381901286751 -0.187625238857522 0 0.1192584502586433 -0.18139981457302959 0 0.13636381901286751 -0.187625238857522 0 0.13537255934775649 -0.17039294757359019 0 0.13636381901286751 -0.187625238857522 0 0.15095570439822051 -0.18032338121576341 0 0.13537255934775649 -0.17039294757359019 0 0.15095570439822051 -0.18032338121576341 0 0.13537255934775649 -0.17039294757359019 0 0.1627056351365449 -0.166907242970079 0 0.13537255934775649 -0.17039294757359019 0 0.13604239195642881 -0.1582930593902917 0 0.1627056351365449 -0.166907242970079 0 0.13604239195642881 -0.1582930593902917 0 0.1438514279526299 -0.1489670369272483 0 0.1627056351365449 -0.166907242970079 0 0.13537255934775649 -0.17039294757359019 0 0.1627056351365449 -0.166907242970079 0 0.1192584502586433 -0.18139981457302959 0 0.13604239195642881 -0.1582930593902917 0 0.11764030132843969 -0.18026994752950279 0 0.13604239195642881 -0.1582930593902917 0 0.1192584502586433 -0.18139981457302959 0 0.13537255934775649 -0.17039294757359019 0 0.13604239195642881 -0.1582930593902917 0 0.13604239195642881 -0.1582930593902917 0 0.1350573414063283 -0.14500928125192211 0 0.1479946265180897 -0.14183820254701759 0 0.1211969328539569 -0.14532151129590021 0 0.13604239195642881 -0.1582930593902917 0 0.1350573414063283 -0.14500928125192211 0 0.1211969328539569 -0.14532151129590021 0 0.1350573414063283 -0.14500928125192211 0 0.1282036646882222 -0.1335875387552902 0 0.13604239195642881 -0.1582930593902917 0 0.1438514279526299 -0.1489670369272483 0 0.1350573414063283 -0.14500928125192211 0 0.1282036646882222 -0.1335875387552902 0 0.1479946265180897 -0.14183820254701759 0 0.1282036646882222 -0.1335875387552902 0 0.1407277358159143 -0.1293399356073851 0 0.14438680003984489 -0.13557417344808981 0 0.1282036646882222 -0.1335875387552902 0 0.14438680003984489 -0.13557417344808981 0 0.1479946265180897 -0.14183820254701759 0 0.1282036646882222 -0.1335875387552902 0 0.1479946265180897 -0.14183820254701759 0 0.1301035997378964 -0.1214645167163456 0 0.1282036646882222 -0.1335875387552902 0 0.1407277358159143 -0.1293399356073851 0 0.14263663279830691 -0.1136586710084828 0 0.1514594725197467 -0.13706808657855721 0 0.14263663279830691 -0.1136586710084828 0 0.1407277358159143 -0.1293399356073851 0 0.1514594725197467 -0.13706808657855721 0 0.1407277358159143 -0.1293399356073851 0 0.14438680003984489 -0.13557417344808981 0 0.1514594725197467 -0.13706808657855721 0 0.14438680003984489 -0.13557417344808981 0 0.1514594725197467 -0.13706808657855721 0 0.1479946265180897 -0.14183820254701759 0 0.1514594725197467 -0.13706808657855721 0 0.1479946265180897 -0.14183820254701759 0 0.15309341538007859 -0.1216113587722765 0 0.16045176050755089 -0.124688241557159 0 0.1514594725197467 -0.13706808657855721 0 0.16045176050755089 -0.124688241557159 0 0.1514594725197467 -0.13706808657855721 0 0.13604239195642881 -0.1582930593902917 0 0.1479946265180897 -0.14183820254701759 0 0.13604239195642881 -0.1582930593902917 0 0.1438514279526299 -0.1489670369272483 0 0.1479946265180897 -0.14183820254701759 0 0.1438514279526299 -0.1489670369272483 0 0.15423832325321971 -0.14444114034367 0 0.1627056351365449 -0.166907242970079 0 0.1438514279526299 -0.1489670369272483 0 0.1479946265180897 -0.14183820254701759 0 0.15423832325321971 -0.14444114034367 0 0.1479946265180897 -0.14183820254701759 0 0.15423832325321971 -0.14444114034367 0 0.1514594725197467 -0.13706808657855721 0 0.1479946265180897 -0.14183820254701759 0 0.15423832325321971 -0.14444114034367 0 0.1514594725197467 -0.13706808657855721 0 0.15423832325321971 -0.14444114034367 0 0.16160077834930239 -0.14751047786256741 0 0.16927222025973429 -0.15104669259872799 0 0.1627056351365449 -0.166907242970079 0 0.15423832325321971 -0.14444114034367 0 0.16160077834930239 -0.14751047786256741 0 0.1627056351365449 -0.166907242970079 0 0.15423832325321971 -0.14444114034367 0 0.1627056351365449 -0.166907242970079 0 0.15423832325321971 -0.14444114034367 0 0.16160077834930239 -0.14751047786256741 0 0.15423832325321971 -0.14444114034367 0 0.16160077834930239 -0.14751047786256741 0 0.16325407501129119 -0.13767222650035621 0 0.16160077834930239 -0.14751047786256741 0 0.16927862428802859 -0.14284503474311949 0 0.16927222025973429 -0.15104669259872799 0 0.16160077834930239 -0.14751047786256741 0 0.16927862428802859 -0.14284503474311949 0 0.16325407501129119 -0.13767222650035621 0 0.1514594725197467 -0.13706808657855721 0 0.15423832325321971 -0.14444114034367 0 0.16325407501129119 -0.13767222650035621 0 0.16045176050755089 -0.124688241557159 0 0.1514594725197467 -0.13706808657855721 0 0.16325407501129119 -0.13767222650035621 0 0.16927862428802859 -0.14284503474311949 0 0.16325407501129119 -0.13767222650035621 0 0.17363239728744839 -0.13632850440864019 0 0.16325407501129119 -0.13767222650035621 0 0.1718789831891788 -0.1299210177155804 0 0.17363239728744839 -0.13632850440864019 0 0.17412126317076421 -0.12227380262522029 0 0.16045176050755089 -0.124688241557159 0 0.1718789831891788 -0.1299210177155804 0 0.16045176050755089 -0.124688241557159 0 0.16325407501129119 -0.13767222650035621 0 0.1718789831891788 -0.1299210177155804 0 0.18488142327789919 -0.12624687198487691 0 0.17839311743877059 -0.14266005086250669 0 0.1870400724390732 -0.14488776582656041 0 0.18488142327789919 -0.12624687198487691 0 0.1870400724390732 -0.14488776582656041 0 0.18488142327789919 -0.12624687198487691 0 0.17839311743877059 -0.14266005086250669 0 0.17363239728744839 -0.13632850440864019 0 0.18488142327789919 -0.12624687198487691 0 0.17839311743877059 -0.14266005086250669 0 0.1718789831891788 -0.1299210177155804 0 0.17363239728744839 -0.13632850440864019 0 0.18488142327789919 -0.12624687198487691 0 0.17412126317076421 -0.12227380262522029 0 0.1718789831891788 -0.1299210177155804 0 0.18488142327789919 -0.12624687198487691 0 0.16927862428802859 -0.14284503474311949 0 0.17363239728744839 -0.13632850440864019 0 0.17839311743877059 -0.14266005086250669 0 0.18919872160024701 -0.16352865966824401 0 0.1870400724390732 -0.14488776582656041 0 0.1803587132998164 -0.152926109931528 0 0.17839311743877059 -0.14266005086250669 0 0.1803587132998164 -0.152926109931528 0 0.1719048115996423 -0.15907322974013671 0 0.17839311743877059 -0.14266005086250669 0 0.1719048115996423 -0.15907322974013671 0 0.16927222025973429 -0.15104669259872799 0 0.17839311743877059 -0.14266005086250669 0 0.1719048115996423 -0.15907322974013671 0 0.16927862428802859 -0.14284503474311949 0 0.16927222025973429 -0.15104669259872799 0 0.17839311743877059 -0.14266005086250669 0 0.17839311743877059 -0.14266005086250669 0 0.1870400724390732 -0.14488776582656041 0 0.1803587132998164 -0.152926109931528 0 0.18919872160024701 -0.16352865966824401 0 0.1627056351365449 -0.166907242970079 0 0.18919872160024701 -0.16352865966824401 0 0.1719048115996423 -0.15907322974013671 0 0.1627056351365449 -0.166907242970079 0 0.18919872160024701 -0.16352865966824401 0 0.1803587132998164 -0.152926109931528 0 0.1719048115996423 -0.15907322974013671 0 0.18919872160024701 -0.16352865966824401 0 0.1787531478556259 -0.17574830142015599 0 0.1627056351365449 -0.166907242970079 0 0.19127061824665029 -0.18142040703099899 0 0.18919872160024701 -0.16352865966824401 0 0.1787531478556259 -0.17574830142015599 0 0.19127061824665029 -0.18142040703099899 0 0.17183761643906151 -0.19113689601130221 0 0.1787531478556259 -0.17574830142015599 0 0.17183761643906151 -0.19113689601130221 0 0.1627056351365449 -0.166907242970079 0 0.17183761643906151 -0.19113689601130221 0 0.1787531478556259 -0.17574830142015599 0 0.1627056351365449 -0.166907242970079 0 0.17183761643906151 -0.19113689601130221 0 0.15095570439822051 -0.18032338121576341 0 0.1627056351365449 -0.166907242970079 0 0.16927222025973429 -0.15104669259872799 0 0.1719048115996423 -0.15907322974013671 0 0.1627056351365449 -0.166907242970079 0 
</DataArray>
</Points>
<Cells>
<DataArray type="UInt32" Name="connectivity" format="ascii">
0 1 2 3 4 5 6 7 8 9 10 11 12 13 14 15 16 17 18 19 20 21 22 23 24 25 26 27 28 29 30 31 32 33 34 35 36 37 38 39 40 41 42 43 44 45 46 47 48 49 50 51 52 53 54 55 56 57 58 59 60 61 62 63 64 65 66 67 68 69 70 71 72 73 74 75 76 77 78 79 80 81 82 83 84 85 86 87 88 89 90 91 92 93 94 95 96 97 98 99 100 101 102 103 104 105 106 107 108 109 110 111 112 113 114 115 116 117 118 119 120 121 122 123 124 125 126 127 128 129 130 131 132 133 134 135 136 137 138 139 140 141 142 143 144 145 146 147 148 149 150 151 152 153 154 155 156 157 158 159 160 161 162 163 164 165 166 167 168 169 170 171 172 173 174 175 176 177 178 179 180 181 182 183 184 185 186 187 188 189 190 191 192 193 194 195 196 197 198 199 200 201 202 203 204 205 206 207 208 209 210 211 212 213 214 215 216 217 218 219 220 221 222 223 224 225 226 227 228 229 230 231 232 233 234 235 236 237 238 239 240 241 242 243 244 245 246 247 248 249 250 251 252 253 254 255 256 257 258 259 260 261 262 263 264 265 266 267 268 269 270 271 272 273 274 275 276 277 278 279 280 281 282 283 284 285 286 287 288 289 290 291 292 293 294 295 296 297 298 299 300 301 302 303 304 305 306 307 308 309 310 311 312 313 314 315 316 317 318 319 320 321 322 323 324 325 326 327 328 329 330 331 332 333 334 335 336 337 338 339 340 341 342 343 344 345 346 347 348 349 350 351 352 353 354 355 356 357 358 359 360 361 362 363 364 365 366 367 368 369 370 371 372 373 374 375 376 377 378 379 380 381 382 383 384 385 386 387 388 389 390 391 392 393 394 395 396 397 398 399 400 401 402 403 404 405 406 407 408 409 410 411 412 413 414 415 416 417 418 419 420 421 422 423 424 425 426 427 428 429 430 431 432 433 434 435 436 437 438 439 440 441 442 443 444 445 446 447 448 449 450 451 452 453 454 455 456 457 458 459 460 461 462 463 464 465 466 467 468 469 470 471 472 473 474 475 476 477 478 479 480 481 482 483 484 485 486 487 488 489 490 491 492 493 494 495 496 497 498 499 500 501 502 503 504 505 506 507 508 509 510 511 512 513 514 515 516 517 518 519 520 521 522 523 524 525 526 527 528 529 530 531 532 533 534 535 536 537 538 539 540 541 542 543 544 545 546 547 548 549 550 551 552 553 554 555 556 557 558 559 560 561 562 563 564 565 566 567 568 569 570 571 572 573 574 575 576 577 578 579 580 581 582 583 584 585 586 587 588 589 590 591 592 593 594 595 596 597 598 599 600 601 602 603 604 605 606 607 608 609 610 611 612 613 614 615 616 617 618 619 620 621 622 623 624 625 626 627 628 629 630 631 632 633 634 635 636 637 638 639 640 641 642 643 644 645 646 647 648 649 650 651 652 653 654 655 656 657 658 659 660 661 662 663 664 665 666 667 668 669 670 671 672 673 674 675 676 677 678 679 680 681 682 683 684 685 686 687 688 689 690 691 692 693 694 695 696 697 698 699 700 701 702 703 704 705 706 707 708 709 710 711 712 713 714 715 716 717 718 719 720 721 722 723 724 725 726 727 728 729 730 731 732 733 734 735 736 737 738 739 740 741 742 743 744 745 746 747 748 749 750 751 752 753 754 755 756 757 758 759 760 761 762 763 764 765 766 767 768 769 770 771 772 773 774 775 776 777 778 779 780 781 782 783 784 785 786 787 788 789 790 791 792 793 794 795 796 797 798 799 800 801 802 803 804 805 806 807 808 809 810 811 812 813 814 815 816 817 818 819 820 821 822 823 824 825 826 827 828 829 830 831 832 833 834 835 836 837 838 839 840 841 842 843 844 845 846 847 848 849 850 851 852 853 854 855 856 857 858 859 860 861 862 863 864 865 866 867 868 869 870 871 872 873 874 875 876 877 878 879 880 881 882 883 884 885 886 887 888 889 890 891 892 893 894 895 896 897 898 899 900 901 902 903 904 905 906 907 908 909 910 911 912 913 914 915 916 917 918 919 920 921 922 923 924 925 926 927 928 929 930 931 932 933 934 935 936 937 938 939 940 941 942 943 944 945 946 947 948 949 950 951 952 953 954 955 956 957 958 959 960 961 962 963 964 965 966 967 968 969 970 971 972 973 974 975 976 977 978 979 980 981 982 983 984 985 986 987 988 989 990 991 992 993 994 995 996 997 998 999 1000 1001 1002 1003 1004 1005 1006 1007 1008 1009 1010 1011 1012 1013 1014 1015 1016 1017 1018 1019 1020 1021 1022 1023 1024 1025 1026 1027 1028 1029 1030 1031 1032 1033 1034 1035 1036 1037 1038 1039 1040 1041 1042 1043 1044 1045 1046 1047 1048 1049 1050 1051 1052 1053 1054 1055 1056 1057 1058 1059 1060 1061 1062 1063 1064 1065 1066 1067 1068 1069 1070 1071 1072 1073 1074 1075 1076 1077 1078 1079 1080 1081 1082 1083 1084 1085 1086 1087 1088 1089 1090 1091 1092 1093 1094 1095 1096 1097 1098 1099 1100 1101 1102 1103 1104 1105 1106 1107 1108 1109 1110 1111 1112 1113 1114 1115 1116 1117 1118 1119 1120 1121 1122 1123 1124 1125 1126 1127 1128 1129 1130 1131 1132 1133 1134 1135 1136 1137 1138 1139 1140 1141 1142 1143 1144 1145 1146 1147 1148 1149 1150 1151 1152 1153 1154 1155 1156 1157 1158 1159 1160 1161 1162 1163 1164 1165 1166 1167 1168 1169 1170 1171 1172 1173 1174 1175 1176 1177 1178 1179 1180 1181 1182 1183 1184 1185 1186 1187 1188 1189 1190 1191 1192 1193 1194 1195 1196 1197 1198 1199 1200 1201 1202 1203 1204 1205 1206 1207 1208 1209 1210 1211 1212 1213 1214 1215 1216 1217 1218 1219 1220 1221 1222 1223 1224 1225 1226 1227 1228 1229 1230 1231 1232 1233 1234 1235 1236 1237 1238 1239 1240 1241 1242 1243 1244 1245 1246 1247 1248 1249 1250 1251 1252 1253 1254 1255 1256 1257 1258 1259 1260 1261 1262 1263 1264 1265 1266 1267 1268 1269 1270 1271 1272 1273 1274 1275 1276 1277 1278 1279 1280 1281 1282 1283 1284 1285 1286 1287 1288 1289 1290 1291 1292 1293 1294 1295 1296 1297 1298 1299 1300 1301 1302 1303 1304 1305 1306 1307 1308 1309 1310 1311 1312 1313 1314 1315 1316 1317 1318 1319 1320 1321 1322 1323 1324 1325 1326 1327 1328 1329 1330 1331 1332 1333 1334 1335 1336 1337 1338 1339 1340 1341 1342 1343 1344 1345 1346 1347 1348 1349 1350 1351 1352 1353 1354 1355 1356 1357 1358 1359 1360 1361 1362 1363 1364 1365 1366 1367 1368 1369 1370 1371 1372 1373 1374 1375 1376 1377 1378 1379 1380 1381 1382 1383 1384 1385 1386 1387 1388 1389 1390 1391 1392 1393 1394 1395 1396 1397 1398 1399 1400 1401 1402 1403 1404 1405 1406 1407 1408 1409 1410 1411 1412 1413 1414 1415 1416 1417 1418 1419 1420 1421 1422 1423 1424 1425 1426 1427 1428 1429 1430 1431 1432 1433 1434 1435 1436 1437 1438 1439 1440 1441 1442 1443 1444 1445 1446 1447 1448 1449 1450 1451 1452 1453 1454 1455 1456 1457 1458 1459 1460 1461 1462 1463 1464 1465 1466 1467 1468 1469 1470 1471 1472 1473 1474 1475 1476 1477 1478 1479 1480 1481 1482 1483 1484 1485 1486 1487 1488 1489 1490 1491 1492 1493 1494 1495 1496 1497 1498 1499 1500 1501 1502 1503 1504 1505 1506 1507 1508 1509 1510 1511 1512 1513 1514 1515 1516 1517 1518 1519 1520 1521 1522 1523 1524 1525 1526 1527 1528 1529 1530 1531 1532 1533 1534 1535 1536 1537 1538 1539 1540 1541 1542 1543 1544 1545 1546 1547 1548 1549 1550 1551 1552 1553 1554 1555 1556 1557 1558 1559 1560 1561 1562 1563 1564 1565 1566 1567 1568 1569 1570 1571 1572 1573 1574 1575 1576 1577 1578 1579 1580 1581 1582 1583 1584 1585 1586 1587 1588 1589 1590 1591 1592 1593 1594 1595 1596 1597 1598 1599 1600 1601 1602 1603 1604 1605 1606 1607 1608 1609 1610 1611 1612 1613 1614 1615 1616 1617 1618 1619 1620 1621 1622 1623 1624 1625 1626 1627 1628 1629 1630 1631 1632 1633 1634 1635 1636 1637 1638 1639 1640 1641 1642 1643 1644 1645 1646 1647 1648 1649 1650 1651 1652 1653 1654 1655 1656 1657 1658 1659 1660 1661 1662 1663 1664 1665 1666 1667 1668 1669 1670 1671 1672 1673 1674 1675 1676 1677 1678 1679 1680 1681 1682 1683 1684 1685 1686 1687 1688 1689 1690 1691 1692 1693 1694 1695 1696 1697 1698 1699 1700 1701 1702 1703 1704 1705 1706 1707 1708 1709 1710 1711 1712 1713 1714 1715 1716 1717 1718 1719 1720 1721 1722 1723 1724 1725 1726 1727 1728 1729 1730 1731 1732 1733 1734 1735 1736 1737 1738 1739 1740 1741 1742 1743 1744 1745 1746 1747 1748 1749 1750 1751 1752 1753 1754 1755 1756 1757 1758 1759 1760 1761 1762 1763 1764 1765 1766 1767 1768 1769 1770 1771 1772 1773 1774 1775 1776 1777 1778 1779 1780 1781 1782 1783 1784 1785 1786 1787 1788 1789 1790 1791 1792 1793 1794 1795 1796 1797 1798 1799 1800 1801 1802 1803 1804 1805 1806 1807 1808 1809 1810 1811 1812 1813 1814 1815 1816 1817 1818 1819 1820 1821 1822 1823 1824 1825 1826 1827 1828 1829 1830 1831 1832 1833 1834 1835 1836 1837 1838 1839 1840 1841 1842 1843 1844 1845 1846 1847 1848 1849 1850 1851 1852 1853 1854 1855 1856 1857 1858 1859 1860 1861 1862 1863 1864 1865 1866 1867 1868 1869 1870 1871 1872 1873 1874 1875 1876 1877 1878 1879 1880 1881 1882 1883 1884 1885 1886 1887 1888 1889 1890 1891 1892 1893 1894 1895 1896 1897 1898 1899 1900 1901 1902 1903 1904 1905 1906 1907 1908 1909 1910 1911 1912 1913 1914 1915 1916 1917 1918 1919 1920 1921 1922 1923 1924 1925 1926 1927 1928 1929 1930 1931 1932 1933 1934 1935 1936 1937 1938 1939 1940 1941 1942 1943 1944 1945 1946 1947 1948 1949 1950 1951 1952 1953 1954 1955 1956 1957 1958 1959 1960 1961 1962 1963 1964 1965 1966 1967 1968 1969 1970 1971 1972 1973 1974 1975 1976 1977 1978 1979 1980 1981 1982 1983 1984 1985 1986 1987 1988 1989 1990 1991 1992 1993 1994 1995 1996 1997 1998 1999 2000 2001 2002 2003 2004 2005 2006 2007 2008 2009 2010 2011 2012 2013 2014 2015 2016 2017 2018 2019 2020 2021 2022 2023 2024 2025 2026 2027 2028 2029 2030 2031 2032 2033 2034 2035 2036 2037 2038 2039 2040 2041 2042 2043 2044 2045 2046 2047 2048 2049 2050 2051 2052 2053 2054 2055 2056 2057 2058 2059 2060 2061 2062 2063 2064 2065 2066 2067 2068 2069 2070 2071 2072 2073 2074 2075 2076 2077 2078 2079 2080 2081 2082 2083 2084 2085 2086 2087 2088 2089 2090 2091 2092 2093 2094 2095 2096 2097 2098 2099 2100 2101 2102 2103 2104 2105 2106 2107 2108 2109 2110 2111 2112 2113 2114 2115 2116 2117 2118 2119 2120 2121 2122 2123 2124 2125 2126 2127 2128 2129 2130 2131 2132 2133 2134 2135 2136 2137 2138 2139 2140 2141 2142 2143 2144 2145 2146 2147 2148 2149 2150 2151 2152 2153 2154 2155 2156 2157 2158 2159 2160 2161 2162 2163 2164 2165 2166 2167 2168 2169 2170 2171 2172 2173 2174 2175 2176 2177 2178 2179 2180 2181 2182 2183 2184 2185 2186 2187 2188 2189 2190 2191 2192 2193 2194 2195 2196 2197 2198 2199 2200 2201 2202 2203 2204 2205 2206 2207 2208 2209 2210 2211 2212 2213 2214 2215 2216 2217 2218 2219 2220 2221 2222 2223 2224 2225 2226 2227 2228 2229 2230 2231 2232 2233 2234 2235 2236 2237 2238 2239 2240 2241 2242 2243 2244 2245 2246 2247 2248 2249 2250 2251 2252 2253 2254 2255 2256 2257 2258 2259 2260 2261 2262 2263 2264 2265 2266 2267 2268 2269 2270 2271 2272 2273 2274 2275 2276 2277 2278 2279 2280 2281 2282 2283 2284 2285 2286 2287 2288 2289 2290 2291 2292 2293 2294 2295 2296 2297 2298 2299 2300 2301 2302 2303 2304 2305 2306 2307 2308 2309 2310 2311 2312 2313 2314 2315 2316 2317 2318 2319 2320 2321 2322 2323 2324 2325 2326 2327 2328 2329 2330 2331 2332 2333 2334 2335 2336 2337 2338 2339 2340 2341 2342 2343 2344 2345 2346 2347 2348 2349 2350 2351 2352 2353 2354 2355 2356 2357 2358 2359 2360 2361 2362 2363 2364 2365 2366 2367 2368 2369 2370 2371 2372 2373 2374 2375 2376 2377 2378 2379 2380 2381 2382 2383 2384 2385 2386 2387 2388 2389 2390 2391 2392 2393 2394 2395 2396 2397 2398 2399 2400 2401 2402 2403 2404 2405 2406 2407 2408 2409 2410 2411 2412 2413 2414 2415 2416 2417 2418 2419 2420 2421 2422 2423 2424 2425 2426 2427 2428 2429 2430 2431 2432 2433 2434 2435 2436 2437 2438 2439 2440 2441 2442 2443 2444 2445 2446 2447 2448 2449 2450 2451 2452 2453 2454 2455 2456 2457 2458 2459 2460 2461 2462 2463 2464 2465 2466 2467 2468 2469 2470 2471 2472 2473 2474 2475 2476 2477 2478 2479 2480 2481 2482 2483 2484 2485 2486 2487 2488 2489 2490 2491 2492 2493 2494 2495 2496 2497 2498 2499 2500 2501 2502 2503 2504 2505 2506 2507 2508 2509 2510 2511 2512 2513 2514 2515 2516 2517 2518 2519 2520 2521 2522 2523 2524 2525 2526 2527 2528 2529 2530 2531 2532 2533 2534 2535 2536 2537 2538 2539 2540 2541 2542 2543 2544 2545 2546 2547 2548 2549 2550 2551 2552 2553 2554 2555 2556 2557 2558 2559 2560 2561 2562 2563 2564 2565 2566 2567 2568 2569 2570 2571 2572 2573 2574 2575 2576 2577 2578 2579 2580 2581 2582 2583 2584 2585 2586 2587 2588 2589 2590 2591 2592 2593 2594 2595 2596 2597 2598 2599 2600 2601 2602 2603 2604 2605 2606 2607 2608 2609 2610 2611 2612 2613 2614 2615 2616 2617 2618 2619 2620 2621 2622 2623 2624 2625 2626 2627 2628 2629 2630 2631 2632 2633 2634 2635 2636 2637 2638 2639 2640 2641 2642 2643 2644 2645 2646 2647 2648 2649 2650 2651 2652 2653 2654 2655 2656 2657 2658 2659 2660 2661 2662 2663 2664 2665 2666 2667 2668 2669 2670 2671 2672 2673 2674 2675 2676 2677 2678 2679 2680 2681 2682 2683 2684 2685 2686 2687 2688 2689 2690 2691 2692 2693 2694 2695 2696 2697 2698 2699 2700 2701 2702 2703 2704 2705 2706 2707 2708 2709 2710 2711 2712 2713 2714 2715 2716 2717 2718 2719 2720 2721 2722 2723 2724 2725 2726 2727 2728 2729 2730 2731 2732 2733 2734 2735 2736 2737 2738 2739 2740 2741 2742 2743 2744 2745 2746 2747 2748 2749 2750 2751 2752 2753 2754 2755 2756 2757 2758 2759 2760 2761 2762 2763 2764 2765 2766 2767 2768 2769 2770 2771 2772 2773 2774 2775 2776 2777 2778 2779 2780 2781 2782 2783 2784 2785 2786 2787 2788 2789 2790 2791 2792 2793 2794 2795 2796 2797 2798 2799 2800 2801 2802 2803 2804 2805 2806 2807 2808 2809 2810 2811 2812 2813 2814 2815 2816 2817 2818 2819 2820 2821 2822 2823 2824 2825 2826 2827 2828 2829 2830 2831 2832 2833 2834 2835 2836 2837 2838 2839 2840 2841 2842 2843 2844 2845 2846 2847 2848 2849 2850 2851 2852 2853 2854 2855 2856 2857 2858 2859 2860 2861 2862 2863 2864 2865 2866 2867 2868 2869 2870 2871 2872 2873 2874 2875 2876 2877 2878 2879 2880 2881 2882 2883 2884 2885 2886 2887 2888 2889 2890 2891 2892 2893 2894 2895 2896 2897 2898 2899 2900 2901 2902 2903 2904 2905 2906 2907 2908 2909 2910 2911 2912 2913 2914 2915 2916 2917 2918 2919 2920 2921 2922 2923 2924 2925 2926 2927 2928 2929 2930 2931 2932 2933 2934 2935 2936 2937 2938 2939 2940 2941 2942 2943 2944 2945 2946 2947 2948 2949 2950 2951 2952 2953 2954 2955 2956 2957 2958 2959 2960 2961 2962 2963 2964 2965 2966 2967 2968 2969 2970 2971 2972 2973 2974 2975 2976 2977 2978 2979 2980 2981 2982 2983 2984 2985 2986 2987 2988 2989 2990 2991 2992 2993 2994 2995 2996 2997 2998 2999 3000 3001 3002 3003 3004 3005 3006 3007 3008 3009 3010 3011 3012 3013 3014 3015 3016 3017 3018 3019 3020 3021 3022 3023 3024 3025 3026 3027 3028 3029 3030 3031 3032 3033 3034 3035 3036 3037 3038 3039 3040 3041 3042 3043 3044 3045 3046 3047 3048 3049 3050 3051 3052 3053 3054 3055 3056 3057 3058 3059 3060 3061 3062 3063 3064 3065 3066 3067 3068 3069 3070 3071 3072 3073 3074 3075 3076 3077 3078 3079 3080 3081 3082 3083 3084 3085 3086 3087 3088 3089 3090 3091 3092 3093 3094 3095 3096 3097 3098 3099 3100 3101 3102 3103 3104 3105 3106 3107 3108 3109 3110 3111 3112 3113 3114 3115 3116 3117 3118 3119 3120 3121 3122 3123 3124 3125 3126 3127 3128 3129 3130 3131 3132 3133 3134 3135 3136 3137 3138 3139 3140 3141 3142 3143 3144 3145 3146 3147 3148 3149 3150 3151 3152 3153 3154 3155 3156 3157 3158 3159 3160 3161 3162 3163 3164 3165 3166 3167 3168 3169 3170 3171 3172 3173 3174 3175 3176 3177 3178 3179 3180 3181 3182 3183 3184 3185 3186 3187 3188 3189 3190 3191 3192 3193 3194 3195 3196 3197 3198 3199 3200 3201 3202 3203 3204 3205 3206 3207 3208 3209 3210 3211 3212 3213 3214 3215 3216 3217 3218 3219 3220 3221 3222 3223 3224 3225 3226 3227 3228 3229 3230 3231 3232 3233 3234 3235 3236 3237 3238 3239 3240 3241 3242 3243 3244 3245 3246 3247 3248 3249 3250 3251 3252 3253 3254 3255 3256 3257 3258 3259 3260 3261 3262 3263 3264 3265 3266 3267 3268 3269 3270 3271 3272 3273 3274 3275 3276 3277 3278 3279 3280 3281 3282 3283 3284 3285 3286 3287 3288 3289 3290 3291 3292 3293 3294 3295 3296 3297 3298 3299 3300 3301 3302 3303 3304 3305 3306 3307 3308 3309 3310 3311 3312 3313 3314 3315 3316 3317 3318 3319 3320 3321 3322 3323 3324 3325 3326 3327 3328 3329 3330 3331 3332 3333 3334 3335 3336 3337 3338 3339 3340 3341 3342 3343 3344 3345 3346 3347 3348 3349 3350 3351 3352 3353 3354 3355 3356 3357 3358 3359 3360 3361 3362 3363 3364 3365 3366 3367 3368 3369 3370 3371 3372 3373 3374 3375 3376 3377 3378 3379 3380 3381 3382 3383 3384 3385 3386 3387 3388 3389 3390 3391 3392 3393 3394 3395 3396 3397 3398 3399 3400 3401 3402 3403 3404 3405 3406 3407 3408 3409 3410 3411 3412 3413 3414 3415 3416 3417 3418 3419 3420 3421 3422 3423 3424 3425 3426 3427 3428 3429 3430 3431 3432 3433 3434 3435 3436 3437 3438 3439 3440 3441 3442 3443 3444 3445 3446 3447 3448 3449 3450 3451 3452 3453 3454 3455 3456 3457 3458 3459 3460 3461 3462 3463 3464 3465 3466 3467 3468 3469 3470 3471 3472 3473 3474 3475 3476 3477 3478 3479 3480 3481 3482 3483 3484 3485 3486 3487 3488 3489 3490 3491 3492 3493 3494 3495 3496 3497 3498 3499 3500 3501 3502 3503 3504 3505 3506 3507 3508 3509 3510 3511 3512 3513 3514 3515 3516 3517 3518 3519 3520 3521 3522 3523 3524 3525 3526 3527 3528 3529 3530 3531 3532 3533 3534 3535 3536 3537 3538 3539 3540 3541 3542 3543 3544 3545 3546 3547 3548 3549 3550 3551 3552 3553 3554 3555 3556 3557 3558 3559 3560 3561 3562 3563 3564 3565 3566 3567 3568 3569 3570 3571 3572 3573 3574 3575 3576 3577 3578 3579 3580 3581 3582 3583 3584 3585 3586 3587 3588 3589 3590 3591 3592 3593 3594 3595 3596 3597 3598 3599 3600 3601 3602 3603 3604 3605 3606 3607 3608 3609 3610 3611 3612 3613 3614 3615 3616 3617 3618 3619 3620 3621 3622 3623 3624 3625 3626 3627 3628 3629 3630 3631 3632 3633 3634 3635 3636 3637 3638 3639 3640 3641 3642 3643 3644 3645 3646 3647 3648 3649 3650 3651 3652 3653 3654 3655 3656 3657 3658 3659 3660 3661 3662 3663 3664 3665 3666 3667 3668 3669 3670 3671 3672 3673 3674 3675 3676 3677 3678 3679 3680 3681 3682 3683 3684 3685 3686 3687 3688 3689 3690 3691 3692 3693 3694 3695 3696 3697 3698 3699 3700 3701 3702 3703 3704 3705 3706 3707 3708 3709 3710 3711 3712 3713 3714 3715 3716 3717 3718 3719 3720 3721 3722 3723 3724 3725 3726 3727 3728 3729 3730 3731 3732 3733 3734 3735 3736 3737 3738 3739 3740 3741 3742 3743 3744 3745 3746 3747 3748 3749 3750 3751 3752 3753 3754 3755 3756 3757 3758 3759 3760 3761 3762 3763 3764 3765 3766 3767 3768 3769 3770 3771 3772 3773 3774 3775 3776 3777 3778 3779 3780 3781 3782 3783 3784 3785 3786 3787 3788 3789 3790 3791 3792 3793 3794 3795 3796 3797 3798 3799 3800 3801 3802 3803 3804 3805 3806 3807 3808 3809 3810 3811 3812 3813 3814 3815 3816 3817 3818 3819 3820 3821 3822 3823 3824 3825 3826 3827 3828 3829 3830 3831 3832 3833 3834 3835 3836 3837 3838 3839 3840 3841 3842 3843 3844 3845 3846 3847 3848 3849 3850 3851 3852 3853 3854 3855 3856 3857 3858 3859 3860 3861 3862 3863 3864 3865 3866 3867 3868 3869 3870 3871 3872 3873 3874 3875 3876 3877 3878 3879 3880 3881 3882 3883 3884 3885 3886 3887 3888 3889 3890 3891 3892 3893 3894 3895 3896 3897 3898 3899 3900 3901 3902 3903 3904 3905 3906 3907 3908 3909 3910 3911 3912 3913 3914 3915 3916 3917 3918 3919 3920 3921 3922 3923 3924 3925 3926 3927 3928 3929 3930 3931 3932 3933 3934 3935 3936 3937 3938 3939 3940 3941 3942 3943 3944 3945 3946 3947 3948 3949 3950 3951 3952 3953 3954 3955 3956 3957 3958 3959 3960 3961 3962 3963 3964 3965 3966 3967 3968 3969 3970 3971 3972 3973 3974 3975 3976 3977 3978 3979 3980 3981 3982 3983 3984 3985 3986 3987 3988 3989 3990 3991 3992 3993 3994 3995 3996 3997 3998 3999 4000 4001 4002 4003 4004 4005 4006 4007 4008 4009 4010 4011 4012 4013 4014 4015 4016 4017 4018 4019 4020 4021 4022 4023 4024 4025 4026 4027 4028 4029 4030 4031 4032 4033 4034 4035 4036 4037 4038 4039 4040 4041 4042 4043 4044 4045 4046 4047 4048 4049 4050 4051 4052 4053 4054 4055 4056 4057 4058 4059 4060 4061 4062 4063 4064 4065 4066 4067 4068 4069 4070 4071 4072 4073 4074 4075 4076 4077 4078 4079 4080 4081 4082 4083 4084 4085 4086 4087 4088 4089 4090 4091 4092 4093 4094 4095 4096 4097 4098 4099 4100 4101 4102 4103 4104 4105 4106 4107 4108 4109 4110 4111 4112 4113 4114 4115 4116 4117 4118 4119 4120 4121 4122 4123 4124 4125 4126 4127 4128 4129 4130 4131 4132 4133 4134 4135 4136 4137 4138 4139 4140 4141 4142 4143 4144 4145 4146 4147 4148 4149 4150 4151 4152 4153 4154 4155 4156 4157 4158 4159 4160 4161 4162 4163 4164 4165 4166 4167 4168 4169 4170 4171 4172 4173 4174 4175 4176 4177 4178 4179 4180 4181 4182 4183 4184 4185 4186 4187 4188 4189 4190 4191 4192 4193 4194 4195 4196 4197 4198 4199 4200 4201 4202 4203 4204 4205 4206 4207 4208 4209 4210 4211 4212 4213 4214 4215 4216 4217 4218 4219 4220 4221 4222 4223 4224 4225 4226 4227 4228 4229 4230 4231 4232 4233 4234 4235 4236 4237 4238 4239 4240 4241 4242 4243 4244 4245 4246 4247 4248 4249 4250 4251 4252 4253 4254 4255 4256 4257 4258 4259 4260 4261 4262 4263 4264 4265 4266 4267 4268 4269 4270 4271 4272 4273 4274 4275 4276 4277 4278 4279 4280 4281 4282 4283 4284 4285 4286 4287 4288 4289 4290 4291 4292 4293 4294 4295 4296 4297 4298 4299 4300 4301 4302 4303 4304 4305 4306 4307 4308 4309 4310 4311 4312 4313 4314 4315 4316 4317 4318 4319 4320 4321 4322 4323 4324 4325 4326 4327 4328 4329 4330 4331 4332 4333 4334 4335 4336 4337 4338 4339 4340 4341 4342 4343 4344 4345 4346 4347 4348 4349 4350 4351 4352 4353 4354 4355 4356 4357 4358 4359 4360 4361 4362 4363 4364 4365 4366 4367 4368 4369 4370 4371 4372 4373 4374 4375 4376 4377 4378 4379 4380 4381 4382 4383 4384 4385 4386 4387 4388 4389 4390 4391 4392 4393 4394 4395 4396 4397 4398 4399 4400 4401 4402 4403 4404 4405 4406 4407 4408 4409 4410 4411 4412 4413 4414 4415 4416 4417 4418 4419 4420 4421 4422 4423 4424 4425 4426 4427 4428 4429 4430 4431 4432 4433 4434 4435 4436 4437 4438 4439 4440 4441 4442 4443 4444 4445 4446 4447 4448 4449 4450 4451 4452 4453 4454 4455 4456 4457 4458 4459 4460 4461 4462 4463 4464 4465 4466 4467 4468 4469 4470 4471 4472 4473 4474 4475 4476 4477 4478 4479 4480 4481 4482 4483 4484 4485 4486 4487 4488 4489 4490 4491 4492 4493 4494 4495 4496 4497 4498 4499 4500 4501 4502 4503 4504 4505 4506 4507 4508 4509 4510 4511 4512 4513 4514 4515 4516 4517 4518 4519 4520 4521 4522 4523 4524 4525 4526 4527 4528 4529 4530 4531 4532 4533 4534 4535 4536 4537 4538 4539 4540 4541 4542 4543 4544 4545 4546 4547 4548 4549 4550 4551 4552 4553 4554 4555 4556 4557 4558 4559 4560 4561 4562 4563 4564 4565 4566 4567 4568 4569 4570 4571 4572 4573 4574 4575 4576 4577 4578 4579 4580 4581 4582 4583 4584 4585 4586 4587 4588 4589 4590 4591 4592 4593 4594 4595 4596 4597 4598 4599 4600 4601 4602 4603 4604 4605 4606 4607 4608 4609 4610 4611 4612 4613 4614 4615 4616 4617 4618 4619 4620 4621 4622 4623 4624 4625 4626 4627 4628 4629 4630 4631 4632 4633 4634 4635 4636 4637 4638 4639 4640 4641 4642 4643 4644 4645 4646 4647 4648 4649 4650 4651 4652 4653 4654 4655 4656 4657 4658 4659 4660 4661 4662 4663 4664 4665 4666 4667 4668 4669 4670 4671 4672 4673 4674 4675 4676 4677 4678 4679 4680 4681 4682 4683 4684 4685 4686 4687 4688 4689 4690 4691 4692 4693 4694 4695 4696 4697 4698 4699 4700 4701 4702 4703 4704 4705 4706 4707 4708 4709 4710 4711 4712 4713 4714 4715 4716 4717 4718 4719 4720 4721 4722 4723 4724 4725 4726 4727 4728 4729 4730 4731 4732 4733 4734 4735 4736 4737 4738 4739 4740 4741 4742 4743 4744 4745 4746 4747 4748 4749 4750 4751 4752 4753 4754 4755 4756 4757 4758 4759 4760 4761 4762 4763 4764 4765 4766 4767 4768 4769 4770 4771 4772 4773 4774 4775 4776 4777 4778 4779 4780 4781 4782 4783 4784 4785 4786 4787 4788 4789 4790 4791 4792 4793 4794 4795 4796 4797 4798 4799 4800 4801 4802 4803 4804 4805 4806 4807 4808 4809 4810 4811 4812 4813 4814 4815 4816 4817 4818 4819 4820 4821 4822 4823 4824 4825 4826 4827 4828 4829 4830 4831 4832 4833 4834 4835 4836 4837 4838 4839 4840 4841 4842 4843 4844 4845 4846 4847 4848 4849 4850 4851 4852 4853 4854 4855 4856 4857 4858 4859 4860 4861 4862 4863 4864 4865 4866 4867 4868 4869 4870 4871 4872 4873 4874 4875 4876 4877 4878 4879 4880 4881 4882 4883 4884 4885 4886 4887 4888 4889 4890 4891 4892 4893 4894 4895 4896 4897 4898 4899 4900 4901 4902 4903 4904 4905 4906 4907 4908 4909 4910 4911 4912 4913 4914 4915 4916 4917 4918 4919 4920 4921 4922 4923 4924 4925 4926 4927 4928 4929 4930 4931 4932 4933 4934 4935 4936 4937 4938 4939 4940 4941 4942 4943 4944 4945 4946 4947 4948 4949 4950 4951 4952 4953 4954 4955 4956 4957 4958 4959 4960 4961 4962 4963 4964 4965 4966 4967 4968 4969 4970 4971 4972 4973 4974 4975 4976 4977 4978 4979 4980 4981 4982 4983 4984 4985 4986 4987 4988 4989 4990 4991 4992 4993 4994 4995 4996 4997 4998 4999 5000 5001 5002 5003 5004 5005 5006 5007 5008 5009 5010 5011 5012 5013 5014 5015 5016 5017 5018 5019 5020 5021 5022 5023 5024 5025 5026 5027 5028 5029 5030 5031 5032 5033 5034 5035 5036 5037 5038 5039 5040 5041 5042 5043 5044 5045 5046 5047 5048 5049 5050 5051 5052 5053 5054 5055 5056 5057 5058 5059 5060 5061 5062 5063 5064 5065 5066 5067 5068 5069 5070 5071 5072 5073 5074 5075 5076 5077 5078 5079 5080 5081 5082 5083 5084 5085 5086 5087 5088 5089 5090 5091 5092 5093 5094 5095 5096 5097 5098 5099 5100 5101 5102 5103 5104 5105 5106 5107 5108 5109 5110 5111 5112 5113 5114 5115 5116 5117 5118 5119 5120 5121 5122 5123 5124 5125 5126 5127 5128 5129 5130 5131 5132 5133 5134 5135 5136 5137 5138 5139 5140 5141 5142 5143 5144 5145 5146 5147 5148 5149 5150 5151 5152 5153 5154 5155 5156 5157 5158 5159 5160 5161 5162 5163 5164 5165 5166 5167 5168 5169 5170 5171 5172 5173 5174 5175 5176 5177 5178 5179 5180 5181 5182 5183 5184 5185 5186 5187 5188 5189 5190 5191 5192 5193 5194 5195 5196 5197 5198 5199 5200 5201 5202 5203 5204 5205 5206 5207 5208 5209 5210 5211 5212 5213 5214 5215 5216 5217 5218 5219 5220 5221 5222 5223 5224 5225 5226 5227 5228 5229 5230 5231 5232 5233 5234 5235 5236 5237 5238 5239 5240 5241 5242 5243 5244 5245 5246 5247 5248 5249 5250 5251 5252 5253 5254 5255 5256 5257 5258 5259 5260 5261 5262 5263 5264 5265 5266 5267 5268 5269 5270 5271 5272 5273 5274 5275 5276 5277 5278 5279 5280 5281 5282 5283 5284 5285 5286 5287 5288 5289 5290 5291 5292 5293 5294 5295 5296 5297 5298 5299 5300 5301 5302 5303 5304 5305 5306 5307 5308 5309 5310 5311 5312 5313 5314 5315 5316 5317 5318 5319 5320 5321 5322 5323 5324 5325 5326 5327 5328 5329 5330 5331 5332 5333 5334 5335 5336 5337 5338 5339 5340 5341 5342 5343 5344 5345 5346 5347 5348 5349 5350 5351 5352 5353 5354 5355 5356 5357 5358 5359 5360 5361 5362 5363 5364 5365 5366 5367 5368 5369 5370 5371 5372 5373 5374 5375 5376 5377 5378 5379 5380 5381 5382 5383 5384 5385 5386 5387 5388 5389 5390 5391 5392 5393 5394 5395 5396 5397 5398 5399 5400 5401 5402 5403 5404 5405 5406 5407 5408 5409 5410 5411 5412 5413 5414 5415 5416 5417 5418 5419 5420 5421 5422 5423 5424 5425 5426 5427 5428 5429 5430 5431 5432 5433 5434 5435 5436 5437 5438 5439 5440 5441 5442 5443 5444 5445 5446 5447 5448 5449 5450 5451 5452 5453 5454 5455 5456 5457 5458 5459 5460 5461 5462 5463 5464 5465 5466 5467 5468 5469 5470 5471 5472 5473 5474 5475 5476 5477 5478 5479 5480 5481 5482 5483 5484 5485 5486 5487 5488 5489 5490 5491 5492 5493 5494 5495 5496 5497 5498 5499 5500 5501 5502 5503 5504 5505 5506 5507 5508 5509 5510 5511 5512 5513 5514 5515 5516 5517 5518 5519 5520 5521 5522 5523 5524 5525 5526 5527 5528 5529 5530 5531 5532 5533 5534 5535 5536 5537 5538 5539 5540 5541 5542 5543 5544 5545 5546 5547 5548 5549 5550 5551 5552 5553 5554 5555 5556 5557 5558 5559 5560 5561 5562 5563 5564 5565 5566 5567 5568 5569 5570 5571 5572 5573 5574 5575 5576 5577 5578 5579 5580 5581 5582 5583 5584 5585 5586 5587 5588 5589 5590 5591 5592 5593 5594 5595 5596 5597 5598 5599 5600 5601 5602 5603 5604 5605 5606 5607 5608 5609 5610 5611 5612 5613 5614 5615 5616 5617 5618 5619 5620 5621 5622 5623 5624 5625 5626 5627 5628 5629 5630 5631 5632 5633 5634 5635 5636 5637 5638 5639 5640 5641 5642 5643 5644 5645 5646 5647 5648 5649 5650 5651 5652 5653 5654 5655 5656 5657 5658 5659 5660 5661 5662 5663 5664 5665 5666 5667 5668 5669 5670 5671 5672 5673 5674 5675 5676 5677 5678 5679 5680 5681 5682 5683 5684 5685 5686 5687 5688 5689 5690 5691 5692 5693 5694 5695 5696 5697 5698 5699 5700 5701 5702 5703 5704 5705 5706 5707 5708 5709 5710 5711 5712 5713 5714 5715 5716 5717 5718 5719 5720 5721 5722 5723 5724 5725 5726 5727 5728 5729 5730 5731 5732 5733 5734 5735 5736 5737 5738 5739 5740 5741 5742 5743 5744 5745 5746 5747 5748 5749 5750 5751 5752 5753 5754 5755 5756 5757 5758 5759 5760 5761 5762 5763 5764 5765 5766 5767 5768 5769 5770 5771 5772 5773 5774 5775 5776 5777 5778 5779 5780 5781 5782 5783 5784 5785 5786 5787 5788 5789 5790 5791 5792 5793 5794 5795 5796 5797 5798 5799 5800 5801 5802 5803 5804 5805 5806 5807 5808 5809 5810 5811 5812 5813 5814 5815 5816 5817 5818 5819 5820 5821 5822 5823 5824 5825 5826 5827 5828 5829 5830 5831 5832 5833 5834 5835 5836 5837 5838 5839 5840 5841 5842 5843 5844 5845 5846 5847 5848 5849 5850 5851 5852 5853 5854 5855 5856 5857 5858 5859 5860 5861 5862 5863 5864 5865 5866 5867 5868 5869 5870 5871 5872 5873 5874 5875 5876 5877 5878 5879 5880 5881 5882 5883 5884 5885 5886 5887 5888 5889 5890 5891 5892 5893 5894 5895 5896 5897 5898 5899 5900 5901 5902 5903 5904 5905 5906 5907 5908 5909 5910 5911 5912 5913 5914 5915 5916 5917 5918 5919 5920 5921 5922 5923 5924 5925 5926 5927 5928 5929 5930 5931 5932 5933 5934 5935 5936 5937 5938 5939 5940 5941 5942 5943 5944 5945 5946 5947 5948 5949 5950 5951 5952 5953 5954 5955 5956 5957 5958 5959 5960 5961 5962 5963 5964 5965 5966 5967 5968 5969 5970 5971 5972 5973 5974 5975 5976 5977 5978 5979 5980 5981 5982 5983 5984 5985 5986 5987 5988 5989 5990 5991 5992 5993 5994 5995 5996 5997 5998 5999 6000 6001 6002 6003 6004 6005 6006 6007 6008 6009 6010 6011 6012 6013 6014 6015 6016 6017 6018 6019 6020 6021 6022 6023 6024 6025 6026 6027 6028 6029 6030 6031 6032 6033 6034 6035 6036 6037 6038 6039 6040 6041 6042 6043 6044 6045 6046 6047 6048 6049 6050 6051 6052 6053 6054 6055 6056 6057 6058 6059 6060 6061 6062 6063 6064 6065 6066 6067 6068 6069 6070 6071 6072 6073 6074 6075 6076 6077 6078 6079 6080 6081 6082 6083 6084 6085 6086 6087 6088 6089 6090 6091 6092 6093 6094 6095 6096 6097 6098 6099 6100 6101 6102 6103 6104 6105 6106 6107 6108 6109 6110 6111 6112 6113 6114 6115 6116 6117 6118 6119 6120 6121 6122 6123 6124 6125 6126 6127 6128 6129 6130 6131 6132 6133 6134 6135 6136 6137 6138 6139 6140 6141 6142 6143 6144 6145 6146 6147 6148 6149 6150 6151 6152 6153 6154 6155 6156 6157 6158 6159 6160 6161 6162 6163 6164 6165 6166 6167 6168 6169 6170 6171 6172 6173 6174 6175 6176 6177 6178 6179 6180 6181 6182 6183 6184 6185 6186 6187 6188 6189 6190 6191 6192 6193 6194 6195 6196 6197 6198 6199 6200 6201 6202 6203 6204 6205 6206 6207 6208 6209 6210 6211 6212 6213 6214 6215 6216 6217 6218 6219 6220 6221 6222 6223 6224 6225 6226 6227 6228 6229 6230 6231 6232 6233 6234 6235 6236 6237 6238 6239 6240 6241 6242 6243 6244 6245 6246 6247 6248 6249 6250 6251 6252 6253 6254 6255 6256 6257 6258 6259 6260 6261 6262 6263 6264 6265 6266 6267 6268 6269 6270 6271 6272 6273 6274 6275 6276 6277 6278 6279 6280 6281 6282 6283 6284 6285 6286 6287 6288 6289 6290 6291 6292 6293 6294 6295 6296 6297 6298 6299 6300 6301 6302 6303 6304 6305 6306 6307 6308 6309 6310 6311 6312 6313 6314 6315 6316 6317 6318 6319 6320 6321 6322 6323 6324 6325 6326 6327 6328 6329 6330 6331 6332 6333 6334 6335 6336 6337 6338 6339 6340 6341 6342 6343 6344 6345 6346 6347 6348 6349 6350 6351 6352 6353 6354 6355 6356 6357 6358 6359 6360 6361 6362 6363 6364 6365 6366 6367 6368 6369 6370 6371 6372 6373 6374 6375 6376 6377 6378 6379 6380 6381 6382 6383 6384 6385 6386 6387 6388 6389 6390 6391 6392 6393 6394 6395 6396 6397 6398 6399 6400 6401 6402 6403 6404 6405 6406 6407 6408 6409 6410 6411 6412 6413 6414 6415 6416 6417 6418 6419 6420 6421 6422 6423 6424 6425 6426 6427 6428 6429 6430 6431 6432 6433 6434 6435 6436 6437 6438 6439 6440 6441 6442 6443 6444 6445 6446 6447 6448 6449 6450 6451 6452 6453 6454 6455 6456 6457 6458 6459 6460 6461 6462 6463 6464 6465 6466 6467 6468 6469 6470 6471 6472 6473 6474 6475 6476 6477 6478 6479 6480 6481 6482 6483 6484 6485 6486 6487 6488 6489 6490 6491 6492 6493 6494 6495 6496 6497 6498 6499 6500 6501 6502 6503 6504 6505 6506 6507 6508 6509 6510 6511 6512 6513 6514 6515 6516 6517 6518 6519 6520 6521 6522 6523 6524 6525 6526 6527 6528 6529 6530 6531 6532 6533 6534 6535 6536 6537 6538 6539 6540 6541 6542 6543 6544 6545 6546 6547 6548 6549 6550 6551 6552 6553 6554 6555 6556 6557 6558 6559 6560 6561 6562 6563 6564 6565 6566 6567 6568 6569 6570 6571 6572 6573 6574 6575 6576 6577 6578 6579 6580 6581 6582 6583 6584 6585 6586 6587 6588 6589 6590 6591 6592 6593 6594 6595 6596 6597 6598 6599 6600 6601 6602 6603 6604 6605 6606 6607 6608 6609 6610 6611 6612 6613 6614 6615 6616 6617 6618 6619 6620 6621 6622 6623 6624 6625 6626 6627 6628 6629 6630 6631 6632 6633 6634 6635 6636 6637 6638 6639 6640 6641 6642 6643 6644 6645 6646 6647 6648 6649 6650 6651 6652 6653 6654 6655 6656 6657 6658 6659 6660 6661 6662 6663 6664 6665 6666 6667 6668 6669 6670 6671 6672 6673 6674 6675 6676 6677 6678 6679 6680 6681 6682 6683 6684 6685 6686 6687 6688 6689 6690 6691 6692 6693 6694 6695 6696 6697 6698 6699 6700 6701 6702 6703 6704 6705 6706 6707 6708 6709 6710 6711 6712 6713 6714 6715 6716 6717 6718 6719 6720 6721 6722 6723 6724 6725 6726 6727 6728 6729 6730 6731 6732 6733 6734 6735 6736 6737 6738 6739 6740 6741 6742 6743 6744 6745 6746 6747 6748 6749 6750 6751 6752 6753 6754 6755 6756 6757 6758 6759 6760 6761 6762 6763 6764 6765 6766 6767 6768 6769 6770 6771 6772 6773 6774 6775 6776 6777 6778 6779 6780 6781 6782 6783 6784 6785 6786 6787 6788 6789 6790 6791 6792 6793 6794 6795 6796 6797 6798 6799 6800 6801 6802 6803 6804 6805 6806 6807 6808 6809 6810 6811 6812 6813 6814 6815 6816 6817 6818 6819 6820 6821 6822 6823 6824 6825 6826 6827 6828 6829 6830 6831 6832 6833 6834 6835 6836 6837 6838 6839 6840 6841 6842 6843 6844 6845 6846 6847 6848 6849 6850 6851 6852 6853 6854 6855 6856 6857 6858 6859 6860 6861 6862 6863 6864 6865 6866 6867 6868 6869 6870 6871 6872 6873 6874 6875 6876 6877 6878 6879 6880 6881 6882 6883 6884 6885 6886 6887 6888 6889 6890 6891 6892 6893 6894 6895 6896 6897 6898 6899 6900 6901 6902 6903 6904 6905 6906 6907 6908 6909 6910 6911 6912 6913 6914 6915 6916 6917 6918 6919 6920 6921 6922 6923 6924 6925 6926 6927 6928 6929 6930 6931 6932 6933 6934 6935 6936 6937 6938 6939 6940 6941 6942 6943 6944 6945 6946 6947 6948 6949 6950 6951 6952 6953 6954 6955 6956 6957 6958 6959 6960 6961 6962 6963 6964 6965 6966 6967 6968 6969 6970 6971 6972 6973 6974 6975 6976 6977 6978 6979 6980 6981 6982 6983 6984 6985 6986 6987 6988 6989 6990 6991 6992 6993 6994 6995 6996 6997 6998 6999 7000 7001 7002 7003 7004 7005 7006 7007 7008 7009 7010 7011 7012 7013 7014 7015 7016 7017 7018 7019 7020 7021 7022 7023 7024 7025 7026 7027 7028 7029 7030 7031 7032 7033 7034 7035 7036 7037 7038 7039 7040 7041 7042 7043 7044 7045 7046 7047 7048 7049 7050 7051 7052 7053 7054 7055 7056 7057 7058 7059 7060 7061 7062 7063 7064 7065 7066 7067 7068 7069 7070 7071 7072 7073 7074 7075 7076 7077 7078 7079 7080 7081 7082 7083 7084 7085 7086 7087 7088 7089 7090 7091 7092 7093 7094 7095 7096 7097 7098 7099 7100 7101 7102 7103 7104 7105 7106 7107 7108 7109 7110 7111 7112 7113 7114 7115 7116 7117 7118 7119 7120 7121 7122 7123 7124 7125 7126 7127 7128 7129 7130 7131 7132 7133 7134 7135 7136 7137 7138 7139 7140 7141 7142 7143 7144 7145 7146 7147 7148 7149 7150 7151 7152 7153 7154 7155 7156 7157 7158 7159 7160 7161 7162 7163 7164 7165 7166 7167 7168 7169 7170 7171 7172 7173 7174 7175 7176 7177 7178 7179 7180 7181 7182 7183 7184 7185 7186 7187 7188 7189 7190 7191 7192 7193 7194 7195 7196 7197 7198 7199 7200 7201 7202 7203 7204 7205 7206 7207 7208 7209 7210 7211 7212 7213 7214 7215 7216 7217 7218 7219 7220 7221 7222 7223 7224 7225 7226 7227 7228 7229 7230 7231 7232 7233 7234 7235 7236 7237 7238 7239 7240 7241 7242 7243 7244 7245 7246 7247 7248 7249 7250 7251 7252 7253 7254 7255 7256 7257 7258 7259 7260 7261 7262 7263 7264 7265 7266 7267 7268 7269 7270 7271 7272 7273 7274 7275 7276 7277 7278 7279 7280 7281 7282 7283 7284 7285 7286 7287 7288 7289 7290 7291 7292 7293 7294 7295 7296 7297 7298 7299 7300 7301 7302 7303 7304 7305 7306 7307 7308 7309 7310 7311 7312 7313 7314 7315 7316 7317 7318 7319 7320 7321 7322 7323 7324 7325 7326 7327 7328 7329 7330 7331 7332 7333 7334 7335 7336 7337 7338 7339 7340 7341 7342 7343 7344 7345 7346 7347 7348 7349 7350 7351 7352 7353 7354 7355 7356 7357 7358 7359 7360 7361 7362 7363 7364 7365 7366 7367 7368 7369 7370 7371 7372 7373 7374 7375 7376 7377 7378 7379 7380 7381 7382 7383 7384 7385 7386 7387 7388 7389 7390 7391 7392 7393 7394 7395 7396 7397 7398 7399 7400 7401 7402 7403 7404 7405 7406 7407 7408 7409 7410 7411 7412 7413 7414 7415 7416 7417 7418 7419 7420 7421 7422 7423 7424 7425 7426 7427 7428 7429 7430 7431 7432 7433 7434 7435 7436 7437 7438 7439 7440 7441 7442 7443 7444 7445 7446 7447 7448 7449 7450 7451 7452 7453 7454 7455 7456 7457 7458 7459 7460 7461 7462 7463 7464 7465 7466 7467 7468 7469 7470 7471 7472 7473 7474 7475 7476 7477 7478 7479 7480 7481 7482 7483 7484 7485 7486 7487 7488 7489 7490 7491 7492 7493 7494 7495 7496 7497 7498 7499 7500 7501 7502 7503 7504 7505 7506 7507 7508 7509 7510 7511 7512 7513 7514 7515 7516 7517 7518 7519 7520 7521 7522 7523 7524 7525 7526 7527 7528 7529 7530 7531 7532 7533 7534 7535 7536 7537 7538 7539 7540 7541 7542 7543 7544 7545 7546 7547 7548 7549 7550 7551 7552 7553 7554 7555 7556 7557 7558 7559 7560 7561 7562 7563 7564 7565 7566 7567 7568 7569 7570 7571 7572 7573 7574 7575 7576 7577 7578 7579 7580 7581 7582 7583 7584 7585 7586 7587 7588 7589 7590 7591 7592 7593 7594 7595 7596 7597 7598 7599 7600 7601 7602 7603 7604 7605 7606 7607 7608 7609 7610 7611 7612 7613 7614 7615 7616 7617 7618 7619 7620 7621 7622 7623 7624 7625 7626 7627 7628 7629 7630 7631 7632 7633 7634 7635 7636 7637 7638 7639 7640 7641 7642 7643 7644 7645 7646 7647 7648 7649 7650 7651 7652 7653 7654 7655 7656 7657 7658 7659 7660 7661 7662 7663 7664 7665 7666 7667 7668 7669 7670 7671 7672 7673 7674 7675 7676 7677 7678 7679 7680 7681 7682 7683 7684 7685 7686 7687 7688 7689 7690 7691 7692 7693 7694 7695 7696 7697 7698 7699 7700 7701 7702 7703 7704 7705 7706 7707 7708 7709 7710 7711 7712 7713 7714 7715 7716 7717 7718 7719 7720 7721 7722 7723 7724 7725 7726 7727 7728 7729 7730 7731 7732 7733 7734 7735 7736 7737 7738 7739 7740 7741 7742 7743 7744 7745 7746 7747 7748 7749 7750 7751 7752 7753 7754 7755 7756 7757 7758 7759 7760 7761 7762 7763 7764 7765 7766 7767 7768 7769 7770 7771 7772 7773 7774 7775 7776 7777 7778 7779 7780 7781 7782 7783 7784 7785 7786 7787 7788 7789 7790 7791 7792 7793 7794 7795 7796 7797 7798 7799 7800 7801 7802 7803 7804 7805 7806 7807 7808 7809 7810 7811 7812 7813 7814 7815 7816 7817 7818 7819 7820 7821 7822 7823 7824 7825 7826 7827 7828 7829 7830 7831 7832 7833 7834 7835 7836 7837 7838 7839 7840 7841 7842 7843 7844 7845 7846 7847 7848 7849 7850 7851 7852 7853 7854 7855 7856 7857 7858 7859 7860 7861 7862 7863 7864 7865 7866 7867 7868 7869 7870 7871 7872 7873 7874 7875 7876 7877 7878 7879 7880 7881 7882 7883 7884 7885 7886 7887 7888 7889 7890 7891 7892 7893 7894 7895 7896 7897 7898 7899 7900 7901 7902 7903 7904 7905 7906 7907 7908 7909 7910 7911 7912 7913 7914 7915 7916 7917 7918 7919 7920 7921 7922 7923 7924 7925 7926 7927 7928 7929 7930 7931 7932 7933 7934 7935 7936 7937 7938 7939 7940 7941 7942 7943 7944 7945 7946 7947 7948 7949 7950 7951 7952 7953 7954 7955 7956 7957 7958 7959 7960 7961 7962 7963 7964 7965 7966 7967 7968 7969 7970 7971 7972 7973 7974 7975 7976 7977 7978 7979 7980 7981 7982 7983 7984 7985 7986 7987 7988 7989 7990 7991 7992 7993 7994 7995 7996 7997 7998 7999 8000 8001 8002 8003 8004 8005 8006 8007 8008 8009 8010 8011 8012 8013 8014 8015 8016 8017 8018 8019 8020 8021 8022 8023 8024 8025 8026 8027 8028 8029 8030 8031 8032 8033 8034 8035 8036 8037 8038 8039 8040 8041 8042 8043 8044 8045 8046 8047 8048 8049 8050 8051 8052 8053 8054 8055 8056 8057 8058 8059 8060 8061 8062 8063 8064 8065 8066 8067 8068 8069 8070 8071 8072 8073 8074 8075 8076 8077 8078 8079 8080 8081 8082 8083 8084 8085 8086 8087 8088 8089 8090 8091 8092 8093 8094 8095 8096 8097 8098 8099 8100 8101 8102 8103 8104 8105 8106 8107 8108 8109 8110 8111 8112 8113 8114 8115 8116 8117 8118 8119 8120 8121 8122 8123 8124 8125 8126 8127 8128 8129 8130 8131 8132 8133 8134 8135 8136 8137 8138 8139 8140 8141 8142 8143 8144 8145 8146 8147 8148 8149 8150 8151 8152 8153 8154 8155 8156 8157 8158 8159 8160 8161 8162 8163 8164 8165 8166 8167 8168 8169 8170 8171 8172 8173 8174 8175 8176 8177 8178 8179 8180 8181 8182 8183 8184 8185 8186 8187 8188 8189 8190 8191 8192 8193 8194 8195 8196 8197 8198 8199 8200 8201 8202 8203 8204 8205 8206 8207 8208 8209 8210 8211 8212 8213 8214 8215 8216 8217 8218 8219 8220 8221 8222 8223 8224 8225 8226 8227 8228 8229 8230 8231 8232 8233 8234 8235 8236 8237 8238 8239 8240 8241 8242 8243 8244 8245 8246 8247 8248 8249 8250 8251 8252 8253 8254 8255 8256 8257 8258 8259 8260 8261 8262 8263 8264 8265 8266 8267 8268 8269 8270 8271 8272 8273 8274 8275 8276 8277 8278 8279 8280 8281 8282 8283 8284 8285 8286 8287 8288 8289 8290 8291 8292 8293 8294 8295 8296 8297 8298 8299 8300 8301 8302 8303 8304 8305 8306 8307 8308 8309 8310 8311 8312 8313 8314 8315 8316 8317 8318 8319 8320 8321 8322 8323 8324 8325 8326 8327 8328 8329 8330 8331 8332 8333 8334 8335 8336 8337 8338 8339 8340 8341 8342 8343 8344 8345 8346 8347 8348 8349 8350 8351 8352 8353 8354 8355 8356 8357 8358 8359 8360 8361 8362 8363 8364 8365 8366 8367 8368 8369 8370 8371 8372 8373 8374 8375 8376 8377 8378 8379 8380 8381 8382 8383 8384 8385 8386 8387 8388 8389 8390 8391 8392 8393 8394 8395 8396 8397 8398 8399 8400 8401 8402 8403 8404 8405 8406 8407 8408 8409 8410 8411 8412 8413 8414 8415 8416 8417 8418 8419 8420 8421 8422 8423 8424 8425 8426 8427 8428 8429 8430 8431 8432 8433 8434 8435 8436 8437 8438 8439 8440 8441 8442 8443 8444 8445 8446 8447 8448 8449 8450 8451 8452 8453 8454 8455 8456 8457 8458 8459 8460 8461 8462 8463 8464 8465 8466 8467 8468 8469 8470 8471 8472 8473 8474 8475 8476 8477 8478 8479 8480 8481 8482 8483 8484 8485 8486 8487 8488 8489 8490 8491 8492 8493 8494 8495 8496 8497 8498 8499 8500 8501 8502 8503 8504 8505 8506 8507 8508 8509 8510 8511 8512 8513 8514 8515 8516 8517 8518 8519 8520 8521 8522 8523 8524 8525 8526 8527 8528 8529 8530 8531 8532 8533 8534 8535 8536 8537 8538 8539 8540 8541 8542 8543 8544 8545 8546 8547 8548 8549 8550 8551 8552 8553 8554 8555 8556 8557 8558 8559 8560 8561 8562 8563 8564 8565 8566 8567 8568 8569 8570 8571 8572 8573 8574 8575 8576 8577 8578 8579 8580 8581 8582 8583 8584 8585 8586 8587 8588 8589 8590 8591 8592 8593 8594 8595 8596 8597 8598 8599 8600 8601 8602 8603 8604 8605 8606 8607 8608 8609 8610 8611 8612 8613 8614 8615 8616 8617 8618 8619 8620 8621 8622 8623 8624 8625 8626 8627 8628 8629 8630 8631 8632 8633 8634 8635 8636 8637 8638 8639 8640 8641 8642 8643 8644 8645 8646 8647 8648 8649 8650 8651 8652 8653 8654 8655 8656 8657 8658 8659 8660 8661 8662 8663 8664 8665 8666 8667 8668 8669 8670 8671 8672 8673 8674 8675 8676 8677 8678 8679 8680 8681 8682 8683 8684 8685 8686 8687 8688 8689 8690 8691 8692 8693 8694 8695 8696 8697 8698 8699 8700 8701 8702 8703 8704 8705 8706 8707 8708 8709 8710 8711 8712 8713 8714 8715 8716 8717 8718 8719 8720 8721 8722 8723 8724 8725 8726 8727 8728 8729 8730 8731 8732 8733 8734 8735 8736 8737 8738 8739 8740 8741 8742 8743 8744 8745 8746 8747 8748 8749 8750 8751 8752 8753 8754 8755 8756 8757 8758 8759 8760 8761 8762 8763 8764 8765 8766 8767 8768 8769 8770 8771 8772 8773 8774 8775 8776 8777 8778 8779 8780 8781 8782 8783 8784 8785 8786 8787 8788 8789 8790 8791 8792 8793 8794 8795 8796 8797 8798 8799 8800 8801 8802 8803 8804 8805 8806 8807 8808 8809 8810 8811 8812 8813 8814 8815 8816 8817 8818 8819 8820 8821 8822 8823 8824 8825 8826 8827 8828 8829 8830 8831 8832 8833 8834 8835 8836 8837 8838 8839 8840 8841 8842 8843 8844 8845 8846 8847 8848 8849 8850 8851 8852 8853 8854 8855 8856 8857 8858 8859 8860 8861 8862 8863 8864 8865 8866 8867 8868 8869 8870 8871 8872 8873 8874 8875 8876 8877 8878 8879 8880 8881 8882 8883 8884 8885 8886 8887 8888 8889 8890 8891 8892 8893 8894 8895 8896 8897 8898 8899 8900 8901 8902 8903 8904 8905 8906 8907 8908 8909 8910 8911 8912 8913 8914 8915 8916 8917 8918 8919 8920 8921 8922 8923 8924 8925 8926 8927 8928 8929 8930 8931 8932 8933 8934 8935 8936 8937 8938 8939 8940 8941 8942 8943 8944 8945 8946 8947 8948 8949 8950 8951 8952 8953 8954 8955 8956 8957 8958 8959 8960 8961 8962 8963 8964 8965 8966 8967 8968 8969 8970 8971 8972 8973 8974 8975 8976 8977 8978 8979 8980 8981 8982 8983 8984 8985 8986 8987 8988 8989 8990 8991 8992 8993 8994 8995 8996 8997 8998 8999 9000 9001 9002 9003 9004 9005 9006 9007 9008 9009 9010 9011 9012 9013 9014 9015 9016 9017 9018 9019 9020 9021 9022 9023 9024 9025 9026 9027 9028 9029 9030 9031 9032 9033 9034 9035 9036 9037 9038 9039 9040 9041 9042 9043 9044 9045 9046 9047 9048 9049 9050 9051 9052 9053 9054 9055 9056 9057 9058 9059 9060 9061 9062 9063 9064 9065 9066 9067 9068 9069 9070 9071 9072 9073 9074 9075 9076 9077 9078 9079 9080 9081 9082 9083 9084 9085 9086 9087 9088 9089 9090 9091 9092 9093 9094 9095 9096 9097 9098 9099 9100 9101 9102 9103 9104 9105 9106 9107 9108 9109 9110 9111 9112 9113 9114 9115 9116 9117 9118 9119 9120 9121 9122 9123 9124 9125 9126 9127 9128 9129 9130 9131 9132 9133 9134 9135 9136 9137 9138 9139 9140 9141 9142 9143 9144 9145 9146 9147 9148 9149 9150 9151 9152 9153 9154 9155 9156 9157 9158 9159 9160 9161 9162 9163 9164 9165 9166 9167 9168 9169 9170 9171 9172 9173 9174 9175 9176 9177 9178 9179 9180 9181 9182 9183 9184 9185 9186 9187 9188 9189 9190 9191 9192 9193 9194 9195 9196 9197 9198 9199 9200 9201 9202 9203 9204 9205 9206 9207 9208 9209 9210 9211 9212 9213 9214 9215 9216 9217 9218 9219 9220 9221 9222 9223 9224 9225 9226 9227 9228 9229 9230 9231 9232 9233 9234 9235 9236 9237 9238 9239 9240 9241 9242 9243 9244 9245 9246 9247 9248 9249 9250 9251 9252 9253 9254 9255 9256 9257 9258 9259 9260 9261 9262 9263 9264 9265 9266 9267 9268 9269 9270 9271 9272 9273 9274 9275 9276 9277 9278 9279 9280 9281 9282 9283 9284 9285 9286 9287 9288 9289 9290 9291 9292 9293 9294 9295 9296 9297 9298 9299 9300 9301 9302 9303 9304 9305 9306 9307 9308 9309 9310 9311 9312 9313 9314 9315 9316 9317 9318 9319 9320 9321 9322 9323 9324 9325 9326 9327 9328 9329 9330 9331 9332 9333 9334 9335 9336 9337 9338 9339 9340 9341 9342 9343 9344 9345 9346 9347 9348 9349 9350 9351 9352 9353 9354 9355 9356 9357 9358 9359 9360 9361 9362 9363 9364 9365 9366 9367 9368 9369 9370 9371 9372 9373 9374 9375 9376 9377 9378 9379 9380 9381 9382 9383 9384 9385 9386 9387 9388 9389 9390 9391 9392 9393 9394 9395 9396 9397 9398 9399 9400 9401 9402 9403 9404 9405 9406 9407 9408 9409 9410 9411 9412 9413 9414 9415 9416 9417 9418 9419 9420 9421 9422 9423 9424 9425 9426 9427 9428 9429 9430 9431 9432 9433 9434 9435 9436 9437 9438 9439 9440 9441 9442 9443 9444 9445 9446 9447 9448 9449 9450 9451 9452 9453 9454 9455 9456 9457 9458 9459 9460 9461 9462 9463 9464 9465 9466 9467 9468 9469 9470 9471 9472 9473 9474 9475 9476 9477 9478 9479 9480 9481 9482 9483 9484 9485 9486 9487 9488 9489 9490 9491 9492 9493 9494 9495 9496 9497 9498 9499 9500 9501 9502 9503 9504 9505 9506 9507 9508 9509 9510 9511 9512 9513 9514 9515 9516 9517 9518 9519 9520 9521 9522 9523 9524 9525 9526 9527 9528 9529 9530 9531 9532 9533 9534 9535 9536 9537 9538 9539 9540 9541 9542 9543 9544 9545 9546 9547 9548 9549 9550 9551 9552 9553 9554 9555 9556 9557 9558 9559 9560 9561 9562 9563 9564 9565 9566 9567 9568 9569 9570 9571 9572 9573 9574 9575 9576 9577 9578 9579 9580 9581 9582 9583 9584 9585 9586 9587 9588 9589 9590 9591 9592 9593 9594 9595 9596 9597 9598 9599 9600 9601 9602 9603 9604 9605 9606 9607 9608 9609 9610 9611 9612 9613 9614 9615 9616 9617 9618 9619 9620 9621 9622 9623 9624 9625 9626 9627 9628 9629 9630 9631 9632 9633 9634 9635 9636 9637 9638 9639 9640 9641 9642 9643 9644 9645 9646 9647 9648 9649 9650 9651 9652 9653 9654 9655 9656 9657 9658 9659 9660 9661 9662 9663 9664 9665 9666 9667 9668 9669 9670 9671 9672 9673 9674 9675 9676 9677 9678 9679 9680 9681 9682 9683 9684 9685 9686 9687 9688 9689 9690 9691 9692 9693 9694 9695 9696 9697 9698 9699 9700 9701 9702 9703 9704 9705 9706 9707 9708 9709 9710 9711 9712 9713 9714 9715 9716 9717 9718 9719 9720 9721 9722 9723 9724 9725 9726 9727 9728 9729 9730 9731 9732 9733 9734 9735 9736 9737 9738 9739 9740 9741 9742 9743 9744 9745 9746 9747 9748 9749 9750 9751 9752 9753 9754 9755 9756 9757 9758 9759 9760 9761 9762 9763 9764 9765 9766 9767 9768 9769 9770 9771 9772 9773 9774 9775 9776 9777 9778 9779 9780 9781 9782 9783 9784 9785 9786 9787 9788 9789 9790 9791 9792 9793 9794 9795 9796 9797 9798 9799 9800 9801 9802 9803 9804 9805 9806 9807 9808 9809 9810 9811 9812 9813 9814 9815 9816 9817 9818 9819 9820 9821 9822 9823 9824 9825 9826 9827 9828 9829 9830 9831 9832 9833 9834 9835 9836 9837 9838 9839 9840 9841 9842 9843 9844 9845 9846 9847 9848 9849 9850 9851 9852 9853 9854 9855 9856 9857 9858 9859 9860 9861 9862 9863 9864 9865 9866 9867 9868 9869 9870 9871 9872 9873 9874 9875 9876 9877 9878 9879 9880 9881 9882 9883 9884 9885 9886 9887 9888 9889 9890 9891 9892 9893 9894 9895 9896 9897 9898 9899 9900 9901 9902 9903 9904 9905 9906 9907 9908 9909 9910 9911 9912 9913 9914 9915 9916 9917 9918 9919 9920 9921 9922 9923 9924 9925 9926 9927 9928 9929 9930 9931 9932 9933 9934 9935 9936 9937 9938 9939 9940 9941 9942 9943 9944 9945 9946 9947 9948 9949 9950 9951 9952 9953 9954 9955 9956 9957 9958 9959 9960 9961 9962 9963 9964 9965 9966 9967 9968 9969 9970 9971 9972 9973 9974 9975 9976 9977 9978 9979 9980 9981 9982 9983 9984 9985 9986 9987 9988 9989 9990 9991 9992 9993 9994 9995 9996 9997 9998 9999 10000 10001 10002 10003 10004 10005 10006 10007 10008 10009 10010 10011 10012 10013 10014 10015 10016 10017 10018 10019 10020 10021 10022 10023 10024 10025 10026 10027 10028 10029 10030 10031 10032 10033 10034 10035 10036 10037 10038 10039 10040 10041 10042 10043 10044 10045 10046 10047 10048 10049 10050 10051 10052 10053 10054 10055 10056 10057 10058 10059 10060 10061 10062 10063 10064 10065 10066 10067 10068 10069 10070 10071 10072 10073 10074 10075 10076 10077 10078 10079 10080 10081 10082 10083 10084 10085 10086 10087 10088 10089 10090 10091 10092 10093 10094 10095 10096 10097 10098 10099 10100 10101 10102 10103 10104 10105 10106 10107 10108 10109 10110 10111 10112 10113 10114 10115 10116 10117 10118 10119 10120 10121 10122 10123 10124 10125 10126 10127 10128 10129 10130 10131 10132 10133 10134 10135 10136 10137 10138 10139 10140 10141 10142 10143 10144 10145 10146 10147 10148 10149 10150 10151 10152 10153 10154 10155 10156 10157 10158 10159 10160 10161 10162 10163 10164 10165 10166 10167 10168 10169 10170 10171 10172 10173 10174 10175 10176 10177 10178 10179 10180 10181 10182 10183 10184 10185 10186 10187 10188 10189 10190 10191 10192 10193 10194 10195 10196 10197 10198 10199 10200 10201 10202 10203 10204 10205 10206 10207 10208 10209 10210 10211 10212 10213 10214 10215 10216 10217 10218 10219 10220 10221 10222 10223 10224 10225 10226 10227 10228 10229 10230 10231 10232 10233 10234 10235 10236 10237 10238 10239 10240 10241 10242 10243 10244 10245 10246 10247 10248 10249 10250 10251 10252 10253 10254 10255 10256 10257 10258 10259 10260 10261 10262 10263 10264 10265 10266 10267 10268 10269 10270 10271 10272 10273 10274 10275 10276 10277 10278 10279 10280 10281 10282 10283 10284 10285 10286 10287 10288 10289 10290 10291 10292 10293 10294 10295 10296 10297 10298 10299 10300 10301 10302 10303 10304 10305 10306 10307 10308 10309 10310 10311 10312 10313 10314 10315 10316 10317 10318 10319 10320 10321 10322 10323 10324 10325 10326 10327 10328 10329 10330 10331 10332 10333 10334 10335 10336 10337 10338 10339 10340 10341 10342 10343 10344 10345 10346 10347 10348 10349 10350 10351 10352 10353 10354 10355 10356 10357 10358 10359 10360 10361 10362 10363 10364 10365 10366 10367 10368 10369 10370 10371 10372 10373 10374 10375 10376 10377 10378 10379 10380 10381 10382 10383 10384 10385 10386 10387 10388 10389 10390 10391 10392 10393 10394 10395 10396 10397 10398 10399 10400 10401 10402 10403 10404 10405 10406 10407 10408 10409 10410 10411 10412 10413 10414 10415 10416 10417 10418 10419 10420 10421 10422 10423 10424 10425 10426 10427 10428 10429 10430 10431 10432 10433 10434 10435 10436 10437 10438 10439 10440 10441 10442 10443 10444 10445 10446 10447 10448 10449 10450 10451 10452 10453 10454 10455 10456 10457 10458 10459 10460 10461 10462 10463 10464 10465 10466 10467 10468 10469 10470 10471 10472 10473 10474 10475 10476 10477 10478 10479 10480 10481 10482 10483 10484 10485 10486 10487 10488 10489 10490 10491 10492 10493 10494 10495 10496 10497 10498 10499 10500 10501 10502 10503 10504 10505 10506 10507 10508 10509 10510 10511 10512 10513 10514 10515 10516 10517 10518 10519 10520 10521 10522 10523 10524 10525 10526 10527 10528 10529 10530 10531 10532 10533 10534 10535 10536 10537 10538 10539 10540 10541 10542 10543 10544 10545 10546 10547 10548 10549 10550 10551 10552 10553 10554 10555 10556 10557 10558 10559 10560 10561 10562 10563 10564 10565 10566 10567 10568 10569 10570 10571 10572 10573 10574 10575 10576 10577 10578 10579 10580 10581 10582 10583 10584 10585 10586 10587 10588 10589 10590 10591 10592 10593 10594 10595 10596 10597 10598 10599 10600 10601 10602 10603 10604 10605 10606 10607 10608 10609 10610 10611 10612 10613 10614 10615 10616 10617 10618 10619 10620 10621 10622 10623 10624 10625 10626 10627 10628 10629 10630 10631 10632 10633 10634 10635 10636 10637 10638 10639 10640 10641 10642 10643 10644 10645 10646 10647 10648 10649 10650 10651 10652 10653 10654 10655 10656 10657 10658 10659 10660 10661 10662 10663 10664 10665 10666 10667 10668 10669 10670 10671 10672 10673 10674 10675 10676 10677 10678 10679 10680 10681 10682 10683 10684 10685 10686 10687 10688 10689 10690 10691 10692 10693 10694 10695 10696 10697 10698 10699 10700 10701 10702 10703 10704 10705 10706 10707 10708 10709 10710 10711 10712 10713 10714 10715 10716 10717 10718 10719 10720 10721 10722 10723 10724 10725 10726 10727 10728 10729 10730 10731 10732 10733 10734 10735 10736 10737 10738 10739 10740 10741 10742 10743 10744 10745 10746 10747 10748 10749 10750 10751 10752 10753 10754 10755 10756 10757 10758 10759 10760 10761 10762 10763 10764 10765 10766 10767 10768 10769 10770 10771 10772 10773 10774 10775 10776 10777 10778 10779 10780 10781 10782 10783 10784 10785 10786 10787 10788 10789 10790 10791 10792 10793 10794 10795 10796 10797 10798 10799 10800 10801 10802 10803 10804 10805 10806 10807 10808 10809 10810 10811 10812 10813 10814 10815 10816 10817 10818 10819 10820 10821 10822 10823 10824 10825 10826 10827 10828 10829 10830 10831 10832 10833 10834 10835 10836 10837 10838 10839 10840 10841 10842 10843 10844 10845 10846 10847 10848 10849 10850 10851 10852 10853 10854 10855 10856 10857 10858 10859 10860 10861 10862 10863 10864 10865 10866 10867 10868 10869 10870 10871 10872 10873 10874 10875 10876 10877 10878 10879 10880 10881 10882 10883 10884 10885 10886 10887 10888 10889 10890 10891 10892 10893 10894 10895 10896 10897 10898 10899 10900 10901 10902 10903 10904 10905 10906 10907 10908 10909 10910 10911 10912 10913 10914 10915 10916 10917 10918 10919 10920 10921 10922 10923 10924 10925 10926 10927 10928 10929 10930 10931 10932 10933 10934 10935 10936 10937 10938 10939 10940 10941 10942 10943 10944 10945 10946 10947 10948 10949 10950 10951 10952 10953 10954 10955 10956 10957 10958 10959 10960 10961 10962 10963 10964 10965 10966 10967 10968 10969 10970 10971 10972 10973 10974 10975 10976 10977 10978 10979 10980 10981 10982 10983 10984 10985 10986 10987 10988 10989 10990 10991 10992 10993 10994 10995 10996 10997 10998 10999 11000 11001 11002 11003 11004 11005 11006 11007 11008 11009 11010 11011 11012 11013 11014 11015 11016 11017 11018 11019 11020 11021 11022 11023 11024 11025 11026 11027 11028 11029 11030 11031 11032 11033 11034 11035 11036 11037 11038 11039 11040 11041 11042 11043 11044 11045 11046 11047 11048 11049 11050 11051 11052 11053 11054 11055 11056 11057 11058 11059 11060 11061 11062 11063 11064 11065 11066 11067 11068 11069 11070 11071 11072 11073 11074 11075 11076 11077 11078 11079 11080 11081 11082 11083 11084 11085 11086 11087 11088 11089 11090 11091 11092 11093 11094 11095 11096 11097 11098 11099 11100 11101 11102 11103 11104 11105 11106 11107 11108 11109 11110 11111 11112 11113 11114 11115 11116 11117 11118 11119 11120 11121 11122 11123 11124 11125 11126 11127 11128 11129 11130 11131 11132 11133 11134 11135 11136 11137 11138 11139 11140 11141 11142 11143 11144 11145 11146 11147 11148 11149 11150 11151 11152 11153 11154 11155 11156 11157 11158 11159 11160 11161 11162 11163 11164 11165 11166 11167 11168 11169 11170 11171 11172 11173 11174 11175 11176 11177 11178 11179 11180 11181 11182 11183 11184 11185 11186 11187 11188 11189 11190 11191 11192 11193 11194 11195 11196 11197 11198 11199 11200 11201 11202 11203 11204 11205 11206 11207 11208 11209 11210 11211 11212 11213 11214 11215 11216 11217 11218 11219 11220 11221 11222 11223 11224 11225 11226 11227 11228 11229 11230 11231 11232 11233 11234 11235 11236 11237 11238 11239 11240 11241 11242 11243 11244 11245 11246 11247 11248 11249 11250 11251 11252 11253 11254 11255 11256 11257 11258 11259 11260 11261 11262 11263 11264 11265 11266 11267 11268 11269 11270 11271 11272 11273 11274 11275 11276 11277 11278 11279 11280 11281 11282 11283 11284 11285 11286 11287 11288 11289 11290 11291 11292 11293 11294 11295 11296 11297 11298 11299 11300 11301 11302 11303 11304 11305 11306 11307 11308 11309 11310 11311 11312 11313 11314 11315 11316 11317 11318 11319 11320 11321 11322 11323 11324 11325 11326 11327 11328 11329 11330 11331 11332 11333 11334 11335 11336 11337 11338 11339 11340 11341 11342 11343 11344 11345 11346 11347 11348 11349 11350 11351 11352 11353 11354 11355 11356 11357 11358 11359 11360 11361 11362 11363 11364 11365 11366 11367 11368 11369 11370 11371 11372 11373 11374 11375 11376 11377 11378 11379 11380 11381 11382 11383 11384 11385 11386 11387 11388 11389 11390 11391 11392 11393 11394 11395 11396 11397 11398 11399 11400 11401 11402 11403 11404 11405 11406 11407 11408 11409 11410 11411 11412 11413 11414 11415 11416 11417 11418 11419 11420 11421 11422 11423 11424 11425 11426 11427 11428 11429 11430 11431 11432 11433 11434 11435 11436 11437 11438 11439 11440 11441 11442 11443 11444 11445 11446 11447 11448 11449 11450 11451 11452 11453 11454 11455 11456 11457 11458 11459 11460 11461 11462 11463 11464 11465 11466 11467 11468 11469 11470 11471 11472 11473 11474 11475 11476 11477 11478 11479 11480 11481 11482 11483 11484 11485 11486 11487 11488 11489 11490 11491 11492 11493 11494 11495 11496 11497 11498 11499 11500 11501 11502 11503 11504 11505 11506 11507 11508 11509 11510 11511 11512 11513 11514 11515 11516 11517 11518 11519 11520 11521 11522 11523 11524 11525 11526 11527 11528 11529 11530 11531 11532 11533 11534 11535 11536 11537 11538 11539 11540 11541 11542 11543 11544 11545 11546 11547 11548 11549 11550 11551 11552 11553 11554 11555 11556 11557 11558 11559 11560 11561 11562 11563 11564 11565 11566 11567 11568 11569 11570 11571 11572 11573 11574 11575 11576 11577 11578 11579 11580 11581 11582 11583 11584 11585 11586 11587 11588 11589 11590 11591 11592 11593 11594 11595 11596 11597 11598 11599 11600 11601 11602 11603 11604 11605 11606 11607 11608 11609 11610 11611 11612 11613 11614 11615 11616 11617 11618 11619 11620 11621 11622 11623 11624 11625 11626 11627 11628 11629 11630 11631 11632 11633 11634 11635 11636 11637 11638 11639 11640 11641 11642 11643 11644 11645 11646 11647 11648 11649 11650 11651 11652 11653 11654 11655 11656 11657 11658 11659 11660 11661 11662 11663 11664 11665 11666 11667 11668 11669 11670 11671 11672 11673 11674 11675 11676 11677 11678 11679 11680 11681 11682 11683 11684 11685 11686 11687 11688 11689 11690 11691 11692 11693 11694 11695 11696 11697 11698 11699 11700 11701 11702 11703 11704 11705 11706 11707 11708 11709 11710 11711 11712 11713 11714 11715 11716 11717 11718 11719 11720 11721 11722 11723 11724 11725 11726 11727 11728 11729 11730 11731 11732 11733 11734 11735 11736 11737 11738 11739 11740 11741 11742 11743 11744 11745 11746 11747 11748 11749 11750 11751 11752 11753 11754 11755 11756 11757 11758 11759 11760 11761 11762 11763 11764 11765 11766 11767 11768 11769 11770 11771 11772 11773 11774 11775 11776 11777 11778 11779 11780 11781 11782 11783 11784 11785 11786 11787 11788 11789 11790 11791 11792 11793 11794 11795 11796 11797 11798 11799 11800 11801 11802 11803 11804 11805 11806 11807 11808 11809 11810 11811 11812 11813 11814 11815 11816 11817 11818 11819 11820 11821 11822 11823 11824 11825 11826 11827 11828 11829 11830 11831 11832 11833 11834 11835 11836 11837 11838 11839 11840 11841 11842 11843 11844 11845 11846 11847 11848 11849 11850 11851 11852 11853 11854 11855 11856 11857 11858 11859 11860 11861 11862 11863 11864 11865 11866 11867 11868 11869 11870 11871 11872 11873 11874 11875 11876 11877 11878 11879 11880 11881 11882 11883 11884 11885 11886 11887 11888 11889 11890 11891 11892 11893 11894 11895 11896 11897 11898 11899 11900 11901 11902 11903 11904 11905 11906 11907 11908 11909 11910 11911 11912 11913 11914 11915 11916 11917 11918 11919 11920 11921 11922 11923 11924 11925 11926 11927 11928 11929 11930 11931 11932 11933 11934 11935 11936 11937 11938 11939 11940 11941 11942 11943 11944 11945 11946 11947 11948 11949 11950 11951 11952 11953 11954 11955 11956 11957 11958 11959 11960 11961 11962 11963 11964 11965 11966 11967 11968 11969 11970 11971 11972 11973 11974 11975 11976 11977 11978 11979 11980 11981 11982 11983 11984 11985 11986 11987 11988 11989 11990 11991 11992 11993 11994 11995 11996 11997 11998 11999 12000 12001 12002 12003 12004 12005 12006 12007 12008 12009 12010 12011 12012 12013 12014 12015 12016 12017 12018 12019 12020 12021 12022 12023 12024 12025 12026 12027 12028 12029 12030 12031 12032 12033 12034 12035 12036 12037 12038 12039 12040 12041 12042 12043 12044 12045 12046 12047 12048 12049 12050 12051 12052 12053 12054 12055 12056 12057 12058 12059 12060 12061 12062 12063 12064 12065 12066 12067 12068 12069 12070 12071 12072 12073 12074 12075 12076 12077 12078 12079 12080 12081 12082 12083 12084 12085 12086 12087 12088 12089 12090 12091 12092 12093 12094 12095 12096 12097 12098 12099 12100 12101 12102 12103 12104 12105 12106 12107 12108 12109 12110 12111 12112 12113 12114 12115 12116 12117 12118 12119 12120 12121 12122 12123 12124 12125 12126 12127 12128 12129 12130 12131 12132 12133 12134 12135 12136 12137 12138 12139 12140 12141 12142 12143 12144 12145 12146 12147 12148 12149 12150 12151 12152 12153 12154 12155 12156 12157 12158 12159 12160 12161 12162 12163 12164 12165 12166 12167 12168 12169 12170 12171 12172 12173 12174 12175 12176 12177 12178 12179 12180 12181 12182 12183 12184 12185 12186 12187 12188 12189 12190 12191 12192 12193 12194 12195 12196 12197 12198 12199 12200 12201 12202 12203 12204 12205 12206 12207 12208 12209 12210 12211 12212 12213 12214 12215 12216 12217 12218 12219 12220 12221 12222 12223 12224 12225 12226 12227 12228 12229 12230 12231 12232 12233 12234 12235 12236 12237 12238 12239 12240 12241 12242 12243 12244 12245 12246 12247 12248 12249 12250 12251 12252 12253 12254 12255 12256 12257 12258 12259 12260 12261 12262 12263 12264 12265 12266 12267 12268 12269 12270 12271 12272 12273 12274 12275 12276 12277 12278 12279 12280 12281 12282 12283 12284 12285 12286 12287 12288 12289 12290 12291 12292 12293 12294 12295 12296 12297 12298 12299 12300 12301 12302 12303 12304 12305 12306 12307 12308 12309 12310 12311 12312 12313 12314 12315 12316 12317 12318 12319 12320 12321 12322 12323 12324 12325 12326 12327 12328 12329 12330 12331 12332 12333 12334 12335 12336 12337 12338 12339 12340 12341 12342 12343 12344 12345 12346 12347 12348 12349 12350 12351 12352 12353 12354 12355 12356 12357 12358 12359 12360 12361 12362 12363 12364 12365 12366 12367 12368 12369 12370 12371 12372 12373 12374 12375 12376 12377 12378 12379 12380 12381 12382 12383 12384 12385 12386 12387 12388 12389 12390 12391 12392 12393 12394 12395 12396 12397 12398 12399 12400 12401 12402 12403 12404 12405 12406 12407 12408 12409 12410 12411 12412 12413 12414 12415 12416 12417 12418 12419 12420 12421 12422 12423 12424 12425 12426 12427 12428 12429 12430 12431 12432 12433 12434 12435 12436 12437 12438 12439 12440 12441 12442 12443 12444 12445 12446 12447 12448 12449 12450 12451 12452 12453 12454 12455 12456 12457 12458 12459 12460 12461 12462 12463 12464 12465 12466 12467 12468 12469 12470 12471 12472 12473 12474 12475 12476 12477 12478 12479 12480 12481 12482 12483 12484 12485 12486 12487 12488 12489 12490 12491 12492 12493 12494 12495 12496 12497 12498 12499 12500 12501 12502 12503 12504 12505 12506 12507 12508 12509 12510 12511 12512 12513 12514 12515 12516 12517 12518 12519 12520 12521 12522 12523 12524 12525 12526 12527 12528 12529 12530 12531 12532 12533 12534 12535 12536 12537 12538 12539 12540 12541 12542 12543 12544 12545 12546 12547 12548 12549 12550 12551 12552 12553 12554 12555 12556 12557 12558 12559 12560 12561 12562 12563 12564 12565 12566 12567 12568 12569 12570 12571 12572 12573 12574 12575 12576 12577 12578 12579 12580 12581 12582 12583 12584 12585 12586 12587 12588 12589 12590 12591 12592 12593 12594 12595 12596 12597 12598 12599 12600 12601 12602 12603 12604 12605 12606 12607 12608 12609 12610 12611 12612 12613 12614 12615 12616 12617 12618 12619 12620 12621 12622 12623 12624 12625 12626 12627 12628 12629 12630 12631 12632 12633 12634 12635 12636 12637 12638 12639 12640 12641 12642 12643 12644 12645 12646 12647 12648 12649 12650 12651 12652 12653 12654 12655 12656 12657 12658 12659 12660 12661 12662 12663 12664 12665 12666 12667 12668 12669 12670 12671 12672 12673 12674 12675 12676 12677 12678 12679 12680 12681 12682 12683 12684 12685 12686 12687 12688 12689 12690 12691 12692 12693 12694 12695 12696 12697 12698 12699 12700 12701 12702 12703 12704 12705 12706 12707 12708 12709 12710 12711 12712 12713 12714 12715 12716 12717 12718 12719 12720 12721 12722 12723 12724 12725 12726 12727 12728 12729 12730 12731 12732 12733 12734 12735 12736 12737 12738 12739 12740 12741 12742 12743 12744 12745 12746 12747 12748 12749 12750 12751 12752 12753 12754 12755 12756 12757 12758 12759 12760 12761 12762 12763 12764 12765 12766 12767 12768 12769 12770 12771 12772 12773 12774 12775 12776 12777 12778 12779 12780 12781 12782 12783 12784 12785 12786 12787 12788 12789 12790 12791 12792 12793 12794 12795 12796 12797 12798 12799 12800 12801 12802 12803 12804 12805 12806 12807 12808 12809 12810 12811 12812 12813 12814 12815 12816 12817 12818 12819 12820 12821 12822 12823 12824 12825 12826 12827 12828 12829 12830 12831 12832 12833 12834 12835 12836 12837 12838 12839 12840 12841 12842 12843 12844 12845 12846 12847 12848 12849 12850 12851 12852 12853 12854 12855 12856 12857 12858 12859 12860 12861 12862 12863 12864 12865 12866 12867 12868 12869 12870 12871 12872 12873 12874 12875 12876 12877 12878 12879 12880 12881 12882 12883 12884 12885 12886 12887 12888 12889 12890 12891 12892 12893 12894 12895 12896 12897 12898 12899 12900 12901 12902 12903 12904 12905 12906 12907 12908 12909 12910 12911 12912 12913 12914 12915 12916 12917 12918 12919 12920 12921 12922 12923 12924 12925 12926 12927 12928 12929 12930 12931 12932 12933 12934 12935 12936 12937 12938 12939 12940 12941 12942 12943 12944 12945 12946 12947 12948 12949 12950 12951 12952 12953 12954 12955 12956 12957 12958 12959 12960 12961 12962 12963 12964 12965 12966 12967 12968 12969 12970 12971 12972 12973 12974 12975 12976 12977 12978 12979 12980 12981 12982 12983 12984 12985 12986 12987 12988 12989 12990 12991 12992 12993 12994 12995 12996 12997 12998 12999 13000 13001 13002 13003 13004 13005 13006 13007 13008 13009 13010 13011 13012 13013 13014 13015 13016 13017 13018 13019 13020 13021 13022 13023 13024 13025 13026 13027 13028 13029 13030 13031 13032 13033 13034 13035 13036 13037 13038 13039 13040 13041 13042 13043 13044 13045 13046 13047 13048 13049 13050 13051 13052 13053 13054 13055 13056 13057 13058 13059 13060 13061 13062 13063 13064 13065 13066 13067 13068 13069 13070 13071 13072 13073 13074 13075 13076 13077 13078 13079 13080 13081 13082 13083 13084 13085 13086 13087 13088 13089 13090 13091 13092 13093 13094 13095 13096 13097 13098 13099 13100 13101 13102 13103 13104 13105 13106 13107 13108 13109 13110 13111 13112 13113 13114 13115 13116 13117 13118 13119 13120 13121 13122 13123 13124 13125 13126 13127 13128 13129 13130 13131 13132 13133 13134 13135 13136 13137 13138 13139 13140 13141 13142 13143 13144 13145 13146 13147 13148 13149 13150 13151 13152 13153 13154 13155 13156 13157 13158 13159 13160 13161 13162 13163 13164 13165 13166 13167 13168 13169 13170 13171 13172 13173 13174 13175 13176 13177 13178 13179 13180 13181 13182 13183 13184 13185 13186 13187 13188 13189 13190 13191 13192 13193 13194 13195 13196 13197 13198 13199 13200 13201 13202 13203 13204 13205 13206 13207 13208 13209 13210 13211 13212 13213 13214 13215 13216 13217 13218 13219 13220 13221 13222 13223 13224 13225 13226 13227 13228 13229 13230 13231 13232 13233 13234 13235 13236 13237 13238 13239 13240 13241 13242 13243 13244 13245 13246 13247 13248 13249 13250 13251 13252 13253 13254 13255 13256 13257 13258 13259 13260 13261 13262 13263 13264 13265 13266 13267 13268 13269 13270 13271 13272 13273 13274 13275 13276 13277 13278 13279 13280 13281 13282 13283 13284 13285 13286 13287 13288 13289 13290 13291 13292 13293 13294 13295 13296 13297 13298 13299 13300 13301 13302 13303 13304 13305 13306 13307 13308 13309 13310 13311 13312 13313 13314 13315 13316 13317 13318 13319 13320 13321 13322 13323 13324 13325 13326 13327 13328 13329 13330 13331 13332 13333 13334 13335 13336 13337 13338 13339 13340 13341 13342 13343 13344 13345 13346 13347 13348 13349 13350 13351 13352 13353 13354 13355 13356 13357 13358 13359 13360 13361 13362 13363 13364 13365 13366 13367 13368 13369 13370 13371 13372 13373 13374 13375 13376 13377 13378 13379 13380 13381 13382 13383 13384 13385 13386 13387 13388 13389 13390 13391 13392 13393 13394 13395 13396 13397 13398 13399 13400 13401 13402 13403 13404 13405 13406 13407 13408 13409 13410 13411 13412 13413 13414 13415 13416 13417 13418 13419 13420 13421 13422 13423 13424 13425 13426 13427 13428 13429 13430 13431 13432 13433 13434 13435 13436 13437 13438 13439 13440 13441 13442 13443 13444 13445 13446 13447 13448 13449 13450 13451 13452 13453 13454 13455 13456 13457 13458 13459 13460 13461 13462 13463 13464 13465 13466 13467 13468 13469 13470 13471 13472 13473 13474 13475 13476 13477 13478 13479 13480 13481 13482 13483 13484 13485 13486 13487 13488 13489 13490 13491 13492 13493 13494 13495 13496 13497 13498 13499 13500 13501 13502 13503 13504 13505 13506 13507 13508 13509 13510 13511 13512 13513 13514 13515 13516 13517 13518 13519 13520 13521 13522 13523 13524 13525 13526 13527 13528 13529 13530 13531 13532 13533 13534 13535 13536 13537 13538 13539 13540 13541 13542 13543 13544 13545 13546 13547 13548 13549 13550 13551 13552 13553 13554 13555 13556 13557 13558 13559 13560 13561 13562 13563 13564 13565 13566 13567 13568 13569 13570 13571 13572 13573 13574 13575 13576 13577 13578 13579 13580 13581 13582 13583 13584 13585 13586 13587 13588 13589 13590 13591 13592 13593 13594 13595 13596 13597 13598 13599 13600 13601 13602 13603 13604 13605 13606 13607 13608 13609 13610 13611 13612 13613 13614 13615 13616 13617 13618 13619 13620 13621 13622 13623 13624 13625 13626 13627 13628 13629 13630 13631 13632 13633 13634 13635 13636 13637 13638 13639 13640 13641 13642 13643 13644 13645 13646 13647 13648 13649 13650 13651 13652 13653 13654 13655 13656 13657 13658 13659 13660 13661 13662 13663 13664 13665 13666 13667 13668 13669 13670 13671 13672 13673 13674 13675 13676 13677 13678 13679 13680 13681 13682 13683 13684 13685 13686 13687 13688 13689 13690 13691 13692 13693 13694 13695 13696 13697 13698 13699 13700 13701 13702 13703 13704 13705 13706 13707 13708 13709 13710 13711 13712 13713 13714 13715 13716 13717 13718 13719 13720 13721 13722 13723 13724 13725 13726 13727 13728 13729 13730 13731 13732 13733 13734 13735 13736 13737 13738 13739 13740 13741 13742 13743 13744 13745 13746 13747 13748 13749 13750 13751 13752 13753 13754 13755 13756 13757 13758 13759 13760 13761 13762 13763 13764 13765 13766 13767 13768 13769 13770 13771 13772 13773 13774 13775 13776 13777 13778 13779 13780 13781 13782 13783 13784 13785 13786 13787 13788 13789 13790 13791 13792 13793 13794 13795 13796 13797 13798 13799 13800 13801 13802 13803 13804 13805 13806 13807 13808 13809 13810 13811 13812 13813 13814 13815 13816 13817 13818 13819 13820 13821 13822 13823 13824 13825 13826 13827 13828 13829 13830 13831 13832 13833 13834 13835 13836 13837 13838 13839 13840 13841 13842 13843 13844 13845 13846 13847 13848 13849 13850 13851 13852 13853 13854 13855 13856 13857 13858 13859 13860 13861 13862 13863 13864 13865 13866 13867 13868 13869 13870 13871 13872 13873 13874 13875 13876 13877 13878 13879 13880 13881 13882 13883 13884 13885 13886 13887 13888 13889 13890 13891 13892 13893 13894 13895 13896 13897 13898 13899 13900 13901 13902 13903 13904 13905 13906 13907 13908 13909 13910 13911 13912 13913 13914 13915 13916 13917 13918 13919 13920 13921 13922 13923 13924 13925 13926 13927 13928 13929 13930 13931 13932 13933 13934 13935 13936 13937 13938 13939 13940 13941 13942 13943 13944 13945 13946 13947 13948 13949 13950 13951 13952 13953 13954 13955 13956 13957 13958 13959 13960 13961 13962 13963 13964 13965 13966 13967 13968 13969 13970 13971 13972 13973 13974 13975 13976 13977 13978 13979 13980 13981 13982 13983 13984 13985 13986 13987 13988 13989 13990 13991 13992 13993 13994 13995 13996 13997 13998 13999 14000 14001 14002 14003 14004 14005 14006 14007 14008 14009 14010 14011 14012 14013 14014 14015 14016 14017 14018 14019 14020 14021 14022 14023 14024 14025 14026 14027 14028 14029 14030 14031 14032 14033 14034 14035 14036 14037 14038 14039 14040 14041 14042 14043 14044 14045 14046 14047 14048 14049 14050 14051 14052 14053 14054 14055 14056 14057 14058 14059 14060 14061 14062 14063 14064 14065 14066 14067 14068 14069 14070 14071 14072 14073 14074 14075 14076 14077 14078 14079 14080 14081 14082 14083 14084 14085 14086 14087 14088 14089 14090 14091 14092 14093 14094 14095 14096 14097 14098 14099 14100 14101 14102 14103 14104 14105 14106 14107 14108 14109 14110 14111 14112 14113 14114 14115 14116 14117 14118 14119 14120 14121 14122 14123 14124 14125 14126 14127 14128 14129 14130 14131 14132 14133 14134 14135 14136 14137 14138 14139 14140 14141 14142 14143 14144 14145 14146 14147 14148 14149 14150 14151 14152 14153 14154 14155 14156 14157 14158 14159 14160 14161 14162 14163 14164 14165 14166 14167 14168 14169 14170 14171 14172 14173 14174 14175 14176 14177 14178 14179 14180 14181 14182 14183 14184 14185 14186 14187 14188 14189 14190 14191 14192 14193 14194 14195 14196 14197 14198 14199 14200 14201 14202 14203 14204 14205 14206 14207 14208 14209 14210 14211 14212 14213 14214 14215 14216 14217 14218 14219 14220 14221 14222 14223 14224 14225 14226 14227 14228 14229 14230 14231 14232 14233 14234 14235 14236 14237 14238 14239 14240 14241 14242 14243 14244 14245 14246 14247 14248 14249 14250 14251 14252 14253 14254 14255 14256 14257 14258 14259 14260 14261 14262 14263 14264 14265 14266 14267 14268 14269 14270 14271 14272 14273 14274 14275 14276 14277 14278 14279 14280 14281 14282 14283 14284 14285 14286 14287 14288 14289 14290 14291 14292 14293 14294 14295 14296 14297 14298 14299 14300 14301 14302 14303 14304 14305 14306 14307 14308 14309 14310 14311 14312 14313 14314 14315 14316 14317 14318 14319 14320 14321 14322 14323 14324 14325 14326 14327 14328 14329 14330 14331 14332 14333 14334 14335 14336 14337 14338 14339 14340 14341 14342 14343 14344 14345 14346 14347 14348 14349 14350 14351 14352 14353 14354 14355 14356 14357 14358 14359 14360 14361 14362 14363 14364 14365 14366 14367 14368 14369 14370 14371 14372 14373 14374 14375 14376 14377 14378 14379 14380 14381 14382 14383 14384 14385 14386 14387 14388 14389 14390 14391 14392 14393 14394 14395 14396 14397 14398 14399 14400 14401 14402 14403 14404 14405 14406 14407 14408 14409 14410 14411 14412 14413 14414 14415 14416 14417 14418 14419 14420 14421 14422 14423 14424 14425 14426 14427 14428 14429 14430 14431 14432 14433 14434 14435 14436 14437 14438 14439 14440 14441 14442 14443 14444 14445 14446 14447 14448 14449 14450 14451 14452 14453 14454 14455 14456 14457 14458 14459 14460 14461 14462 14463 14464 14465 14466 14467 14468 14469 14470 14471 14472 14473 14474 14475 14476 14477 14478 14479 14480 14481 14482 14483 14484 14485 14486 14487 14488 14489 14490 14491 14492 14493 14494 14495 14496 14497 14498 14499 14500 14501 14502 14503 14504 14505 14506 14507 14508 14509 14510 14511 14512 14513 14514 14515 14516 14517 14518 14519 14520 14521 14522 14523 14524 14525 14526 14527 14528 14529 14530 14531 14532 14533 14534 14535 14536 14537 14538 14539 14540 14541 14542 14543 14544 14545 14546 14547 14548 14549 14550 14551 14552 14553 14554 14555 14556 14557 14558 14559 14560 14561 14562 14563 14564 14565 14566 14567 14568 14569 14570 14571 14572 14573 14574 14575 14576 14577 14578 14579 14580 14581 14582 14583 14584 14585 14586 14587 14588 14589 14590 14591 14592 14593 14594 14595 14596 14597 14598 14599 14600 14601 14602 14603 14604 14605 14606 14607 14608 14609 14610 14611 14612 14613 14614 14615 14616 14617 14618 14619 14620 14621 14622 14623 14624 14625 14626 14627 14628 14629 14630 14631 14632 14633 14634 14635 14636 14637 14638 14639 14640 14641 14642 14643 14644 14645 14646 14647 14648 14649 14650 14651 14652 14653 14654 14655 14656 14657 14658 14659 14660 14661 14662 14663 14664 14665 14666 14667 14668 14669 14670 14671 14672 14673 14674 14675 14676 14677 14678 14679 14680 14681 14682 14683 14684 14685 14686 14687 14688 14689 14690 14691 14692 14693 14694 14695 14696 14697 14698 14699 14700 14701 14702 14703 14704 14705 14706 14707 14708 14709 14710 14711 14712 14713 14714 14715 14716 14717 14718 14719 14720 14721 14722 14723 14724 14725 14726 14727 14728 14729 14730 14731 14732 14733 14734 14735 14736 14737 14738 14739 14740 14741 14742 14743 14744 14745 14746 14747 14748 14749 14750 14751 14752 14753 14754 14755 14756 14757 14758 14759 14760 14761 14762 14763 14764 14765 14766 14767 14768 14769 14770 14771 14772 14773 14774 14775 14776 14777 14778 14779 14780 14781 14782 14783 14784 14785 14786 14787 14788 14789 14790 14791 14792 14793 14794 14795 14796 14797 14798 14799 14800 14801 14802 14803 14804 14805 14806 14807 14808 14809 14810 14811 14812 14813 14814 14815 14816 14817 14818 14819 14820 14821 14822 14823 14824 14825 14826 14827 14828 14829 14830 14831 14832 14833 14834 14835 14836 14837 14838 14839 14840 14841 14842 14843 14844 14845 14846 14847 14848 14849 14850 14851 14852 14853 14854 14855 14856 14857 14858 14859 14860 14861 14862 14863 14864 14865 14866 14867 14868 14869 14870 14871 14872 14873 14874 14875 14876 14877 14878 14879 14880 14881 14882 14883 14884 14885 14886 14887 14888 14889 14890 14891 14892 14893 14894 14895 14896 14897 14898 14899 14900 14901 14902 14903 14904 14905 14906 14907 14908 14909 14910 14911 14912 14913 14914 14915 14916 14917 14918 14919 14920 14921 14922 14923 14924 14925 14926 14927 14928 14929 14930 14931 14932 14933 14934 14935 14936 14937 14938 14939 14940 14941 14942 14943 14944 14945 14946 14947 14948 14949 14950 14951 14952 14953 14954 14955 14956 14957 14958 14959 14960 14961 14962 14963 14964 14965 14966 14967 14968 14969 14970 14971 14972 14973 14974 14975 14976 14977 14978 14979 14980 14981 14982 14983 14984 14985 14986 14987 14988 14989 14990 14991 14992 14993 14994 14995 14996 14997 14998 14999 15000 15001 15002 15003 15004 15005 15006 15007 15008 15009 15010 15011 15012 15013 15014 15015 15016 15017 15018 15019 15020 15021 15022 15023 15024 15025 15026 15027 15028 15029 15030 15031 15032 15033 15034 15035 15036 15037 15038 15039 15040 15041 15042 15043 15044 15045 15046 15047 15048 15049 15050 15051 15052 15053 15054 15055 15056 15057 15058 15059 15060 15061 15062 15063 15064 15065 15066 15067 15068 15069 15070 15071 15072 15073 15074 15075 15076 15077 15078 15079 15080 15081 15082 15083 15084 15085 15086 15087 15088 15089 15090 15091 15092 15093 15094 15095 15096 15097 15098 15099 15100 15101 15102 15103 15104 15105 15106 15107 15108 15109 15110 15111 15112 15113 15114 15115 15116 15117 15118 15119 15120 15121 15122 15123 15124 15125 15126 15127 15128 15129 15130 15131 15132 15133 15134 15135 15136 15137 15138 15139 15140 15141 15142 15143 15144 15145 15146 15147 15148 15149 15150 15151 15152 15153 15154 15155 15156 15157 15158 15159 15160 15161 15162 15163 15164 15165 15166 15167 15168 15169 15170 15171 15172 15173 15174 15175 15176 15177 15178 15179 15180 15181 15182 15183 15184 15185 15186 15187 15188 15189 15190 15191 15192 15193 15194 15195 15196 15197 15198 15199 15200 15201 15202 15203 15204 15205 15206 15207 15208 15209 15210 15211 15212 15213 15214 15215 15216 15217 15218 15219 15220 15221 15222 15223 15224 15225 15226 15227 15228 15229 15230 15231 15232 15233 15234 15235 15236 15237 15238 15239 15240 15241 15242 15243 15244 15245 15246 15247 15248 15249 15250 15251 15252 15253 15254 15255 15256 15257 15258 15259 15260 15261 15262 15263 15264 15265 15266 15267 15268 15269 15270 15271 15272 15273 15274 15275 15276 15277 15278 15279 15280 15281 15282 15283 15284 15285 15286 15287 15288 15289 15290 15291 15292 15293 15294 15295 15296 15297 15298 15299 15300 15301 15302 15303 15304 15305 15306 15307 15308 15309 15310 15311 15312 15313 15314 15315 15316 15317 15318 15319 15320 15321 15322 15323 15324 15325 15326 15327 15328 15329 15330 15331 15332 15333 15334 15335 15336 15337 15338 15339 15340 15341 15342 15343 15344 15345 15346 15347 15348 15349 15350 15351 15352 15353 15354 15355 15356 15357 15358 15359 15360 15361 15362 15363 15364 15365 15366 15367 15368 15369 15370 15371 15372 15373 15374 15375 15376 15377 15378 15379 15380 15381 15382 15383 15384 15385 15386 15387 15388 15389 15390 15391 15392 15393 15394 15395 15396 15397 15398 15399 15400 15401 15402 15403 15404 15405 15406 15407 15408 15409 15410 15411 15412 15413 15414 15415 15416 15417 15418 15419 15420 15421 15422 15423 15424 15425 15426 15427 15428 15429 15430 15431 15432 15433 15434 15435 15436 15437 15438 15439 15440 15441 15442 15443 15444 15445 15446 15447 15448 15449 15450 15451 15452 15453 15454 15455 15456 15457 15458 15459 15460 15461 15462 15463 15464 15465 15466 15467 15468 15469 15470 15471 15472 15473 15474 15475 15476 15477 15478 15479 15480 15481 15482 15483 15484 15485 15486 15487 15488 15489 15490 15491 15492 15493 15494 15495 15496 15497 15498 15499 15500 15501 15502 15503 15504 15505 15506 15507 15508 15509 15510 15511 15512 15513 15514 15515 15516 15517 15518 15519 15520 15521 15522 15523 15524 15525 15526 15527 15528 15529 15530 15531 15532 15533 15534 15535 15536 15537 15538 15539 15540 15541 15542 15543 15544 15545 15546 15547 15548 15549 15550 15551 15552 15553 15554 15555 15556 15557 15558 15559 15560 15561 15562 15563 15564 15565 15566 15567 15568 15569 15570 15571 15572 15573 15574 15575 15576 15577 15578 15579 15580 15581 15582 15583 15584 15585 15586 15587 15588 15589 15590 15591 15592 15593 15594 15595 15596 15597 15598 15599 15600 15601 15602 15603 15604 15605 15606 15607 15608 15609 15610 15611 15612 15613 15614 15615 15616 15617 15618 15619 15620 15621 15622 15623 15624 15625 15626 15627 15628 15629 15630 15631 15632 15633 15634 15635 15636 15637 15638 15639 15640 15641 15642 15643 15644 15645 15646 15647 15648 15649 15650 15651 15652 15653 15654 15655 15656 15657 15658 15659 15660 15661 15662 15663 15664 15665 15666 15667 15668 15669 15670 15671 15672 15673 15674 15675 15676 15677 15678 15679 15680 15681 15682 15683 15684 15685 15686 15687 15688 15689 15690 15691 15692 15693 15694 15695 15696 15697 15698 15699 15700 15701 15702 15703 15704 15705 15706 15707 15708 15709 15710 15711 15712 15713 15714 15715 15716 15717 15718 15719 15720 15721 15722 15723 15724 15725 15726 15727 15728 15729 15730 15731 15732 15733 15734 15735 15736 15737 15738 15739 15740 15741 15742 15743 15744 15745 15746 15747 15748 15749 15750 15751 15752 15753 15754 15755 15756 15757 15758 15759 15760 15761 15762 15763 15764 15765 15766 15767 15768 15769 15770 15771 15772 15773 15774 15775 15776 15777 15778 15779 15780 15781 15782 15783 15784 15785 15786 15787 15788 15789 15790 15791 15792 15793 15794 15795 15796 15797 15798 15799 15800 15801 15802 15803 15804 15805 15806 15807 15808 15809 15810 15811 15812 15813 15814 15815 15816 15817 15818 15819 15820 15821 15822 15823 15824 15825 15826 15827 15828 15829 15830 15831 15832 15833 15834 15835 15836 15837 15838 15839 15840 15841 15842 15843 15844 15845 15846 15847 15848 15849 15850 15851 15852 15853 15854 15855 15856 15857 15858 15859 15860 15861 15862 15863 15864 15865 15866 15867 15868 15869 15870 15871 15872 15873 15874 15875 15876 15877 15878 15879 15880 15881 15882 15883 15884 15885 15886 15887 15888 15889 15890 15891 15892 15893 15894 15895 15896 15897 15898 15899 15900 15901 15902 15903 15904 15905 15906 15907 15908 15909 15910 15911 15912 15913 15914 15915 15916 15917 15918 15919 15920 15921 15922 15923 15924 15925 15926 15927 15928 15929 15930 15931 15932 15933 15934 15935 15936 15937 15938 15939 15940 15941 15942 15943 15944 15945 15946 15947 15948 15949 15950 15951 15952 15953 15954 15955 15956 15957 15958 15959 15960 15961 15962 15963 15964 15965 15966 15967 15968 15969 15970 15971 15972 15973 15974 15975 15976 15977 15978 15979 15980 15981 15982 15983 15984 15985 15986 15987 15988 15989 15990 15991 15992 15993 15994 15995 15996 15997 15998 15999 16000 16001 16002 16003 16004 16005 16006 16007 16008 16009 16010 16011 16012 16013 16014 16015 16016 16017 16018 16019 16020 16021 16022 16023 16024 16025 16026 16027 16028 16029 16030 16031 16032 16033 16034 16035 16036 16037 16038 16039 16040 16041 16042 16043 16044 16045 16046 16047 16048 16049 16050 16051 16052 16053 16054 16055 16056 16057 16058 16059 16060 16061 16062 16063 16064 16065 16066 16067 16068 16069 16070 16071 16072 16073 16074 16075 16076 16077 16078 16079 16080 16081 16082 16083 16084 16085 16086 16087 16088 16089 16090 16091 16092 16093 16094 16095 16096 16097 16098 16099 16100 16101 16102 16103 16104 16105 16106 16107 16108 16109 16110 16111 16112 16113 16114 16115 16116 16117 16118 16119 16120 16121 16122 16123 16124 16125 16126 16127 16128 16129 16130 16131 16132 16133 16134 16135 16136 16137 16138 16139 16140 16141 16142 16143 16144 16145 16146 16147 16148 16149 16150 16151 16152 16153 16154 16155 16156 16157 16158 16159 16160 16161 16162 16163 16164 16165 16166 16167 16168 16169 16170 16171 16172 16173 16174 16175 16176 16177 16178 16179 16180 16181 16182 16183 16184 16185 16186 16187 16188 16189 16190 16191 16192 16193 16194 16195 16196 16197 16198 16199 16200 16201 16202 16203 16204 16205 16206 16207 16208 16209 16210 16211 16212 16213 16214 16215 16216 16217 16218 16219 16220 16221 16222 16223 16224 16225 16226 16227 16228 16229 16230 16231 16232 16233 16234 16235 16236 16237 16238 16239 16240 16241 16242 16243 16244 16245 16246 16247 16248 16249 16250 16251 16252 16253 16254 16255 16256 16257 16258 16259 16260 16261 16262 16263 16264 16265 16266 16267 16268 16269 16270 16271 16272 16273 16274 16275 16276 16277 16278 16279 16280 16281 16282 16283 16284 16285 16286 16287 16288 16289 16290 16291 16292 16293 16294 16295 16296 16297 16298 16299 16300 16301 16302 16303 16304 16305 16306 16307 16308 16309 16310 16311 16312 16313 16314 16315 16316 16317 16318 16319 16320 16321 16322 16323 16324 16325 16326 16327 16328 16329 16330 16331 16332 16333 16334 16335 16336 16337 16338 16339 16340 16341 16342 16343 16344 16345 16346 16347 16348 16349 16350 16351 16352 16353 16354 16355 16356 16357 16358 16359 16360 16361 16362 16363 16364 16365 16366 16367 16368 16369 16370 16371 16372 16373 16374 16375 16376 16377 16378 16379 16380 16381 16382 16383 16384 16385 16386 16387 16388 16389 16390 16391 16392 16393 16394 16395 16396 16397 16398 16399 16400 16401 16402 16403 16404 16405 16406 16407 16408 16409 16410 16411 16412 16413 16414 16415 16416 16417 16418 16419 16420 16421 16422 16423 16424 16425 16426 16427 16428 16429 16430 16431 16432 16433 16434 16435 16436 16437 16438 16439 16440 16441 16442 16443 16444 16445 16446 16447 16448 16449 16450 16451 16452 16453 16454 16455 16456 16457 16458 16459 16460 16461 16462 16463 16464 16465 16466 16467 16468 16469 16470 16471 16472 16473 16474 16475 16476 16477 16478 16479 16480 16481 16482 16483 16484 16485 16486 16487 16488 16489 16490 16491 16492 16493 16494 16495 16496 16497 16498 16499 16500 16501 16502 16503 16504 16505 16506 16507 16508 16509 16510 16511 16512 16513 16514 16515 16516 16517 16518 16519 16520 16521 16522 16523 16524 16525 16526 16527 16528 16529 16530 16531 16532 16533 16534 16535 16536 16537 16538 16539 16540 16541 16542 16543 16544 16545 16546 16547 16548 16549 16550 16551 16552 16553 16554 16555 16556 16557 16558 16559 16560 16561 16562 16563 16564 16565 16566 16567 16568 16569 16570 16571 16572 16573 16574 16575 16576 16577 16578 16579 16580 16581 16582 16583 16584 16585 16586 16587 16588 16589 16590 16591 16592 16593 16594 16595 16596 16597 16598 16599 16600 16601 16602 16603 16604 16605 16606 16607 16608 16609 16610 16611 16612 16613 16614 16615 16616 16617 16618 16619 16620 16621 16622 16623 16624 16625 16626 16627 16628 16629 16630 16631 16632 16633 16634 16635 16636 16637 16638 16639 16640 16641 16642 16643 16644 16645 16646 16647 16648 16649 16650 16651 16652 16653 16654 16655 16656 16657 16658 16659 16660 16661 16662 16663 16664 16665 16666 16667 16668 16669 16670 16671 16672 16673 16674 16675 16676 16677 16678 16679 16680 16681 16682 16683 16684 16685 16686 16687 16688 16689 16690 16691 16692 16693 16694 16695 16696 16697 16698 16699 16700 16701 16702 16703 16704 16705 16706 16707 16708 16709 16710 16711 16712 16713 16714 16715 16716 16717 16718 16719 16720 16721 16722 16723 16724 16725 16726 16727 16728 16729 16730 16731 16732 16733 16734 16735 16736 16737 16738 16739 16740 16741 16742 16743 16744 16745 16746 16747 16748 16749 16750 16751 16752 16753 16754 16755 16756 16757 16758 16759 16760 16761 16762 16763 16764 16765 16766 16767 16768 16769 16770 16771 16772 16773 16774 16775 16776 16777 16778 16779 16780 16781 16782 16783 16784 16785 16786 16787 16788 16789 16790 16791 16792 16793 16794 16795 16796 16797 16798 16799 16800 16801 16802 16803 16804 16805 16806 16807 16808 16809 16810 16811 16812 16813 16814 16815 16816 16817 16818 16819 16820 16821 16822 16823 16824 16825 16826 16827 16828 16829 16830 16831 16832 16833 16834 16835 16836 16837 16838 16839 16840 16841 16842 16843 16844 16845 16846 16847 16848 16849 16850 16851 16852 16853 16854 16855 16856 16857 16858 16859 16860 16861 16862 16863 16864 16865 16866 16867 16868 16869 16870 16871 16872 16873 16874 16875 16876 16877 16878 16879 16880 16881 16882 16883 16884 16885 16886 16887 16888 16889 16890 16891 16892 16893 16894 16895 16896 16897 16898 16899 16900 16901 16902 16903 16904 16905 16906 16907 16908 16909 16910 16911 16912 16913 16914 16915 16916 16917 16918 16919 16920 16921 16922 16923 16924 16925 16926 16927 16928 16929 16930 16931 16932 16933 16934 16935 16936 16937 16938 16939 16940 16941 16942 16943 16944 16945 16946 16947 16948 16949 16950 16951 16952 16953 16954 16955 16956 16957 16958 16959 16960 16961 16962 16963 16964 16965 16966 16967 16968 16969 16970 16971 16972 16973 16974 16975 16976 16977 16978 16979 16980 16981 16982 16983 16984 16985 16986 16987 16988 16989 16990 16991 16992 16993 16994 16995 16996 16997 16998 16999 17000 17001 17002 17003 17004 17005 17006 17007 17008 17009 17010 17011 17012 17013 17014 17015 17016 17017 17018 17019 17020 17021 17022 17023 17024 17025 17026 17027 17028 17029 17030 17031 17032 17033 17034 17035 17036 17037 17038 17039 17040 17041 17042 17043 17044 17045 17046 17047 17048 17049 17050 17051 17052 17053 17054 17055 17056 17057 17058 17059 17060 17061 17062 17063 17064 17065 17066 17067 17068 17069 17070 17071 17072 17073 17074 17075 17076 17077 17078 17079 17080 17081 17082 17083 17084 17085 17086 17087 17088 17089 17090 17091 17092 17093 17094 17095 17096 17097 17098 17099 17100 17101 17102 17103 17104 17105 17106 17107 17108 17109 17110 17111 17112 17113 17114 17115 17116 17117 17118 17119 17120 17121 17122 17123 17124 17125 17126 17127 17128 17129 17130 17131 17132 17133 17134 17135 17136 17137 17138 17139 17140 17141 17142 17143 17144 17145 17146 17147 17148 17149 17150 17151 17152 17153 17154 17155 17156 17157 17158 17159 17160 17161 17162 17163 17164 17165 17166 17167 17168 17169 17170 17171 17172 17173 17174 17175 17176 17177 17178 17179 17180 17181 17182 17183 17184 17185 17186 17187 17188 17189 17190 17191 17192 17193 17194 17195 17196 17197 17198 17199 17200 17201 17202 17203 17204 17205 17206 17207 17208 17209 17210 17211 17212 17213 17214 17215 17216 17217 17218 17219 17220 17221 17222 17223 17224 17225 17226 17227 17228 17229 17230 17231 17232 17233 17234 17235 17236 17237 17238 17239 17240 17241 17242 17243 17244 17245 17246 17247 17248 17249 17250 17251 17252 17253 17254 17255 17256 17257 17258 17259 17260 17261 17262 17263 17264 17265 17266 17267 17268 17269 17270 17271 17272 17273 17274 17275 17276 17277 17278 17279 17280 17281 17282 17283 17284 17285 17286 17287 17288 17289 17290 17291 17292 17293 17294 17295 17296 17297 17298 17299 17300 17301 17302 17303 17304 17305 17306 17307 17308 17309 17310 17311 17312 17313 17314 17315 17316 17317 17318 17319 17320 17321 17322 17323 17324 17325 17326 17327 17328 17329 17330 17331 17332 17333 17334 17335 17336 17337 17338 17339 17340 17341 17342 17343 17344 17345 17346 17347 17348 17349 17350 17351 17352 17353 17354 17355 17356 17357 17358 17359 17360 17361 17362 17363 17364 17365 17366 17367 17368 17369 17370 17371 17372 17373 17374 17375 17376 17377 17378 17379 17380 17381 17382 17383 17384 17385 17386 17387 17388 17389 17390 17391 17392 17393 17394 17395 17396 17397 17398 17399 17400 17401 17402 17403 17404 17405 17406 17407 17408 17409 17410 17411 17412 17413 17414 17415 17416 17417 17418 17419 17420 17421 17422 17423 17424 17425 17426 17427 17428 17429 17430 17431 17432 17433 17434 17435 17436 17437 17438 17439 17440 17441 17442 17443 17444 17445 17446 17447 17448 17449 17450 17451 17452 17453 17454 17455 17456 17457 17458 17459 17460 17461 17462 17463 17464 17465 17466 17467 17468 17469 17470 17471 17472 17473 17474 17475 17476 17477 17478 17479 17480 17481 17482 17483 17484 17485 17486 17487 17488 17489 17490 17491 17492 17493 17494 17495 17496 17497 17498 17499 17500 17501 17502 17503 17504 17505 17506 17507 17508 17509 17510 17511 17512 17513 17514 17515 17516 17517 17518 17519 17520 17521 17522 17523 17524 17525 17526 17527 17528 17529 17530 17531 17532 17533 17534 17535 17536 17537 17538 17539 17540 17541 17542 17543 17544 17545 17546 17547 17548 17549 17550 17551 17552 17553 17554 17555 17556 17557 17558 17559 17560 17561 17562 17563 17564 17565 17566 17567 17568 17569 17570 17571 17572 17573 17574 17575 17576 17577 17578 17579 17580 17581 17582 17583 17584 17585 17586 17587 17588 17589 17590 17591 17592 17593 17594 17595 17596 17597 17598 17599 17600 17601 17602 17603 17604 17605 17606 17607 17608 17609 17610 17611 17612 17613 17614 17615 17616 17617 17618 17619 17620 17621 17622 17623 17624 17625 17626 17627 17628 17629 17630 17631 17632 17633 17634 17635 17636 17637 17638 17639 17640 17641 17642 17643 17644 17645 17646 17647 17648 17649 17650 17651 17652 17653 17654 17655 17656 17657 17658 17659 17660 17661 17662 17663 17664 17665 17666 17667 17668 17669 17670 17671 17672 17673 17674 17675 17676 17677 17678 17679 17680 17681 17682 17683 17684 17685 17686 17687 17688 17689 17690 17691 17692 17693 17694 17695 17696 17697 17698 17699 17700 17701 17702 17703 17704 17705 17706 17707 17708 17709 17710 17711 17712 17713 17714 17715 17716 17717 17718 17719 17720 17721 17722 17723 17724 17725 17726 17727 17728 17729 17730 17731 17732 17733 17734 17735 17736 17737 17738 17739 17740 17741 17742 17743 17744 17745 17746 17747 17748 17749 17750 17751 17752 17753 17754 17755 17756 17757 17758 17759 17760 17761 17762 17763 17764 17765 17766 17767 17768 17769 17770 17771 17772 17773 17774 17775 17776 17777 17778 17779 17780 17781 17782 17783 17784 17785 17786 17787 17788 17789 17790 17791 17792 17793 17794 17795 17796 17797 17798 17799 17800 17801 17802 17803 17804 17805 17806 17807 17808 17809 17810 17811 17812 17813 17814 17815 17816 17817 17818 17819 17820 17821 17822 17823 17824 17825 17826 17827 17828 17829 17830 17831 17832 17833 17834 17835 17836 17837 17838 17839 17840 17841 17842 17843 17844 17845 17846 17847 17848 17849 17850 17851 17852 17853 17854 17855 17856 17857 17858 17859 17860 17861 17862 17863 17864 17865 17866 17867 17868 17869 17870 17871 17872 17873 17874 17875 17876 17877 17878 17879 17880 17881 17882 17883 17884 17885 17886 17887 17888 17889 17890 17891 17892 17893 17894 17895 17896 17897 17898 17899 17900 17901 17902 17903 17904 17905 17906 17907 17908 17909 17910 17911 17912 17913 17914 17915 17916 17917 17918 17919 17920 17921 17922 17923 17924 17925 17926 17927 17928 17929 17930 17931 17932 17933 17934 17935 17936 17937 17938 17939 17940 17941 17942 17943 17944 17945 17946 17947 17948 17949 17950 17951 17952 17953 17954 17955 17956 17957 17958 17959 17960 17961 17962 17963 17964 17965 17966 17967 17968 17969 17970 17971 17972 17973 17974 17975 17976 17977 17978 17979 17980 17981 17982 17983 17984 17985 17986 17987 17988 17989 17990 17991 17992 17993 17994 17995 17996 17997 17998 17999 18000 18001 18002 18003 18004 18005 18006 18007 18008 18009 18010 18011 18012 18013 18014 18015 18016 18017 18018 18019 18020 18021 18022 18023 18024 18025 18026 18027 18028 18029 18030 18031 18032 18033 18034 18035 18036 18037 18038 18039 18040 18041 18042 18043 18044 18045 18046 18047 18048 18049 18050 18051 18052 18053 18054 18055 18056 18057 18058 18059 18060 18061 18062 18063 18064 18065 18066 18067 18068 18069 18070 18071 18072 18073 18074 18075 18076 18077 18078 18079 18080 18081 18082 18083 18084 18085 18086 18087 18088 18089 18090 18091 18092 18093 18094 18095 18096 18097 18098 18099 18100 18101 18102 18103 18104 18105 18106 18107 18108 18109 18110 18111 18112 18113 18114 18115 18116 18117 18118 18119 18120 18121 18122 18123 18124 18125 18126 18127 18128 18129 18130 18131 18132 18133 18134 18135 18136 18137 18138 18139 18140 18141 18142 18143 18144 18145 18146 18147 18148 18149 18150 18151 18152 18153 18154 18155 18156 18157 18158 18159 18160 18161 18162 18163 18164 18165 18166 18167 18168 18169 18170 18171 18172 18173 18174 18175 18176 18177 18178 18179 18180 18181 18182 18183 18184 18185 18186 18187 18188 18189 18190 18191 18192 18193 18194 18195 18196 18197 18198 18199 18200 18201 18202 18203 18204 18205 18206 18207 18208 18209 18210 18211 18212 18213 18214 18215 18216 18217 18218 18219 18220 18221 18222 18223 18224 18225 18226 18227 18228 18229 18230 18231 18232 18233 18234 18235 18236 18237 18238 18239 18240 18241 18242 18243 18244 18245 18246 18247 18248 18249 18250 18251 18252 18253 18254 18255 18256 18257 18258 18259 18260 18261 18262 18263 18264 18265 18266 18267 18268 18269 18270 18271 18272 18273 18274 18275 18276 18277 18278 18279 18280 18281 18282 18283 18284 18285 18286 18287 18288 18289 18290 18291 18292 18293 18294 18295 18296 18297 18298 18299 18300 18301 18302 18303 18304 18305 18306 18307 18308 18309 18310 18311 18312 18313 18314 18315 18316 18317 18318 18319 18320 18321 18322 18323 18324 18325 18326 18327 18328 18329 18330 18331 18332 18333 18334 18335 18336 18337 18338 18339 18340 18341 18342 18343 18344 18345 18346 18347 18348 18349 18350 18351 18352 18353 18354 18355 18356 18357 18358 18359 18360 18361 18362 18363 18364 18365 18366 18367 18368 18369 18370 18371 18372 18373 18374 18375 18376 18377 18378 18379 18380 18381 18382 18383 18384 18385 18386 18387 18388 18389 18390 18391 18392 18393 18394 18395 18396 18397 18398 18399 18400 18401 18402 18403 18404 18405 18406 18407 18408 18409 18410 18411 18412 18413 18414 18415 18416 18417 18418 18419 18420 18421 18422 18423 18424 18425 18426 18427 18428 18429 18430 18431 18432 18433 18434 18435 18436 18437 18438 18439 18440 18441 18442 18443 18444 18445 18446 18447 18448 18449 18450 18451 18452 18453 18454 18455 18456 18457 18458 18459 18460 18461 18462 18463 18464 18465 18466 18467 18468 18469 18470 18471 18472 18473 18474 18475 18476 18477 18478 18479 18480 18481 18482 18483 18484 18485 18486 18487 18488 18489 18490 18491 18492 18493 18494 18495 18496 18497 18498 18499 18500 18501 18502 18503 18504 18505 18506 18507 18508 18509 18510 18511 18512 18513 18514 18515 18516 18517 18518 18519 18520 18521 18522 18523 18524 18525 18526 18527 18528 18529 18530 18531 18532 18533 18534 18535 18536 18537 18538 18539 18540 18541 18542 18543 18544 18545 18546 18547 18548 18549 18550 18551 18552 18553 18554 18555 18556 18557 18558 18559 18560 18561 18562 18563 18564 18565 18566 18567 18568 18569 18570 18571 18572 18573 18574 18575 18576 18577 18578 18579 18580 18581 18582 18583 18584 18585 18586 18587 18588 18589 18590 18591 18592 18593 18594 18595 18596 18597 18598 18599 18600 18601 18602 18603 18604 18605 18606 18607 18608 18609 18610 18611 18612 18613 18614 18615 18616 18617 18618 18619 18620 18621 18622 18623 18624 18625 18626 18627 18628 18629 18630 18631 18632 18633 18634 18635 18636 18637 18638 18639 18640 18641 18642 18643 18644 18645 18646 18647 18648 18649 18650 18651 18652 18653 18654 18655 18656 18657 18658 18659 18660 18661 18662 18663 18664 18665 18666 18667 18668 18669 18670 18671 18672 18673 18674 18675 18676 18677 18678 18679 18680 18681 18682 18683 18684 18685 18686 18687 18688 18689 18690 18691 18692 18693 18694 18695 18696 18697 18698 18699 18700 18701 18702 18703 18704 18705 18706 18707 18708 18709 18710 18711 18712 18713 18714 18715 18716 18717 18718 18719 18720 18721 18722 18723 18724 18725 18726 18727 18728 18729 18730 18731 18732 18733 18734 18735 18736 18737 18738 18739 18740 18741 18742 18743 18744 18745 18746 18747 18748 18749 18750 18751 18752 18753 18754 18755 18756 18757 18758 18759 18760 18761 18762 18763 18764 18765 18766 18767 18768 18769 18770 18771 18772 18773 18774 18775 18776 18777 18778 18779 18780 18781 18782 18783 18784 18785 18786 18787 18788 18789 18790 18791 18792 18793 18794 18795 18796 18797 18798 18799 18800 18801 18802 18803 18804 18805 18806 18807 18808 18809 18810 18811 18812 18813 18814 18815 18816 18817 18818 18819 18820 18821 18822 18823 18824 18825 18826 18827 18828 18829 18830 18831 18832 18833 18834 18835 18836 18837 18838 18839 18840 18841 18842 18843 18844 18845 18846 18847 18848 18849 18850 18851 18852 18853 18854 18855 18856 18857 18858 18859 18860 18861 18862 18863 18864 18865 18866 18867 18868 18869 18870 18871 18872 18873 18874 18875 18876 18877 18878 18879 18880 18881 18882 18883 18884 18885 18886 18887 18888 18889 18890 18891 18892 18893 18894 18895 18896 18897 18898 18899 18900 18901 18902 18903 18904 18905 18906 18907 18908 18909 18910 18911 18912 18913 18914 18915 18916 18917 18918 18919 18920 18921 18922 18923 18924 18925 18926 18927 18928 18929 18930 18931 18932 18933 18934 18935 18936 18937 18938 18939 18940 18941 18942 18943 18944 18945 18946 18947 18948 18949 18950 18951 18952 18953 18954 18955 18956 18957 18958 18959 18960 18961 18962 18963 18964 18965 18966 18967 18968 18969 18970 18971 18972 18973 18974 18975 18976 18977 18978 18979 18980 18981 18982 18983 18984 18985 18986 18987 18988 18989 18990 18991 18992 18993 18994 18995 18996 18997 18998 18999 19000 19001 19002 19003 19004 19005 19006 19007 19008 19009 19010 19011 19012 19013 19014 19015 19016 19017 19018 19019 19020 19021 19022 19023 19024 19025 19026 19027 19028 19029 19030 19031 19032 19033 19034 19035 19036 19037 19038 19039 19040 19041 19042 19043 19044 19045 19046 19047 19048 19049 19050 19051 19052 19053 19054 19055 19056 19057 19058 19059 19060 19061 19062 19063 19064 19065 19066 19067 19068 19069 19070 19071 19072 19073 19074 19075 19076 19077 19078 19079 19080 19081 19082 19083 19084 19085 19086 19087 19088 19089 19090 19091 19092 19093 19094 19095 19096 19097 19098 19099 19100 19101 19102 19103 19104 19105 19106 19107 19108 19109 19110 19111 19112 19113 19114 19115 19116 19117 19118 19119 19120 19121 19122 19123 19124 19125 19126 19127 19128 19129 19130 19131 19132 19133 19134 19135 19136 19137 19138 19139 19140 19141 19142 19143 19144 19145 19146 19147 19148 19149 19150 19151 19152 19153 19154 19155 19156 19157 19158 19159 19160 19161 19162 19163 19164 19165 19166 19167 19168 19169 19170 19171 19172 19173 19174 19175 19176 19177 19178 19179 19180 19181 19182 19183 19184 19185 19186 19187 19188 19189 19190 19191 19192 19193 19194 19195 19196 19197 19198 19199 19200 19201 19202 19203 19204 19205 19206 19207 19208 19209 19210 19211 19212 19213 19214 19215 19216 19217 19218 19219 19220 19221 19222 19223 19224 19225 19226 19227 19228 19229 19230 19231 19232 19233 19234 19235 19236 19237 19238 19239 19240 19241 19242 19243 19244 19245 19246 19247 19248 19249 19250 19251 19252 19253 19254 19255 19256 19257 19258 19259 19260 19261 19262 19263 19264 19265 19266 19267 19268 19269 19270 19271 19272 19273 19274 19275 19276 19277 19278 19279 19280 19281 19282 19283 19284 19285 19286 19287 19288 19289 19290 19291 19292 19293 19294 19295 19296 19297 19298 19299 19300 19301 19302 19303 19304 19305 19306 19307 19308 19309 19310 19311 19312 19313 19314 19315 19316 19317 19318 19319 19320 19321 19322 19323 19324 19325 19326 19327 19328 19329 19330 19331 19332 19333 19334 19335 19336 19337 19338 19339 19340 19341 19342 19343 19344 19345 19346 19347 19348 19349 19350 19351 19352 19353 19354 19355 19356 19357 19358 19359 19360 19361 19362 19363 19364 19365 19366 19367 19368 19369 19370 19371 19372 19373 19374 19375 19376 19377 19378 19379 19380 19381 19382 19383 19384 19385 19386 19387 19388 19389 19390 19391 19392 19393 19394 19395 19396 19397 19398 19399 19400 19401 19402 19403 19404 19405 19406 19407 19408 19409 19410 19411 19412 19413 19414 19415 19416 19417 19418 19419 19420 19421 19422 19423 19424 19425 19426 19427 19428 19429 19430 19431 19432 19433 19434 19435 19436 19437 19438 19439 19440 19441 19442 19443 19444 19445 19446 19447 19448 19449 19450 19451 19452 19453 19454 19455 19456 19457 19458 19459 19460 19461 19462 19463 19464 19465 19466 19467 19468 19469 19470 19471 19472 19473 19474 19475 19476 19477 19478 19479 19480 19481 19482 19483 19484 19485 19486 19487 19488 19489 19490 19491 19492 19493 19494 19495 19496 19497 19498 19499 19500 19501 19502 19503 19504 19505 19506 19507 19508 19509 19510 19511 19512 19513 19514 19515 19516 19517 19518 19519 19520 19521 19522 19523 19524 19525 19526 19527 19528 19529 19530 19531 19532 19533 19534 19535 19536 19537 19538 19539 19540 19541 19542 19543 19544 19545 19546 19547 19548 19549 19550 19551 19552 19553 19554 19555 19556 19557 19558 19559 19560 19561 19562 19563 19564 19565 19566 19567 19568 19569 19570 19571 19572 19573 19574 19575 19576 19577 19578 19579 19580 19581 19582 19583 19584 19585 19586 19587 19588 19589 19590 19591 19592 19593 19594 19595 19596 19597 19598 19599 19600 19601 19602 19603 19604 19605 19606 19607 19608 19609 19610 19611 19612 19613 19614 19615 19616 19617 19618 19619 19620 19621 19622 19623 19624 19625 19626 19627 19628 19629 19630 19631 19632 19633 19634 19635 19636 19637 19638 19639 19640 19641 19642 19643 19644 19645 19646 19647 19648 19649 19650 19651 19652 19653 19654 19655 19656 19657 19658 19659 19660 19661 19662 19663 19664 19665 19666 19667 19668 19669 19670 19671 19672 19673 19674 19675 19676 19677 19678 19679 19680 19681 19682 19683 19684 19685 19686 19687 19688 19689 19690 19691 19692 19693 19694 19695 19696 19697 19698 19699 19700 19701 19702 19703 19704 19705 19706 19707 19708 19709 19710 19711 19712 19713 19714 19715 19716 19717 19718 19719 19720 19721 19722 19723 19724 19725 19726 19727 19728 19729 19730 19731 19732 19733 19734 19735 19736 19737 19738 19739 19740 19741 19742 19743 19744 19745 19746 19747 19748 19749 19750 19751 19752 19753 19754 19755 19756 19757 19758 19759 19760 19761 19762 19763 19764 19765 19766 19767 19768 19769 19770 19771 19772 19773 19774 19775 19776 19777 19778 19779 19780 19781 19782 19783 19784 19785 19786 19787 19788 19789 19790 19791 19792 19793 19794 19795 19796 19797 19798 19799 19800 19801 19802 19803 19804 19805 19806 19807 19808 19809 19810 19811 19812 19813 19814 19815 19816 19817 19818 19819 19820 19821 19822 19823 19824 19825 19826 19827 19828 19829 19830 19831 19832 19833 19834 19835 19836 19837 19838 19839 19840 19841 19842 19843 19844 19845 19846 19847 19848 19849 19850 19851 19852 19853 19854 19855 19856 19857 19858 19859 19860 19861 19862 19863 19864 19865 19866 19867 19868 19869 19870 19871 19872 19873 19874 19875 19876 19877 19878 19879 19880 19881 19882 19883 19884 19885 19886 19887 19888 19889 19890 19891 19892 19893 19894 19895 19896 19897 19898 19899 19900 19901 19902 19903 19904 19905 19906 19907 19908 19909 19910 19911 19912 19913 19914 19915 19916 19917 19918 19919 19920 19921 19922 19923 19924 19925 19926 19927 19928 19929 19930 19931 19932 19933 19934 19935 19936 19937 19938 19939 19940 19941 19942 19943 19944 19945 19946 19947 19948 19949 19950 19951 19952 19953 19954 19955 19956 19957 19958 19959 19960 19961 19962 19963 19964 19965 19966 19967 19968 19969 19970 19971 19972 19973 19974 19975 19976 19977 19978 19979 19980 19981 19982 19983 19984 19985 19986 19987 19988 19989 19990 19991 19992 19993 19994 19995 19996 19997 19998 19999 20000 20001 20002 20003 20004 20005 20006 20007 20008 20009 20010 20011 20012 20013 20014 20015 20016 20017 20018 20019 20020 20021 20022 20023 20024 20025 20026 20027 20028 20029 20030 20031 20032 20033 20034 20035 20036 20037 20038 20039 20040 20041 20042 20043 20044 20045 20046 20047 20048 20049 20050 20051 20052 20053 20054 20055 20056 20057 20058 20059 20060 20061 20062 20063 20064 20065 20066 20067 20068 20069 20070 20071 20072 20073 20074 20075 20076 20077 20078 20079 20080 20081 20082 20083 20084 20085 20086 20087 20088 20089 20090 20091 20092 20093 20094 20095 20096 20097 20098 20099 20100 20101 20102 20103 20104 20105 20106 20107 20108 20109 20110 20111 20112 20113 20114 20115 20116 20117 20118 20119 20120 20121 20122 20123 20124 20125 20126 20127 20128 20129 20130 20131 20132 20133 20134 20135 20136 20137 20138 20139 20140 20141 20142 20143 20144 20145 20146 20147 20148 20149 20150 20151 20152 20153 20154 20155 20156 20157 20158 20159 20160 20161 20162 20163 20164 20165 20166 20167 20168 20169 20170 20171 20172 20173 20174 20175 20176 20177 20178 20179 20180 20181 20182 20183 20184 20185 20186 20187 20188 20189 20190 20191 20192 20193 20194 20195 20196 20197 20198 20199 20200 20201 20202 20203 20204 20205 20206 20207 20208 20209 20210 20211 20212 20213 20214 20215 20216 20217 20218 20219 20220 20221 20222 20223 20224 20225 20226 20227 20228 20229 20230 20231 20232 20233 20234 20235 20236 20237 20238 20239 20240 20241 20242 20243 20244 20245 20246 20247 20248 20249 20250 20251 20252 20253 20254 20255 20256 20257 20258 20259 20260 20261 20262 20263 20264 20265 20266 20267 20268 20269 20270 20271 20272 20273 20274 20275 20276 20277 20278 20279 20280 20281 20282 20283 20284 20285 20286 20287 20288 20289 20290 20291 20292 20293 20294 20295 20296 20297 20298 20299 20300 20301 20302 20303 20304 20305 20306 20307 20308 20309 20310 20311 20312 20313 20314 20315 20316 20317 20318 20319 20320 20321 20322 20323 20324 20325 20326 20327 20328 20329 20330 20331 20332 20333 20334 20335 20336 20337 20338 20339 20340 20341 20342 20343 20344 20345 20346 20347 20348 20349 20350 20351 20352 20353 20354 20355 20356 20357 20358 20359 20360 20361 20362 20363 20364 20365 20366 20367 20368 20369 20370 20371 20372 20373 20374 20375 20376 20377 20378 20379 20380 20381 20382 20383 20384 20385 20386 20387 20388 20389 20390 20391 20392 20393 20394 20395 20396 20397 20398 20399 20400 20401 20402 20403 20404 20405 20406 20407 20408 20409 20410 20411 20412 20413 20414 20415 20416 20417 20418 20419 20420 20421 20422 20423 20424 20425 20426 20427 20428 20429 20430 20431 20432 20433 20434 20435 20436 20437 20438 20439 20440 20441 20442 20443 20444 20445 20446 20447 20448 20449 20450 20451 20452 20453 20454 20455 20456 20457 20458 20459 20460 20461 20462 20463 20464 20465 20466 20467 20468 20469 20470 20471 20472 20473 20474 20475 20476 20477 20478 20479 20480 20481 20482 20483 20484 20485 20486 20487 20488 20489 20490 20491 20492 20493 20494 20495 20496 20497 20498 20499 20500 20501 20502 20503 20504 20505 20506 20507 20508 20509 20510 20511 20512 20513 20514 20515 20516 20517 20518 20519 20520 20521 20522 20523 20524 20525 20526 20527 20528 20529 20530 20531 20532 20533 20534 20535 20536 20537 20538 20539 20540 20541 20542 20543 20544 20545 20546 20547 20548 20549 20550 20551 20552 20553 20554 20555 20556 20557 20558 20559 20560 20561 20562 20563 20564 20565 20566 20567 20568 20569 20570 20571 20572 20573 20574 20575 20576 20577 20578 20579 20580 20581 20582 20583 20584 20585 20586 20587 20588 20589 20590 20591 20592 20593 20594 20595 20596 20597 20598 20599 20600 20601 20602 20603 20604 20605 20606 20607 20608 20609 20610 20611 20612 20613 20614 20615 20616 20617 20618 20619 20620 20621 20622 20623 20624 20625 20626 20627 20628 20629 20630 20631 20632 20633 20634 20635 20636 20637 20638 20639 20640 20641 20642 20643 20644 20645 20646 20647 20648 20649 20650 20651 20652 20653 20654 20655 20656 20657 20658 20659 20660 20661 20662 20663 20664 20665 20666 20667 20668 20669 20670 20671 20672 20673 20674 20675 20676 20677 20678 20679 20680 20681 20682 20683 20684 20685 20686 20687 20688 20689 20690 20691 20692 20693 20694 20695 20696 20697 20698 20699 20700 20701 20702 20703 20704 20705 20706 20707 20708 20709 20710 20711 20712 20713 20714 20715 20716 20717 20718 20719 20720 20721 20722 20723 20724 20725 20726 20727 20728 20729 20730 20731 20732 20733 20734 20735 20736 20737 20738 20739 20740 20741 20742 20743 20744 20745 20746 20747 20748 20749 20750 20751 20752 20753 20754 20755 20756 20757 20758 20759 20760 20761 20762 20763 20764 20765 20766 20767 20768 20769 20770 20771 20772 20773 20774 20775 20776 20777 20778 20779 20780 20781 20782 20783 20784 20785 20786 20787 20788 20789 20790 20791 20792 20793 20794 20795 20796 20797 20798 20799 20800 20801 20802 20803 20804 20805 20806 20807 20808 20809 20810 20811 20812 20813 20814 20815 20816 20817 20818 20819 20820 20821 20822 20823 20824 20825 20826 20827 20828 20829 20830 20831 20832 20833 20834 20835 20836 20837 20838 20839 20840 20841 20842 20843 20844 20845 20846 20847 20848 20849 20850 20851 20852 20853 20854 20855 20856 20857 20858 20859 20860 20861 20862 20863 20864 20865 20866 20867 20868 20869 20870 20871 20872 20873 20874 20875 20876 20877 20878 20879 20880 20881 20882 20883 20884 20885 20886 20887 20888 20889 20890 20891 20892 20893 20894 20895 20896 20897 20898 20899 20900 20901 20902 20903 20904 20905 20906 20907 20908 20909 20910 20911 20912 20913 20914 20915 20916 20917 20918 20919 20920 20921 20922 20923 20924 20925 20926 20927 20928 20929 20930 20931 20932 20933 20934 20935 20936 20937 20938 20939 20940 20941 20942 20943 20944 20945 20946 20947 20948 20949 20950 20951 20952 20953 20954 20955 20956 20957 20958 20959 20960 20961 20962 20963 20964 20965 20966 20967 20968 20969 20970 20971 20972 20973 20974 20975 20976 20977 20978 20979 20980 20981 20982 20983 20984 20985 20986 20987 20988 20989 20990 20991 20992 20993 20994 20995 20996 20997 20998 20999 21000 21001 21002 21003 21004 21005 21006 21007 21008 21009 21010 21011 21012 21013 21014 21015 21016 21017 21018 21019 21020 21021 21022 21023 21024 21025 21026 21027 21028 21029 21030 21031 21032 21033 21034 21035 21036 21037 21038 21039 21040 21041 21042 21043 21044 21045 21046 21047 21048 21049 21050 21051 21052 21053 21054 21055 21056 21057 21058 21059 21060 21061 21062 21063 21064 21065 21066 21067 21068 21069 21070 21071 21072 21073 21074 21075 21076 21077 21078 21079 21080 21081 21082 21083 21084 21085 21086 21087 21088 21089 21090 21091 21092 21093 21094 21095 21096 21097 21098 21099 21100 21101 21102 21103 21104 21105 21106 21107 21108 21109 21110 21111 21112 21113 21114 21115 21116 21117 21118 21119 21120 21121 21122 21123 21124 21125 21126 21127 21128 21129 21130 21131 21132 21133 21134 21135 21136 21137 21138 21139 21140 21141 21142 21143 21144 21145 21146 21147 21148 21149 21150 21151 21152 21153 21154 21155 21156 21157 21158 21159 21160 21161 21162 21163 21164 21165 21166 21167 21168 21169 21170 21171 21172 21173 21174 21175 21176 21177 21178 21179 21180 21181 21182 21183 21184 21185 21186 21187 21188 21189 21190 21191 21192 21193 21194 21195 21196 21197 21198 21199 21200 21201 21202 21203 21204 21205 21206 21207 21208 21209 21210 21211 21212 21213 21214 21215 21216 21217 21218 21219 21220 21221 21222 21223 21224 21225 21226 21227 21228 21229 21230 21231 21232 21233 21234 21235 21236 21237 21238 21239 21240 21241 21242 21243 21244 21245 21246 21247 21248 21249 21250 21251 21252 21253 21254 21255 21256 21257 21258 21259 21260 21261 21262 21263 21264 21265 21266 21267 21268 21269 21270 21271 21272 21273 21274 21275 21276 21277 21278 21279 21280 21281 21282 21283 21284 21285 21286 21287 21288 21289 21290 21291 21292 21293 21294 21295 21296 21297 21298 21299 21300 21301 21302 21303 21304 21305 21306 21307 21308 21309 21310 21311 21312 21313 21314 21315 21316 21317 21318 21319 21320 21321 21322 21323 21324 21325 21326 21327 21328 21329 21330 21331 21332 21333 21334 21335 21336 21337 21338 21339 21340 21341 21342 21343 21344 21345 21346 21347 21348 21349 21350 21351 21352 21353 21354 21355 21356 21357 21358 21359 21360 21361 21362 21363 21364 21365 21366 21367 21368 21369 21370 21371 21372 21373 21374 21375 21376 21377 21378 21379 21380 21381 21382 21383 21384 21385 21386 21387 21388 21389 21390 21391 21392 21393 21394 21395 21396 21397 21398 21399 21400 21401 21402 21403 21404 21405 21406 21407 21408 21409 21410 21411 21412 21413 21414 21415 21416 21417 21418 21419 21420 21421 21422 21423 21424 21425 21426 21427 21428 21429 21430 21431 21432 21433 21434 21435 21436 21437 21438 21439 21440 21441 21442 21443 21444 21445 21446 21447 21448 21449 21450 21451 21452 21453 21454 21455 21456 21457 21458 21459 21460 21461 21462 21463 21464 21465 21466 21467 21468 21469 21470 21471 21472 21473 21474 21475 21476 21477 21478 21479 21480 21481 21482 21483 21484 21485 21486 21487 21488 21489 21490 21491 21492 21493 21494 21495 21496 21497 21498 21499 21500 21501 21502 21503 21504 21505 21506 21507 21508 21509 21510 21511 21512 21513 21514 21515 21516 21517 21518 21519 21520 21521 21522 21523 21524 21525 21526 21527 21528 21529 21530 21531 21532 21533 21534 21535 21536 21537 21538 21539 21540 21541 21542 21543 21544 21545 21546 21547 21548 21549 21550 21551 21552 21553 21554 21555 21556 21557 21558 21559 21560 21561 21562 21563 21564 21565 21566 21567 21568 21569 21570 21571 21572 21573 21574 21575 21576 21577 21578 21579 21580 21581 21582 21583 21584 21585 21586 21587 21588 21589 21590 21591 21592 21593 21594 21595 21596 21597 21598 21599 21600 21601 21602 21603 21604 21605 21606 21607 21608 21609 21610 21611 21612 21613 21614 21615 21616 21617 21618 21619 21620 21621 21622 21623 21624 21625 21626 21627 21628 21629 21630 21631 21632 21633 21634 21635 21636 21637 21638 21639 21640 21641 21642 21643 21644 21645 21646 21647 21648 21649 21650 21651 21652 21653 21654 21655 21656 21657 21658 21659 21660 21661 21662 21663 21664 21665 21666 21667 21668 21669 21670 21671 21672 21673 21674 21675 21676 21677 21678 21679 21680 21681 21682 21683 21684 21685 21686 21687 21688 21689 21690 21691 21692 21693 21694 21695 21696 21697 21698 21699 21700 21701 21702 21703 21704 21705 21706 21707 21708 21709 21710 21711 21712 21713 21714 21715 21716 21717 21718 21719 21720 21721 21722 21723 21724 21725 21726 21727 21728 21729 21730 21731 21732 21733 21734 21735 21736 21737 21738 21739 21740 21741 21742 21743 21744 21745 21746 21747 21748 21749 21750 21751 21752 21753 21754 21755 21756 21757 21758 21759 21760 21761 21762 21763 21764 21765 21766 21767 21768 21769 21770 21771 21772 21773 21774 21775 21776 21777 21778 21779 21780 21781 21782 21783 21784 21785 21786 21787 21788 21789 21790 21791 21792 21793 21794 21795 21796 21797 21798 21799 21800 21801 21802 21803 21804 21805 21806 21807 21808 21809 21810 21811 21812 21813 21814 21815 21816 21817 21818 21819 21820 21821 21822 21823 21824 21825 21826 21827 21828 21829 21830 21831 21832 21833 21834 21835 21836 21837 21838 21839 21840 21841 21842 21843 21844 21845 21846 21847 21848 21849 21850 21851 21852 21853 21854 21855 21856 21857 21858 21859 21860 21861 21862 21863 21864 21865 21866 21867 21868 21869 21870 21871 21872 21873 21874 21875 21876 21877 21878 21879 21880 21881 21882 21883 21884 21885 21886 21887 21888 21889 21890 21891 21892 21893 21894 21895 21896 21897 21898 21899 21900 21901 21902 21903 21904 21905 21906 21907 21908 21909 21910 21911 21912 21913 21914 21915 21916 21917 21918 21919 21920 21921 21922 21923 21924 21925 21926 21927 21928 21929 21930 21931 21932 21933 21934 21935 21936 21937 21938 21939 21940 21941 21942 21943 21944 21945 21946 21947 21948 21949 21950 21951 21952 21953 21954 21955 21956 21957 21958 21959 21960 21961 21962 21963 21964 21965 21966 21967 21968 21969 21970 21971 21972 21973 21974 21975 21976 21977 21978 21979 21980 21981 21982 21983 21984 21985 21986 21987 21988 21989 21990 21991 21992 21993 21994 21995 21996 21997 21998 21999 22000 22001 22002 22003 22004 22005 22006 22007 22008 22009 22010 22011 22012 22013 22014 22015 22016 22017 22018 22019 22020 22021 22022 22023 22024 22025 22026 22027 22028 22029 22030 22031 22032 22033 22034 22035 22036 22037 22038 22039 22040 22041 22042 22043 22044 22045 22046 22047 22048 22049 22050 22051 22052 22053 22054 22055 22056 22057 22058 22059 22060 22061 22062 22063 22064 22065 22066 22067 22068 22069 22070 22071 22072 22073 22074 22075 22076 22077 22078 22079 22080 22081 22082 22083 22084 22085 22086 22087 22088 22089 22090 22091 22092 22093 22094 22095 22096 22097 22098 22099 22100 22101 22102 22103 22104 22105 22106 22107 22108 22109 22110 22111 22112 22113 22114 22115 22116 22117 22118 22119 22120 22121 22122 22123 22124 22125 22126 22127 22128 22129 22130 22131 22132 22133 22134 22135 22136 22137 22138 22139 22140 22141 22142 22143 22144 22145 22146 22147 22148 22149 22150 22151 22152 22153 22154 22155 22156 22157 22158 22159 22160 22161 22162 22163 22164 22165 22166 22167 22168 22169 22170 22171 22172 22173 22174 22175 22176 22177 22178 22179 22180 22181 22182 22183 22184 22185 22186 22187 22188 22189 22190 22191 22192 22193 22194 22195 22196 22197 22198 22199 22200 22201 22202 22203 22204 22205 22206 22207 22208 22209 22210 22211 22212 22213 22214 22215 22216 22217 22218 22219 22220 22221 22222 22223 22224 22225 22226 22227 22228 22229 22230 22231 22232 22233 22234 22235 22236 22237 22238 22239 22240 22241 22242 22243 22244 22245 22246 22247 22248 22249 22250 22251 22252 22253 22254 22255 22256 22257 22258 22259 22260 22261 22262 22263 22264 22265 22266 22267 22268 22269 22270 22271 22272 22273 22274 22275 22276 22277 22278 22279 22280 22281 22282 22283 22284 22285 22286 22287 22288 22289 22290 22291 22292 22293 22294 22295 22296 22297 22298 22299 22300 22301 22302 22303 22304 22305 22306 22307 22308 22309 22310 22311 22312 22313 22314 22315 22316 22317 22318 22319 22320 22321 22322 22323 22324 22325 22326 22327 22328 22329 22330 22331 22332 22333 22334 22335 22336 22337 22338 22339 22340 22341 22342 22343 22344 22345 22346 22347 22348 22349 22350 22351 22352 22353 22354 22355 22356 22357 22358 22359 22360 22361 22362 22363 22364 22365 22366 22367 22368 22369 22370 22371 22372 22373 22374 22375 22376 22377 22378 22379 22380 22381 22382 22383 22384 22385 22386 22387 22388 22389 22390 22391 22392 22393 22394 22395 22396 22397 22398 22399 22400 22401 22402 22403 22404 22405 22406 22407 22408 22409 22410 22411 22412 22413 22414 22415 22416 22417 22418 22419 22420 22421 22422 22423 22424 22425 22426 22427 22428 22429 22430 22431 22432 22433 22434 22435 22436 22437 22438 22439 22440 22441 22442 22443 22444 22445 22446 22447 22448 22449 22450 22451 22452 22453 22454 22455 22456 22457 22458 22459 22460 22461 22462 22463 22464 22465 22466 22467 22468 22469 22470 22471 22472 22473 22474 22475 22476 22477 22478 22479 22480 22481 22482 22483 22484 22485 22486 22487 22488 22489 22490 22491 22492 22493 22494 22495 22496 22497 22498 22499 22500 22501 22502 22503 22504 22505 22506 22507 22508 22509 22510 22511 22512 22513 22514 22515 22516 22517 22518 22519 22520 22521 22522 22523 22524 22525 22526 22527 22528 22529 22530 22531 22532 22533 22534 22535 22536 22537 22538 22539 22540 22541 22542 22543 22544 22545 22546 22547 22548 22549 22550 22551 22552 22553 22554 22555 22556 22557 22558 22559 22560 22561 22562 22563 22564 22565 22566 22567 22568 22569 22570 22571 22572 22573 22574 22575 22576 22577 22578 22579 22580 22581 22582 22583 22584 22585 22586 22587 22588 22589 22590 22591 22592 22593 22594 22595 22596 22597 22598 22599 22600 22601 22602 22603 22604 22605 22606 22607 22608 22609 22610 22611 22612 22613 22614 22615 22616 22617 22618 22619 22620 22621 22622 22623 22624 22625 22626 22627 22628 22629 22630 22631 22632 22633 22634 22635 22636 22637 22638 22639 22640 22641 22642 22643 22644 22645 22646 22647 22648 22649 22650 22651 22652 22653 22654 22655 22656 22657 22658 22659 22660 22661 22662 22663 22664 22665 22666 22667 22668 22669 22670 22671 22672 22673 22674 22675 22676 22677 22678 22679 22680 22681 22682 22683 22684 22685 22686 22687 22688 22689 22690 22691 22692 22693 22694 22695 22696 22697 22698 22699 22700 22701 22702 22703 22704 22705 22706 22707 22708 22709 22710 22711 22712 22713 22714 22715 22716 22717 22718 22719 22720 22721 22722 22723 22724 22725 22726 22727 22728 22729 22730 22731 22732 22733 22734 22735 22736 22737 22738 22739 22740 22741 22742 22743 22744 22745 22746 22747 22748 22749 22750 22751 22752 22753 22754 22755 22756 22757 22758 22759 22760 22761 22762 22763 22764 22765 22766 22767 22768 22769 22770 22771 22772 22773 22774 22775 22776 22777 22778 22779 22780 22781 22782 22783 22784 22785 22786 22787 22788 22789 22790 22791 22792 22793 22794 22795 22796 22797 22798 22799 22800 22801 22802 22803 22804 22805 22806 22807 22808 22809 22810 22811 22812 22813 22814 22815 22816 22817 22818 22819 22820 22821 22822 22823 22824 22825 22826 22827 22828 22829 22830 22831 22832 22833 22834 22835 22836 22837 22838 22839 22840 22841 22842 22843 22844 22845 22846 22847 22848 22849 22850 22851 22852 22853 22854 22855 22856 22857 22858 22859 22860 22861 22862 22863 22864 22865 22866 22867 22868 22869 22870 22871 22872 22873 22874 22875 22876 22877 22878 22879 22880 22881 22882 22883 22884 22885 22886 22887 22888 22889 22890 22891 22892 22893 22894 22895 22896 22897 22898 22899 22900 22901 22902 22903 22904 22905 22906 22907 22908 22909 22910 22911 22912 22913 22914 22915 22916 22917 22918 22919 22920 22921 22922 22923 22924 22925 22926 22927 22928 22929 22930 22931 22932 22933 22934 22935 22936 22937 22938 22939 22940 22941 22942 22943 22944 22945 22946 22947 22948 22949 22950 22951 22952 22953 22954 22955 22956 22957 22958 22959 22960 22961 22962 22963 22964 22965 22966 22967 22968 22969 22970 22971 22972 22973 22974 22975 22976 22977 22978 22979 22980 22981 22982 22983 22984 22985 22986 22987 22988 22989 22990 22991 22992 22993 22994 22995 22996 22997 22998 22999 23000 23001 23002 23003 23004 23005 23006 23007 23008 23009 23010 23011 23012 23013 23014 23015 23016 23017 23018 23019 23020 23021 23022 23023 23024 23025 23026 23027 23028 23029 23030 23031 23032 23033 23034 23035 23036 23037 23038 23039 23040 23041 23042 23043 23044 23045 23046 23047 23048 23049 23050 23051 23052 23053 23054 23055 23056 23057 23058 23059 23060 23061 23062 23063 23064 23065 23066 23067 23068 23069 23070 23071 23072 23073 23074 23075 23076 23077 23078 23079 23080 23081 23082 23083 23084 23085 23086 23087 23088 23089 23090 23091 23092 23093 23094 23095 23096 23097 23098 23099 23100 23101 23102 23103 23104 23105 23106 23107 23108 23109 23110 23111 23112 23113 23114 23115 23116 23117 23118 23119 23120 23121 23122 23123 23124 23125 23126 23127 23128 23129 23130 23131 23132 23133 23134 23135 23136 23137 23138 23139 23140 23141 23142 23143 23144 23145 23146 23147 23148 23149 23150 23151 23152 23153 23154 23155 23156 23157 23158 23159 23160 23161 23162 23163 23164 23165 23166 23167 23168 23169 23170 23171 23172 23173 23174 23175 23176 23177 23178 23179 23180 23181 23182 23183 23184 23185 23186 23187 23188 23189 23190 23191 23192 23193 23194 23195 23196 23197 23198 23199 23200 23201 23202 23203 23204 23205 23206 23207 23208 23209 23210 23211 23212 23213 23214 23215 23216 23217 23218 23219 23220 23221 23222 23223 23224 23225 23226 23227 23228 23229 23230 23231 23232 23233 23234 23235 23236 23237 23238 23239 23240 23241 23242 23243 23244 23245 23246 23247 23248 23249 23250 23251 23252 23253 23254 23255 23256 23257 23258 23259 23260 23261 23262 23263 23264 23265 23266 23267 23268 23269 23270 23271 23272 23273 23274 23275 23276 23277 23278 23279 23280 23281 23282 23283 23284 23285 23286 23287 23288 23289 23290 23291 23292 23293 23294 23295 23296 23297 23298 23299 23300 23301 23302 23303 23304 23305 23306 23307 23308 23309 23310 23311 23312 23313 23314 23315 23316 23317 23318 23319 23320 23321 23322 23323 23324 23325 23326 23327 23328 23329 23330 23331 23332 23333 23334 23335 23336 23337 23338 23339 23340 23341 23342 23343 23344 23345 23346 23347 23348 23349 23350 23351 23352 23353 23354 23355 23356 23357 23358 23359 23360 23361 23362 23363 23364 23365 23366 23367 23368 23369 23370 23371 23372 23373 23374 23375 23376 23377 23378 23379 23380 23381 23382 23383 23384 23385 23386 23387 23388 23389 23390 23391 23392 23393 23394 23395 23396 23397 23398 23399 23400 23401 23402 23403 23404 23405 23406 23407 23408 23409 23410 23411 23412 23413 23414 23415 23416 23417 23418 23419 23420 23421 23422 23423 23424 23425 23426 23427 23428 23429 23430 23431 23432 23433 23434 23435 23436 23437 23438 23439 23440 23441 23442 23443 23444 23445 23446 23447 23448 23449 23450 23451 23452 23453 23454 23455 23456 23457 23458 23459 23460 23461 23462 23463 23464 23465 23466 23467 23468 23469 23470 23471 23472 23473 23474 23475 23476 23477 23478 23479 23480 23481 23482 23483 23484 23485 23486 23487 23488 23489 23490 23491 23492 23493 23494 23495 23496 23497 23498 23499 23500 23501 23502 23503 23504 23505 23506 23507 23508 23509 23510 23511 23512 23513 23514 23515 23516 23517 23518 23519 23520 23521 23522 23523 23524 23525 23526 23527 23528 23529 23530 23531 23532 23533 23534 23535 23536 23537 23538 23539 23540 23541 23542 23543 23544 23545 23546 23547 23548 23549 23550 23551 23552 23553 23554 23555 23556 23557 23558 23559 23560 23561 23562 23563 23564 23565 23566 23567 23568 23569 23570 23571 23572 23573 23574 23575 23576 23577 23578 23579 23580 23581 23582 23583 23584 23585 23586 23587 23588 23589 23590 23591 23592 23593 23594 23595 23596 23597 23598 23599 23600 23601 23602 23603 23604 23605 23606 23607 23608 23609 23610 23611 23612 23613 23614 23615 23616 23617 23618 23619 23620 23621 23622 23623 23624 23625 23626 23627 23628 23629 23630 23631 23632 23633 23634 23635 23636 23637 23638 23639 23640 23641 23642 23643 23644 23645 23646 23647 23648 23649 23650 23651 23652 23653 23654 23655 23656 23657 23658 23659 23660 23661 23662 23663 23664 23665 23666 23667 23668 23669 23670 23671 23672 23673 23674 23675 23676 23677 23678 23679 23680 23681 23682 23683 23684 23685 23686 23687 23688 23689 23690 23691 23692 23693 23694 23695 23696 23697 23698 23699 23700 23701 23702 23703 23704 23705 23706 23707 23708 23709 23710 23711 23712 23713 23714 23715 23716 23717 23718 23719 23720 23721 23722 23723 23724 23725 23726 23727 23728 23729 23730 23731 23732 23733 23734 23735 23736 23737 23738 23739 23740 23741 23742 23743 23744 23745 23746 23747 23748 23749 23750 23751 23752 23753 23754 23755 23756 23757 23758 23759 23760 23761 23762 23763 23764 23765 23766 23767 23768 23769 23770 23771 23772 23773 23774 23775 23776 23777 23778 23779 23780 23781 23782 23783 23784 23785 23786 23787 23788 23789 23790 23791 23792 23793 23794 23795 23796 23797 23798 23799 23800 23801 23802 23803 23804 23805 23806 23807 23808 23809 23810 23811 23812 23813 23814 23815 23816 23817 23818 23819 23820 23821 23822 23823 23824 23825 23826 23827 23828 23829 23830 23831 23832 23833 23834 23835 23836 23837 23838 23839 23840 23841 23842 23843 23844 23845 23846 23847 23848 23849 23850 23851 23852 23853 23854 23855 23856 23857 23858 23859 23860 23861 23862 23863 23864 23865 23866 23867 23868 23869 23870 23871 23872 23873 23874 23875 23876 23877 23878 23879 23880 23881 23882 23883 23884 23885 23886 23887 23888 23889 23890 23891 23892 23893 23894 23895 23896 23897 23898 23899 23900 23901 23902 23903 23904 23905 23906 23907 23908 23909 23910 23911 23912 23913 23914 23915 23916 23917 23918 23919 23920 23921 23922 23923 23924 23925 23926 23927 23928 23929 23930 23931 23932 23933 23934 23935 23936 23937 23938 23939 23940 23941 23942 23943 23944 23945 23946 23947 23948 23949 23950 23951 23952 23953 23954 23955 23956 23957 23958 23959 23960 23961 23962 23963 23964 23965 23966 23967 23968 23969 23970 23971 23972 23973 23974 23975 23976 23977 23978 23979 23980 23981 23982 23983 23984 23985 23986 23987 23988 23989 23990 23991 23992 23993 23994 23995 23996 23997 23998 23999 24000 24001 24002 24003 24004 24005 24006 24007 24008 24009 24010 24011 24012 24013 24014 24015 24016 24017 24018 24019 24020 24021 24022 24023 24024 24025 24026 24027 24028 24029 24030 24031 24032 24033 24034 24035 24036 24037 24038 24039 24040 24041 24042 24043 24044 24045 24046 24047 24048 24049 24050 24051 24052 24053 24054 24055 24056 24057 24058 24059 24060 24061 24062 24063 24064 24065 24066 24067 24068 24069 24070 24071 24072 24073 24074 24075 24076 24077 24078 24079 24080 24081 24082 24083 24084 24085 24086 24087 24088 24089 24090 24091 24092 24093 24094 24095 24096 24097 24098 24099 24100 24101 24102 24103 24104 24105 24106 24107 24108 24109 24110 24111 24112 24113 24114 24115 24116 24117 24118 24119 24120 24121 24122 24123 24124 24125 24126 24127 24128 24129 24130 24131 24132 24133 24134 24135 24136 24137 24138 24139 24140 24141 24142 24143 24144 24145 24146 24147 24148 24149 24150 24151 24152 24153 24154 24155 24156 24157 24158 24159 24160 24161 24162 24163 24164 24165 24166 24167 24168 24169 24170 24171 24172 24173 24174 24175 24176 24177 24178 24179 24180 24181 24182 24183 24184 24185 24186 24187 24188 24189 24190 24191 24192 24193 24194 24195 24196 24197 24198 24199 24200 24201 24202 24203 24204 24205 24206 24207 24208 24209 24210 24211 24212 24213 24214 24215 24216 24217 24218 24219 24220 24221 24222 24223 24224 24225 24226 24227 24228 24229 24230 24231 24232 24233 24234 24235 24236 24237 24238 24239 24240 24241 24242 24243 24244 24245 24246 24247 24248 24249 24250 24251 24252 24253 24254 24255 24256 24257 24258 24259 24260 24261 24262 24263 24264 24265 24266 24267 24268 24269 24270 24271 24272 24273 24274 24275 24276 24277 24278 24279 24280 24281 24282 24283 24284 24285 24286 24287 24288 24289 24290 24291 24292 24293 24294 24295 24296 24297 24298 24299 24300 24301 24302 24303 24304 24305 24306 24307 24308 24309 24310 24311 24312 24313 24314 24315 24316 24317 24318 24319 24320 24321 24322 24323 24324 24325 24326 24327 24328 24329 24330 24331 24332 24333 24334 24335 24336 24337 24338 24339 24340 24341 24342 24343 24344 24345 24346 24347 24348 24349 24350 24351 24352 24353 24354 24355 24356 24357 24358 24359 24360 24361 24362 24363 24364 24365 24366 24367 24368 24369 24370 24371 24372 24373 24374 24375 24376 24377 24378 24379 24380 24381 24382 24383 24384 24385 24386 24387 24388 24389 24390 24391 24392 24393 24394 24395 24396 24397 24398 24399 24400 24401 24402 24403 24404 24405 24406 24407 24408 24409 24410 24411 24412 24413 24414 24415 24416 24417 24418 24419 24420 24421 24422 24423 24424 24425 24426 24427 24428 24429 24430 24431 24432 24433 24434 24435 24436 24437 24438 24439 24440 24441 24442 24443 24444 24445 24446 24447 24448 24449 24450 24451 24452 24453 24454 24455 24456 24457 24458 24459 24460 24461 24462 24463 24464 24465 24466 24467 24468 24469 24470 24471 24472 24473 24474 24475 24476 24477 24478 24479 24480 24481 24482 24483 24484 24485 24486 24487 24488 24489 24490 24491 24492 24493 24494 24495 24496 24497 24498 24499 24500 24501 24502 24503 24504 24505 24506 24507 24508 24509 24510 24511 24512 24513 24514 24515 24516 24517 24518 24519 24520 24521 24522 24523 24524 24525 24526 24527 24528 24529 24530 24531 24532 24533 24534 24535 24536 24537 24538 24539 24540 24541 24542 24543 24544 24545 24546 24547 24548 24549 24550 24551 24552 24553 24554 24555 24556 24557 24558 24559 24560 24561 24562 24563 24564 24565 24566 24567 24568 24569 24570 24571 24572 24573 24574 24575 24576 24577 24578 24579 24580 24581 24582 24583 24584 24585 24586 24587 24588 24589 24590 24591 24592 24593 24594 24595 24596 24597 24598 24599 24600 24601 24602 24603 24604 24605 24606 24607 24608 24609 24610 24611 24612 24613 24614 24615 24616 24617 24618 24619 24620 24621 24622 24623 24624 24625 24626 24627 24628 24629 24630 24631 24632 24633 24634 24635 24636 24637 24638 24639 24640 24641 24642 24643 24644 24645 24646 24647 24648 24649 24650 24651 24652 24653 24654 24655 24656 24657 24658 24659 24660 24661 24662 24663 24664 24665 24666 24667 24668 24669 24670 24671 24672 24673 24674 24675 24676 24677 24678 24679 24680 24681 24682 24683 24684 24685 24686 24687 24688 24689 24690 24691 24692 24693 24694 24695 24696 24697 24698 24699 24700 24701 24702 24703 24704 24705 24706 24707 24708 24709 24710 24711 24712 24713 24714 24715 24716 24717 24718 24719 24720 24721 24722 24723 24724 24725 24726 24727 24728 24729 24730 24731 24732 24733 24734 24735 24736 24737 24738 24739 24740 24741 24742 24743 24744 24745 24746 24747 24748 24749 24750 24751 24752 24753 24754 24755 24756 24757 24758 24759 24760 24761 24762 24763 24764 24765 24766 24767 24768 24769 24770 24771 24772 24773 24774 24775 24776 24777 24778 24779 24780 24781 24782 24783 24784 24785 24786 24787 24788 24789 24790 24791 24792 24793 24794 24795 24796 24797 24798 24799 24800 24801 24802 24803 24804 24805 24806 24807 24808 24809 24810 24811 24812 24813 24814 24815 24816 24817 24818 24819 24820 24821 24822 24823 24824 24825 24826 24827 24828 24829 24830 24831 24832 24833 24834 24835 24836 24837 24838 24839 24840 24841 24842 24843 24844 24845 24846 24847 24848 24849 24850 24851 24852 24853 24854 24855 24856 24857 24858 24859 24860 24861 24862 24863 24864 24865 24866 24867 24868 24869 24870 24871 24872 24873 24874 24875 24876 24877 24878 24879 24880 24881 24882 24883 24884 24885 24886 24887 24888 24889 24890 24891 24892 24893 24894 24895 24896 24897 24898 24899 24900 24901 24902 24903 24904 24905 24906 24907 24908 24909 24910 24911 24912 24913 24914 24915 24916 24917 24918 24919 24920 24921 24922 24923 24924 24925 24926 24927 24928 24929 24930 24931 24932 24933 24934 24935 24936 24937 24938 24939 24940 24941 24942 24943 24944 24945 24946 24947 24948 24949 24950 24951 24952 24953 24954 24955 24956 24957 24958 24959 24960 24961 24962 24963 24964 24965 24966 24967 24968 24969 24970 24971 24972 24973 24974 24975 24976 24977 24978 24979 24980 24981 24982 24983 24984 24985 24986 24987 24988 24989 24990 24991 24992 24993 24994 24995 24996 24997 24998 24999 25000 25001 25002 25003 25004 25005 25006 25007 25008 25009 25010 25011 25012 25013 25014 25015 25016 25017 25018 25019 25020 25021 25022 25023 25024 25025 25026 25027 25028 25029 25030 25031 25032 25033 25034 25035 25036 25037 25038 25039 25040 25041 25042 25043 25044 25045 25046 25047 25048 25049 25050 25051 25052 25053 25054 25055 25056 25057 25058 25059 25060 25061 25062 25063 25064 25065 25066 25067 25068 25069 25070 25071 25072 25073 25074 25075 25076 25077 25078 25079 25080 25081 25082 25083 25084 25085 25086 25087 25088 25089 25090 25091 25092 25093 25094 25095 25096 25097 25098 25099 25100 25101 25102 25103 25104 25105 25106 25107 25108 25109 25110 25111 25112 25113 25114 25115 25116 25117 25118 25119 25120 25121 25122 25123 25124 25125 25126 25127 25128 25129 25130 25131 25132 25133 25134 25135 25136 25137 25138 25139 25140 25141 25142 25143 25144 25145 25146 25147 25148 25149 25150 25151 25152 25153 25154 25155 25156 25157 25158 25159 25160 25161 25162 25163 25164 25165 25166 25167 25168 25169 25170 25171 25172 25173 25174 25175 25176 25177 25178 25179 25180 25181 25182 25183 25184 25185 25186 25187 25188 25189 25190 25191 25192 25193 25194 25195 25196 25197 25198 25199 25200 25201 25202 25203 25204 25205 25206 25207 25208 25209 25210 25211 25212 25213 25214 25215 25216 25217 25218 25219 25220 25221 25222 25223 25224 25225 25226 25227 25228 25229 25230 25231 25232 25233 25234 25235 25236 25237 25238 25239 25240 25241 25242 25243 25244 25245 25246 25247 25248 25249 25250 25251 25252 25253 25254 25255 25256 25257 25258 25259 25260 25261 25262 25263 25264 25265 25266 25267 25268 25269 25270 25271 25272 25273 25274 25275 25276 25277 25278 25279 25280 25281 25282 25283 25284 25285 25286 25287 25288 25289 25290 25291 25292 25293 25294 25295 25296 25297 25298 25299 25300 25301 25302 25303 25304 25305 25306 25307 25308 25309 25310 25311 25312 25313 25314 25315 25316 25317 25318 25319 25320 25321 25322 25323 25324 25325 25326 25327 25328 25329 25330 25331 25332 25333 25334 25335 25336 25337 25338 25339 25340 25341 25342 25343 25344 25345 25346 25347 25348 25349 25350 25351 25352 25353 25354 25355 25356 25357 25358 25359 25360 25361 25362 25363 25364 25365 25366 25367 25368 25369 25370 25371 25372 25373 25374 25375 25376 25377 25378 25379 25380 25381 25382 25383 25384 25385 25386 25387 25388 25389 25390 25391 25392 25393 25394 25395 25396 25397 25398 25399 25400 25401 25402 25403 25404 25405 25406 25407 25408 25409 25410 25411 25412 25413 25414 25415 25416 25417 25418 25419 25420 25421 25422 25423 25424 25425 25426 25427 25428 25429 25430 25431 25432 25433 25434 25435 25436 25437 25438 25439 25440 25441 25442 25443 25444 25445 25446 25447 25448 25449 25450 25451 25452 25453 25454 25455 25456 25457 25458 25459 25460 25461 25462 25463 25464 25465 25466 25467 25468 25469 25470 25471 25472 25473 25474 25475 25476 25477 25478 25479 25480 25481 25482 25483 25484 25485 25486 25487 25488 25489 25490 25491 25492 25493 25494 25495 25496 25497 25498 25499 25500 25501 25502 25503 25504 25505 25506 25507 25508 25509 25510 25511 25512 25513 25514 25515 25516 25517 25518 25519 25520 25521 25522 25523 25524 25525 25526 25527 25528 25529 25530 25531 25532 25533 25534 25535 25536 25537 25538 25539 25540 25541 25542 25543 25544 25545 25546 25547 25548 25549 25550 25551 25552 25553 25554 25555 25556 25557 25558 25559 25560 25561 25562 25563 25564 25565 25566 25567 25568 25569 25570 25571 25572 25573 25574 25575 25576 25577 25578 25579 25580 25581 25582 25583 25584 25585 25586 25587 25588 25589 25590 25591 25592 25593 25594 25595 25596 25597 25598 25599 25600 25601 25602 25603 25604 25605 25606 25607 25608 25609 25610 25611 25612 25613 25614 25615 25616 25617 25618 25619 25620 25621 25622 25623 25624 25625 25626 25627 25628 25629 25630 25631 25632 25633 25634 25635 25636 25637 25638 25639 25640 25641 25642 25643 25644 25645 25646 25647 25648 25649 25650 25651 25652 25653 25654 25655 25656 25657 25658 25659 25660 25661 25662 25663 25664 25665 25666 25667 25668 25669 25670 25671 25672 25673 25674 25675 25676 25677 25678 25679 25680 25681 25682 25683 25684 25685 25686 25687 25688 25689 25690 25691 25692 25693 25694 25695 25696 25697 25698 25699 25700 25701 25702 25703 25704 25705 25706 25707 25708 25709 25710 25711 25712 25713 25714 25715 25716 25717 25718 25719 25720 25721 25722 25723 25724 25725 25726 25727 25728 25729 25730 25731 25732 25733 25734 25735 25736 25737 25738 25739 25740 25741 25742 25743 25744 25745 25746 25747 25748 25749 25750 25751 25752 25753 25754 25755 25756 25757 25758 25759 25760 25761 25762 25763 25764 25765 25766 25767 25768 25769 25770 25771 25772 25773 25774 25775 25776 25777 25778 25779 25780 25781 25782 25783 25784 25785 25786 25787 25788 25789 25790 25791 25792 25793 25794 25795 25796 25797 25798 25799 25800 25801 25802 25803 25804 25805 25806 25807 25808 25809 25810 25811 25812 25813 25814 25815 25816 25817 25818 25819 25820 25821 25822 25823 25824 25825 25826 25827 25828 25829 25830 25831 25832 25833 25834 25835 25836 25837 25838 25839 25840 25841 25842 25843 25844 25845 25846 25847 25848 25849 25850 25851 25852 25853 25854 25855 25856 25857 25858 25859 25860 25861 25862 25863 25864 25865 25866 25867 25868 25869 25870 25871 25872 25873 25874 25875 25876 25877 25878 25879 25880 25881 25882 25883 25884 25885 25886 25887 25888 25889 25890 25891 25892 25893 25894 25895 25896 25897 25898 25899 25900 25901 25902 25903 25904 25905 25906 25907 25908 25909 25910 25911 25912 25913 25914 25915 25916 25917 25918 25919 25920 25921 25922 25923 25924 25925 25926 25927 25928 25929 25930 25931 25932 25933 25934 25935 25936 25937 25938 25939 25940 25941 25942 25943 25944 25945 25946 25947 25948 25949 25950 25951 25952 25953 25954 25955 25956 25957 25958 25959 25960 25961 25962 25963 25964 25965 25966 25967 25968 25969 25970 25971 25972 25973 25974 25975 25976 25977 25978 25979 25980 25981 25982 25983 25984 25985 25986 25987 25988 25989 25990 25991 25992 25993 25994 25995 25996 25997 25998 25999 26000 26001 26002 26003 26004 26005 26006 26007 26008 26009 26010 26011 26012 26013 26014 26015 26016 26017 26018 26019 26020 26021 26022 26023 26024 26025 26026 26027 26028 26029 26030 26031 26032 26033 26034 26035 26036 26037 26038 26039 26040 26041 26042 26043 26044 26045 26046 26047 26048 26049 26050 26051 26052 26053 26054 26055 26056 26057 26058 26059 26060 26061 26062 26063 26064 26065 26066 26067 26068 26069 26070 26071 26072 26073 26074 26075 26076 26077 26078 26079 26080 26081 26082 26083 26084 26085 26086 26087 26088 26089 26090 26091 26092 26093 26094 26095 26096 26097 26098 26099 26100 26101 26102 26103 26104 26105 26106 26107 26108 26109 26110 26111 26112 26113 26114 26115 26116 26117 26118 26119 26120 26121 26122 26123 26124 26125 26126 26127 26128 26129 26130 26131 26132 26133 26134 26135 26136 26137 26138 26139 26140 26141 26142 26143 26144 26145 26146 26147 26148 26149 26150 26151 26152 26153 26154 26155 26156 26157 26158 26159 26160 26161 26162 26163 26164 26165 26166 26167 26168 26169 26170 26171 26172 26173 26174 26175 26176 26177 26178 26179 26180 26181 26182 26183 26184 26185 26186 26187 26188 26189 26190 26191 26192 26193 26194 26195 26196 26197 26198 26199 26200 26201 26202 26203 26204 26205 26206 26207 26208 26209 26210 26211 26212 26213 26214 26215 26216 26217 26218 26219 26220 26221 26222 26223 26224 26225 26226 26227 26228 26229 26230 26231 26232 26233 26234 26235 26236 26237 26238 26239 26240 26241 26242 26243 26244 26245 26246 26247 26248 26249 26250 26251 26252 26253 26254 26255 26256 26257 26258 26259 26260 26261 26262 26263 26264 26265 26266 26267 26268 26269 26270 26271 26272 26273 26274 26275 26276 26277 26278 26279 26280 26281 26282 26283 26284 26285 26286 26287 26288 26289 26290 26291 26292 26293 26294 26295 26296 26297 26298 26299 26300 26301 26302 26303 26304 26305 26306 26307 26308 26309 26310 26311 26312 26313 26314 26315 26316 26317 26318 26319 26320 26321 26322 26323 26324 26325 26326 26327 26328 26329 26330 26331 26332 26333 26334 26335 26336 26337 26338 26339 26340 26341 26342 26343 26344 26345 26346 26347 26348 26349 26350 26351 26352 26353 26354 26355 26356 26357 26358 26359 26360 26361 26362 26363 26364 26365 26366 26367 26368 26369 26370 26371 26372 26373 26374 26375 26376 26377 26378 26379 26380 26381 26382 26383 26384 26385 26386 26387 26388 26389 26390 26391 26392 26393 26394 26395 26396 26397 26398 26399 26400 26401 26402 26403 26404 26405 26406 26407 26408 26409 26410 26411 26412 26413 26414 26415 26416 26417 26418 26419 26420 26421 26422 26423 26424 26425 26426 26427 26428 26429 26430 26431 26432 26433 26434 26435 26436 26437 26438 26439 26440 26441 26442 26443 26444 26445 26446 26447 26448 26449 26450 26451 26452 26453 26454 26455 26456 26457 26458 26459 26460 26461 26462 26463 26464 26465 26466 26467 26468 26469 26470 26471 26472 26473 26474 26475 26476 26477 26478 26479 26480 26481 26482 26483 26484 26485 26486 26487 26488 26489 26490 26491 26492 26493 26494 26495 26496 26497 26498 26499 26500 26501 26502 26503 26504 26505 26506 26507 26508 26509 26510 26511 26512 26513 26514 26515 26516 26517 26518 26519 26520 26521 26522 26523 26524 26525 26526 26527 26528 26529 26530 26531 26532 26533 26534 26535 26536 26537 26538 26539 26540 26541 26542 26543 26544 26545 26546 26547 26548 26549 26550 26551 26552 26553 26554 26555 26556 26557 26558 26559 26560 26561 26562 26563 26564 26565 26566 26567 26568 26569 26570 26571 26572 26573 26574 26575 26576 26577 26578 26579 26580 26581 26582 26583 26584 26585 26586 26587 26588 26589 26590 26591 26592 26593 26594 26595 26596 26597 26598 26599 26600 26601 26602 26603 26604 26605 26606 26607 26608 26609 26610 26611 26612 26613 26614 26615 26616 26617 26618 26619 26620 26621 26622 26623 26624 26625 26626 26627 26628 26629 26630 26631 26632 26633 26634 26635 26636 26637 26638 26639 26640 26641 26642 26643 26644 26645 26646 26647 26648 26649 26650 26651 26652 26653 26654 26655 26656 26657 26658 26659 26660 26661 26662 26663 26664 26665 26666 26667 26668 26669 26670 26671 26672 26673 26674 26675 26676 26677 26678 26679 26680 26681 26682 26683 26684 26685 26686 26687 26688 26689 26690 26691 26692 26693 26694 26695 26696 26697 26698 26699 26700 26701 26702 26703 26704 26705 26706 26707 26708 26709 26710 26711 26712 26713 26714 26715 26716 26717 26718 26719 26720 26721 26722 26723 26724 26725 26726 26727 26728 26729 26730 26731 26732 26733 26734 26735 26736 26737 26738 26739 26740 26741 26742 26743 26744 26745 26746 26747 26748 26749 26750 26751 26752 26753 26754 26755 26756 26757 26758 26759 26760 26761 26762 26763 26764 26765 26766 26767 26768 26769 26770 26771 26772 26773 26774 26775 26776 26777 26778 26779 26780 26781 26782 26783 26784 26785 26786 26787 26788 26789 26790 26791 26792 26793 26794 26795 26796 26797 26798 26799 26800 26801 26802 26803 26804 26805 26806 26807 26808 26809 26810 26811 26812 26813 26814 26815 26816 26817 26818 26819 26820 26821 26822 26823 26824 26825 26826 26827 26828 26829 26830 26831 26832 26833 26834 26835 26836 26837 26838 26839 26840 26841 26842 26843 26844 26845 26846 26847 26848 26849 26850 26851 26852 26853 26854 26855 26856 26857 26858 26859 26860 26861 26862 26863 26864 26865 26866 26867 26868 26869 26870 26871 26872 26873 26874 26875 26876 26877 26878 26879 26880 26881 26882 26883 26884 26885 26886 26887 26888 26889 26890 26891 26892 26893 26894 26895 26896 26897 26898 26899 26900 26901 26902 26903 26904 26905 26906 26907 26908 26909 26910 26911 26912 26913 26914 26915 26916 26917 26918 26919 26920 26921 26922 26923 26924 26925 26926 26927 26928 26929 26930 26931 26932 26933 26934 26935 26936 26937 26938 26939 26940 26941 26942 26943 26944 26945 26946 26947 26948 26949 26950 26951 26952 26953 26954 26955 26956 26957 26958 26959 26960 26961 26962 26963 26964 26965 26966 26967 26968 26969 26970 26971 26972 26973 26974 26975 26976 26977 26978 26979 26980 26981 26982 26983 26984 26985 26986 26987 26988 26989 26990 26991 26992 26993 26994 26995 26996 26997 26998 26999 27000 27001 27002 27003 27004 27005 27006 27007 27008 27009 27010 27011 27012 27013 27014 27015 27016 27017 27018 27019 27020 27021 27022 27023 27024 27025 27026 27027 27028 27029 27030 27031 27032 27033 27034 27035 27036 27037 27038 27039 27040 27041 27042 27043 27044 27045 27046 27047 27048 27049 27050 27051 27052 27053 27054 27055 27056 27057 27058 27059 27060 27061 27062 27063 27064 27065 27066 27067 27068 27069 27070 27071 27072 27073 27074 27075 27076 27077 27078 27079 27080 27081 27082 27083 27084 27085 27086 27087 27088 27089 27090 27091 27092 27093 27094 27095 27096 27097 27098 27099 27100 27101 27102 27103 27104 27105 27106 27107 27108 27109 27110 27111 27112 27113 27114 27115 27116 27117 27118 27119 27120 27121 27122 27123 27124 27125 27126 27127 27128 27129 27130 27131 27132 27133 27134 27135 27136 27137 27138 27139 27140 27141 27142 27143 27144 27145 27146 27147 27148 27149 27150 27151 27152 27153 27154 27155 27156 27157 27158 27159 27160 27161 27162 27163 27164 27165 27166 27167 27168 27169 27170 27171 27172 27173 27174 27175 27176 27177 27178 27179 27180 27181 27182 27183 27184 27185 27186 27187 27188 27189 27190 27191 27192 27193 27194 27195 27196 27197 27198 27199 27200 27201 27202 27203 27204 27205 27206 27207 27208 27209 27210 27211 27212 27213 27214 27215 27216 27217 27218 27219 27220 27221 27222 27223 27224 27225 27226 27227 27228 27229 27230 27231 27232 27233 27234 27235 27236 27237 27238 27239 27240 27241 27242 27243 27244 27245 27246 27247 27248 27249 27250 27251 27252 27253 27254 27255 27256 27257 27258 27259 27260 27261 27262 27263 27264 27265 27266 27267 27268 27269 27270 27271 27272 27273 27274 27275 27276 27277 27278 27279 27280 27281 27282 27283 27284 27285 27286 27287 27288 27289 27290 27291 27292 27293 27294 27295 27296 27297 27298 27299 27300 27301 27302 27303 27304 27305 27306 27307 27308 27309 27310 27311 27312 27313 27314 27315 27316 27317 27318 27319 27320 27321 27322 27323 27324 27325 27326 27327 27328 27329 27330 27331 27332 27333 27334 27335 27336 27337 27338 27339 27340 27341 27342 27343 27344 27345 27346 27347 27348 27349 27350 27351 27352 27353 27354 27355 27356 27357 27358 27359 27360 27361 27362 27363 27364 27365 27366 27367 27368 27369 27370 27371 27372 27373 27374 27375 27376 27377 27378 27379 27380 27381 27382 27383 27384 27385 27386 27387 27388 27389 27390 27391 27392 27393 27394 27395 27396 27397 27398 27399 27400 27401 27402 27403 27404 27405 27406 27407 27408 27409 27410 27411 27412 27413 27414 27415 27416 27417 27418 27419 27420 27421 27422 27423 27424 27425 27426 27427 27428 27429 27430 27431 27432 27433 27434 27435 27436 27437 27438 27439 27440 27441 27442 27443 27444 27445 27446 27447 27448 27449 27450 27451 27452 27453 27454 27455 27456 27457 27458 27459 27460 27461 27462 27463 27464 27465 27466 27467 27468 27469 27470 27471 27472 27473 27474 27475 27476 27477 27478 27479 27480 27481 27482 27483 27484 27485 27486 27487 27488 27489 27490 27491 27492 27493 27494 27495 27496 27497 27498 27499 27500 27501 27502 27503 27504 27505 27506 27507 27508 27509 27510 27511 27512 27513 27514 27515 27516 27517 27518 27519 27520 27521 27522 27523 27524 27525 27526 27527 27528 27529 27530 27531 27532 27533 27534 27535 27536 27537 27538 27539 27540 27541 27542 27543 27544 27545 27546 27547 27548 27549 27550 27551 27552 27553 27554 27555 27556 27557 27558 27559 27560 27561 27562 27563 27564 27565 27566 27567 27568 27569 27570 27571 27572 27573 27574 27575 27576 27577 27578 27579 27580 27581 27582 27583 27584 27585 27586 27587 27588 27589 27590 27591 27592 27593 27594 27595 27596 27597 27598 27599 27600 27601 27602 27603 27604 27605 27606 27607 27608 27609 27610 27611 27612 27613 27614 27615 27616 27617 27618 27619 27620 27621 27622 27623 27624 27625 27626 27627 27628 27629 27630 27631 27632 27633 27634 27635 27636 27637 27638 27639 27640 27641 27642 27643 27644 27645 27646 27647 27648 27649 27650 27651 27652 27653 27654 27655 27656 27657 27658 27659 27660 27661 27662 27663 27664 27665 27666 27667 27668 27669 27670 27671 27672 27673 27674 27675 27676 27677 27678 27679 27680 27681 27682 27683 27684 27685 27686 27687 27688 27689 27690 27691 27692 27693 27694 27695 27696 27697 27698 27699 27700 27701 27702 27703 27704 27705 27706 27707 27708 27709 27710 27711 27712 27713 27714 27715 27716 27717 27718 27719 27720 27721 27722 27723 27724 27725 27726 27727 27728 27729 27730 27731 27732 27733 27734 27735 27736 27737 27738 27739 27740 27741 27742 27743 27744 27745 27746 27747 27748 27749 27750 27751 27752 27753 27754 27755 27756 27757 27758 27759 27760 27761 27762 27763 27764 27765 27766 27767 27768 27769 27770 27771 27772 27773 27774 27775 27776 27777 27778 27779 27780 27781 27782 27783 27784 27785 27786 27787 27788 27789 27790 27791 27792 27793 27794 27795 27796 27797 27798 27799 27800 27801 27802 27803 27804 27805 27806 27807 27808 27809 27810 27811 27812 27813 27814 27815 27816 27817 27818 27819 27820 27821 27822 27823 27824 27825 27826 27827 27828 27829 27830 27831 27832 27833 27834 27835 27836 27837 27838 27839 27840 27841 27842 27843 27844 27845 27846 27847 27848 27849 27850 27851 27852 27853 27854 27855 27856 27857 27858 27859 27860 27861 27862 27863 27864 27865 27866 27867 27868 27869 27870 27871 27872 27873 27874 27875 27876 27877 27878 27879 27880 27881 27882 27883 27884 27885 27886 27887 27888 27889 27890 27891 27892 27893 27894 27895 27896 27897 27898 27899 27900 27901 27902 27903 27904 27905 27906 27907 27908 27909 27910 27911 27912 27913 27914 27915 27916 27917 27918 27919 27920 27921 27922 27923 27924 27925 27926 27927 27928 27929 27930 27931 27932 27933 27934 27935 27936 27937 27938 27939 27940 27941 27942 27943 27944 27945 27946 27947 27948 27949 27950 27951 27952 27953 27954 27955 27956 27957 27958 27959 27960 27961 27962 27963 27964 27965 27966 27967 27968 27969 27970 27971 27972 27973 27974 27975 27976 27977 27978 27979 27980 27981 27982 27983 27984 27985 27986 27987 27988 27989 27990 27991 27992 27993 27994 27995 27996 27997 27998 27999 28000 28001 28002 28003 28004 28005 28006 28007 28008 28009 28010 28011 28012 28013 28014 28015 28016 28017 28018 28019 28020 28021 28022 28023 28024 28025 28026 28027 28028 28029 28030 28031 28032 28033 28034 28035 28036 28037 28038 28039 28040 28041 28042 28043 28044 28045 28046 28047 28048 28049 28050 28051 28052 28053 28054 28055 28056 28057 28058 28059 28060 28061 28062 28063 28064 28065 28066 28067 28068 28069 28070 28071 28072 28073 28074 28075 28076 28077 28078 28079 28080 28081 28082 28083 28084 28085 28086 28087 28088 28089 28090 28091 28092 28093 28094 28095 28096 28097 28098 28099 28100 28101 28102 28103 28104 28105 28106 28107 28108 28109 28110 28111 28112 28113 28114 28115 28116 28117 28118 28119 28120 28121 28122 28123 28124 28125 28126 28127 28128 28129 28130 28131 28132 28133 28134 28135 28136 28137 28138 28139 28140 28141 28142 28143 28144 28145 28146 28147 28148 28149 28150 28151 28152 28153 28154 28155 28156 28157 28158 28159 28160 28161 28162 28163 28164 28165 28166 28167 28168 28169 28170 28171 28172 28173 28174 28175 28176 28177 28178 28179 28180 28181 28182 28183 28184 28185 28186 28187 28188 28189 28190 28191 28192 28193 28194 28195 28196 28197 28198 28199 28200 28201 28202 28203 28204 28205 28206 28207 28208 28209 28210 28211 28212 28213 28214 28215 28216 28217 28218 28219 28220 28221 28222 28223 28224 28225 28226 28227 28228 28229 28230 28231 28232 28233 28234 28235 28236 28237 28238 28239 28240 28241 28242 28243 28244 28245 28246 28247 28248 28249 28250 28251 28252 28253 28254 28255 28256 28257 28258 28259 28260 28261 28262 28263 28264 28265 28266 28267 28268 28269 28270 28271 28272 28273 28274 28275 28276 28277 28278 28279 28280 28281 28282 28283 28284 28285 28286 28287 28288 28289 28290 28291 28292 28293 28294 28295 28296 28297 28298 28299 28300 28301 28302 28303 28304 28305 28306 28307 28308 28309 28310 28311 28312 28313 28314 28315 28316 28317 28318 28319 28320 28321 28322 28323 28324 28325 28326 28327 28328 28329 28330 28331 28332 28333 28334 28335 28336 28337 28338 28339 28340 28341 28342 28343 28344 28345 28346 28347 28348 28349 28350 28351 28352 28353 28354 28355 28356 28357 28358 28359 28360 28361 28362 28363 28364 28365 28366 28367 28368 28369 28370 28371 28372 28373 28374 28375 28376 28377 28378 28379 28380 28381 28382 28383 28384 28385 28386 28387 28388 28389 28390 28391 28392 28393 28394 28395 28396 28397 28398 28399 28400 28401 28402 28403 28404 28405 28406 28407 28408 28409 28410 28411 28412 28413 28414 28415 28416 28417 28418 28419 28420 28421 28422 28423 28424 28425 28426 28427 28428 28429 28430 28431 28432 28433 28434 28435 28436 28437 28438 28439 28440 28441 28442 28443 28444 28445 28446 28447 28448 28449 28450 28451 28452 28453 28454 28455 28456 28457 28458 28459 28460 28461 28462 28463 28464 28465 28466 28467 28468 28469 28470 28471 28472 28473 28474 28475 28476 28477 28478 28479 28480 28481 28482 28483 28484 28485 28486 28487 28488 28489 28490 28491 28492 28493 28494 28495 28496 28497 28498 28499 28500 28501 28502 28503 28504 28505 28506 28507 28508 28509 28510 28511 28512 28513 28514 28515 28516 28517 28518 28519 28520 28521 28522 28523 28524 28525 28526 28527 28528 28529 28530 28531 28532 28533 28534 28535 28536 28537 28538 28539 28540 28541 28542 28543 28544 28545 28546 28547 28548 28549 28550 28551 28552 28553 28554 28555 28556 28557 28558 28559 28560 28561 28562 28563 28564 28565 28566 28567 28568 28569 28570 28571 28572 28573 28574 28575 28576 28577 28578 28579 28580 28581 28582 28583 28584 28585 28586 28587 28588 28589 28590 28591 28592 28593 28594 28595 28596 28597 28598 28599 28600 28601 28602 28603 28604 28605 28606 28607 28608 28609 28610 28611 28612 28613 28614 28615 28616 28617 28618 28619 28620 28621 28622 28623 28624 28625 28626 28627 28628 28629 28630 28631 28632 28633 28634 28635 28636 28637 28638 28639 28640 28641 28642 28643 28644 28645 28646 28647 28648 28649 28650 28651 28652 28653 28654 28655 28656 28657 28658 28659 28660 28661 28662 28663 28664 28665 28666 28667 28668 28669 28670 28671 28672 28673 28674 28675 28676 28677 28678 28679 28680 28681 28682 28683 28684 28685 28686 28687 28688 28689 28690 28691 28692 28693 28694 28695 28696 28697 28698 28699 28700 28701 28702 28703 28704 28705 28706 28707 28708 28709 28710 28711 28712 28713 28714 28715 28716 28717 28718 28719 28720 28721 28722 28723 28724 28725 28726 28727 28728 28729 28730 28731 28732 28733 28734 28735 28736 28737 28738 28739 28740 28741 28742 28743 28744 28745 28746 28747 28748 28749 28750 28751 28752 28753 28754 28755 28756 28757 28758 28759 28760 28761 28762 28763 28764 28765 28766 28767 28768 28769 28770 28771 28772 28773 28774 28775 28776 28777 28778 28779 28780 28781 28782 28783 28784 28785 28786 28787 28788 28789 28790 28791 28792 28793 28794 28795 28796 28797 28798 28799 28800 28801 28802 28803 28804 28805 28806 28807 28808 28809 28810 28811 28812 28813 28814 28815 28816 28817 28818 28819 28820 28821 28822 28823 28824 28825 28826 28827 28828 28829 28830 28831 28832 28833 28834 28835 28836 28837 28838 28839 28840 28841 28842 28843 28844 28845 28846 28847 28848 28849 28850 28851 28852 28853 28854 28855 28856 28857 28858 28859 28860 28861 28862 28863 28864 28865 28866 28867 28868 28869 28870 28871 28872 28873 28874 28875 28876 28877 28878 28879 28880 28881 28882 28883 28884 28885 28886 28887 28888 28889 28890 28891 28892 28893 28894 28895 28896 28897 28898 28899 28900 28901 28902 28903 28904 28905 28906 28907 28908 28909 28910 28911 28912 28913 28914 28915 28916 28917 28918 28919 28920 28921 28922 28923 28924 28925 28926 28927 28928 28929 28930 28931 28932 28933 28934 28935 28936 28937 28938 28939 28940 28941 28942 28943 28944 28945 28946 28947 28948 28949 28950 28951 28952 28953 28954 28955 28956 28957 28958 28959 28960 28961 28962 28963 28964 28965 28966 28967 28968 28969 28970 28971 28972 28973 28974 28975 28976 28977 28978 28979 28980 28981 28982 28983 28984 28985 28986 28987 28988 28989 28990 28991 28992 28993 28994 28995 28996 28997 28998 28999 29000 29001 29002 29003 29004 29005 29006 29007 29008 29009 29010 29011 29012 29013 29014 29015 29016 29017 29018 29019 29020 29021 29022 29023 29024 29025 29026 29027 29028 29029 29030 29031 29032 29033 29034 29035 29036 29037 29038 29039 29040 29041 29042 29043 29044 29045 29046 29047 29048 29049 29050 29051 29052 29053 29054 29055 29056 29057 29058 29059 29060 29061 29062 29063 29064 29065 29066 29067 29068 29069 29070 29071 29072 29073 29074 29075 29076 29077 29078 29079 29080 29081 29082 29083 29084 29085 29086 29087 29088 29089 29090 29091 29092 29093 29094 29095 29096 29097 29098 29099 29100 29101 29102 29103 29104 29105 29106 29107 29108 29109 29110 29111 29112 29113 29114 29115 29116 29117 29118 29119 29120 29121 29122 29123 29124 29125 29126 29127 29128 29129 29130 29131 29132 29133 29134 29135 29136 29137 29138 29139 29140 29141 29142 29143 29144 29145 29146 29147 29148 29149 29150 29151 29152 29153 29154 29155 29156 29157 29158 29159 29160 29161 29162 29163 29164 29165 29166 29167 29168 29169 29170 29171 29172 29173 29174 29175 29176 29177 29178 29179 29180 29181 29182 29183 29184 29185 29186 29187 29188 29189 29190 29191 29192 29193 29194 29195 29196 29197 29198 29199 29200 29201 29202 29203 29204 29205 29206 29207 29208 29209 29210 29211 29212 29213 29214 29215 29216 29217 29218 29219 29220 29221 29222 29223 29224 29225 29226 29227 29228 29229 29230 29231 29232 29233 29234 29235 29236 29237 29238 29239 29240 29241 29242 29243 29244 29245 29246 29247 29248 29249 29250 29251 29252 29253 29254 29255 29256 29257 29258 29259 29260 29261 29262 29263 29264 29265 29266 29267 29268 29269 29270 29271 29272 29273 29274 29275 29276 29277 29278 29279 29280 29281 29282 29283 29284 29285 29286 29287 29288 29289 29290 29291 29292 29293 29294 29295 29296 29297 
</DataArray>
<DataArray type="UInt32" Name="offsets" format="ascii">
3 6 9 12 15 18 21 24 27 30 32 35 37 40 43 46 49 51 54 57 60 62 65 67 70 73 76 78 81 84 87 90 92 95 98 101 104 107 110 113 116 119 122 124 127 130 133 136 139 142 145 148 151 154 157 160 163 166 169 172 175 178 181 184 187 190 193 196 199 202 205 207 210 213 216 219 221 224 227 230 233 235 238 241 244 247 250 253 256 259 262 265 267 270 272 275 278 280 283 286 289 292 295 298 301 303 306 309 312 315 318 321 324 327 330 333 335 337 340 343 346 348 351 354 356 359 362 365 368 371 374 377 380 383 386 389 392 395 397 400 403 406 409 412 415 417 420 423 426 429 432 435 438 441 444 447 450 453 456 459 462 465 468 471 474 477 480 483 486 489 492 495 498 501 504 507 510 513 516 519 522 525 528 531 534 537 540 543 546 549 552 555 558 561 564 567 570 573 576 579 582 585 588 591 594 597 600 602 605 608 611 614 617 620 623 626 629 632 635 638 641 644 647 650 653 656 659 662 665 668 671 674 677 679 682 684 687 690 693 696 699 702 705 708 711 713 716 718 721 724 727 730 733 736 739 742 745 748 751 754 757 760 763 766 769 772 775 778 781 784 787 790 793 795 798 801 804 807 810 813 816 819 822 825 828 831 833 836 839 842 845 848 850 853 856 859 862 865 868 871 874 876 879 882 885 888 890 893 896 899 902 905 907 910 913 916 919 922 925 928 931 934 937 940 943 946 949 952 955 958 961 964 967 970 973 976 979 982 985 988 991 993 996 999 1002 1005 1008 1011 1014 1017 1020 1023 1026 1029 1032 1035 1038 1041 1044 1047 1050 1053 1056 1059 1062 1064 1067 1070 1073 1076 1079 1082 1085 1088 1090 1093 1096 1099 1102 1104 1107 1110 1113 1115 1118 1121 1123 1126 1129 1131 1134 1136 1139 1142 1144 1147 1150 1153 1156 1159 1162 1165 1167 1169 1172 1175 1178 1180 1183 1186 1189 1192 1195 1197 1200 1203 1206 1209 1212 1215 1218 1221 1224 1227 1230 1233 1236 1238 1241 1244 1247 1250 1253 1256 1259 1262 1265 1268 1271 1273 1276 1278 1281 1284 1287 1290 1293 1296 1299 1302 1305 1308 1310 1313 1316 1318 1321 1324 1327 1329 1332 1335 1338 1340 1343 1346 1348 1351 1353 1356 1358 1361 1363 1365 1368 1371 1374 1376 1378 1380 1382 1385 1388 1391 1394 1397 1400 1403 1406 1408 1411 1414 1417 1420 1422 1425 1427 1430 1432 1435 1438 1440 1443 1446 1449 1452 1454 1457 1460 1463 1466 1469 1472 1475 1478 1481 1484 1486 1488 1491 1494 1497 1500 1503 1505 1508 1511 1514 1517 1520 1523 1526 1529 1532 1535 1538 1541 1544 1546 1549 1552 1555 1558 1561 1564 1567 1570 1573 1576 1579 1582 1584 1586 1588 1591 1594 1597 1600 1603 1606 1609 1612 1615 1618 1621 1624 1627 1630 1633 1636 1639 1642 1645 1648 1651 1653 1656 1659 1662 1664 1667 1670 1673 1676 1679 1682 1685 1688 1691 1694 1697 1700 1703 1706 1709 1712 1715 1718 1721 1724 1727 1730 1733 1736 1739 1742 1745 1748 1751 1754 1757 1760 1763 1765 1768 1771 1773 1776 1779 1782 1785 1788 1791 1794 1797 1800 1803 1806 1809 1812 1815 1818 1821 1824 1827 1830 1833 1836 1838 1841 1844 1847 1850 1853 1856 1859 1862 1865 1868 1871 1874 1877 1880 1883 1886 1889 1892 1895 1897 1900 1903 1906 1909 1912 1915 1918 1921 1924 1927 1929 1932 1934 1937 1940 1942 1945 1948 1951 1953 1956 1959 1962 1965 1968 1970 1973 1975 1978 1981 1983 1986 1989 1992 1995 1998 2001 2004 2006 2009 2012 2015 2017 2019 2022 2025 2028 2031 2034 2037 2040 2042 2045 2048 2050 2053 2055 2057 2060 2063 2066 2068 2071 2074 2076 2078 2080 2083 2086 2089 2091 2094 2097 2099 2101 2104 2107 2110 2112 2115 2118 2120 2123 2126 2128 2130 2132 2135 2138 2141 2143 2146 2149 2152 2155 2158 2161 2164 2166 2169 2172 2175 2178 2181 2184 2187 2190 2193 2196 2199 2202 2205 2208 2211 2214 2217 2220 2223 2226 2229 2232 2235 2238 2241 2244 2247 2250 2252 2255 2258 2261 2263 2265 2268 2271 2273 2276 2279 2282 2285 2288 2291 2294 2297 2299 2302 2305 2308 2311 2313 2316 2319 2322 2325 2328 2331 2334 2337 2340 2342 2345 2348 2351 2353 2356 2359 2361 2364 2366 2369 2372 2374 2377 2380 2383 2385 2387 2390 2393 2395 2398 2401 2403 2405 2408 2411 2414 2417 2420 2423 2426 2429 2432 2435 2438 2440 2443 2446 2449 2452 2455 2458 2461 2464 2467 2470 2472 2475 2478 2480 2483 2485 2487 2489 2492 2494 2497 2500 2503 2506 2509 2512 2515 2518 2521 2524 2527 2530 2533 2536 2539 2542 2545 2548 2551 2554 2557 2560 2563 2566 2569 2572 2575 2578 2581 2584 2587 2590 2593 2596 2599 2602 2605 2607 2610 2613 2615 2618 2620 2623 2626 2628 2631 2634 2637 2639 2642 2644 2647 2649 2652 2655 2658 2661 2664 2667 2670 2673 2676 2679 2682 2685 2688 2691 2694 2697 2700 2703 2706 2708 2711 2713 2716 2719 2722 2725 2728 2731 2734 2737 2740 2743 2746 2749 2752 2755 2758 2761 2764 2767 2769 2772 2774 2777 2780 2782 2785 2788 2791 2793 2796 2799 2802 2805 2807 2810 2813 2815 2818 2820 2822 2825 2828 2830 2832 2835 2838 2840 2843 2846 2848 2850 2853 2856 2859 2862 2864 2867 2870 2873 2876 2878 2881 2884 2887 2889 2891 2894 2897 2899 2902 2905 2907 2910 2913 2916 2919 2922 2925 2927 2930 2933 2935 2938 2940 2943 2946 2949 2952 2955 2958 2961 2964 2967 2970 2972 2975 2978 2981 2984 2987 2990 2993 2996 2999 3002 3005 3008 3011 3014 3017 3020 3022 3025 3028 3031 3034 3037 3040 3043 3045 3047 3050 3053 3055 3058 3061 3064 3067 3069 3071 3074 3077 3080 3083 3086 3089 3092 3095 3098 3101 3104 3107 3110 3113 3116 3119 3122 3125 3128 3131 3133 3136 3139 3142 3145 3148 3151 3154 3157 3160 3163 3166 3169 3172 3175 3178 3181 3184 3187 3189 3192 3195 3197 3200 3203 3206 3209 3211 3214 3217 3220 3223 3226 3229 3232 3235 3238 3241 3244 3247 3250 3253 3256 3259 3262 3265 3268 3271 3273 3276 3279 3282 3285 3288 3291 3294 3297 3299 3302 3305 3308 3311 3314 3317 3320 3322 3325 3328 3331 3334 3337 3340 3343 3346 3349 3352 3355 3357 3360 3363 3366 3368 3371 3374 3377 3380 3383 3386 3389 3392 3395 3398 3401 3404 3407 3410 3413 3416 3419 3422 3425 3428 3431 3434 3437 3440 3443 3446 3449 3452 3455 3458 3460 3463 3466 3469 3472 3475 3478 3481 3483 3486 3489 3492 3495 3498 3501 3504 3507 3510 3513 3516 3519 3522 3525 3528 3531 3534 3537 3540 3543 3546 3549 3552 3555 3558 3561 3564 3567 3570 3573 3576 3578 3581 3584 3587 3590 3593 3596 3599 3601 3604 3607 3610 3612 3615 3618 3621 3623 3626 3629 3632 3635 3638 3641 3644 3646 3649 3652 3655 3657 3660 3663 3666 3669 3672 3675 3678 3681 3684 3687 3690 3693 3696 3699 3702 3705 3707 3710 3713 3716 3719 3722 3725 3728 3731 3734 3736 3739 3742 3745 3748 3751 3754 3757 3759 3762 3765 3768 3771 3773 3776 3779 3782 3784 3786 3789 3792 3795 3798 3800 3803 3806 3809 3812 3815 3818 3821 3824 3827 3830 3833 3836 3839 3842 3845 3847 3850 3853 3856 3859 3862 3865 3868 3871 3874 3877 3880 3883 3886 3889 3892 3895 3898 3901 3904 3907 3910 3913 3916 3919 3922 3925 3928 3930 3933 3936 3939 3942 3945 3948 3951 3954 3957 3960 3963 3965 3968 3971 3973 3976 3979 3981 3984 3987 3990 3992 3995 3998 4000 4003 4006 4009 4012 4015 4018 4021 4024 4026 4029 4032 4034 4037 4040 4043 4046 4049 4052 4055 4058 4061 4064 4067 4070 4073 4075 4078 4081 4084 4086 4089 4092 4095 4098 4101 4104 4107 4110 4113 4116 4119 4122 4125 4128 4131 4134 4136 4139 4142 4144 4147 4150 4153 4156 4159 4161 4164 4167 4170 4173 4176 4179 4182 4185 4188 4191 4194 4197 4200 4203 4206 4209 4212 4215 4218 4221 4224 4226 4229 4231 4233 4236 4239 4242 4245 4248 4250 4253 4256 4258 4261 4263 4266 4269 4272 4275 4278 4281 4284 4286 4289 4292 4295 4298 4301 4304 4307 4310 4313 4316 4319 4322 4325 4328 4330 4333 4336 4339 4342 4345 4348 4351 4354 4357 4360 4363 4366 4369 4372 4375 4378 4380 4383 4386 4388 4391 4394 4397 4400 4403 4406 4409 4412 4414 4417 4419 4422 4424 4426 4429 4432 4435 4438 4440 4443 4446 4449 4452 4454 4457 4460 4463 4466 4469 4472 4475 4478 4481 4484 4486 4489 4492 4495 4498 4501 4504 4507 4510 4513 4516 4519 4522 4524 4527 4530 4532 4535 4538 4540 4542 4545 4548 4551 4554 4557 4560 4563 4566 4568 4571 4574 4577 4580 4583 4586 4589 4592 4595 4597 4600 4603 4605 4608 4611 4614 4616 4618 4621 4624 4627 4630 4633 4636 4639 4642 4645 4648 4650 4653 4656 4658 4660 4663 4665 4668 4671 4673 4676 4679 4682 4685 4688 4691 4694 4697 4700 4703 4706 4708 4711 4714 4717 4720 4723 4726 4729 4732 4735 4737 4740 4743 4746 4749 4752 4755 4758 4760 4763 4766 4769 4772 4775 4778 4781 4784 4786 4789 4792 4795 4798 4801 4804 4806 4808 4811 4814 4817 4820 4823 4826 4829 4832 4835 4837 4840 4843 4846 4849 4851 4854 4857 4860 4863 4866 4869 4872 4875 4878 4881 4884 4886 4889 4892 4895 4898 4901 4903 4906 4909 4912 4915 4918 4921 4924 4927 4930 4933 4936 4939 4942 4945 4948 4951 4954 4957 4960 4963 4966 4969 4972 4975 4978 4981 4984 4987 4990 4993 4996 4999 5002 5005 5008 5011 5014 5017 5020 5023 5026 5029 5032 5035 5038 5041 5044 5047 5050 5053 5056 5058 5061 5064 5067 5070 5073 5075 5078 5081 5083 5086 5089 5092 5095 5098 5101 5104 5107 5110 5113 5116 5119 5122 5125 5128 5130 5133 5136 5139 5141 5144 5147 5150 5152 5154 5157 5160 5163 5166 5169 5172 5175 5178 5181 5184 5187 5189 5192 5195 5198 5201 5204 5206 5209 5212 5215 5218 5221 5224 5227 5230 5233 5236 5239 5242 5245 5248 5251 5254 5257 5260 5263 5266 5269 5272 5275 5278 5281 5284 5287 5290 5292 5295 5298 5301 5304 5307 5310 5313 5316 5319 5322 5325 5327 5330 5333 5335 5338 5340 5342 5345 5348 5351 5354 5357 5360 5363 5365 5367 5370 5373 5376 5378 5381 5384 5387 5390 5393 5396 5399 5402 5405 5408 5411 5414 5417 5419 5422 5425 5427 5430 5432 5435 5438 5441 5444 5446 5449 5451 5454 5457 5460 5462 5464 5467 5470 5473 5476 5479 5482 5485 5488 5491 5494 5497 5500 5502 5505 5508 5511 5514 5516 5519 5522 5525 5527 5530 5533 5535 5537 5540 5543 5545 5548 5550 5553 5556 5559 5562 5565 5568 5571 5574 5576 5579 5582 5585 5587 5590 5593 5596 5599 5602 5605 5608 5611 5614 5617 5620 5623 5626 5629 5632 5635 5638 5641 5644 5647 5650 5653 5656 5659 5662 5665 5668 5671 5674 5677 5679 5682 5685 5688 5690 5693 5695 5697 5700 5703 5706 5709 5712 5714 5716 5719 5722 5725 5728 5730 5733 5736 5739 5742 5745 5748 5751 5754 5757 5760 5763 5766 5769 5771 5774 5777 5780 5783 5785 5788 5791 5794 5797 5800 5803 5806 5809 5812 5814 5817 5820 5823 5825 5828 5831 5834 5837 5840 5842 5845 5848 5851 5853 5856 5858 5861 5864 5866 5869 5871 5874 5877 5879 5882 5885 5888 5890 5892 5895 5898 5901 5904 5906 5909 5912 5915 5917 5920 5922 5925 5927 5930 5933 5936 5938 5941 5944 5947 5950 5953 5956 5959 5962 5965 5967 5970 5973 5975 5977 5979 5982 5985 5988 5991 5994 5997 6000 6003 6005 6008 6011 6014 6017 6020 6023 6025 6028 6031 6034 6037 6040 6043 6046 6049 6052 6054 6057 6060 6063 6066 6069 6072 6075 6078 6081 6084 6087 6090 6093 6096 6099 6102 6105 6108 6111 6114 6117 6120 6123 6126 6129 6132 6135 6138 6141 6144 6147 6149 6152 6155 6158 6160 6163 6166 6169 6172 6175 6178 6181 6184 6186 6189 6192 6195 6198 6201 6204 6207 6210 6213 6216 6218 6221 6223 6226 6229 6232 6235 6238 6241 6244 6247 6250 6253 6256 6259 6261 6264 6266 6269 6272 6275 6278 6281 6283 6286 6289 6291 6294 6297 6300 6303 6306 6309 6312 6315 6317 6320 6323 6326 6329 6332 6335 6337 6340 6343 6346 6349 6352 6355 6358 6361 6364 6367 6370 6373 6376 6379 6382 6385 6388 6391 6394 6397 6400 6403 6406 6409 6412 6415 6418 6420 6423 6426 6429 6432 6434 6437 6440 6443 6445 6448 6450 6453 6455 6458 6461 6464 6466 6468 6471 6474 6477 6480 6483 6485 6488 6491 6494 6497 6500 6503 6506 6509 6512 6515 6518 6520 6523 6526 6529 6532 6534 6537 6539 6542 6545 6548 6551 6553 6556 6558 6561 6563 6566 6568 6571 6573 6576 6578 6581 6583 6586 6589 6591 6594 6597 6600 6603 6606 6609 6612 6614 6617 6620 6623 6626 6629 6632 6635 6638 6641 6643 6646 6649 6652 6655 6658 6661 6664 6667 6670 6672 6675 6678 6681 6684 6687 6690 6693 6696 6699 6702 6705 6708 6711 6713 6716 6719 6722 6725 6728 6731 6734 6737 6740 6742 6745 6748 6751 6754 6757 6760 6763 6765 6768 6771 6774 6777 6779 6782 6785 6787 6790 6793 6796 6798 6801 6804 6807 6810 6813 6815 6817 6820 6822 6825 6828 6830 6833 6836 6839 6841 6844 6847 6850 6853 6856 6859 6862 6865 6868 6871 6873 6876 6879 6882 6885 6888 6891 6893 6896 6899 6902 6905 6908 6911 6914 6917 6920 6923 6926 6929 6932 6935 6937 6939 6942 6945 6948 6951 6954 6956 6959 6962 6965 6967 6970 6972 6975 6978 6980 6983 6986 6989 6992 6994 6997 7000 7003 7006 7009 7012 7015 7018 7021 7024 7027 7030 7033 7036 7039 7042 7045 7048 7051 7054 7057 7060 7063 7066 7069 7072 7075 7078 7081 7084 7086 7089 7092 7094 7097 7100 7103 7106 7109 7112 7115 7118 7121 7123 7126 7129 7132 7135 7138 7141 7144 7147 7149 7151 7153 7156 7159 7161 7164 7166 7169 7172 7175 7177 7180 7182 7184 7187 7190 7193 7196 7198 7201 7204 7207 7209 7211 7214 7217 7219 7222 7224 7227 7230 7233 7235 7238 7241 7244 7247 7250 7253 7255 7258 7261 7264 7267 7270 7273 7276 7279 7282 7285 7288 7291 7294 7297 7300 7302 7305 7308 7311 7313 7316 7319 7322 7325 7328 7331 7334 7337 7340 7343 7346 7349 7352 7355 7358 7361 7364 7367 7370 7373 7376 7379 7382 7385 7388 7391 7394 7397 7400 7403 7406 7409 7412 7415 7418 7421 7424 7427 7430 7433 7436 7439 7442 7445 7448 7450 7453 7456 7458 7461 7464 7467 7470 7473 7476 7479 7482 7485 7487 7490 7493 7496 7499 7502 7505 7508 7511 7514 7517 7520 7522 7525 7528 7531 7534 7537 7540 7543 7546 7549 7552 7554 7557 7560 7562 7565 7568 7571 7573 7576 7579 7582 7584 7587 7590 7593 7596 7599 7602 7605 7608 7610 7613 7616 7619 7622 7625 7628 7631 7634 7637 7640 7643 7646 7649 7652 7655 7657 7660 7663 7666 7669 7671 7674 7677 7680 7683 7686 7689 7692 7695 7698 7701 7704 7707 7710 7713 7716 7719 7722 7725 7728 7731 7734 7737 7740 7743 7746 7749 7752 7755 7758 7761 7764 7766 7769 7772 7775 7778 7781 7784 7787 7789 7792 7795 7798 7800 7803 7806 7808 7811 7814 7817 7819 7822 7825 7828 7831 7834 7837 7840 7843 7845 7848 7851 7854 7857 7860 7863 7866 7869 7872 7875 7878 7881 7883 7886 7889 7892 7895 7898 7900 7903 7905 7908 7911 7914 7917 7920 7923 7925 7928 7931 7933 7936 7939 7941 7944 7947 7950 7953 7956 7958 7961 7963 7966 7969 7972 7974 7977 7980 7983 7986 7989 7992 7994 7997 8000 8003 8005 8008 8011 8014 8017 8020 8023 8026 8029 8032 8035 8038 8041 8044 8047 8049 8052 8054 8057 8059 8062 8065 8068 8071 8074 8076 8079 8081 8084 8086 8089 8092 8095 8098 8101 8103 8106 8109 8112 8114 8117 8120 8123 8126 8129 8132 8134 8137 8139 8142 8144 8147 8150 8153 8156 8158 8160 8163 8166 8169 8172 8175 8178 8181 8184 8187 8190 8193 8196 8199 8202 8205 8208 8211 8213 8216 8219 8222 8225 8227 8230 8233 8236 8239 8242 8245 8248 8251 8254 8257 8259 8262 8265 8268 8271 8274 8277 8280 8282 8285 8288 8291 8293 8296 8299 8302 8304 8307 8310 8313 8316 8319 8322 8325 8328 8331 8334 8337 8340 8343 8346 8349 8352 8355 8358 8361 8364 8367 8370 8373 8376 8379 8382 8385 8388 8391 8394 8397 8400 8403 8406 8409 8412 8415 8418 8421 8424 8427 8430 8433 8436 8439 8442 8445 8448 8451 8454 8457 8460 8463 8466 8469 8472 8475 8478 8481 8483 8486 8489 8492 8495 8497 8500 8503 8506 8509 8512 8514 8517 8520 8523 8526 8529 8532 8535 8538 8541 8544 8547 8550 8553 8556 8559 8562 8564 8567 8569 8572 8575 8578 8581 8583 8585 8588 8591 8594 8597 8599 8601 8604 8607 8610 8613 8616 8619 8621 8624 8626 8628 8631 8634 8637 8640 8642 8644 8647 8650 8653 8656 8659 8662 8664 8667 8670 8673 8676 8679 8682 8684 8687 8690 8693 8696 8698 8700 8703 8706 8708 8710 8713 8716 8719 8722 8724 8727 8730 8733 8735 8737 8740 8743 8745 8748 8750 8752 8755 8758 8761 8763 8766 8768 8771 8773 8776 8779 8782 8785 8787 8790 8793 8795 8798 8801 8804 8807 8810 8812 8814 8817 8820 8823 8826 8829 8832 8834 8836 8839 8842 8845 8848 8851 8853 8856 8859 8861 8864 8867 8870 8873 8876 8879 8882 8884 8887 8890 8893 8895 8898 8901 8904 8907 8910 8912 8915 8918 8921 8924 8927 8929 8932 8935 8938 8941 8944 8947 8950 8953 8956 8958 8961 8964 8967 8969 8972 8975 8978 8981 8984 8987 8990 8993 8996 8998 9001 9003 9006 9009 9012 9015 9018 9021 9023 9026 9029 9031 9034 9037 9040 9043 9046 9049 9051 9054 9057 9060 9063 9066 9069 9072 9075 9078 9081 9084 9087 9089 9091 9094 9097 9099 9102 9105 9108 9111 9114 9116 9119 9122 9124 9126 9129 9132 9135 9138 9141 9144 9147 9149 9152 9155 9158 9161 9164 9167 9170 9172 9175 9178 9181 9184 9187 9190 9193 9196 9199 9202 9205 9208 9211 9214 9217 9220 9223 9226 9229 9231 9234 9237 9240 9242 9245 9248 9251 9254 9257 9260 9263 9266 9269 9272 9275 9278 9281 9284 9286 9289 9292 9295 9298 9301 9304 9307 9310 9313 9316 9319 9321 9324 9327 9330 9333 9336 9339 9342 9344 9347 9350 9353 9356 9359 9362 9365 9368 9371 9374 9377 9379 9382 9385 9388 9391 9394 9397 9400 9403 9406 9409 9411 9414 9417 9420 9423 9426 9429 9432 9435 9438 9441 9444 9446 9449 9452 9455 9458 9461 9464 9467 9470 9473 9476 9479 9482 9484 9486 9489 9492 9495 9498 9501 9504 9507 9510 9513 9516 9519 9522 9524 9527 9529 9532 9535 9538 9540 9543 9546 9548 9551 9554 9557 9560 9563 9566 9569 9572 9575 9578 9581 9584 9587 9590 9592 9595 9598 9601 9604 9607 9610 9613 9616 9619 9622 9624 9627 9630 9633 9636 9639 9642 9645 9648 9651 9654 9657 9660 9663 9666 9669 9672 9675 9678 9681 9684 9687 9690 9693 9696 9699 9702 9705 9707 9709 9712 9715 9718 9721 9724 9727 9730 9733 9736 9739 9742 9745 9747 9750 9752 9755 9758 9761 9764 9767 9770 9772 9775 9778 9780 9783 9786 9789 9792 9795 9798 9800 9803 9805 9808 9811 9814 9817 9820 9823 9826 9829 9832 9835 9838 9841 9844 9847 9850 9852 9855 9858 9860 9863 9866 9869 9871 9874 9876 9879 9882 9885 9888 9891 9894 9897 9900 9903 9906 9909 9912 9915 9918 9921 9924 9927 9930 9933 9936 9939 9942 9944 9946 9949 9952 9955 9957 9960 9963 9966 9969 9972 9975 9978 9981 9984 9987 9990 9993 9996 9999 10002 10005 10008 10011 10014 10017 10020 10023 10026 10029 10032 10035 10038 10040 10043 10045 10048 10051 10054 10057 10060 10063 10066 10069 10072 10075 10078 10081 10084 10087 10090 10093 10096 10099 10102 10105 10108 10111 10114 10117 10120 10123 10126 10128 10131 10134 10137 10140 10143 10146 10149 10152 10155 10158 10161 10164 10167 10170 10173 10176 10179 10182 10185 10188 10191 10194 10197 10200 10203 10206 10209 10212 10215 10218 10221 10224 10227 10230 10233 10236 10239 10242 10245 10248 10251 10254 10257 10260 10263 10266 10269 10272 10275 10278 10281 10284 10287 10290 10292 10295 10297 10300 10303 10305 10308 10311 10314 10317 10319 10322 10325 10328 10331 10334 10336 10339 10342 10345 10347 10349 10352 10355 10358 10361 10363 10365 10368 10371 10373 10375 10378 10381 10383 10386 10389 10391 10393 10396 10399 10402 10404 10407 10410 10413 10416 10418 10421 10424 10427 10430 10432 10435 10437 10440 10443 10445 10448 10451 10454 10456 10458 10461 10463 10466 10469 10472 10474 10476 10479 10482 10485 10488 10491 10493 10496 10499 10502 10505 10508 10511 10513 10516 10519 10522 10525 10528 10531 10533 10536 10539 10542 10545 10547 10550 10553 10555 10558 10560 10563 10566 10569 10572 10575 10578 10581 10584 10587 10590 10593 10596 10598 10601 10604 10606 10609 10611 10614 10616 10619 10622 10625 10628 10631 10633 10636 10638 10641 10644 10647 10649 10652 10655 10658 10660 10663 10666 10668 10671 10673 10676 10679 10681 10684 10687 10690 10693 10696 10699 10702 10705 10708 10711 10714 10717 10719 10722 10725 10728 10731 10734 10737 10739 10742 10744 10747 10750 10753 10756 10759 10761 10764 10767 10770 10773 10776 10779 10782 10785 10787 10790 10793 10796 10799 10802 10804 10807 10809 10812 10815 10817 10819 10822 10824 10827 10830 10833 10836 10839 10842 10845 10848 10851 10854 10857 10860 10863 10866 10868 10871 10874 10877 10880 10883 10886 10888 10891 10893 10896 10899 10902 10905 10907 10909 10912 10915 10918 10921 10924 10926 10929 10932 10935 10938 10940 10942 10945 10948 10951 10954 10956 10959 10962 10965 10968 10971 10974 10976 10979 10982 10985 10988 10991 10994 10997 10999 11002 11005 11008 11011 11014 11017 11020 11023 11026 11029 11031 11034 11036 11039 11041 11044 11047 11049 11052 11055 11057 11060 11062 11065 11068 11071 11074 11077 11080 11083 11085 11088 11091 11094 11097 11099 11102 11105 11108 11110 11113 11115 11118 11120 11122 11124 11126 11129 11132 11134 11136 11139 11142 11145 11147 11150 11152 11155 11158 11161 11164 11167 11169 11172 11175 11178 11181 11184 11187 11190 11193 11196 11198 11201 11204 11207 11210 11213 11216 11219 11222 11225 11228 11231 11234 11237 11240 11243 11246 11249 11252 11254 11257 11260 11263 11266 11268 11271 11274 11276 11279 11282 11285 11288 11291 11294 11297 11300 11302 11305 11308 11310 11313 11316 11319 11322 11325 11328 11331 11334 11337 11340 11343 11346 11349 11352 11354 11357 11360 11363 11366 11368 11371 11374 11376 11379 11381 11384 11387 11390 11393 11396 11399 11402 11405 11408 11411 11414 11417 11420 11423 11426 11429 11432 11435 11438 11441 11444 11447 11450 11452 11455 11458 11461 11464 11467 11470 11473 11476 11478 11481 11483 11486 11489 11491 11494 11497 11500 11503 11506 11509 11512 11515 11518 11521 11524 11527 11530 11532 11535 11538 11540 11543 11546 11549 11552 11555 11558 11560 11563 11566 11569 11572 11574 11577 11580 11583 11586 11589 11591 11594 11597 11600 11602 11605 11608 11611 11614 11617 11620 11623 11626 11629 11632 11635 11638 11641 11644 11646 11649 11652 11655 11658 11661 11664 11667 11670 11673 11675 11678 11681 11684 11687 11690 11693 11696 11699 11702 11704 11707 11710 11713 11716 11719 11722 11725 11728 11730 11733 11736 11739 11742 11745 11748 11751 11754 11757 11760 11763 11766 11769 11772 11775 11778 11781 11784 11787 11790 11793 11796 11799 11802 11805 11808 11811 11814 11817 11820 11823 11826 11829 11832 11835 11838 11841 11844 11847 11850 11853 11856 11858 11861 11864 11867 11869 11872 11875 11878 11881 11884 11887 11890 11893 11896 11898 11900 11903 11906 11908 11911 11913 11916 11919 11922 11925 11928 11930 11933 11936 11938 11940 11943 11946 11948 11951 11953 11956 11959 11962 11964 11967 11970 11973 11976 11979 11982 11985 11988 11991 11994 11997 11999 12002 12005 12008 12011 12014 12017 12020 12023 12026 12028 12031 12034 12037 12040 12043 12046 12048 12051 12054 12057 12060 12063 12066 12069 12072 12075 12077 12080 12083 12086 12089 12092 12095 12098 12100 12103 12106 12109 12112 12115 12118 12121 12124 12127 12130 12132 12135 12137 12140 12143 12146 12149 12152 12155 12158 12161 12164 12167 12170 12173 12176 12179 12182 12185 12188 12191 12194 12197 12200 12203 12205 12208 12211 12214 12217 12220 12223 12226 12229 12231 12234 12237 12239 12242 12245 12247 12250 12253 12256 12259 12261 12263 12266 12269 12271 12274 12276 12278 12281 12284 12286 12289 12292 12294 12297 12300 12302 12305 12307 12310 12313 12315 12318 12321 12324 12327 12330 12333 12335 12338 12341 12344 12346 12349 12352 12355 12358 12361 12363 12366 12369 12372 12375 12378 12381 12384 12387 12390 12392 12395 12398 12400 12403 12406 12409 12412 12414 12417 12420 12423 12426 12428 12431 12434 12436 12439 12442 12445 12448 12450 12452 12455 12458 12461 12464 12467 12470 12473 12476 12478 12481 12484 12486 12489 12492 12495 12498 12501 12504 12507 12510 12513 12516 12519 12522 12524 12527 12530 12533 12536 12539 12542 12545 12548 12550 12553 12556 12559 12561 12564 12567 12570 12573 12575 12578 12580 12583 12586 12589 12592 12595 12597 12599 12602 12605 12608 12610 12613 12616 12619 12621 12624 12626 12629 12632 12635 12637 12640 12643 12645 12648 12651 12654 12656 12659 12662 12664 12667 12670 12673 12676 12679 12681 12684 12687 12689 12692 12695 12698 12701 12704 12707 12710 12713 12716 12719 12722 12725 12728 12731 12734 12737 12740 12743 12746 12749 12752 12755 12757 12760 12763 12766 12769 12772 12775 12778 12780 12782 12785 12788 12791 12794 12797 12800 12803 12806 12809 12812 12814 12817 12820 12822 12825 12828 12831 12833 12836 12839 12841 12844 12847 12849 12851 12854 12856 12859 12861 12863 12866 12868 12871 12873 12876 12879 12881 12884 12887 12890 12892 12894 12897 12899 12902 12905 12908 12911 12914 12916 12918 12921 12923 12926 12929 12932 12935 12938 12940 12943 12946 12949 12952 12955 12958 12960 12963 12966 12969 12972 12975 12978 12981 12984 12987 12990 12993 12996 12999 13001 13004 13007 13010 13013 13016 13019 13022 13025 13028 13031 13034 13037 13040 13043 13045 13047 13049 13052 13055 13057 13060 13062 13064 13066 13069 13072 13075 13078 13081 13084 13087 13089 13092 13095 13098 13101 13104 13106 13109 13112 13115 13118 13121 13124 13127 13130 13133 13136 13139 13142 13145 13147 13150 13152 13155 13157 13160 13162 13165 13168 13171 13174 13177 13180 13183 13186 13189 13192 13195 13198 13201 13204 13207 13210 13213 13216 13219 13222 13224 13227 13230 13232 13234 13237 13240 13243 13246 13249 13252 13255 13258 13261 13264 13267 13270 13273 13275 13278 13281 13284 13287 13290 13293 13296 13299 13302 13305 13308 13310 13312 13315 13318 13321 13324 13326 13329 13332 13335 13338 13341 13343 13346 13349 13352 13354 13357 13360 13363 13366 13369 13372 13374 13376 13379 13381 13384 13387 13389 13392 13395 13398 13401 13404 13406 13409 13411 13414 13417 13420 13423 13426 13429 13432 13434 13437 13440 13443 13446 13449 13452 13455 13458 13461 13464 13467 13470 13473 13476 13479 13482 13485 13487 13490 13493 13496 13499 13502 13505 13508 13511 13513 13516 13518 13521 13524 13527 13530 13533 13536 13539 13542 13545 13548 13551 13554 13557 13560 13563 13566 13569 13572 13575 13577 13580 13583 13586 13589 13592 13595 13597 13600 13602 13605 13607 13610 13613 13616 13619 13621 13624 13627 13630 13633 13636 13639 13642 13645 13648 13651 13654 13657 13660 13663 13666 13669 13672 13675 13678 13681 13684 13687 13690 13693 13696 13699 13702 13705 13708 13710 13713 13716 13718 13721 13724 13727 13730 13733 13736 13739 13742 13745 13748 13751 13754 13757 13760 13763 13766 13769 13772 13775 13778 13781 13784 13787 13790 13793 13796 13799 13802 13805 13808 13811 13813 13816 13819 13821 13823 13826 13829 13832 13835 13838 13841 13843 13846 13849 13852 13854 13857 13860 13863 13866 13869 13872 13875 13878 13881 13884 13887 13890 13892 13895 13897 13900 13902 13905 13908 13911 13914 13917 13920 13923 13925 13928 13930 13933 13936 13939 13942 13945 13948 13951 13954 13957 13959 13961 13964 13967 13969 13971 13974 13977 13980 13983 13986 13989 13991 13994 13996 13999 14002 14005 14008 14011 14014 14016 14019 14022 14025 14028 14031 14034 14037 14039 14042 14045 14048 14050 14053 14056 14059 14062 14065 14068 14070 14073 14075 14078 14081 14083 14086 14089 14091 14094 14097 14099 14102 14105 14107 14110 14113 14116 14119 14122 14125 14128 14131 14134 14137 14140 14143 14146 14149 14152 14155 14158 14161 14164 14167 14170 14173 14175 14178 14181 14184 14187 14190 14192 14195 14198 14200 14203 14205 14207 14209 14212 14215 14217 14220 14222 14225 14227 14230 14232 14235 14238 14240 14243 14245 14248 14251 14254 14257 14260 14263 14266 14269 14272 14275 14278 14281 14284 14287 14290 14293 14296 14299 14302 14305 14308 14311 14314 14317 14320 14323 14326 14329 14332 14335 14338 14341 14343 14346 14349 14352 14355 14358 14361 14364 14367 14369 14372 14375 14378 14380 14383 14386 14389 14392 14394 14397 14400 14403 14406 14408 14411 14414 14417 14420 14423 14425 14428 14431 14434 14436 14439 14442 14445 14448 14451 14453 14456 14459 14462 14465 14468 14471 14474 14477 14480 14482 14485 14488 14491 14494 14497 14500 14503 14506 14509 14512 14514 14517 14520 14523 14525 14528 14531 14534 14537 14540 14543 14546 14549 14552 14555 14558 14561 14564 14567 14570 14573 14576 14579 14582 14585 14588 14591 14594 14597 14599 14602 14605 14607 14610 14613 14616 14618 14621 14624 14627 14630 14633 14636 14639 14642 14645 14648 14650 14653 14656 14659 14662 14664 14667 14670 14673 14675 14678 14681 14683 14686 14688 14691 14694 14697 14700 14702 14705 14707 14710 14713 14716 14719 14722 14725 14728 14731 14734 14737 14740 14743 14746 14749 14752 14755 14758 14761 14763 14766 14769 14772 14775 14778 14781 14784 14787 14790 14793 14796 14798 14801 14804 14807 14810 14813 14816 14819 14821 14824 14827 14830 14833 14836 14839 14842 14844 14847 14850 14853 14856 14858 14861 14864 14867 14870 14873 14876 14879 14882 14885 14888 14891 14894 14897 14900 14902 14905 14908 14911 14914 14917 14920 14923 14926 14929 14932 14935 14938 14941 14944 14947 14950 14953 14956 14959 14962 14964 14967 14970 14972 14975 14978 14981 14984 14987 14990 14993 14996 14999 15002 15005 15008 15011 15014 15017 15020 15023 15026 15029 15032 15035 15037 15039 15042 15045 15048 15051 15054 15057 15060 15063 15066 15069 15072 15074 15077 15080 15083 15085 15088 15091 15094 15097 15099 15102 15105 15108 15111 15114 15117 15120 15123 15125 15128 15131 15134 15137 15140 15142 15145 15148 15151 15154 15157 15159 15162 15165 15168 15171 15174 15177 15179 15182 15185 15188 15191 15194 15196 15198 15200 15203 15206 15208 15211 15214 15216 15218 15221 15224 15227 15229 15231 15234 15236 15239 15242 15245 15248 15251 15253 15256 15259 15262 15264 15267 15270 15272 15275 15278 15281 15283 15285 15288 15291 15293 15295 15298 15301 15304 15307 15310 15312 15315 15317 15319 15322 15325 15328 15331 15334 15336 15339 15341 15344 15347 15350 15352 15354 15357 15359 15362 15364 15367 15370 15373 15376 15379 15381 15384 15386 15389 15392 15395 15398 15401 15404 15407 15410 15413 15416 15419 15422 15425 15428 15430 15433 15436 15438 15441 15444 15447 15449 15452 15455 15458 15461 15464 15467 15470 15473 15475 15478 15481 15483 15486 15489 15492 15495 15498 15501 15504 15507 15509 15512 15515 15518 15521 15524 15527 15530 15533 15536 15539 15542 15545 15548 15551 15554 15557 15559 15562 15565 15567 15570 15573 15576 15579 15582 15585 15588 15591 15594 15597 15600 15602 15605 15608 15611 15613 15615 15617 15620 15623 15625 15628 15631 15633 15636 15639 15642 15645 15648 15651 15654 15657 15660 15663 15665 15668 15671 15674 15677 15680 15683 15686 15689 15692 15695 15698 15701 15704 15707 15710 15713 15716 15719 15722 15725 15728 15731 15733 15736 15739 15742 15745 15748 15750 15753 15755 15757 15760 15763 15766 15769 15771 15774 15777 15780 15783 15786 15789 15792 15795 15798 15801 15803 15805 15808 15810 15813 15816 15819 15821 15824 15827 15830 15832 15835 15838 15841 15844 15847 15850 15853 15856 15859 15862 15865 15868 15871 15874 15876 15879 15882 15885 15888 15891 15894 15897 15899 15902 15905 15908 15911 15914 15917 15920 15923 15926 15929 15932 15934 15937 15940 15943 15946 15949 15952 15955 15958 15961 15964 15967 15969 15971 15974 15977 15980 15983 15986 15989 15992 15995 15998 16001 16004 16007 16010 16013 16015 16018 16021 16024 16026 16029 16032 16034 16037 16040 16043 16046 16049 16052 16055 16058 16061 16064 16067 16070 16073 16076 16079 16082 16085 16088 16091 16094 16097 16100 16103 16106 16109 16112 16115 16118 16121 16124 16127 16130 16133 16136 16139 16142 16145 16148 16151 16154 16157 16160 16162 16164 16167 16170 16173 16176 16179 16182 16184 16187 16189 16192 16195 16198 16201 16204 16207 16210 16213 16216 16219 16222 16225 16227 16230 16233 16235 16238 16241 16243 16246 16249 16251 16254 16257 16260 16263 16266 16269 16272 16275 16278 16281 16284 16287 16290 16293 16295 16298 16301 16304 16307 16309 16312 16315 16318 16321 16324 16327 16330 16333 16336 16338 16341 16344 16346 16349 16352 16355 16358 16361 16364 16367 16370 16373 16376 16379 16382 16384 16387 16390 16393 16396 16399 16402 16405 16407 16410 16412 16415 16418 16420 16423 16426 16429 16432 16435 16438 16441 16444 16447 16450 16453 16456 16459 16462 16465 16467 16469 16471 16474 16476 16479 16482 16485 16488 16491 16494 16496 16499 16501 16504 16507 16510 16513 16516 16519 16522 16525 16527 16530 16533 16536 16538 16541 16544 16546 16549 16552 16555 16558 16561 16564 16567 16570 16572 16575 16578 16581 16584 16587 16590 16592 16595 16598 16601 16604 16607 16610 16613 16615 16618 16620 16623 16626 16628 16631 16634 16637 16640 16643 16646 16649 16652 16655 16658 16661 16664 16667 16670 16673 16676 16679 16681 16684 16687 16690 16693 16695 16698 16701 16704 16707 16710 16713 16716 16719 16721 16724 16727 16730 16733 16736 16739 16742 16745 16748 16751 16754 16757 16760 16763 16766 16769 16772 16775 16778 16781 16784 16787 16790 16793 16795 16798 16801 16804 16806 16808 16811 16814 16817 16820 16823 16826 16829 16832 16835 16837 16840 16843 16846 16849 16851 16853 16856 16858 16861 16864 16866 16869 16872 16875 16877 16879 16882 16885 16888 16891 16894 16897 16900 16902 16905 16908 16910 16913 16916 16918 16921 16924 16927 16930 16933 16936 16938 16941 16943 16946 16949 16952 16955 16957 16960 16962 16965 16968 16971 16974 16976 16979 16982 16985 16988 16991 16994 16997 17000 17003 17006 17009 17012 17015 17017 17020 17023 17025 17028 17031 17034 17037 17040 17043 17046 17049 17052 17055 17058 17061 17064 17067 17070 17073 17076 17079 17082 17085 17088 17091 17094 17097 17100 17103 17106 17109 17112 17115 17118 17121 17124 17126 17129 17132 17135 17138 17141 17144 17147 17150 17153 17156 17159 17162 17165 17168 17171 17174 17176 17179 17182 17185 17188 17191 17194 17197 17200 17202 17205 17208 17210 17213 17216 17219 17222 17225 17228 17231 17233 17236 17239 17241 17244 17247 17250 17253 17256 17259 17262 17265 17268 17271 17274 17277 17280 17283 17286 17289 17292 17295 17298 17301 17304 17307 17310 17313 17316 17319 17322 17325 17328 17331 17334 17337 17340 17343 17346 17349 17352 17355 17358 17360 17363 17365 17368 17371 17374 17377 17380 17383 17386 17389 17392 17395 17398 17400 17403 17406 17409 17412 17415 17418 17421 17424 17427 17430 17433 17436 17439 17442 17445 17448 17451 17454 17457 17460 17463 17465 17468 17471 17474 17476 17479 17481 17484 17486 17489 17492 17494 17497 17500 17503 17506 17508 17511 17514 17516 17519 17521 17523 17526 17529 17532 17534 17537 17540 17542 17545 17548 17550 17553 17556 17558 17561 17563 17566 17569 17572 17575 17578 17580 17582 17585 17587 17590 17593 17595 17598 17601 17604 17607 17610 17613 17616 17619 17622 17625 17627 17629 17632 17635 17638 17641 17643 17645 17648 17651 17654 17657 17660 17663 17666 17669 17671 17674 17677 17679 17681 17684 17687 17689 17691 17693 17696 17698 17700 17702 17705 17708 17711 17714 17716 17719 17722 17725 17728 17731 17734 17737 17740 17742 17745 17747 17750 17753 17756 17759 17762 17765 17768 17770 17773 17776 17779 17781 17784 17787 17790 17793 17796 17798 17801 17804 17807 17810 17813 17816 17819 17822 17825 17828 17831 17834 17837 17840 17843 17846 17848 17851 17853 17856 17858 17861 17864 17867 17870 17872 17874 17876 17879 17882 17884 17887 17890 17893 17895 17897 17900 17903 17905 17907 17910 17912 17914 17917 17920 17923 17926 17929 17932 17935 17937 17940 17943 17946 17949 17952 17955 17958 17961 17964 17967 17970 17972 17975 17978 17981 17984 17986 17988 17991 17993 17996 17999 18001 18004 18007 18010 18013 18016 18018 18021 18024 18027 18030 18033 18036 18039 18042 18045 18048 18051 18054 18057 18060 18063 18065 18068 18071 18073 18076 18079 18082 18085 18088 18091 18094 18097 18099 18102 18105 18108 18111 18114 18117 18120 18123 18125 18128 18131 18134 18137 18140 18142 18145 18148 18151 18154 18157 18160 18163 18166 18168 18171 18174 18177 18180 18183 18185 18187 18190 18192 18195 18198 18201 18204 18206 18209 18211 18214 18216 18219 18222 18225 18227 18230 18233 18236 18239 18242 18244 18247 18250 18253 18256 18258 18261 18263 18266 18269 18271 18274 18277 18280 18283 18286 18289 18292 18295 18298 18301 18304 18307 18310 18313 18316 18319 18322 18325 18327 18330 18333 18336 18339 18342 18345 18348 18351 18353 18356 18359 18361 18364 18367 18370 18372 18375 18378 18380 18382 18385 18388 18390 18392 18394 18397 18399 18402 18405 18408 18411 18414 18416 18419 18422 18425 18428 18431 18434 18436 18439 18442 18445 18448 18451 18454 18457 18460 18463 18466 18469 18472 18475 18478 18481 18484 18487 18490 18493 18496 18499 18502 18505 18508 18511 18514 18517 18520 18522 18525 18528 18531 18534 18537 18540 18543 18545 18548 18551 18554 18557 18560 18563 18565 18568 18571 18573 18576 18578 18581 18583 18586 18588 18591 18594 18597 18600 18603 18606 18608 18611 18614 18616 18619 18622 18625 18628 18631 18634 18637 18640 18643 18646 18649 18652 18655 18658 18661 18663 18666 18669 18671 18674 18677 18680 18683 18686 18688 18691 18694 18697 18700 18703 18706 18708 18710 18713 18716 18719 18722 18725 18728 18731 18734 18737 18740 18743 18746 18749 18752 18755 18757 18760 18763 18766 18769 18772 18775 18778 18781 18784 18787 18789 18791 18794 18797 18800 18803 18806 18809 18812 18815 18818 18820 18823 18826 18829 18832 18835 18838 18841 18843 18846 18848 18851 18854 18857 18860 18862 18865 18868 18871 18874 18877 18879 18882 18885 18888 18890 18893 18896 18899 18902 18905 18908 18910 18913 18916 18919 18922 18925 18928 18931 18934 18937 18940 18943 18946 18948 18951 18954 18957 18960 18963 18966 18969 18972 18975 18978 18981 18984 18986 18989 18992 18995 18998 19000 19002 19004 19006 19009 19011 19014 19017 19020 19023 19026 19028 19031 19033 19035 19038 19040 19043 19046 19049 19052 19055 19058 19061 19064 19067 19069 19071 19074 19076 19079 19081 19084 19086 19089 19091 19093 19096 19099 19102 19104 19107 19110 19113 19116 19119 19122 19125 19127 19130 19133 19135 19138 19141 19143 19146 19148 19151 19154 19156 19159 19162 19165 19168 19170 19173 19176 19179 19182 19185 19188 19191 19194 19197 19200 19203 19206 19209 19212 19215 19218 19221 19224 19227 19230 19233 19236 19239 19242 19245 19248 19251 19254 19257 19260 19263 19266 19268 19271 19273 19276 19279 19281 19284 19286 19289 19292 19295 19298 19301 19303 19306 19309 19312 19315 19318 19321 19324 19327 19330 19333 19336 19339 19341 19343 19346 19349 19352 19354 19357 19360 19363 19366 19369 19372 19375 19377 19380 19383 19386 19389 19392 19395 19397 19400 19402 19405 19408 19410 19413 19416 19419 19422 19424 19427 19430 19432 19435 19438 19441 19444 19447 19450 19452 19455 19457 19460 19463 19466 19469 19472 19475 19478 19481 19484 19487 19489 19492 19494 19497 19500 19503 19506 19509 19512 19515 19518 19521 19524 19527 19530 19533 19535 19538 19541 19544 19547 19550 19553 19556 19559 19562 19565 19568 19571 19574 19576 19578 19581 19584 19586 19589 19592 19595 19597 19600 19603 19606 19609 19612 19614 19616 19619 19622 19624 19627 19630 19633 19635 19638 19641 19644 19647 19650 19653 19656 19659 19662 19665 19668 19671 19674 19677 19680 19683 19686 19689 19692 19695 19697 19700 19703 19706 19709 19712 19715 19718 19721 19724 19727 19730 19733 19736 19739 19742 19745 19748 19751 19754 19757 19760 19763 19766 19769 19772 19775 19778 19781 19784 19787 19790 19793 19796 19799 19802 19805 19808 19811 19814 19817 19820 19823 19826 19829 19832 19835 19838 19841 19844 19847 19850 19853 19856 19859 19862 19865 19868 19871 19874 19877 19880 19883 19886 19889 19892 19895 19898 19901 19904 19907 19910 19913 19916 19919 19922 19925 19927 19930 19933 19936 19938 19941 19944 19947 19950 19953 19956 19959 19962 19965 19967 19970 19973 19976 19978 19981 19984 19987 19990 19993 19996 19999 20002 20005 20008 20011 20014 20017 20020 20022 20025 20028 20031 20034 20037 20040 20042 20045 20047 20050 20053 20056 20059 20062 20065 20068 20071 20074 20077 20080 20083 20086 20089 20092 20095 20098 20101 20104 20107 20110 20113 20116 20119 20122 20125 20128 20131 20134 20137 20140 20143 20146 20149 20152 20155 20158 20161 20164 20167 20170 20173 20176 20179 20182 20185 20187 20190 20192 20195 20198 20200 20202 20205 20208 20211 20213 20216 20219 20222 20225 20228 20231 20234 20237 20240 20243 20246 20249 20252 20255 20258 20261 20264 20267 20270 20273 20276 20279 20282 20285 20288 20290 20293 20296 20299 20302 20305 20308 20311 20314 20317 20320 20323 20326 20329 20332 20335 20338 20341 20344 20347 20350 20353 20356 20359 20362 20365 20368 20371 20374 20377 20380 20383 20386 20389 20392 20395 20398 20401 20404 20407 20410 20413 20415 20418 20421 20424 20427 20430 20433 20436 20438 20441 20444 20447 20450 20453 20456 20459 20462 20465 20468 20471 20474 20477 20480 20483 20486 20489 20492 20495 20498 20501 20503 20506 20509 20512 20515 20518 20520 20523 20526 20529 20531 20534 20537 20540 20543 20546 20549 20552 20555 20558 20561 20564 20567 20570 20573 20576 20579 20582 20585 20588 20591 20594 20597 20600 20603 20606 20609 20612 20615 20618 20621 20624 20626 20629 20632 20634 20637 20640 20642 20645 20648 20651 20654 20657 20660 20663 20666 20669 20672 20674 20677 20680 20683 20685 20687 20690 20693 20696 20699 20702 20705 20707 20710 20712 20715 20718 20720 20723 20726 20729 20732 20735 20737 20739 20742 20745 20748 20751 20753 20756 20758 20760 20763 20765 20768 20771 20774 20777 20780 20783 20785 20788 20790 20793 20796 20798 20801 20804 20807 20809 20812 20815 20818 20821 20824 20827 20830 20833 20836 20839 20842 20845 20848 20851 20854 20857 20860 20863 20866 20869 20871 20874 20877 20880 20883 20886 20889 20892 20895 20898 20901 20903 20906 20909 20912 20915 20918 20920 20923 20926 20929 20932 20935 20938 20941 20944 20946 20949 20952 20955 20958 20960 20962 20965 20968 20970 20973 20976 20979 20982 20984 20987 20990 20993 20995 20997 21000 21002 21005 21008 21010 21013 21015 21018 21020 21023 21026 21029 21032 21035 21038 21041 21043 21046 21049 21051 21054 21057 21060 21063 21066 21068 21071 21074 21077 21079 21082 21085 21087 21090 21093 21096 21098 21101 21104 21107 21110 21113 21116 21119 21122 21124 21127 21130 21133 21135 21138 21141 21144 21147 21150 21153 21156 21158 21161 21164 21167 21169 21172 21175 21178 21181 21184 21187 21190 21193 21195 21198 21201 21204 21207 21210 21213 21216 21219 21222 21225 21228 21231 21234 21237 21240 21243 21246 21249 21252 21255 21258 21261 21264 21266 21269 21272 21275 21278 21281 21284 21287 21290 21293 21296 21299 21302 21305 21308 21311 21314 21317 21320 21323 21326 21329 21331 21334 21337 21340 21343 21346 21349 21351 21354 21357 21360 21363 21366 21369 21372 21375 21378 21381 21384 21387 21390 21393 21396 21399 21402 21405 21408 21411 21414 21417 21420 21423 21426 21428 21431 21434 21437 21440 21443 21446 21449 21452 21455 21458 21461 21464 21467 21470 21473 21476 21479 21482 21485 21488 21491 21494 21496 21499 21502 21505 21508 21511 21514 21516 21519 21522 21525 21528 21531 21534 21537 21540 21543 21546 21549 21552 21555 21558 21561 21564 21567 21569 21572 21575 21578 21581 21583 21586 21589 21592 21595 21598 21601 21603 21606 21609 21612 21615 21618 21621 21623 21626 21629 21632 21635 21638 21641 21644 21647 21650 21653 21656 21659 21662 21665 21668 21670 21673 21676 21679 21682 21685 21688 21691 21693 21695 21697 21700 21703 21706 21709 21712 21715 21718 21721 21724 21727 21730 21733 21736 21739 21742 21745 21748 21751 21753 21755 21758 21761 21764 21767 21770 21772 21775 21778 21780 21783 21786 21789 21791 21794 21797 21800 21803 21806 21809 21812 21815 21818 21820 21823 21826 21829 21832 21835 21838 21841 21844 21847 21850 21853 21855 21857 21860 21863 21865 21868 21871 21874 21877 21880 21882 21885 21888 21891 21893 21896 21898 21901 21904 21906 21909 21912 21915 21918 21920 21923 21926 21928 21931 21934 21937 21940 21943 21945 21948 21951 21954 21957 21960 21963 21966 21969 21972 21975 21978 21981 21984 21987 21990 21992 21995 21998 22001 22004 22006 22009 22012 22015 22018 22021 22024 22027 22029 22032 22035 22038 22041 22044 22047 22049 22051 22054 22057 22060 22063 22066 22069 22072 22075 22078 22081 22084 22087 22090 22093 22096 22099 22101 22104 22107 22110 22113 22115 22118 22121 22124 22127 22130 22133 22135 22138 22141 22144 22147 22150 22153 22156 22159 22162 22165 22168 22171 22174 22177 22180 22183 22186 22189 22192 22195 22198 22201 22203 22206 22209 22212 22214 22217 22219 22222 22225 22228 22230 22233 22236 22239 22242 22245 22248 22251 22254 22257 22260 22263 22266 22269 22272 22275 22278 22281 22284 22287 22290 22293 22296 22299 22302 22305 22308 22311 22314 22317 22320 22323 22326 22329 22332 22335 22338 22341 22344 22347 22350 22353 22356 22359 22362 22365 22368 22371 22374 22377 22380 22382 22384 22387 22390 22393 22396 22399 22402 22405 22408 22411 22414 22417 22420 22423 22426 22429 22432 22435 22438 22441 22444 22447 22450 22452 22455 22457 22460 22463 22466 22469 22472 22475 22477 22480 22483 22486 22489 22492 22495 22498 22501 22504 22507 22509 22512 22515 22518 22521 22524 22527 22530 22533 22535 22538 22541 22544 22547 22549 22552 22555 22557 22560 22563 22566 22569 22572 22574 22577 22579 22582 22585 22588 22591 22594 22597 22600 22603 22606 22609 22612 22615 22618 22621 22624 22627 22630 22633 22636 22639 22642 22645 22648 22651 22654 22656 22659 22662 22665 22668 22671 22674 22677 22679 22682 22685 22688 22691 22694 22697 22700 22702 22705 22708 22711 22714 22717 22720 22723 22726 22729 22732 22735 22737 22740 22743 22745 22748 22750 22753 22756 22759 22762 22765 22768 22771 22773 22776 22778 22781 22783 22786 22789 22792 22794 22797 22799 22802 22805 22808 22811 22814 22817 22820 22822 22825 22828 22831 22834 22837 22839 22842 22845 22847 22850 22853 22856 22859 22862 22865 22867 22870 22873 22876 22879 22882 22885 22888 22891 22894 22897 22900 22903 22906 22908 22911 22914 22917 22920 22922 22925 22928 22931 22933 22936 22938 22941 22943 22946 22949 22951 22954 22957 22960 22962 22964 22967 22970 22973 22976 22979 22982 22985 22988 22991 22994 22997 23000 23002 23004 23007 23009 23012 23015 23018 23021 23024 23027 23030 23033 23036 23039 23041 23044 23047 23050 23052 23055 23058 23061 23063 23066 23068 23071 23074 23077 23080 23083 23086 23089 23092 23094 23097 23100 23103 23106 23109 23112 23115 23118 23121 23124 23127 23129 23132 23135 23138 23141 23144 23147 23150 23153 23156 23159 23162 23165 23168 23171 23174 23177 23180 23183 23186 23189 23192 23195 23197 23200 23203 23206 23209 23212 23215 23218 23221 23224 23227 23230 23233 23236 23238 23241 23244 23247 23250 23253 23255 23258 23261 23264 23266 23269 23271 23274 23277 23280 23283 23286 23289 23292 23295 23298 23301 23304 23307 23310 23313 23316 23319 23321 23324 23327 23330 23333 23336 23339 23341 23344 23347 23350 23353 23356 23358 23361 23364 23366 23369 23372 23375 23377 23380 23383 23386 23389 23392 23394 23397 23400 23403 23405 23408 23411 23414 23416 23418 23421 23424 23427 23430 23432 23435 23438 23440 23443 23446 23448 23451 23454 23457 23459 23461 23464 23467 23470 23473 23476 23479 23481 23484 23486 23489 23491 23494 23497 23499 23502 23504 23507 23509 23512 23515 23517 23520 23523 23526 23529 23532 23535 23538 23541 23544 23547 23550 23553 23556 23559 23562 23565 23568 23571 23574 23577 23580 23583 23586 23589 23592 23595 23598 23601 23604 23607 23609 23612 23615 23618 23621 23624 23627 23630 23633 23636 23638 23641 23644 23647 23650 23653 23655 23658 23661 23664 23667 23670 23673 23676 23679 23682 23685 23688 23691 23694 23697 23700 23703 23705 23708 23711 23714 23717 23720 23723 23726 23728 23731 23734 23736 23739 23742 23745 23748 23751 23753 23756 23759 23762 23765 23768 23771 23774 23777 23780 23783 23786 23788 23791 23794 23797 23800 23803 23806 23809 23812 23815 23818 23821 23824 23827 23830 23833 23836 23839 23842 23845 23848 23851 23854 23857 23860 23863 23866 23869 23872 23875 23878 23881 23884 23887 23890 23893 23896 23899 23902 23905 23908 23911 23914 23917 23920 23923 23926 23929 23932 23935 23938 23941 23944 23947 23950 23953 23956 23959 23962 23965 23968 23971 23974 23977 23980 23983 23986 23989 23992 23994 23997 24000 24003 24006 24008 24011 24014 24017 24019 24022 24024 24027 24030 24032 24035 24038 24041 24044 24046 24048 24051 24054 24056 24058 24061 24063 24066 24069 24072 24074 24076 24079 24082 24085 24087 24090 24093 24096 24099 24102 24105 24108 24111 24114 24116 24118 24121 24124 24127 24130 24133 24136 24139 24141 24144 24147 24150 24153 24156 24159 24162 24165 24167 24170 24173 24176 24179 24182 24184 24187 24190 24193 24196 24199 24201 24204 24207 24210 24213 24216 24218 24221 24224 24227 24230 24233 24236 24239 24242 24245 24248 24251 24254 24257 24260 24263 24266 24269 24272 24275 24278 24281 24284 24287 24290 24293 24296 24298 24301 24304 24307 24310 24313 24316 24319 24322 24325 24328 24331 24333 24336 24339 24342 24345 24348 24351 24354 24357 24360 24363 24366 24369 24372 24375 24378 24381 24384 24387 24390 24393 24396 24399 24402 24405 24408 24411 24414 24417 24420 24423 24426 24429 24432 24435 24438 24441 24444 24447 24450 24453 24456 24459 24461 24463 24466 24469 24471 24474 24476 24479 24482 24485 24488 24491 24494 24497 24500 24503 24506 24509 24512 24515 24518 24521 24524 24527 24529 24532 24535 24538 24540 24543 24546 24549 24552 24554 24557 24560 24563 24566 24569 24571 24574 24576 24578 24581 24584 24587 24590 24593 24596 24599 24602 24604 24607 24610 24613 24616 24618 24621 24624 24626 24629 24632 24635 24638 24641 24644 24647 24650 24653 24655 24658 24661 24663 24666 24669 24672 24675 24678 24681 24684 24687 24690 24693 24696 24699 24702 24705 24708 24710 24713 24716 24718 24721 24724 24727 24730 24732 24735 24737 24740 24742 24744 24747 24750 24753 24756 24759 24761 24764 24767 24770 24773 24776 24779 24781 24784 24787 24790 24792 24795 24798 24801 24804 24807 24810 24813 24816 24819 24822 24825 24828 24831 24834 24837 24840 24843 24846 24849 24852 24855 24858 24861 24864 24867 24869 24872 24875 24878 24881 24884 24887 24890 24893 24896 24899 24902 24904 24907 24910 24913 24915 24918 24921 24924 24927 24929 24932 24935 24938 24941 24944 24947 24950 24953 24956 24959 24962 24965 24968 24970 24973 24976 24978 24981 24984 24987 24990 24993 24996 24999 25002 25005 25008 25011 25013 25016 25019 25022 25025 25028 25031 25034 25037 25040 25043 25046 25049 25052 25054 25057 25060 25063 25066 25069 25072 25075 25078 25081 25084 25087 25090 25093 25096 25099 25102 25105 25107 25110 25113 25116 25118 25121 25124 25127 25130 25133 25136 25139 25142 25145 25147 25150 25153 25156 25159 25162 25165 25168 25171 25174 25177 25180 25183 25186 25189 25192 25195 25198 25201 25204 25207 25210 25212 25215 25217 25220 25223 25226 25229 25232 25235 25238 25241 25244 25247 25249 25252 25255 25258 25261 25264 25267 25269 25272 25275 25278 25281 25284 25287 25290 25293 25295 25298 25301 25303 25306 25309 25312 25315 25318 25320 25323 25326 25329 25331 25334 25337 25340 25342 25345 25348 25351 25354 25357 25360 25363 25366 25369 25372 25375 25378 25381 25384 25387 25390 25393 25396 25399 25402 25405 25408 25411 25414 25417 25420 25423 25426 25429 25432 25435 25438 25441 25443 25446 25449 25452 25455 25458 25461 25464 25466 25469 25471 25474 25477 25480 25483 25486 25489 25491 25494 25496 25499 25502 25504 25507 25510 25513 25516 25519 25522 25525 25528 25531 25534 25536 25538 25541 25544 25547 25550 25553 25556 25559 25561 25564 25567 25570 25573 25576 25579 25582 25585 25588 25591 25593 25596 25599 25602 25605 25608 25611 25614 25617 25620 25623 25626 25629 25632 25635 25638 25641 25644 25646 25649 25651 25654 25657 25660 25663 25666 25669 25672 25675 25678 25680 25683 25686 25689 25691 25694 25696 25699 25702 25705 25708 25711 25714 25717 25720 25723 25726 25729 25731 25733 25736 25739 25742 25745 25748 25751 25754 25757 25760 25763 25766 25768 25771 25774 25777 25780 25783 25786 25789 25792 25795 25798 25801 25804 25807 25810 25813 25816 25819 25822 25824 25827 25830 25833 25836 25838 25841 25843 25846 25848 25851 25854 25857 25859 25862 25865 25868 25871 25874 25877 25880 25883 25885 25888 25891 25894 25897 25900 25903 25906 25909 25912 25914 25917 25920 25923 25926 25929 25932 25934 25937 25939 25942 25944 25947 25950 25953 25956 25959 25962 25965 25967 25970 25973 25976 25979 25982 25984 25987 25990 25993 25996 25999 26002 26005 26008 26011 26014 26016 26019 26022 26024 26027 26030 26033 26036 26038 26041 26044 26047 26050 26053 26056 26059 26062 26065 26068 26071 26074 26077 26080 26083 26086 26089 26092 26095 26098 26101 26104 26106 26109 26112 26114 26116 26119 26122 26125 26128 26131 26134 26137 26140 26142 26145 26148 26151 26154 26156 26159 26162 26165 26168 26170 26173 26176 26179 26182 26185 26188 26190 26193 26196 26198 26201 26203 26206 26209 26211 26214 26216 26219 26222 26225 26227 26230 26232 26235 26238 26240 26243 26246 26248 26251 26254 26257 26260 26263 26265 26267 26270 26273 26276 26279 26281 26284 26287 26289 26292 26295 26297 26300 26303 26306 26309 26312 26314 26317 26320 26322 26325 26328 26331 26334 26337 26339 26342 26345 26348 26351 26354 26357 26360 26363 26365 26368 26371 26374 26377 26380 26383 26386 26389 26392 26395 26397 26400 26403 26406 26408 26411 26414 26417 26419 26422 26425 26428 26431 26434 26436 26439 26442 26445 26448 26451 26454 26457 26460 26463 26466 26469 26472 26474 26477 26480 26483 26486 26489 26492 26495 26498 26501 26504 26507 26510 26513 26516 26519 26522 26525 26528 26531 26534 26537 26540 26543 26546 26549 26552 26555 26558 26561 26564 26566 26568 26571 26574 26577 26580 26583 26586 26589 26591 26594 26597 26599 26602 26605 26608 26611 26614 26617 26620 26623 26626 26629 26632 26635 26638 26641 26644 26647 26649 26652 26655 26658 26661 26664 26667 26670 26673 26676 26679 26682 26685 26688 26691 26694 26697 26700 26702 26704 26707 26710 26713 26716 26719 26722 26725 26728 26731 26734 26737 26740 26743 26746 26749 26752 26755 26758 26761 26763 26766 26769 26772 26775 26778 26780 26783 26786 26789 26792 26795 26798 26801 26804 26807 26809 26812 26815 26818 26821 26824 26827 26830 26833 26835 26838 26841 26843 26846 26849 26852 26855 26857 26859 26862 26865 26867 26870 26873 26876 26879 26882 26884 26886 26889 26892 26895 26898 26901 26904 26907 26910 26913 26915 26918 26921 26924 26927 26930 26933 26936 26939 26942 26945 26948 26951 26954 26957 26959 26962 26965 26968 26971 26974 26977 26980 26983 26986 26989 26992 26995 26998 27001 27004 27007 27010 27013 27016 27019 27022 27025 27028 27031 27033 27036 27038 27041 27044 27047 27050 27053 27056 27059 27062 27065 27068 27071 27074 27077 27079 27082 27084 27087 27090 27093 27096 27099 27101 27104 27107 27110 27113 27115 27118 27121 27124 27127 27130 27133 27136 27139 27141 27144 27147 27149 27152 27154 27157 27160 27163 27166 27169 27172 27175 27178 27181 27184 27187 27189 27192 27195 27198 27200 27203 27206 27209 27212 27215 27217 27220 27223 27225 27228 27231 27234 27237 27240 27243 27246 27249 27252 27255 27258 27261 27264 27266 27269 27272 27275 27278 27280 27283 27286 27289 27291 27294 27297 27300 27303 27306 27309 27312 27315 27318 27320 27323 27326 27329 27331 27333 27336 27339 27342 27345 27347 27349 27352 27354 27357 27359 27362 27365 27368 27371 27373 27376 27379 27382 27385 27388 27391 27394 27397 27399 27402 27405 27408 27411 27414 27417 27420 27423 27425 27428 27431 27433 27435 27438 27441 27443 27446 27448 27451 27454 27457 27460 27462 27465 27468 27471 27474 27477 27480 27483 27486 27489 27492 27495 27498 27501 27504 27507 27510 27513 27516 27519 27522 27525 27528 27531 27534 27536 27539 27542 27545 27548 27551 27554 27557 27560 27563 27566 27568 27571 27574 27577 27580 27582 27585 27588 27591 27594 27597 27600 27603 27606 27609 27611 27614 27617 27619 27622 27625 27628 27631 27634 27637 27640 27643 27646 27648 27651 27653 27656 27659 27661 27663 27665 27668 27671 27673 27676 27678 27681 27684 27687 27689 27692 27695 27697 27700 27703 27706 27709 27711 27714 27717 27720 27723 27725 27728 27731 27734 27737 27740 27743 27745 27748 27751 27754 27757 27760 27762 27765 27767 27770 27772 27775 27778 27781 27784 27787 27790 27793 27796 27799 27802 27805 27808 27811 27814 27817 27820 27822 27825 27828 27831 27834 27837 27839 27842 27845 27848 27851 27854 27857 27860 27862 27865 27867 27870 27873 27875 27877 27880 27883 27886 27889 27892 27894 27897 27900 27903 27906 27909 27912 27915 27918 27921 27924 27926 27929 27931 27933 27936 27939 27942 27945 27948 27951 27954 27957 27959 27962 27965 27968 27971 27974 27977 27980 27982 27985 27988 27991 27994 27997 28000 28002 28004 28007 28010 28012 28015 28018 28021 28024 28026 28029 28031 28033 28035 28038 28040 28043 28046 28049 28051 28054 28057 28059 28062 28065 28068 28071 28074 28077 28080 28083 28086 28089 28092 28095 28098 28101 28104 28107 28109 28112 28115 28118 28121 28124 28127 28130 28133 28135 28138 28141 28144 28147 28149 28152 28155 28158 28161 28164 28167 28170 28173 28176 28178 28181 28183 28186 28189 28192 28195 28198 28201 28204 28206 28209 28211 28214 28217 28220 28223 28226 28229 28232 28235 28238 28241 28244 28247 28250 28253 28256 28259 28261 28264 28267 28270 28273 28275 28278 28281 28284 28287 28290 28293 28295 28298 28301 28304 28307 28310 28313 28316 28319 28322 28325 28328 28331 28334 28337 28340 28343 28346 28349 28352 28355 28358 28361 28364 28367 28370 28373 28375 28378 28381 28384 28387 28390 28393 28396 28399 28402 28404 28407 28410 28412 28415 28417 28420 28423 28426 28429 28432 28435 28437 28440 28443 28446 28449 28452 28455 28458 28461 28464 28466 28469 28472 28475 28478 28481 28483 28486 28489 28492 28495 28498 28501 28504 28507 28510 28513 28515 28518 28521 28523 28526 28528 28531 28534 28537 28540 28543 28546 28549 28552 28555 28558 28561 28564 28567 28570 28573 28576 28579 28582 28585 28588 28591 28594 28597 28600 28603 28605 28608 28610 28613 28616 28619 28622 28625 28627 28630 28633 28636 28639 28641 28644 28647 28649 28652 28655 28658 28660 28663 28666 28668 28670 28673 28675 28678 28681 28684 28687 28690 28693 28695 28698 28701 28704 28707 28710 28713 28716 28719 28722 28725 28728 28731 28734 28737 28740 28743 28745 28748 28751 28754 28757 28760 28763 28766 28769 28772 28775 28778 28781 28784 28787 28790 28792 28795 28798 28801 28804 28806 28809 28812 28815 28818 28820 28823 28825 28828 28831 28834 28837 28840 28843 28845 28848 28851 28853 28856 28859 28862 28865 28868 28871 28874 28877 28879 28882 28885 28887 28890 28893 28896 28899 28902 28905 28908 28910 28913 28916 28919 28922 28925 28927 28930 28933 28936 28938 28941 28944 28947 28950 28953 28956 28959 28962 28965 28968 28970 28973 28976 28979 28982 28985 28987 28990 28993 28996 28999 29002 29004 29007 29010 29013 29015 29017 29020 29023 29026 29029 29032 29035 29037 29040 29043 29046 29049 29052 29055 29058 29061 29064 29067 29070 29073 29076 29079 29082 29085 29088 29091 29094 29097 29100 29103 29106 29109 29112 29115 29118 29121 29124 29127 29129 29131 29133 29136 29139 29142 29145 29147 29150 29153 29156 29158 29161 29163 29166 29169 29172 29174 29177 29179 29181 29184 29187 29190 29192 29195 29197 29200 29203 29205 29207 29210 29213 29216 29219 29222 29225 29228 29231 29234 29237 29239 29241 29244 29247 29250 29253 29256 29259 29261 29264 29267 29270 29272 29275 29278 29281 29284 29287 29289 29292 29295 29298 
</DataArray>
<DataArray type="UInt32" Name="types" format="ascii">
5 5 5 5 5 5 5 5 5 5 3 5 3 5 5 5 5 3 5 5 5 3 5 3 5 5 5 3 5 5 5 5 3 5 5 5 5 5 5 5 5 5 5 3 5 5 5 5 5 5 5 5 5 5 5 5 5 5 5 5 5 5 5 5 5 5 5 5 5 5 5 3 5 5 5 5 3 5 5 5 5 3 5 5 5 5 5 5 5 5 5 5 3 5 3 5 5 3 5 5 5 5 5 5 5 3 5 5 5 5 5 5 5 5 5 5 3 3 5 5 5 3 5 5 3 5 5 5 5 5 5 5 5 5 5 5 5 5 3 5 5 5 5 5 5 3 5 5 5 5 5 5 5 5 5 5 5 5 5 5 5 5 5 5 5 5 5 5 5 5 5 5 5 5 5 5 5 5 5 5 5 5 5 5 5 5 5 5 5 5 5 5 5 5 5 5 5 5 5 5 5 5 5 5 5 5 5 3 5 5 5 5 5 5 5 5 5 5 5 5 5 5 5 5 5 5 5 5 5 5 5 5 5 3 5 3 5 5 5 5 5 5 5 5 5 3 5 3 5 5 5 5 5 5 5 5 5 5 5 5 5 5 5 5 5 5 5 5 5 5 5 5 5 3 5 5 5 5 5 5 5 5 5 5 5 5 3 5 5 5 5 5 3 5 5 5 5 5 5 5 5 3 5 5 5 5 3 5 5 5 5 5 3 5 5 5 5 5 5 5 5 5 5 5 5 5 5 5 5 5 5 5 5 5 5 5 5 5 5 5 5 3 5 5 5 5 5 5 5 5 5 5 5 5 5 5 5 5 5 5 5 5 5 5 5 3 5 5 5 5 5 5 5 5 3 5 5 5 5 3 5 5 5 3 5 5 3 5 5 3 5 3 5 5 3 5 5 5 5 5 5 5 3 3 5 5 5 3 5 5 5 5 5 3 5 5 5 5 5 5 5 5 5 5 5 5 5 3 5 5 5 5 5 5 5 5 5 5 5 3 5 3 5 5 5 5 5 5 5 5 5 5 3 5 5 3 5 5 5 3 5 5 5 3 5 5 3 5 3 5 3 5 3 3 5 5 5 3 3 3 3 5 5 5 5 5 5 5 5 3 5 5 5 5 3 5 3 5 3 5 5 3 5 5 5 5 3 5 5 5 5 5 5 5 5 5 5 3 3 5 5 5 5 5 3 5 5 5 5 5 5 5 5 5 5 5 5 5 3 5 5 5 5 5 5 5 5 5 5 5 5 3 3 3 5 5 5 5 5 5 5 5 5 5 5 5 5 5 5 5 5 5 5 5 5 3 5 5 5 3 5 5 5 5 5 5 5 5 5 5 5 5 5 5 5 5 5 5 5 5 5 5 5 5 5 5 5 5 5 5 5 5 5 3 5 5 3 5 5 5 5 5 5 5 5 5 5 5 5 5 5 5 5 5 5 5 5 5 3 5 5 5 5 5 5 5 5 5 5 5 5 5 5 5 5 5 5 5 3 5 5 5 5 5 5 5 5 5 5 3 5 3 5 5 3 5 5 5 3 5 5 5 5 5 3 5 3 5 5 3 5 5 5 5 5 5 5 3 5 5 5 3 3 5 5 5 5 5 5 5 3 5 5 3 5 3 3 5 5 5 3 5 5 3 3 3 5 5 5 3 5 5 3 3 5 5 5 3 5 5 3 5 5 3 3 3 5 5 5 3 5 5 5 5 5 5 5 3 5 5 5 5 5 5 5 5 5 5 5 5 5 5 5 5 5 5 5 5 5 5 5 5 5 5 5 5 3 5 5 5 3 3 5 5 3 5 5 5 5 5 5 5 5 3 5 5 5 5 3 5 5 5 5 5 5 5 5 5 3 5 5 5 3 5 5 3 5 3 5 5 3 5 5 5 3 3 5 5 3 5 5 3 3 5 5 5 5 5 5 5 5 5 5 5 3 5 5 5 5 5 5 5 5 5 5 3 5 5 3 5 3 3 3 5 3 5 5 5 5 5 5 5 5 5 5 5 5 5 5 5 5 5 5 5 5 5 5 5 5 5 5 5 5 5 5 5 5 5 5 5 5 5 3 5 5 3 5 3 5 5 3 5 5 5 3 5 3 5 3 5 5 5 5 5 5 5 5 5 5 5 5 5 5 5 5 5 5 5 3 5 3 5 5 5 5 5 5 5 5 5 5 5 5 5 5 5 5 5 5 3 5 3 5 5 3 5 5 5 3 5 5 5 5 3 5 5 3 5 3 3 5 5 3 3 5 5 3 5 5 3 3 5 5 5 5 3 5 5 5 5 3 5 5 5 3 3 5 5 3 5 5 3 5 5 5 5 5 5 3 5 5 3 5 3 5 5 5 5 5 5 5 5 5 5 3 5 5 5 5 5 5 5 5 5 5 5 5 5 5 5 5 3 5 5 5 5 5 5 5 3 3 5 5 3 5 5 5 5 3 3 5 5 5 5 5 5 5 5 5 5 5 5 5 5 5 5 5 5 5 5 3 5 5 5 5 5 5 5 5 5 5 5 5 5 5 5 5 5 5 3 5 5 3 5 5 5 5 3 5 5 5 5 5 5 5 5 5 5 5 5 5 5 5 5 5 5 5 5 3 5 5 5 5 5 5 5 5 3 5 5 5 5 5 5 5 3 5 5 5 5 5 5 5 5 5 5 5 3 5 5 5 3 5 5 5 5 5 5 5 5 5 5 5 5 5 5 5 5 5 5 5 5 5 5 5 5 5 5 5 5 5 5 3 5 5 5 5 5 5 5 3 5 5 5 5 5 5 5 5 5 5 5 5 5 5 5 5 5 5 5 5 5 5 5 5 5 5 5 5 5 5 5 3 5 5 5 5 5 5 5 3 5 5 5 3 5 5 5 3 5 5 5 5 5 5 5 3 5 5 5 3 5 5 5 5 5 5 5 5 5 5 5 5 5 5 5 5 3 5 5 5 5 5 5 5 5 5 3 5 5 5 5 5 5 5 3 5 5 5 5 3 5 5 5 3 3 5 5 5 5 3 5 5 5 5 5 5 5 5 5 5 5 5 5 5 5 3 5 5 5 5 5 5 5 5 5 5 5 5 5 5 5 5 5 5 5 5 5 5 5 5 5 5 5 3 5 5 5 5 5 5 5 5 5 5 5 3 5 5 3 5 5 3 5 5 5 3 5 5 3 5 5 5 5 5 5 5 5 3 5 5 3 5 5 5 5 5 5 5 5 5 5 5 5 5 3 5 5 5 3 5 5 5 5 5 5 5 5 5 5 5 5 5 5 5 5 3 5 5 3 5 5 5 5 5 3 5 5 5 5 5 5 5 5 5 5 5 5 5 5 5 5 5 5 5 5 5 3 5 3 3 5 5 5 5 5 3 5 5 3 5 3 5 5 5 5 5 5 5 3 5 5 5 5 5 5 5 5 5 5 5 5 5 5 3 5 5 5 5 5 5 5 5 5 5 5 5 5 5 5 5 3 5 5 3 5 5 5 5 5 5 5 5 3 5 3 5 3 3 5 5 5 5 3 5 5 5 5 3 5 5 5 5 5 5 5 5 5 5 3 5 5 5 5 5 5 5 5 5 5 5 5 3 5 5 3 5 5 3 3 5 5 5 5 5 5 5 5 3 5 5 5 5 5 5 5 5 5 3 5 5 3 5 5 5 3 3 5 5 5 5 5 5 5 5 5 5 3 5 5 3 3 5 3 5 5 3 5 5 5 5 5 5 5 5 5 5 5 3 5 5 5 5 5 5 5 5 5 3 5 5 5 5 5 5 5 3 5 5 5 5 5 5 5 5 3 5 5 5 5 5 5 3 3 5 5 5 5 5 5 5 5 5 3 5 5 5 5 3 5 5 5 5 5 5 5 5 5 5 5 3 5 5 5 5 5 3 5 5 5 5 5 5 5 5 5 5 5 5 5 5 5 5 5 5 5 5 5 5 5 5 5 5 5 5 5 5 5 5 5 5 5 5 5 5 5 5 5 5 5 5 5 5 5 5 5 5 5 3 5 5 5 5 5 3 5 5 3 5 5 5 5 5 5 5 5 5 5 5 5 5 5 5 3 5 5 5 3 5 5 5 3 3 5 5 5 5 5 5 5 5 5 5 5 3 5 5 5 5 5 3 5 5 5 5 5 5 5 5 5 5 5 5 5 5 5 5 5 5 5 5 5 5 5 5 5 5 5 5 3 5 5 5 5 5 5 5 5 5 5 5 3 5 5 3 5 3 3 5 5 5 5 5 5 5 3 3 5 5 5 3 5 5 5 5 5 5 5 5 5 5 5 5 5 3 5 5 3 5 3 5 5 5 5 3 5 3 5 5 5 3 3 5 5 5 5 5 5 5 5 5 5 5 5 3 5 5 5 5 3 5 5 5 3 5 5 3 3 5 5 3 5 3 5 5 5 5 5 5 5 5 3 5 5 5 3 5 5 5 5 5 5 5 5 5 5 5 5 5 5 5 5 5 5 5 5 5 5 5 5 5 5 5 5 5 5 3 5 5 5 3 5 3 3 5 5 5 5 5 3 3 5 5 5 5 3 5 5 5 5 5 5 5 5 5 5 5 5 5 3 5 5 5 5 3 5 5 5 5 5 5 5 5 5 3 5 5 5 3 5 5 5 5 5 3 5 5 5 3 5 3 5 5 3 5 3 5 5 3 5 5 5 3 3 5 5 5 5 3 5 5 5 3 5 3 5 3 5 5 5 3 5 5 5 5 5 5 5 5 5 3 5 5 3 3 3 5 5 5 5 5 5 5 5 3 5 5 5 5 5 5 3 5 5 5 5 5 5 5 5 5 3 5 5 5 5 5 5 5 5 5 5 5 5 5 5 5 5 5 5 5 5 5 5 5 5 5 5 5 5 5 5 5 3 5 5 5 3 5 5 5 5 5 5 5 5 3 5 5 5 5 5 5 5 5 5 5 3 5 3 5 5 5 5 5 5 5 5 5 5 5 5 3 5 3 5 5 5 5 5 3 5 5 3 5 5 5 5 5 5 5 5 3 5 5 5 5 5 5 3 5 5 5 5 5 5 5 5 5 5 5 5 5 5 5 5 5 5 5 5 5 5 5 5 5 5 5 3 5 5 5 5 3 5 5 5 3 5 3 5 3 5 5 5 3 3 5 5 5 5 5 3 5 5 5 5 5 5 5 5 5 5 5 3 5 5 5 5 3 5 3 5 5 5 5 3 5 3 5 3 5 3 5 3 5 3 5 3 5 5 3 5 5 5 5 5 5 5 3 5 5 5 5 5 5 5 5 5 3 5 5 5 5 5 5 5 5 5 3 5 5 5 5 5 5 5 5 5 5 5 5 5 3 5 5 5 5 5 5 5 5 5 3 5 5 5 5 5 5 5 3 5 5 5 5 3 5 5 3 5 5 5 3 5 5 5 5 5 3 3 5 3 5 5 3 5 5 5 3 5 5 5 5 5 5 5 5 5 5 3 5 5 5 5 5 5 3 5 5 5 5 5 5 5 5 5 5 5 5 5 5 3 3 5 5 5 5 5 3 5 5 5 3 5 3 5 5 3 5 5 5 5 3 5 5 5 5 5 5 5 5 5 5 5 5 5 5 5 5 5 5 5 5 5 5 5 5 5 5 5 5 5 5 3 5 5 3 5 5 5 5 5 5 5 5 5 3 5 5 5 5 5 5 5 5 3 3 3 5 5 3 5 3 5 5 5 3 5 3 3 5 5 5 5 3 5 5 5 3 3 5 5 3 5 3 5 5 5 3 5 5 5 5 5 5 3 5 5 5 5 5 5 5 5 5 5 5 5 5 5 5 3 5 5 5 3 5 5 5 5 5 5 5 5 5 5 5 5 5 5 5 5 5 5 5 5 5 5 5 5 5 5 5 5 5 5 5 5 5 5 5 5 5 5 5 5 5 5 5 5 5 3 5 5 3 5 5 5 5 5 5 5 5 5 3 5 5 5 5 5 5 5 5 5 5 5 3 5 5 5 5 5 5 5 5 5 5 3 5 5 3 5 5 5 3 5 5 5 3 5 5 5 5 5 5 5 5 3 5 5 5 5 5 5 5 5 5 5 5 5 5 5 5 3 5 5 5 5 3 5 5 5 5 5 5 5 5 5 5 5 5 5 5 5 5 5 5 5 5 5 5 5 5 5 5 5 5 5 5 5 3 5 5 5 5 5 5 5 3 5 5 5 3 5 5 3 5 5 5 3 5 5 5 5 5 5 5 5 3 5 5 5 5 5 5 5 5 5 5 5 5 3 5 5 5 5 5 3 5 3 5 5 5 5 5 5 3 5 5 3 5 5 3 5 5 5 5 5 3 5 3 5 5 5 3 5 5 5 5 5 5 3 5 5 5 3 5 5 5 5 5 5 5 5 5 5 5 5 5 5 3 5 3 5 3 5 5 5 5 5 3 5 3 5 3 5 5 5 5 5 3 5 5 5 3 5 5 5 5 5 5 3 5 3 5 3 5 5 5 5 3 3 5 5 5 5 5 5 5 5 5 5 5 5 5 5 5 5 5 3 5 5 5 5 3 5 5 5 5 5 5 5 5 5 5 3 5 5 5 5 5 5 5 3 5 5 5 3 5 5 5 3 5 5 5 5 5 5 5 5 5 5 5 5 5 5 5 5 5 5 5 5 5 5 5 5 5 5 5 5 5 5 5 5 5 5 5 5 5 5 5 5 5 5 5 5 5 5 5 5 5 5 5 5 5 5 5 5 5 5 5 3 5 5 5 5 3 5 5 5 5 5 3 5 5 5 5 5 5 5 5 5 5 5 5 5 5 5 5 3 5 3 5 5 5 5 3 3 5 5 5 5 3 3 5 5 5 5 5 5 3 5 3 3 5 5 5 5 3 3 5 5 5 5 5 5 3 5 5 5 5 5 5 3 5 5 5 5 3 3 5 5 3 3 5 5 5 5 3 5 5 5 3 3 5 5 3 5 3 3 5 5 5 3 5 3 5 3 5 5 5 5 3 5 5 3 5 5 5 5 5 3 3 5 5 5 5 5 5 3 3 5 5 5 5 5 3 5 5 3 5 5 5 5 5 5 5 3 5 5 5 3 5 5 5 5 5 3 5 5 5 5 5 3 5 5 5 5 5 5 5 5 5 3 5 5 5 3 5 5 5 5 5 5 5 5 5 3 5 3 5 5 5 5 5 5 3 5 5 3 5 5 5 5 5 5 3 5 5 5 5 5 5 5 5 5 5 5 5 3 3 5 5 3 5 5 5 5 5 3 5 5 3 3 5 5 5 5 5 5 5 3 5 5 5 5 5 5 5 3 5 5 5 5 5 5 5 5 5 5 5 5 5 5 5 5 5 5 5 3 5 5 5 3 5 5 5 5 5 5 5 5 5 5 5 5 5 5 3 5 5 5 5 5 5 5 5 5 5 5 3 5 5 5 5 5 5 5 3 5 5 5 5 5 5 5 5 5 5 5 3 5 5 5 5 5 5 5 5 5 5 3 5 5 5 5 5 5 5 5 5 5 5 3 5 5 5 5 5 5 5 5 5 5 5 5 3 3 5 5 5 5 5 5 5 5 5 5 5 5 3 5 3 5 5 5 3 5 5 3 5 5 5 5 5 5 5 5 5 5 5 5 5 5 3 5 5 5 5 5 5 5 5 5 5 3 5 5 5 5 5 5 5 5 5 5 5 5 5 5 5 5 5 5 5 5 5 5 5 5 5 5 5 3 3 5 5 5 5 5 5 5 5 5 5 5 5 3 5 3 5 5 5 5 5 5 3 5 5 3 5 5 5 5 5 5 3 5 3 5 5 5 5 5 5 5 5 5 5 5 5 5 5 5 3 5 5 3 5 5 5 3 5 3 5 5 5 5 5 5 5 5 5 5 5 5 5 5 5 5 5 5 5 5 5 5 3 3 5 5 5 3 5 5 5 5 5 5 5 5 5 5 5 5 5 5 5 5 5 5 5 5 5 5 5 5 5 5 5 3 5 3 5 5 5 5 5 5 5 5 5 5 5 5 5 5 5 5 5 5 5 5 5 5 5 5 5 5 5 3 5 5 5 5 5 5 5 5 5 5 5 5 5 5 5 5 5 5 5 5 5 5 5 5 5 5 5 5 5 5 5 5 5 5 5 5 5 5 5 5 5 5 5 5 5 5 5 5 5 5 5 5 5 5 3 5 3 5 5 3 5 5 5 5 3 5 5 5 5 5 3 5 5 5 3 3 5 5 5 5 3 3 5 5 3 3 5 5 3 5 5 3 3 5 5 5 3 5 5 5 5 3 5 5 5 5 3 5 3 5 5 3 5 5 5 3 3 5 3 5 5 5 3 3 5 5 5 5 5 3 5 5 5 5 5 5 3 5 5 5 5 5 5 3 5 5 5 5 3 5 5 3 5 3 5 5 5 5 5 5 5 5 5 5 5 5 3 5 5 3 5 3 5 3 5 5 5 5 5 3 5 3 5 5 5 3 5 5 5 3 5 5 3 5 3 5 5 3 5 5 5 5 5 5 5 5 5 5 5 5 3 5 5 5 5 5 5 3 5 3 5 5 5 5 5 3 5 5 5 5 5 5 5 5 3 5 5 5 5 5 3 5 3 5 5 3 3 5 3 5 5 5 5 5 5 5 5 5 5 5 5 5 5 3 5 5 5 5 5 5 3 5 3 5 5 5 5 3 3 5 5 5 5 5 3 5 5 5 5 3 3 5 5 5 5 3 5 5 5 5 5 5 3 5 5 5 5 5 5 5 3 5 5 5 5 5 5 5 5 5 5 3 5 3 5 3 5 5 3 5 5 3 5 3 5 5 5 5 5 5 5 3 5 5 5 5 3 5 5 5 3 5 3 5 3 3 3 3 5 5 3 3 5 5 5 3 5 3 5 5 5 5 5 3 5 5 5 5 5 5 5 5 5 3 5 5 5 5 5 5 5 5 5 5 5 5 5 5 5 5 5 5 3 5 5 5 5 3 5 5 3 5 5 5 5 5 5 5 5 3 5 5 3 5 5 5 5 5 5 5 5 5 5 5 5 5 5 3 5 5 5 5 3 5 5 3 5 3 5 5 5 5 5 5 5 5 5 5 5 5 5 5 5 5 5 5 5 5 5 5 5 3 5 5 5 5 5 5 5 5 3 5 3 5 5 3 5 5 5 5 5 5 5 5 5 5 5 5 5 3 5 5 3 5 5 5 5 5 5 3 5 5 5 5 3 5 5 5 5 5 3 5 5 5 3 5 5 5 5 5 5 5 5 5 5 5 5 5 5 3 5 5 5 5 5 5 5 5 5 3 5 5 5 5 5 5 5 5 5 3 5 5 5 5 5 5 5 5 3 5 5 5 5 5 5 5 5 5 5 5 5 5 5 5 5 5 5 5 5 5 5 5 5 5 5 5 5 5 5 5 5 5 5 5 5 5 5 5 5 5 5 3 5 5 5 3 5 5 5 5 5 5 5 5 5 3 3 5 5 3 5 3 5 5 5 5 5 3 5 5 3 3 5 5 3 5 3 5 5 5 3 5 5 5 5 5 5 5 5 5 5 5 3 5 5 5 5 5 5 5 5 5 3 5 5 5 5 5 5 3 5 5 5 5 5 5 5 5 5 3 5 5 5 5 5 5 5 3 5 5 5 5 5 5 5 5 5 5 3 5 3 5 5 5 5 5 5 5 5 5 5 5 5 5 5 5 5 5 5 5 5 5 5 3 5 5 5 5 5 5 5 5 3 5 5 3 5 5 3 5 5 5 5 3 3 5 5 3 5 3 3 5 5 3 5 5 3 5 5 3 5 3 5 5 3 5 5 5 5 5 5 3 5 5 5 3 5 5 5 5 5 3 5 5 5 5 5 5 5 5 5 3 5 5 3 5 5 5 5 3 5 5 5 5 3 5 5 3 5 5 5 5 3 3 5 5 5 5 5 5 5 5 3 5 5 3 5 5 5 5 5 5 5 5 5 5 5 5 3 5 5 5 5 5 5 5 5 3 5 5 5 3 5 5 5 5 3 5 3 5 5 5 5 5 3 3 5 5 5 3 5 5 5 3 5 3 5 5 5 3 5 5 3 5 5 5 3 5 5 3 5 5 5 5 5 3 5 5 3 5 5 5 5 5 5 5 5 5 5 5 5 5 5 5 5 5 5 5 5 5 5 3 5 5 5 5 5 5 5 3 3 5 5 5 5 5 5 5 5 5 5 3 5 5 3 5 5 5 3 5 5 3 5 5 3 3 5 3 5 3 3 5 3 5 3 5 5 3 5 5 5 3 3 5 3 5 5 5 5 5 3 3 5 3 5 5 5 5 5 3 5 5 5 5 5 5 3 5 5 5 5 5 5 5 5 5 5 5 5 5 3 5 5 5 5 5 5 5 5 5 5 5 5 5 5 3 3 3 5 5 3 5 3 3 3 5 5 5 5 5 5 5 3 5 5 5 5 5 3 5 5 5 5 5 5 5 5 5 5 5 5 5 3 5 3 5 3 5 3 5 5 5 5 5 5 5 5 5 5 5 5 5 5 5 5 5 5 5 5 3 5 5 3 3 5 5 5 5 5 5 5 5 5 5 5 5 5 3 5 5 5 5 5 5 5 5 5 5 5 3 3 5 5 5 5 3 5 5 5 5 5 3 5 5 5 3 5 5 5 5 5 5 3 3 5 3 5 5 3 5 5 5 5 5 3 5 3 5 5 5 5 5 5 5 3 5 5 5 5 5 5 5 5 5 5 5 5 5 5 5 5 5 3 5 5 5 5 5 5 5 5 3 5 3 5 5 5 5 5 5 5 5 5 5 5 5 5 5 5 5 5 5 5 3 5 5 5 5 5 5 3 5 3 5 3 5 5 5 5 3 5 5 5 5 5 5 5 5 5 5 5 5 5 5 5 5 5 5 5 5 5 5 5 5 5 5 5 5 5 3 5 5 3 5 5 5 5 5 5 5 5 5 5 5 5 5 5 5 5 5 5 5 5 5 5 5 5 5 5 5 5 5 5 5 3 5 5 3 3 5 5 5 5 5 5 3 5 5 5 3 5 5 5 5 5 5 5 5 5 5 5 5 3 5 3 5 3 5 5 5 5 5 5 5 3 5 3 5 5 5 5 5 5 5 5 5 3 3 5 5 3 3 5 5 5 5 5 5 3 5 3 5 5 5 5 5 5 3 5 5 5 5 5 5 5 3 5 5 5 3 5 5 5 5 5 5 3 5 3 5 5 3 5 5 3 5 5 3 5 5 3 5 5 5 5 5 5 5 5 5 5 5 5 5 5 5 5 5 5 5 5 5 5 3 5 5 5 5 5 3 5 5 3 5 3 3 3 5 5 3 5 3 5 3 5 3 5 5 3 5 3 5 5 5 5 5 5 5 5 5 5 5 5 5 5 5 5 5 5 5 5 5 5 5 5 5 5 5 5 5 5 5 5 3 5 5 5 5 5 5 5 5 3 5 5 5 3 5 5 5 5 3 5 5 5 5 3 5 5 5 5 5 3 5 5 5 3 5 5 5 5 5 3 5 5 5 5 5 5 5 5 5 3 5 5 5 5 5 5 5 5 5 5 3 5 5 5 3 5 5 5 5 5 5 5 5 5 5 5 5 5 5 5 5 5 5 5 5 5 5 5 5 3 5 5 3 5 5 5 3 5 5 5 5 5 5 5 5 5 5 3 5 5 5 5 3 5 5 5 3 5 5 3 5 3 5 5 5 5 3 5 3 5 5 5 5 5 5 5 5 5 5 5 5 5 5 5 5 5 5 3 5 5 5 5 5 5 5 5 5 5 5 3 5 5 5 5 5 5 5 3 5 5 5 5 5 5 5 3 5 5 5 5 3 5 5 5 5 5 5 5 5 5 5 5 5 5 5 3 5 5 5 5 5 5 5 5 5 5 5 5 5 5 5 5 5 5 5 5 3 5 5 3 5 5 5 5 5 5 5 5 5 5 5 5 5 5 5 5 5 5 5 5 5 3 3 5 5 5 5 5 5 5 5 5 5 5 3 5 5 5 3 5 5 5 5 3 5 5 5 5 5 5 5 5 3 5 5 5 5 5 3 5 5 5 5 5 3 5 5 5 5 5 5 3 5 5 5 5 5 3 3 3 5 5 3 5 5 3 3 5 5 5 3 3 5 3 5 5 5 5 5 3 5 5 5 3 5 5 3 5 5 5 3 3 5 5 3 3 5 5 5 5 5 3 5 3 3 5 5 5 5 5 3 5 3 5 5 5 3 3 5 3 5 3 5 5 5 5 5 3 5 3 5 5 5 5 5 5 5 5 5 5 5 5 5 5 3 5 5 3 5 5 5 3 5 5 5 5 5 5 5 5 3 5 5 3 5 5 5 5 5 5 5 5 3 5 5 5 5 5 5 5 5 5 5 5 5 5 5 5 5 3 5 5 3 5 5 5 5 5 5 5 5 5 5 5 3 5 5 5 3 3 3 5 5 3 5 5 3 5 5 5 5 5 5 5 5 5 5 3 5 5 5 5 5 5 5 5 5 5 5 5 5 5 5 5 5 5 5 5 5 5 3 5 5 5 5 5 3 5 3 3 5 5 5 5 3 5 5 5 5 5 5 5 5 5 5 3 3 5 3 5 5 5 3 5 5 5 3 5 5 5 5 5 5 5 5 5 5 5 5 5 5 3 5 5 5 5 5 5 5 3 5 5 5 5 5 5 5 5 5 5 5 3 5 5 5 5 5 5 5 5 5 5 5 3 3 5 5 5 5 5 5 5 5 5 5 5 5 5 5 3 5 5 5 3 5 5 3 5 5 5 5 5 5 5 5 5 5 5 5 5 5 5 5 5 5 5 5 5 5 5 5 5 5 5 5 5 5 5 5 5 5 5 5 5 5 5 5 5 5 3 3 5 5 5 5 5 5 3 5 3 5 5 5 5 5 5 5 5 5 5 5 5 3 5 5 3 5 5 3 5 5 3 5 5 5 5 5 5 5 5 5 5 5 5 5 5 3 5 5 5 5 3 5 5 5 5 5 5 5 5 5 3 5 5 3 5 5 5 5 5 5 5 5 5 5 5 5 3 5 5 5 5 5 5 5 3 5 3 5 5 3 5 5 5 5 5 5 5 5 5 5 5 5 5 5 5 3 3 3 5 3 5 5 5 5 5 5 3 5 3 5 5 5 5 5 5 5 5 3 5 5 5 3 5 5 3 5 5 5 5 5 5 5 5 3 5 5 5 5 5 5 3 5 5 5 5 5 5 5 3 5 3 5 5 3 5 5 5 5 5 5 5 5 5 5 5 5 5 5 5 5 5 3 5 5 5 5 3 5 5 5 5 5 5 5 5 3 5 5 5 5 5 5 5 5 5 5 5 5 5 5 5 5 5 5 5 5 5 5 5 5 3 5 5 5 3 3 5 5 5 5 5 5 5 5 5 3 5 5 5 5 3 3 5 3 5 5 3 5 5 5 3 3 5 5 5 5 5 5 5 3 5 5 3 5 5 3 5 5 5 5 5 5 3 5 3 5 5 5 5 3 5 3 5 5 5 5 3 5 5 5 5 5 5 5 5 5 5 5 5 5 3 5 5 3 5 5 5 5 5 5 5 5 5 5 5 5 5 5 5 5 5 5 5 5 5 5 5 5 5 5 5 5 5 5 5 5 5 3 5 5 5 5 5 5 5 5 5 5 5 5 5 5 5 5 3 5 5 5 5 5 5 5 5 3 5 5 3 5 5 5 5 5 5 5 3 5 5 3 5 5 5 5 5 5 5 5 5 5 5 5 5 5 5 5 5 5 5 5 5 5 5 5 5 5 5 5 5 5 5 5 5 5 5 5 5 5 5 3 5 3 5 5 5 5 5 5 5 5 5 5 5 3 5 5 5 5 5 5 5 5 5 5 5 5 5 5 5 5 5 5 5 5 5 3 5 5 5 3 5 3 5 3 5 5 3 5 5 5 5 3 5 5 3 5 3 3 5 5 5 3 5 5 3 5 5 3 5 5 3 5 3 5 5 5 5 5 3 3 5 3 5 5 3 5 5 5 5 5 5 5 5 5 5 3 3 5 5 5 5 3 3 5 5 5 5 5 5 5 5 3 5 5 3 3 5 5 3 3 3 5 3 3 3 5 5 5 5 3 5 5 5 5 5 5 5 5 3 5 3 5 5 5 5 5 5 5 3 5 5 5 3 5 5 5 5 5 3 5 5 5 5 5 5 5 5 5 5 5 5 5 5 5 5 3 5 3 5 3 5 5 5 5 3 3 3 5 5 3 5 5 5 3 3 5 5 3 3 5 3 3 5 5 5 5 5 5 5 3 5 5 5 5 5 5 5 5 5 5 5 3 5 5 5 5 3 3 5 3 5 5 3 5 5 5 5 5 3 5 5 5 5 5 5 5 5 5 5 5 5 5 5 5 3 5 5 3 5 5 5 5 5 5 5 5 3 5 5 5 5 5 5 5 5 3 5 5 5 5 5 3 5 5 5 5 5 5 5 5 3 5 5 5 5 5 3 3 5 3 5 5 5 5 3 5 3 5 3 5 5 5 3 5 5 5 5 5 3 5 5 5 5 3 5 3 5 5 3 5 5 5 5 5 5 5 5 5 5 5 5 5 5 5 5 5 5 3 5 5 5 5 5 5 5 5 3 5 5 3 5 5 5 3 5 5 3 3 5 5 3 3 3 5 3 5 5 5 5 5 3 5 5 5 5 5 5 3 5 5 5 5 5 5 5 5 5 5 5 5 5 5 5 5 5 5 5 5 5 5 5 5 5 5 5 5 3 5 5 5 5 5 5 5 3 5 5 5 5 5 5 3 5 5 3 5 3 5 3 5 3 5 5 5 5 5 5 3 5 5 3 5 5 5 5 5 5 5 5 5 5 5 5 5 5 5 3 5 5 3 5 5 5 5 5 3 5 5 5 5 5 5 3 3 5 5 5 5 5 5 5 5 5 5 5 5 5 5 5 3 5 5 5 5 5 5 5 5 5 5 3 3 5 5 5 5 5 5 5 5 5 3 5 5 5 5 5 5 5 3 5 3 5 5 5 5 3 5 5 5 5 5 3 5 5 5 3 5 5 5 5 5 5 3 5 5 5 5 5 5 5 5 5 5 5 5 3 5 5 5 5 5 5 5 5 5 5 5 5 3 5 5 5 5 3 3 3 3 5 3 5 5 5 5 5 3 5 3 3 5 3 5 5 5 5 5 5 5 5 5 3 3 5 3 5 3 5 3 5 3 3 5 5 5 3 5 5 5 5 5 5 5 3 5 5 3 5 5 3 5 3 5 5 3 5 5 5 5 3 5 5 5 5 5 5 5 5 5 5 5 5 5 5 5 5 5 5 5 5 5 5 5 5 5 5 5 5 5 5 5 5 3 5 3 5 5 3 5 3 5 5 5 5 5 3 5 5 5 5 5 5 5 5 5 5 5 5 3 3 5 5 5 3 5 5 5 5 5 5 5 3 5 5 5 5 5 5 3 5 3 5 5 3 5 5 5 5 3 5 5 3 5 5 5 5 5 5 3 5 3 5 5 5 5 5 5 5 5 5 5 3 5 3 5 5 5 5 5 5 5 5 5 5 5 5 5 3 5 5 5 5 5 5 5 5 5 5 5 5 5 3 3 5 5 3 5 5 5 3 5 5 5 5 5 3 3 5 5 3 5 5 5 3 5 5 5 5 5 5 5 5 5 5 5 5 5 5 5 5 5 5 5 5 3 5 5 5 5 5 5 5 5 5 5 5 5 5 5 5 5 5 5 5 5 5 5 5 5 5 5 5 5 5 5 5 5 5 5 5 5 5 5 5 5 5 5 5 5 5 5 5 5 5 5 5 5 5 5 5 5 5 5 5 5 5 5 5 5 5 5 5 5 5 5 5 5 5 5 5 5 3 5 5 5 3 5 5 5 5 5 5 5 5 5 3 5 5 5 3 5 5 5 5 5 5 5 5 5 5 5 5 5 5 3 5 5 5 5 5 5 3 5 3 5 5 5 5 5 5 5 5 5 5 5 5 5 5 5 5 5 5 5 5 5 5 5 5 5 5 5 5 5 5 5 5 5 5 5 5 5 5 5 5 5 5 5 5 5 5 3 5 3 5 5 3 3 5 5 5 3 5 5 5 5 5 5 5 5 5 5 5 5 5 5 5 5 5 5 5 5 5 5 5 5 5 3 5 5 5 5 5 5 5 5 5 5 5 5 5 5 5 5 5 5 5 5 5 5 5 5 5 5 5 5 5 5 5 5 5 5 5 5 5 5 5 5 5 3 5 5 5 5 5 5 5 3 5 5 5 5 5 5 5 5 5 5 5 5 5 5 5 5 5 5 5 5 5 3 5 5 5 5 5 3 5 5 5 3 5 5 5 5 5 5 5 5 5 5 5 5 5 5 5 5 5 5 5 5 5 5 5 5 5 5 5 5 5 5 5 3 5 5 3 5 5 3 5 5 5 5 5 5 5 5 5 5 3 5 5 5 3 3 5 5 5 5 5 5 3 5 3 5 5 3 5 5 5 5 5 3 3 5 5 5 5 3 5 3 3 5 3 5 5 5 5 5 5 3 5 3 5 5 3 5 5 5 3 5 5 5 5 5 5 5 5 5 5 5 5 5 5 5 5 5 5 5 5 3 5 5 5 5 5 5 5 5 5 5 3 5 5 5 5 5 3 5 5 5 5 5 5 5 5 3 5 5 5 5 3 3 5 5 3 5 5 5 5 3 5 5 5 3 3 5 3 5 5 3 5 3 5 3 5 5 5 5 5 5 5 3 5 5 3 5 5 5 5 5 3 5 5 5 3 5 5 3 5 5 5 3 5 5 5 5 5 5 5 5 3 5 5 5 3 5 5 5 5 5 5 5 3 5 5 5 3 5 5 5 5 5 5 5 5 3 5 5 5 5 5 5 5 5 5 5 5 5 5 5 5 5 5 5 5 5 5 5 5 3 5 5 5 5 5 5 5 5 5 5 5 5 5 5 5 5 5 5 5 5 5 3 5 5 5 5 5 5 3 5 5 5 5 5 5 5 5 5 5 5 5 5 5 5 5 5 5 5 5 5 5 5 5 5 3 5 5 5 5 5 5 5 5 5 5 5 5 5 5 5 5 5 5 5 5 5 5 3 5 5 5 5 5 5 3 5 5 5 5 5 5 5 5 5 5 5 5 5 5 5 5 5 3 5 5 5 5 3 5 5 5 5 5 5 3 5 5 5 5 5 5 3 5 5 5 5 5 5 5 5 5 5 5 5 5 5 5 3 5 5 5 5 5 5 5 3 3 3 5 5 5 5 5 5 5 5 5 5 5 5 5 5 5 5 5 5 3 3 5 5 5 5 5 3 5 5 3 5 5 5 3 5 5 5 5 5 5 5 5 5 3 5 5 5 5 5 5 5 5 5 5 5 3 3 5 5 3 5 5 5 5 5 3 5 5 5 3 5 3 5 5 3 5 5 5 5 3 5 5 3 5 5 5 5 5 3 5 5 5 5 5 5 5 5 5 5 5 5 5 5 5 3 5 5 5 5 3 5 5 5 5 5 5 5 3 5 5 5 5 5 5 3 3 5 5 5 5 5 5 5 5 5 5 5 5 5 5 5 5 3 5 5 5 5 3 5 5 5 5 5 5 3 5 5 5 5 5 5 5 5 5 5 5 5 5 5 5 5 5 5 5 5 5 5 3 5 5 5 3 5 3 5 5 5 3 5 5 5 5 5 5 5 5 5 5 5 5 5 5 5 5 5 5 5 5 5 5 5 5 5 5 5 5 5 5 5 5 5 5 5 5 5 5 5 5 5 5 5 5 5 5 5 5 5 5 3 3 5 5 5 5 5 5 5 5 5 5 5 5 5 5 5 5 5 5 5 5 5 5 3 5 3 5 5 5 5 5 5 3 5 5 5 5 5 5 5 5 5 5 3 5 5 5 5 5 5 5 5 3 5 5 5 5 3 5 5 3 5 5 5 5 5 3 5 3 5 5 5 5 5 5 5 5 5 5 5 5 5 5 5 5 5 5 5 5 5 5 5 5 5 3 5 5 5 5 5 5 5 3 5 5 5 5 5 5 5 3 5 5 5 5 5 5 5 5 5 5 5 3 5 5 3 5 3 5 5 5 5 5 5 5 3 5 3 5 3 5 5 5 3 5 3 5 5 5 5 5 5 5 3 5 5 5 5 5 3 5 5 3 5 5 5 5 5 5 3 5 5 5 5 5 5 5 5 5 5 5 5 5 3 5 5 5 5 3 5 5 5 3 5 3 5 3 5 5 3 5 5 5 3 3 5 5 5 5 5 5 5 5 5 5 5 5 3 3 5 3 5 5 5 5 5 5 5 5 5 5 3 5 5 5 3 5 5 5 3 5 3 5 5 5 5 5 5 5 5 3 5 5 5 5 5 5 5 5 5 5 5 3 5 5 5 5 5 5 5 5 5 5 5 5 5 5 5 5 5 5 5 5 5 5 3 5 5 5 5 5 5 5 5 5 5 5 5 5 3 5 5 5 5 5 3 5 5 5 3 5 3 5 5 5 5 5 5 5 5 5 5 5 5 5 5 5 5 3 5 5 5 5 5 5 3 5 5 5 5 5 3 5 5 3 5 5 5 3 5 5 5 5 5 3 5 5 5 3 5 5 5 3 3 5 5 5 5 3 5 5 3 5 5 3 5 5 5 3 3 5 5 5 5 5 5 3 5 3 5 3 5 5 3 5 3 5 3 5 5 3 5 5 5 5 5 5 5 5 5 5 5 5 5 5 5 5 5 5 5 5 5 5 5 5 5 5 5 5 5 5 3 5 5 5 5 5 5 5 5 5 3 5 5 5 5 5 3 5 5 5 5 5 5 5 5 5 5 5 5 5 5 5 5 3 5 5 5 5 5 5 5 3 5 5 3 5 5 5 5 5 3 5 5 5 5 5 5 5 5 5 5 5 3 5 5 5 5 5 5 5 5 5 5 5 5 5 5 5 5 5 5 5 5 5 5 5 5 5 5 5 5 5 5 5 5 5 5 5 5 5 5 5 5 5 5 5 5 5 5 5 5 5 5 5 5 5 5 5 5 5 5 5 5 5 5 5 5 5 5 5 5 3 5 5 5 5 3 5 5 5 3 5 3 5 5 3 5 5 5 5 3 3 5 5 3 3 5 3 5 5 5 3 3 5 5 5 3 5 5 5 5 5 5 5 5 5 3 3 5 5 5 5 5 5 5 3 5 5 5 5 5 5 5 5 3 5 5 5 5 5 3 5 5 5 5 5 3 5 5 5 5 5 3 5 5 5 5 5 5 5 5 5 5 5 5 5 5 5 5 5 5 5 5 5 5 5 5 5 5 3 5 5 5 5 5 5 5 5 5 5 5 3 5 5 5 5 5 5 5 5 5 5 5 5 5 5 5 5 5 5 5 5 5 5 5 5 5 5 5 5 5 5 5 5 5 5 5 5 5 5 5 5 5 5 3 3 5 5 3 5 3 5 5 5 5 5 5 5 5 5 5 5 5 5 5 5 5 5 3 5 5 5 3 5 5 5 5 3 5 5 5 5 5 3 5 3 3 5 5 5 5 5 5 5 5 3 5 5 5 5 3 5 5 3 5 5 5 5 5 5 5 5 5 3 5 5 3 5 5 5 5 5 5 5 5 5 5 5 5 5 5 5 3 5 5 3 5 5 5 5 3 5 3 5 3 3 5 5 5 5 5 3 5 5 5 5 5 5 3 5 5 5 3 5 5 5 5 5 5 5 5 5 5 5 5 5 5 5 5 5 5 5 5 5 5 5 5 5 3 5 5 5 5 5 5 5 5 5 5 5 3 5 5 5 3 5 5 5 5 3 5 5 5 5 5 5 5 5 5 5 5 5 5 3 5 5 3 5 5 5 5 5 5 5 5 5 5 5 3 5 5 5 5 5 5 5 5 5 5 5 5 5 3 5 5 5 5 5 5 5 5 5 5 5 5 5 5 5 5 5 3 5 5 5 3 5 5 5 5 5 5 5 5 5 3 5 5 5 5 5 5 5 5 5 5 5 5 5 5 5 5 5 5 5 5 5 3 5 3 5 5 5 5 5 5 5 5 5 5 3 5 5 5 5 5 5 3 5 5 5 5 5 5 5 5 3 5 5 3 5 5 5 5 5 3 5 5 5 3 5 5 5 3 5 5 5 5 5 5 5 5 5 5 5 5 5 5 5 5 5 5 5 5 5 5 5 5 5 5 5 5 5 5 5 5 5 3 5 5 5 5 5 5 5 3 5 3 5 5 5 5 5 5 3 5 3 5 5 3 5 5 5 5 5 5 5 5 5 5 3 3 5 5 5 5 5 5 5 3 5 5 5 5 5 5 5 5 5 5 3 5 5 5 5 5 5 5 5 5 5 5 5 5 5 5 5 5 3 5 3 5 5 5 5 5 5 5 5 5 3 5 5 5 3 5 3 5 5 5 5 5 5 5 5 5 5 5 3 3 5 5 5 5 5 5 5 5 5 5 5 3 5 5 5 5 5 5 5 5 5 5 5 5 5 5 5 5 5 5 3 5 5 5 5 3 5 3 5 3 5 5 5 3 5 5 5 5 5 5 5 5 3 5 5 5 5 5 5 5 5 5 3 5 5 5 5 5 5 3 5 3 5 3 5 5 5 5 5 5 5 3 5 5 5 5 5 3 5 5 5 5 5 5 5 5 5 5 3 5 5 3 5 5 5 5 3 5 5 5 5 5 5 5 5 5 5 5 5 5 5 5 5 5 5 5 5 5 5 3 5 5 3 3 5 5 5 5 5 5 5 5 3 5 5 5 5 3 5 5 5 5 3 5 5 5 5 5 5 3 5 5 3 5 3 5 5 3 5 3 5 5 5 3 5 3 5 5 3 5 5 3 5 5 5 5 5 3 3 5 5 5 5 3 5 5 3 5 5 3 5 5 5 5 5 3 5 5 3 5 5 5 5 5 3 5 5 5 5 5 5 5 5 3 5 5 5 5 5 5 5 5 5 5 3 5 5 5 3 5 5 5 3 5 5 5 5 5 3 5 5 5 5 5 5 5 5 5 5 5 5 3 5 5 5 5 5 5 5 5 5 5 5 5 5 5 5 5 5 5 5 5 5 5 5 5 5 5 5 5 5 5 3 3 5 5 5 5 5 5 5 3 5 5 3 5 5 5 5 5 5 5 5 5 5 5 5 5 5 5 5 3 5 5 5 5 5 5 5 5 5 5 5 5 5 5 5 5 5 3 3 5 5 5 5 5 5 5 5 5 5 5 5 5 5 5 5 5 5 5 3 5 5 5 5 5 3 5 5 5 5 5 5 5 5 5 3 5 5 5 5 5 5 5 5 3 5 5 3 5 5 5 5 3 3 5 5 3 5 5 5 5 5 3 3 5 5 5 5 5 5 5 5 5 3 5 5 5 5 5 5 5 5 5 5 5 5 5 5 3 5 5 5 5 5 5 5 5 5 5 5 5 5 5 5 5 5 5 5 5 5 5 5 5 3 5 3 5 5 5 5 5 5 5 5 5 5 5 5 5 3 5 3 5 5 5 5 5 3 5 5 5 5 3 5 5 5 5 5 5 5 5 3 5 5 3 5 3 5 5 5 5 5 5 5 5 5 5 5 3 5 5 5 3 5 5 5 5 5 3 5 5 3 5 5 5 5 5 5 5 5 5 5 5 5 5 3 5 5 5 5 3 5 5 5 3 5 5 5 5 5 5 5 5 5 3 5 5 5 3 3 5 5 5 5 3 3 5 3 5 3 5 5 5 5 3 5 5 5 5 5 5 5 5 3 5 5 5 5 5 5 5 5 3 5 5 3 3 5 5 3 5 3 5 5 5 5 3 5 5 5 5 5 5 5 5 5 5 5 5 5 5 5 5 5 5 5 5 5 5 5 5 3 5 5 5 5 5 5 5 5 5 5 3 5 5 5 5 3 5 5 5 5 5 5 5 5 5 3 5 5 3 5 5 5 5 5 5 5 5 5 3 5 3 5 5 3 3 3 5 5 3 5 3 5 5 5 3 5 5 3 5 5 5 5 3 5 5 5 5 3 5 5 5 5 5 5 3 5 5 5 5 5 3 5 3 5 3 5 5 5 5 5 5 5 5 5 5 5 5 5 5 5 5 3 5 5 5 5 5 3 5 5 5 5 5 5 5 3 5 3 5 5 3 3 5 5 5 5 5 3 5 5 5 5 5 5 5 5 5 5 3 5 3 3 5 5 5 5 5 5 5 5 3 5 5 5 5 5 5 5 3 5 5 5 5 5 5 3 3 5 5 3 5 5 5 5 3 5 3 3 3 5 3 5 5 5 3 5 5 3 5 5 5 5 5 5 5 5 5 5 5 5 5 5 5 5 3 5 5 5 5 5 5 5 5 3 5 5 5 5 3 5 5 5 5 5 5 5 5 5 3 5 3 5 5 5 5 5 5 5 3 5 3 5 5 5 5 5 5 5 5 5 5 5 5 5 5 5 5 3 5 5 5 5 3 5 5 5 5 5 5 3 5 5 5 5 5 5 5 5 5 5 5 5 5 5 5 5 5 5 5 5 5 5 5 5 5 5 3 5 5 5 5 5 5 5 5 5 3 5 5 3 5 3 5 5 5 5 5 5 3 5 5 5 5 5 5 5 5 5 3 5 5 5 5 5 3 5 5 5 5 5 5 5 5 5 5 3 5 5 3 5 3 5 5 5 5 5 5 5 5 5 5 5 5 5 5 5 5 5 5 5 5 5 5 5 5 5 3 5 3 5 5 5 5 5 3 5 5 5 5 3 5 5 3 5 5 5 3 5 5 3 3 5 3 5 5 5 5 5 5 3 5 5 5 5 5 5 5 5 5 5 5 5 5 5 5 5 3 5 5 5 5 5 5 5 5 5 5 5 5 5 5 5 3 5 5 5 5 3 5 5 5 5 3 5 3 5 5 5 5 5 5 3 5 5 3 5 5 5 5 5 5 5 5 3 5 5 3 5 5 5 5 5 5 5 3 5 5 5 5 5 3 5 5 5 3 5 5 5 5 5 5 5 5 5 5 3 5 5 5 5 5 3 5 5 5 5 5 3 5 5 5 3 3 5 5 5 5 5 5 3 5 5 5 5 5 5 5 5 5 5 5 5 5 5 5 5 5 5 5 5 5 5 5 5 5 5 5 5 5 5 3 3 3 5 5 5 5 3 5 5 5 3 5 3 5 5 5 3 5 3 3 5 5 5 3 5 3 5 5 3 3 5 5 5 5 5 5 5 5 5 5 3 3 5 5 5 5 5 5 3 5 5 5 3 5 5 5 5 5 3 5 5 5 
</DataArray>
</Cells>
<PointData Scalars="" Vectors="displacement," Tensors="">
<DataArray type="Float64" Name="displacement" NumberOfComponents="3" format="ascii">
-1.3155422028698362e-07 -0.044997892525981437 0 -3.161756141248203e-07 -0.044997437082699522 0 8.4428239652622954e-05 -0.04241881566205339 0 -1.3155422028698362e-07 -0.044997892525981437 0 -8.0922127544496014e-06 -0.040131541981221215 0 1.8338092437735247e-07 -0.036196532284499816 0 -3.161756141248203e-07 -0.044997437082699522 0 1.4841995175451802e-05 -0.043436568796624164 0 -0.00011767548263801437 -0.044435310467548873 0 -3.161756141248203e-07 -0.044997437082699522 0 1.4841995175451802e-05 -0.043436568796624164 0 8.4428239652622954e-05 -0.04241881566205339 0 1.4841995175451802e-05 -0.043436568796624164 0 0.00013397534944886873 -0.043960293036970105 0 3.4615503607403019e-05 -0.042105011945693945 0 1.4841995175451802e-05 -0.043436568796624164 0 8.4428239652622954e-05 -0.04241881566205339 0 3.4615503607403019e-05 -0.042105011945693945 0 0.00013397534944886873 -0.043960293036970105 0 0.00094541066083866834 -0.04471712210775073 0 -8.5580708718488956e-05 -0.044721398267110316 0 1.4841995175451802e-05 -0.043436568796624164 0 0.00013397534944886873 -0.043960293036970105 0 -0.00011767548263801437 -0.044435310467548873 0 0.00013397534944886873 -0.043960293036970105 0 -0.00011767548263801437 -0.044435310467548873 0 -8.5580708718488956e-05 -0.044721398267110316 0 -3.161756141248203e-07 -0.044997437082699522 0 -0.00011767548263801437 -0.044435310467548873 0 -2.1942931426177519e-07 -0.045000171555001647 0 -0.0013222277329741354 -0.039104099265140517 0 -0.00050806396392148625 -0.042112644229252177 0 -0.0019114827020680382 -0.039349292779354297 0 -0.00010133994227027599 -0.038765556587768722 0 -0.0014340355031440791 -0.040143568983591178 0 -0.00050806396392148625 -0.042112644229252177 0 0.00032430099782669288 -0.041980764906687736 0 0.00013397534944886873 -0.043960293036970105 0 0.00094541066083866834 -0.04471712210775073 0 3.4615503607403019e-05 -0.042105011945693945 0 -0.00010133994227027599 -0.038765556587768722 0 3.4615503607403019e-05 -0.042105011945693945 0 -0.0014340355031440791 -0.040143568983591178 0 8.4428239652622954e-05 -0.04241881566205339 0 3.4615503607403019e-05 -0.042105011945693945 0 -0.0019061633836608253 -0.039896662388539797 0 3.4615503607403019e-05 -0.042105011945693945 0 -0.0014340355031440791 -0.040143568983591178 0 -0.0019061633836608253 -0.039896662388539797 0 -9.2830741549174622e-06 -0.042010639354010455 0 -0.00089503906167602294 -0.04006986459846644 0 -1.3155422028698362e-07 -0.044997892525981437 0 8.4428239652622954e-05 -0.04241881566205339 0 -8.0922127544496014e-06 -0.040131541981221215 0 -8.0922127544496014e-06 -0.040131541981221215 0 5.25589721105354e-05 -0.037609873839099126 0 1.8338092437735247e-07 -0.036196532284499816 0 -0.0019061633836608253 -0.039896662388539797 0 -0.0016900628468026599 -0.037240804614885221 0 -0.0019914302621815297 -0.039186236549523107 0 -0.00089503906167602294 -0.04006986459846644 0 -0.00082141119103742554 -0.037379368606265145 0 5.25589721105354e-05 -0.037609873839099126 0 -2.9513939026658504e-06 -0.034861336764517595 0 1.8338092437735247e-07 -0.036196532284499816 0 -0.00082141119103742554 -0.037379368606265145 0 -2.8099045775628303e-05 -0.035249929486842753 0 -0.0016900628468026599 -0.037240804614885221 0 -2.9513939026658504e-06 -0.034861336764517595 0 -0.00023978404522067887 -0.037483883710025048 0 -2.9513939026658504e-06 -0.034861336764517595 0 -0.00023978404522067887 -0.037483883710025048 0 0.00019425867689833187 -0.034115260183257105 0 -0.00023978404522067887 -0.037483883710025048 0 0.00037889434929106521 -0.038763454455231827 0 0.000622671467425074 -0.038921345956682646 0 -0.00044689473254916616 -0.037339765990773842 0 0.0001794465355675044 -0.036548447453036252 0 -0.00023978404522067887 -0.037483883710025048 0 -0.00011241968450975087 -0.038626099693552407 0 0.00037889434929106521 -0.038763454455231827 0 -0.00023978404522067887 -0.037483883710025048 0 -0.001323571340622856 -0.038235212410548405 0 -0.00011241968450975087 -0.038626099693552407 0 -0.0016900628468026599 -0.037240804614885221 0 -0.00023978404522067887 -0.037483883710025048 0 -0.001323571340622856 -0.038235212410548405 0 -0.001323571340622856 -0.038235212410548405 0 -0.00011241968450975087 -0.038626099693552407 0 -0.0017599536100439625 -0.039162267094108229 0 -0.00012169399770690239 -0.03872186597984751 0 -0.00089072144610532534 -0.039237017601771479 0 3.846077343842948e-05 -0.039355485049627263 0 -0.00011241968450975087 -0.038626099693552407 0 -6.9159243639574613e-05 -0.039342665774517151 0 3.846077343842948e-05 -0.039355485049627263 0 -0.00011241968450975087 -0.038626099693552407 0 0.00023929918923677347 -0.039241870159137472 0 0.00023929918923677347 -0.039241870159137472 0 0.00037889434929106521 -0.038763454455231827 0 0.00048735791908376141 -0.039193888803753553 0 -0.00011241968450975087 -0.038626099693552407 0 0.00023929918923677347 -0.039241870159137472 0 0.00037889434929106521 -0.038763454455231827 0 -0.0014340355031440791 -0.040143568983591178 0 -0.0019061633836608253 -0.039896662388539797 0 -0.0019914302621815297 -0.039186236549523107 0 -0.0016900628468026599 -0.037240804614885221 0 -0.001323571340622856 -0.038235212410548405 0 -0.0019914302621815297 -0.039186236549523107 0 -0.001323571340622856 -0.038235212410548405 0 -0.0019914302621815297 -0.039186236549523107 0 -0.0017599536100439625 -0.039162267094108229 0 3.846077343842948e-05 -0.039355485049627263 0 -6.9159243639574613e-05 -0.039342665774517151 0 2.7369687857095791e-05 -0.039824708876053938 0 -0.00068002213874797423 -0.039512491825216677 0 -6.9159243639574613e-05 -0.039342665774517151 0 2.7369687857095791e-05 -0.039824708876053938 0 -0.0019114827020680382 -0.039349292779354297 0 -0.0014340355031440791 -0.040143568983591178 0 -0.0019914302621815297 -0.039186236549523107 0 -0.0013222277329741354 -0.039104099265140517 0 -0.00089072144610532534 -0.039237017601771479 0 -0.0019114827020680382 -0.039349292779354297 0 -0.0019914302621815297 -0.039186236549523107 0 -0.0017599536100439625 -0.039162267094108229 0 -0.00068002213874797423 -0.039512491825216677 0 2.7369687857095791e-05 -0.039824708876053938 0 -9.8035007880564019e-05 -0.040663261687523156 0 -0.00068002213874797423 -0.039512491825216677 0 -9.8035007880564019e-05 -0.040663261687523156 0 -0.0010184505778625672 -0.040447729370647827 0 2.7369687857095791e-05 -0.039824708876053938 0 -9.8035007880564019e-05 -0.040663261687523156 0 0.00037288706940142262 -0.040236072436142939 0 -9.8035007880564019e-05 -0.040663261687523156 0 0.00037288706940142262 -0.040236072436142939 0 0.00059758866886389648 -0.040735396175490296 0 0.00023929918923677347 -0.039241870159137472 0 0.00038691735295971541 -0.039562073207958175 0 0.00048735791908376141 -0.039193888803753553 0 0.00023929918923677347 -0.039241870159137472 0 0.00038691735295971541 -0.039562073207958175 0 0.00024896813238246547 -0.039737442160659185 0 0.00038691735295971541 -0.039562073207958175 0 0.00024896813238246547 -0.039737442160659185 0 0.00045357063781487756 -0.039930742298694422 0 2.7369687857095791e-05 -0.039824708876053938 0 0.00024896813238246547 -0.039737442160659185 0 0.00037288706940142262 -0.040236072436142939 0 3.846077343842948e-05 -0.039355485049627263 0 2.7369687857095791e-05 -0.039824708876053938 0 0.00024896813238246547 -0.039737442160659185 0 3.846077343842948e-05 -0.039355485049627263 0 0.00023929918923677347 -0.039241870159137472 0 0.00024896813238246547 -0.039737442160659185 0 0.00037288706940142262 -0.040236072436142939 0 0.00045357063781487756 -0.039930742298694422 0 0.00057901831926010538 -0.040289749247694913 0 0.00024896813238246547 -0.039737442160659185 0 0.00037288706940142262 -0.040236072436142939 0 0.00045357063781487756 -0.039930742298694422 0 0.00038691735295971541 -0.039562073207958175 0 0.00045357063781487756 -0.039930742298694422 0 0.00047965349718409963 -0.039633982368311033 0 0.00045357063781487756 -0.039930742298694422 0 0.00052837398970655613 -0.039897992900961868 0 0.00047965349718409963 -0.039633982368311033 0 0.00057901831926010538 -0.040289749247694913 0 0.00052837398970655613 -0.039897992900961868 0 0.00055078808812656374 -0.039854478569372499 0 0.00057901831926010538 -0.040289749247694913 0 0.00061842699985444234 -0.040101591645948863 0 0.00055078808812656374 -0.039854478569372499 0 0.00045357063781487756 -0.039930742298694422 0 0.00057901831926010538 -0.040289749247694913 0 0.00052837398970655613 -0.039897992900961868 0 0.00037288706940142262 -0.040236072436142939 0 0.00057901831926010538 -0.040289749247694913 0 0.00059758866886389648 -0.040735396175490296 0 0.00057901831926010538 -0.040289749247694913 0 0.00059758866886389648 -0.040735396175490296 0 0.00065539611190097865 -0.040370100945141527 0 0.00059758866886389648 -0.040735396175490296 0 0.00065539611190097865 -0.040370100945141527 0 0.00083942937455452795 -0.040759910411626674 0 0.00065539611190097865 -0.040370100945141527 0 0.00083942937455452795 -0.040759910411626674 0 0.00072350978107332288 -0.040506384389998942 0 0.00057901831926010538 -0.040289749247694913 0 0.00065539611190097865 -0.040370100945141527 0 0.00061842699985444234 -0.040101591645948863 0 0.00065539611190097865 -0.040370100945141527 0 0.00061842699985444234 -0.040101591645948863 0 0.00067819494704678249 -0.039931988688333808 0 0.00061842699985444234 -0.040101591645948863 0 0.00059453707206941523 -0.039803607009703292 0 0.00067819494704678249 -0.039931988688333808 0 0.00061842699985444234 -0.040101591645948863 0 0.00055078808812656374 -0.039854478569372499 0 0.00059453707206941523 -0.039803607009703292 0 -9.8035007880564019e-05 -0.040663261687523156 0 6.3803699674693011e-06 -0.042244891511349324 0 -0.00072494372589914302 -0.041985671640656759 0 0.00061639030734606025 -0.040907816935484634 0 0.00048372306050610889 -0.041629789163409356 0 -9.8035007880564019e-05 -0.040663261687523156 0 0.00059758866886389648 -0.040735396175490296 0 6.3803699674693011e-06 -0.042244891511349324 0 0.00083942937455452795 -0.040759910411626674 0 0.0010595835463408864 -0.041026347731557868 0 0.001140324001143605 -0.041260632386919113 0 0.00059758866886389648 -0.040735396175490296 0 0.00083942937455452795 -0.040759910411626674 0 0.0010595835463408864 -0.041026347731557868 0 0.0010595835463408864 -0.041026347731557868 0 0.0008647309262382124 -0.041636447363228656 0 0.001140324001143605 -0.041260632386919113 0 0.00048372306050610889 -0.041629789163409356 0 8.3130822529111047e-07 -0.042648346831823246 0 -0.00086473987029650424 -0.043658215975064418 0 -0.00072494372589914302 -0.041985671640656759 0 -0.0011918592653061752 -0.043557590123779293 0 6.3803699674693011e-06 -0.042244891511349324 0 -0.00086473987029650424 -0.043658215975064418 0 -0.00072494372589914302 -0.041985671640656759 0 -0.00072494372589914302 -0.041985671640656759 0 -0.0011918592653061752 -0.043557590123779293 0 -0.0018448943554493222 -0.041115413859646247 0 -0.0011918592653061752 -0.043557590123779293 0 -0.00047353932300302139 -0.044535500697292077 0 -0.00092626526957305313 -0.044919828735164487 0 -0.0012169265919695839 -0.043449212128307539 0 -0.001442375853145054 -0.043097643044205283 0 -0.00086473987029650424 -0.043658215975064418 0 -0.0011918592653061752 -0.043557590123779293 0 -0.00072122774625490971 -0.044191177805020125 0 -0.0011918592653061752 -0.043557590123779293 0 -0.00041548413048209576 -0.044440618379089282 0 -0.00072122774625490971 -0.044191177805020125 0 -0.0011918592653061752 -0.043557590123779293 0 -0.00041548413048209576 -0.044440618379089282 0 -0.00047353932300302139 -0.044535500697292077 0 -0.00041548413048209576 -0.044440618379089282 0 -1.155255358068603e-07 -0.044999401172853261 0 -3.5281747051770075e-07 -0.044998982078454874 0 -0.00041548413048209576 -0.044440618379089282 0 -1.155255358068603e-07 -0.044999401172853261 0 -0.00047353932300302139 -0.044535500697292077 0 -1.155255358068603e-07 -0.044999401172853261 0 -0.00047353932300302139 -0.044535500697292077 0 -0.00028689112813981072 -0.044938619866822155 0 -0.00047353932300302139 -0.044535500697292077 0 -0.00028689112813981072 -0.044938619866822155 0 -0.00092626526957305313 -0.044919828735164487 0 -0.00028689112813981072 -0.044938619866822155 0 -0.00034567801315695614 -0.045269318740431684 0 -0.00092626526957305313 -0.044919828735164487 0 -1.155255358068603e-07 -0.044999401172853261 0 -0.00028689112813981072 -0.044938619866822155 0 -1.357008734692932e-07 -0.045000767416515042 0 -0.00028689112813981072 -0.044938619866822155 0 -1.357008734692932e-07 -0.045000767416515042 0 -0.00034567801315695614 -0.045269318740431684 0 -1.9350744848823347e-07 -0.044999999435384866 0 -0.00018105656487635516 -0.045110128109265429 0 -0.00011767548263801437 -0.044435310467548873 0 -2.1942931426177519e-07 -0.045000171555001647 0 -8.5580708718488956e-05 -0.044721398267110316 0 -0.00050806396392148625 -0.042112644229252177 0 -0.00018105656487635516 -0.045110128109265429 0 -0.001860487330687479 -0.039701771324268657 0 -0.0010184505778625672 -0.040447729370647827 0 -0.0018448943554493222 -0.041115413859646247 0 -0.00079708828497903727 -0.045363191031366143 0 -0.00034567801315695614 -0.045269318740431684 0 -0.00092626526957305313 -0.044919828735164487 0 -0.00050806396392148625 -0.042112644229252177 0 -0.001442375853145054 -0.043097643044205283 0 -0.00068002213874797423 -0.039512491825216677 0 -0.001860487330687479 -0.039701771324268657 0 -0.0010184505778625672 -0.040447729370647827 0 -9.8035007880564019e-05 -0.040663261687523156 0 -0.00072494372589914302 -0.041985671640656759 0 -0.0010184505778625672 -0.040447729370647827 0 -0.00072494372589914302 -0.041985671640656759 0 -0.0010184505778625672 -0.040447729370647827 0 -0.0018448943554493222 -0.041115413859646247 0 8.1089124894724604e-05 -0.026097287908317956 0 -4.2381849837201078e-07 -0.029919141690023535 0 2.1431937265447239e-06 -0.022265919257084602 0 0.0026403858052160651 -0.025670443323001398 0 0.0028635432989930019 -0.025923589258321868 0 0.0024198528164394969 -0.025915462130093599 0 0.00024093468120783704 -0.026218664344630674 0 -0.00047673871152243395 -0.025516883353527201 0 -0.0013849896048316419 -0.0261838029488634 0 0.00024093468120783704 -0.026218664344630674 0 -0.0013849896048316419 -0.0261838029488634 0 -0.0013053667285163773 -0.027605824848180471 0 0.0013717294354254124 -0.026384221094339126 0 -0.0011521896714413212 -0.027374783575488851 0 -0.00047673871152243395 -0.025516883353527201 0 -0.00026806836383599318 -0.024855607724773437 0 -0.0010953095678659737 -0.024902220913192562 0 -0.00047673871152243395 -0.025516883353527201 0 0.00022792349164795352 -0.02538375602060813 0 -0.00026806836383599318 -0.024855607724773437 0 0.00024093468120783704 -0.026218664344630674 0 0.00022792349164795352 -0.02538375602060813 0 0.0012359287017352284 -0.025610376047264922 0 0.00024093468120783704 -0.026218664344630674 0 -0.00047673871152243395 -0.025516883353527201 0 0.00022792349164795352 -0.02538375602060813 0 -0.00011343227120255065 -0.024537358820057451 0 8.1089124894724604e-05 -0.026097287908317956 0 2.1431937265447239e-06 -0.022265919257084602 0 0.00022792349164795352 -0.02538375602060813 0 -0.00011343227120255065 -0.024537358820057451 0 -0.00026806836383599318 -0.024855607724773437 0 0.00022792349164795352 -0.02538375602060813 0 -0.00011343227120255065 -0.024537358820057451 0 0.00096711272490304341 -0.024530783068118314 0 -0.00011343227120255065 -0.024537358820057451 0 2.1431937265447239e-06 -0.022265919257084602 0 0.00096711272490304341 -0.024530783068118314 0 -0.00011343227120255065 -0.024537358820057451 0 -0.00026806836383599318 -0.024855607724773437 0 8.1089124894724604e-05 -0.026097287908317956 0 -0.00026806836383599318 -0.024855607724773437 0 0.00036581865712164352 -0.024932920596723529 0 8.1089124894724604e-05 -0.026097287908317956 0 -0.00031922976962240018 -0.025342464314157282 0 0.0003412716753537583 -0.029848965206594948 0 0.0003412716753537583 -0.029848965206594948 0 0.00024528646452513737 -0.025016990521400103 0 8.1089124894724604e-05 -0.026097287908317956 0 -3.1970656256811975e-05 -0.028189058808475883 0 -4.2381849837201078e-07 -0.029919141690023535 0 0.00055368416117696547 -0.028207996576916163 0 8.1089124894724604e-05 -0.026097287908317956 0 -3.1970656256811975e-05 -0.028189058808475883 0 0.00055368416117696547 -0.028207996576916163 0 -3.1970656256811975e-05 -0.028189058808475883 0 -6.6091098823386772e-05 -0.02933432241842818 0 0.0003412716753537583 -0.029848965206594948 0 -0.00034380846705068824 -0.03492855417786718 0 -0.00024965225719205525 -0.039484094346547538 0 -0.00047710633608198622 -0.039325455968373287 0 -0.00034529993521291614 -0.039279522574701485 0 -0.00056541396107141143 -0.039407968257597077 0 -0.00024965225719205525 -0.039484094346547538 0 -0.00047710633608198622 -0.039325455968373287 0 0.0003412716753537583 -0.029848965206594948 0 -0.0011855458290167321 -0.033257440565531746 0 -0.00047673871152243395 -0.025516883353527201 0 -0.0010953095678659737 -0.024902220913192562 0 -0.0013849896048316419 -0.0261838029488634 0 -0.00056541396107141143 -0.039407968257597077 0 -0.00047710633608198622 -0.039325455968373287 0 -0.00060939954066549528 -0.039222139650554329 0 -0.00047710633608198622 -0.039325455968373287 0 -0.00060939954066549528 -0.039222139650554329 0 -0.00048934630933228417 -0.039241778352992293 0 -0.00060939954066549528 -0.039222139650554329 0 -0.00048934630933228417 -0.039241778352992293 0 -0.00051641895853757932 -0.039151238304949668 0 -0.00048934630933228417 -0.039241778352992293 0 -0.00034529993521291614 -0.039279522574701485 0 -0.00051641895853757932 -0.039151238304949668 0 -0.00034529993521291614 -0.039279522574701485 0 -0.00012304911095194188 -0.039187620775258392 0 -0.00051641895853757932 -0.039151238304949668 0 -0.00047710633608198622 -0.039325455968373287 0 -0.00048934630933228417 -0.039241778352992293 0 -0.00034529993521291614 -0.039279522574701485 0 -2.9513939026658504e-06 -0.034861336764517595 0 1.8338092437735247e-07 -0.036196532284499816 0 -4.2381849837201078e-07 -0.029919141690023535 0 -0.00034529993521291614 -0.039279522574701485 0 -5.1505449347957541e-05 -0.039301439810348157 0 -0.00012304911095194188 -0.039187620775258392 0 -5.1505449347957541e-05 -0.039301439810348157 0 0.00018475550823238734 -0.039231096485781172 0 -0.00012304911095194188 -0.039187620775258392 0 0.00018475550823238734 -0.039231096485781172 0 0.00024089562535578485 -0.039362171334884274 0 0.00044666557265250284 -0.039184204804587827 0 -5.1505449347957541e-05 -0.039301439810348157 0 0.00018475550823238734 -0.039231096485781172 0 0.00024089562535578485 -0.039362171334884274 0 -0.00024965225719205525 -0.039484094346547538 0 -0.00034529993521291614 -0.039279522574701485 0 -5.1505449347957541e-05 -0.039301439810348157 0 -0.00034380846705068824 -0.03492855417786718 0 6.4758298990796835e-05 -0.035399275804743079 0 -0.00024965225719205525 -0.039484094346547538 0 -5.1505449347957541e-05 -0.039301439810348157 0 0.00024089562535578485 -0.039362171334884274 0 -3.1970656256811975e-05 -0.028189058808475883 0 -6.6091098823386772e-05 -0.02933432241842818 0 -4.2381849837201078e-07 -0.029919141690023535 0 -6.6091098823386772e-05 -0.02933432241842818 0 6.2391710499306666e-05 -0.031531463885399423 0 -4.2381849837201078e-07 -0.029919141690023535 0 6.2391710499306666e-05 -0.031531463885399423 0 -4.2381849837201078e-07 -0.029919141690023535 0 0.00019425867689833187 -0.034115260183257105 0 -2.9513939026658504e-06 -0.034861336764517595 0 -4.2381849837201078e-07 -0.029919141690023535 0 0.00019425867689833187 -0.034115260183257105 0 0.00024089562535578485 -0.039362171334884274 0 0.000622671467425074 -0.038921345956682646 0 0.00044666557265250284 -0.039184204804587827 0 6.4758298990796835e-05 -0.035399275804743079 0 0.0001794465355675044 -0.036548447453036252 0 0.00037889434929106521 -0.038763454455231827 0 0.000622671467425074 -0.038921345956682646 0 0.00048735791908376141 -0.039193888803753553 0 0.000622671467425074 -0.038921345956682646 0 0.00044666557265250284 -0.039184204804587827 0 0.00048735791908376141 -0.039193888803753553 0 0.00044666557265250284 -0.039184204804587827 0 0.00048735791908376141 -0.039193888803753553 0 0.00044541931206660228 -0.03939985102195398 0 0.00048735791908376141 -0.039193888803753553 0 0.00044541931206660228 -0.03939985102195398 0 0.00047965349718409963 -0.039633982368311033 0 0.00038691735295971541 -0.039562073207958175 0 0.00048735791908376141 -0.039193888803753553 0 0.00047965349718409963 -0.039633982368311033 0 0.00044666557265250284 -0.039184204804587827 0 0.00033264665673866104 -0.039276303851133426 0 0.00044541931206660228 -0.03939985102195398 0 0.00018475550823238734 -0.039231096485781172 0 0.00044666557265250284 -0.039184204804587827 0 0.00033264665673866104 -0.039276303851133426 0 0.00044541931206660228 -0.03939985102195398 0 0.00025364093397350267 -0.039268376545804146 0 0.00038975736128252106 -0.039442176766874684 0 0.00033264665673866104 -0.039276303851133426 0 0.00044541931206660228 -0.03939985102195398 0 0.00025364093397350267 -0.039268376545804146 0 0.00025364093397350267 -0.039268376545804146 0 0.00038975736128252106 -0.039442176766874684 0 0.0002718869960755101 -0.039301961501880159 0 0.00038975736128252106 -0.039442176766874684 0 0.00047965349718409963 -0.039633982368311033 0 0.0004704683444116209 -0.039659227986198614 0 0.00044541931206660228 -0.03939985102195398 0 0.00038975736128252106 -0.039442176766874684 0 0.00047965349718409963 -0.039633982368311033 0 0.00052837398970655613 -0.039897992900961868 0 0.00047965349718409963 -0.039633982368311033 0 0.0004704683444116209 -0.039659227986198614 0 0.00052837398970655613 -0.039897992900961868 0 0.0004704683444116209 -0.039659227986198614 0 0.00055078808812656374 -0.039854478569372499 0 0.00038975736128252106 -0.039442176766874684 0 0.0004704683444116209 -0.039659227986198614 0 0.00036503277385666332 -0.039447440371835264 0 0.0004704683444116209 -0.039659227986198614 0 0.00044970588672709193 -0.039587741884503265 0 0.00036503277385666332 -0.039447440371835264 0 0.0004704683444116209 -0.039659227986198614 0 0.00044970588672709193 -0.039587741884503265 0 0.00055078808812656374 -0.039854478569372499 0 0.00044970588672709193 -0.039587741884503265 0 0.00055078808812656374 -0.039854478569372499 0 0.00049010537668642241 -0.039590303791755446 0 0.00055078808812656374 -0.039854478569372499 0 0.00049010537668642241 -0.039590303791755446 0 0.00059453707206941523 -0.039803607009703292 0 0.00044970588672709193 -0.039587741884503265 0 0.00049010537668642241 -0.039590303791755446 0 0.00033132900730904828 -0.039360885251281272 0 0.00049010537668642241 -0.039590303791755446 0 0.00035236256699919298 -0.039301524115224848 0 0.00033132900730904828 -0.039360885251281272 0 0.00049010537668642241 -0.039590303791755446 0 0.00035236256699919298 -0.039301524115224848 0 0.00059221372951871298 -0.039602760717252682 0 0.00059453707206941523 -0.039803607009703292 0 0.00059221372951871298 -0.039602760717252682 0 0.00067819494704678249 -0.039931988688333808 0 0.00049010537668642241 -0.039590303791755446 0 0.00059453707206941523 -0.039803607009703292 0 0.00059221372951871298 -0.039602760717252682 0 0.00010125331163022117 -0.039021800460459638 0 0.00035236256699919298 -0.039301524115224848 0 0.00033132900730904828 -0.039360885251281272 0 0.00010125331163022117 -0.039021800460459638 0 0.0002414379920525317 -0.039260055066813682 0 5.5638422952115529e-05 -0.039013404148956439 0 0.00010125331163022117 -0.039021800460459638 0 0.00033132900730904828 -0.039360885251281272 0 0.0002414379920525317 -0.039260055066813682 0 0.0002414379920525317 -0.039260055066813682 0 0.00036503277385666332 -0.039447440371835264 0 0.0002718869960755101 -0.039301961501880159 0 0.00044970588672709193 -0.039587741884503265 0 0.00033132900730904828 -0.039360885251281272 0 0.00036503277385666332 -0.039447440371835264 0 0.00033132900730904828 -0.039360885251281272 0 0.0002414379920525317 -0.039260055066813682 0 0.00036503277385666332 -0.039447440371835264 0 0.00038975736128252106 -0.039442176766874684 0 0.00036503277385666332 -0.039447440371835264 0 0.0002718869960755101 -0.039301961501880159 0 0.0002414379920525317 -0.039260055066813682 0 0.0002718869960755101 -0.039301961501880159 0 6.8028965586103011e-05 -0.039068202638496162 0 0.00025364093397350267 -0.039268376545804146 0 0.0002718869960755101 -0.039301961501880159 0 6.8028965586103011e-05 -0.039068202638496162 0 6.8028965586103011e-05 -0.039068202638496162 0 -0.00013908768934937782 -0.038786137241158522 0 -0.00023840821588527281 -0.038740794959619795 0 6.8028965586103011e-05 -0.039068202638496162 0 5.5638422952115529e-05 -0.039013404148956439 0 -0.00013908768934937782 -0.038786137241158522 0 0.0002414379920525317 -0.039260055066813682 0 6.8028965586103011e-05 -0.039068202638496162 0 5.5638422952115529e-05 -0.039013404148956439 0 5.5638422952115529e-05 -0.039013404148956439 0 -0.00013908768934937782 -0.038786137241158522 0 -0.00015419680204388123 -0.038715647755490447 0 -0.00013908768934937782 -0.038786137241158522 0 -0.00015419680204388123 -0.038715647755490447 0 -0.00037346774264755033 -0.038493629451878564 0 0.00010125331163022117 -0.039021800460459638 0 5.5638422952115529e-05 -0.039013404148956439 0 -0.00015419680204388123 -0.038715647755490447 0 -0.00037346774264755033 -0.038493629451878564 0 -0.00064324907642869631 -0.038215319100417783 0 -0.00059545533467661102 -0.038204544211822615 0 -0.00037346774264755033 -0.038493629451878564 0 -0.00041574103386696822 -0.038368109676357037 0 -0.00059545533467661102 -0.038204544211822615 0 -0.00015419680204388123 -0.038715647755490447 0 -0.00037346774264755033 -0.038493629451878564 0 -0.00041574103386696822 -0.038368109676357037 0 -0.00013908768934937782 -0.038786137241158522 0 -0.00037346774264755033 -0.038493629451878564 0 -0.00023840821588527281 -0.038740794959619795 0 -0.00037346774264755033 -0.038493629451878564 0 -0.00046755543882481029 -0.038468953560282258 0 -0.00064324907642869631 -0.038215319100417783 0 -0.00037346774264755033 -0.038493629451878564 0 -0.00046755543882481029 -0.038468953560282258 0 -0.00023840821588527281 -0.038740794959619795 0 -0.00046755543882481029 -0.038468953560282258 0 -0.00023840821588527281 -0.038740794959619795 0 -0.00047288949351327196 -0.038567272378795737 0 6.8028965586103011e-05 -0.039068202638496162 0 -0.00023840821588527281 -0.038740794959619795 0 -0.0002080929015189396 -0.038900371613105125 0 -0.00023840821588527281 -0.038740794959619795 0 -0.0002080929015189396 -0.038900371613105125 0 -0.00047288949351327196 -0.038567272378795737 0 -0.0002080929015189396 -0.038900371613105125 0 -0.00010874681542564783 -0.039087472381037387 0 -0.00036482519373515362 -0.039009706459820603 0 -0.0002080929015189396 -0.038900371613105125 0 -0.00010874681542564783 -0.039087472381037387 0 9.099678674434176e-05 -0.039157047134334835 0 6.8028965586103011e-05 -0.039068202638496162 0 -0.0002080929015189396 -0.038900371613105125 0 9.099678674434176e-05 -0.039157047134334835 0 0.00025364093397350267 -0.039268376545804146 0 6.8028965586103011e-05 -0.039068202638496162 0 9.099678674434176e-05 -0.039157047134334835 0 0.00033264665673866104 -0.039276303851133426 0 0.00025364093397350267 -0.039268376545804146 0 9.099678674434176e-05 -0.039157047134334835 0 -0.00010874681542564783 -0.039087472381037387 0 9.099678674434176e-05 -0.039157047134334835 0 0.00010407814930443183 -0.039204021181586966 0 0.00018475550823238734 -0.039231096485781172 0 0.00010407814930443183 -0.039204021181586966 0 -0.00012304911095194188 -0.039187620775258392 0 0.00033264665673866104 -0.039276303851133426 0 9.099678674434176e-05 -0.039157047134334835 0 0.00010407814930443183 -0.039204021181586966 0 0.00018475550823238734 -0.039231096485781172 0 0.00033264665673866104 -0.039276303851133426 0 0.00010407814930443183 -0.039204021181586966 0 -0.00010874681542564783 -0.039087472381037387 0 -0.00012304911095194188 -0.039187620775258392 0 -0.00036482519373515362 -0.039009706459820603 0 -0.00010874681542564783 -0.039087472381037387 0 0.00010407814930443183 -0.039204021181586966 0 -0.00012304911095194188 -0.039187620775258392 0 -0.00051641895853757932 -0.039151238304949668 0 -0.00063876549317951222 -0.038910896738694759 0 -0.00036482519373515362 -0.039009706459820603 0 -0.00012304911095194188 -0.039187620775258392 0 -0.00051641895853757932 -0.039151238304949668 0 -0.00036482519373515362 -0.039009706459820603 0 -0.0011855458290167321 -0.033257440565531746 0 -0.0014445057170736372 -0.034432869280186379 0 -0.0013849896048316419 -0.0261838029488634 0 -0.0013053667285163773 -0.027605824848180471 0 -0.0021674241929192225 -0.03001425323235718 0 -0.00060939954066549528 -0.039222139650554329 0 -0.00051641895853757932 -0.039151238304949668 0 -0.00092460912866243017 -0.038992427880508503 0 -0.00051641895853757932 -0.039151238304949668 0 -0.00092460912866243017 -0.038992427880508503 0 -0.00063876549317951222 -0.038910896738694759 0 -0.0013053667285163773 -0.027605824848180471 0 -0.0021674241929192225 -0.03001425323235718 0 0.00025406029317737318 -0.028015064679479899 0 -0.0021674241929192225 -0.03001425323235718 0 -0.00084415474704363448 -0.033907300410937813 0 -4.745976957257817e-05 -0.031178363967841346 0 -0.00092460912866243017 -0.038992427880508503 0 -0.00063876549317951222 -0.038910896738694759 0 -0.00086591350042954194 -0.038442358121020551 0 -0.00063876549317951222 -0.038910896738694759 0 -0.00055657245897328155 -0.03868586089011837 0 -0.00086591350042954194 -0.038442358121020551 0 -0.0002080929015189396 -0.038900371613105125 0 -0.00036482519373515362 -0.039009706459820603 0 -0.00055657245897328155 -0.03868586089011837 0 -0.00063876549317951222 -0.038910896738694759 0 -0.00036482519373515362 -0.039009706459820603 0 -0.00055657245897328155 -0.03868586089011837 0 -0.00055657245897328155 -0.03868586089011837 0 -0.00081436625890509936 -0.038282926786443933 0 -0.00047288949351327196 -0.038567272378795737 0 -0.0002080929015189396 -0.038900371613105125 0 -0.00055657245897328155 -0.03868586089011837 0 -0.00047288949351327196 -0.038567272378795737 0 -0.00055657245897328155 -0.03868586089011837 0 -0.00081436625890509936 -0.038282926786443933 0 -0.00086591350042954194 -0.038442358121020551 0 -0.00081436625890509936 -0.038282926786443933 0 -0.0010407282634324173 -0.038075127810689273 0 -0.00086591350042954194 -0.038442358121020551 0 -0.00081436625890509936 -0.038282926786443933 0 -0.00069816133509665896 -0.038262655523512573 0 -0.0011044156291592413 -0.037936231606874676 0 -0.00081436625890509936 -0.038282926786443933 0 -0.0011044156291592413 -0.037936231606874676 0 -0.0010407282634324173 -0.038075127810689273 0 -0.00046755543882481029 -0.038468953560282258 0 -0.00047288949351327196 -0.038567272378795737 0 -0.00069816133509665896 -0.038262655523512573 0 -0.00081436625890509936 -0.038282926786443933 0 -0.00047288949351327196 -0.038567272378795737 0 -0.00069816133509665896 -0.038262655523512573 0 -0.00069816133509665896 -0.038262655523512573 0 -0.00087593568696165108 -0.038007384048181214 0 -0.00064324907642869631 -0.038215319100417783 0 -0.00046755543882481029 -0.038468953560282258 0 -0.00069816133509665896 -0.038262655523512573 0 -0.00064324907642869631 -0.038215319100417783 0 -0.00087593568696165108 -0.038007384048181214 0 -0.0011044156291592413 -0.037936231606874676 0 -0.001000022324150325 -0.037706665908197795 0 -0.00069816133509665896 -0.038262655523512573 0 -0.00087593568696165108 -0.038007384048181214 0 -0.0011044156291592413 -0.037936231606874676 0 -0.00087593568696165108 -0.038007384048181214 0 -0.00075902892846721763 -0.038019280284346806 0 -0.001000022324150325 -0.037706665908197795 0 -0.00075902892846721763 -0.038019280284346806 0 -0.00064324907642869631 -0.038215319100417783 0 -0.00059545533467661102 -0.038204544211822615 0 -0.00087593568696165108 -0.038007384048181214 0 -0.00075902892846721763 -0.038019280284346806 0 -0.00064324907642869631 -0.038215319100417783 0 1.2408616176751955e-05 -0.033699905574425253 0 0.0011640534725017393 -0.034850062890119826 0 -0.001000022324150325 -0.037706665908197795 0 -0.00040094437139338011 -0.035623808713238649 0 -0.0010158365087638821 -0.037532118123530293 0 -0.0011044156291592413 -0.037936231606874676 0 -0.00095728784982725666 -0.037825887142856486 0 -0.001000022324150325 -0.037706665908197795 0 -0.0014445057170736372 -0.034432869280186379 0 -0.0014376564922215262 -0.037505998322239775 0 -0.0021674241929192225 -0.03001425323235718 0 -0.0013693697187073628 -0.037754710512251884 0 -0.00084415474704363448 -0.033907300410937813 0 -0.00092460912866243017 -0.038992427880508503 0 -0.0013693697187073628 -0.037754710512251884 0 -0.00086591350042954194 -0.038442358121020551 0 -0.00095728784982725666 -0.037825887142856486 0 -0.0013693697187073628 -0.037754710512251884 0 -0.00084415474704363448 -0.033907300410937813 0 -0.0011044156291592413 -0.037936231606874676 0 -0.00095728784982725666 -0.037825887142856486 0 -0.0013693697187073628 -0.037754710512251884 0 -0.0013693697187073628 -0.037754710512251884 0 -0.0010407282634324173 -0.038075127810689273 0 -0.00086591350042954194 -0.038442358121020551 0 -0.0011044156291592413 -0.037936231606874676 0 -0.0013693697187073628 -0.037754710512251884 0 -0.0010407282634324173 -0.038075127810689273 0 0.0016564069047906222 -0.023547512587382653 0 0.0019306151776109963 -0.023569955664650841 0 0.0022654265908513428 -0.023598583587210877 0 1.2408616176751955e-05 -0.033699905574425253 0 0.0015852629506281403 -0.031663689268238406 0 0.0020688296073360971 -0.028611538213482168 0 -0.00095728784982725666 -0.037825887142856486 0 -0.00084415474704363448 -0.033907300410937813 0 0.0022212362568669454 -0.031300312295542844 0 0.0013825315273530432 -0.029204972440308438 0 0.0025641182196753467 -0.026670007168178262 0 0.0015852629506281403 -0.031663689268238406 0 0.0011640534725017393 -0.034850062890119826 0 0.0030951523816229471 -0.029474052103394686 0 -0.00040094437139338011 -0.035623808713238649 0 0.0020244625256519463 -0.029986372422324954 0 1.2408616176751955e-05 -0.033699905574425253 0 0.0015852629506281403 -0.031663689268238406 0 0.0011640534725017393 -0.034850062890119826 0 0.0016564069047906222 -0.023547512587382653 0 0.0018133668963051187 -0.02362358587212441 0 0.0019306151776109963 -0.023569955664650841 0 0.0016564069047906222 -0.023547512587382653 0 0.0018133668963051187 -0.02362358587212441 0 0.0016635562351296114 -0.023712633049362265 0 0.0018133668963051187 -0.02362358587212441 0 0.0016635562351296114 -0.023712633049362265 0 0.0017513694513697801 -0.023748157470964388 0 0.0018133668963051187 -0.02362358587212441 0 0.0018422313107957747 -0.023705239250893847 0 0.0017513694513697801 -0.023748157470964388 0 0.0016564069047906222 -0.023547512587382653 0 0.0016635562351296114 -0.023712633049362265 0 0.0014302559404443273 -0.023851797730890856 0 0.0018940189863009009 -0.023613551426509536 0 0.0018422313107957747 -0.023705239250893847 0 0.0018878298316820884 -0.023613203866628792 0 0.0018940189863009009 -0.023613551426509536 0 0.0018878298316820884 -0.023613203866628792 0 0.0018345557202476101 -0.023549278798976364 0 0.0018133668963051187 -0.02362358587212441 0 0.0018940189863009009 -0.023613551426509536 0 0.0018422313107957747 -0.023705239250893847 0 0.0018133668963051187 -0.02362358587212441 0 0.0018940189863009009 -0.023613551426509536 0 0.0018932142520226422 -0.023591940159668846 0 0.0018133668963051187 -0.02362358587212441 0 0.0018932142520226422 -0.023591940159668846 0 0.0019306151776109963 -0.023569955664650841 0 0.0018940189863009009 -0.023613551426509536 0 0.0018932142520226422 -0.023591940159668846 0 0.0019422271533714732 -0.023566104344796508 0 0.0018932142520226422 -0.023591940159668846 0 0.0019422271533714732 -0.023566104344796508 0 0.0019306151776109963 -0.023569955664650841 0 0.0018940189863009009 -0.023613551426509536 0 0.0019422271533714732 -0.023566104344796508 0 0.0018345557202476101 -0.023549278798976364 0 0.0019422271533714732 -0.023566104344796508 0 0.0019954154289689454 -0.023603563272537032 0 0.0018302546278105495 -0.023559099972039706 0 0.0019306151776109963 -0.023569955664650841 0 0.0020576757101025459 -0.023588476574915831 0 0.0022654265908513428 -0.023598583587210877 0 0.0019422271533714732 -0.023566104344796508 0 0.0020576757101025459 -0.023588476574915831 0 0.0019954154289689454 -0.023603563272537032 0 0.0019422271533714732 -0.023566104344796508 0 0.0019306151776109963 -0.023569955664650841 0 0.0020576757101025459 -0.023588476574915831 0 0.0020576757101025459 -0.023588476574915831 0 0.0021102602263567464 -0.023635502303259986 0 0.0022654265908513428 -0.023598583587210877 0 0.0019954154289689454 -0.023603563272537032 0 0.0021102602263567464 -0.023635502303259986 0 0.0020849671798980479 -0.023762745341837845 0 0.0020576757101025459 -0.023588476574915831 0 0.0019954154289689454 -0.023603563272537032 0 0.0021102602263567464 -0.023635502303259986 0 0.0020849671798980479 -0.023762745341837845 0 0.0022654265908513428 -0.023598583587210877 0 0.0020595590868554073 -0.024109312546630252 0 0.0030951523816229471 -0.029474052103394686 0 0.0026789866751542185 -0.02732937539326593 0 0.0026672551987957514 -0.025508131000155816 0 0.0021102602263567464 -0.023635502303259986 0 0.0020849671798980479 -0.023762745341837845 0 0.0022654265908513428 -0.023598583587210877 0 0.0022464460289829871 -0.024413093879251058 0 0.0022654265908513428 -0.023598583587210877 0 0.0026672551987957514 -0.025508131000155816 0 0.0025641182196753467 -0.026670007168178262 0 0.0026411129941503928 -0.025735197024725352 0 0.0022464460289829871 -0.024413093879251058 0 0.0022654265908513428 -0.023598583587210877 0 0.0020595590868554073 -0.024109312546630252 0 0.0030951523816229471 -0.029474052103394686 0 0.0020688296073360971 -0.028611538213482168 0 0.0026789866751542185 -0.02732937539326593 0 0.0015852629506281403 -0.031663689268238406 0 0.0030951523816229471 -0.029474052103394686 0 0.0020688296073360971 -0.028611538213482168 0 -0.00084415474704363448 -0.033907300410937813 0 0.0022212362568669454 -0.031300312295542844 0 -4.745976957257817e-05 -0.031178363967841346 0 0.0022212362568669454 -0.031300312295542844 0 -4.745976957257817e-05 -0.031178363967841346 0 0.0004572023172769285 -0.029578959750565011 0 -0.0021674241929192225 -0.03001425323235718 0 -4.745976957257817e-05 -0.031178363967841346 0 0.0004572023172769285 -0.029578959750565011 0 0.0022212362568669454 -0.031300312295542844 0 0.0004572023172769285 -0.029578959750565011 0 0.0019142376432210728 -0.028626312740551666 0 0.0026403858052160651 -0.025670443323001398 0 -0.0013053667285163773 -0.027605824848180471 0 0.00025406029317737318 -0.028015064679479899 0 0.0004572023172769285 -0.029578959750565011 0 0.00025406029317737318 -0.028015064679479899 0 0.0016453919530804071 -0.027650080699102377 0 0.0004572023172769285 -0.029578959750565011 0 0.0019142376432210728 -0.028626312740551666 0 0.0016453919530804071 -0.027650080699102377 0 -0.0021674241929192225 -0.03001425323235718 0 0.0004572023172769285 -0.029578959750565011 0 0.00025406029317737318 -0.028015064679479899 0 0.0026403858052160651 -0.025670443323001398 0 0.00025406029317737318 -0.028015064679479899 0 0.0016453919530804071 -0.027650080699102377 0 0.0020244625256519463 -0.029986372422324954 0 0.0029775078056419667 -0.02631541799816893 0 0.0020688296073360971 -0.028611538213482168 0 0.0028635432989930019 -0.025923589258321868 0 0.0026789866751542185 -0.02732937539326593 0 0.0026403858052160651 -0.025670443323001398 0 0.0016453919530804071 -0.027650080699102377 0 0.0028635432989930019 -0.025923589258321868 0 0.0022212362568669454 -0.031300312295542844 0 0.0019142376432210728 -0.028626312740551666 0 0.0028635432989930019 -0.025923589258321868 0 0.0019142376432210728 -0.028626312740551666 0 0.0016453919530804071 -0.027650080699102377 0 0.0028635432989930019 -0.025923589258321868 0 0.0028635432989930019 -0.025923589258321868 0 0.0026789866751542185 -0.02732937539326593 0 0.0026672551987957514 -0.025508131000155816 0 -0.0022546144934126066 -0.021567880343748812 0 -0.0023849669253784914 -0.021500922183508738 0 -0.0023981371250021669 -0.021413690953124488 0 -0.0023738267251170076 -0.021411036377720669 0 -0.0024228765309631584 -0.02138910063107621 0 -0.0023245508081473874 -0.02146403146409381 0 -0.0023981371250021669 -0.021413690953124488 0 -0.0023738267251170076 -0.021411036377720669 0 -0.0021824213530320688 -0.021679907707505237 0 -0.0021771691141029129 -0.02172576270240054 0 -0.0021979855808046157 -0.021723782660266706 0 -0.0021824213530320688 -0.021679907707505237 0 -0.0021771691141029129 -0.02172576270240054 0 -0.0021609339515683643 -0.021741512711155569 0 -0.0021771691141029129 -0.02172576270240054 0 -0.0021815126855344305 -0.021717595671571999 0 -0.0021759634808897216 -0.021740734028717006 0 -0.0021771691141029129 -0.02172576270240054 0 -0.0021815126855344305 -0.021717595671571999 0 -0.0021979855808046157 -0.021723782660266706 0 -0.0021815126855344305 -0.021717595671571999 0 -0.0021979855808046157 -0.021723782660266706 0 -0.0021468509292088826 -0.021691745806671353 0 -0.0021824213530320688 -0.021679907707505237 0 -0.0021979855808046157 -0.021723782660266706 0 -0.0023378681024983994 -0.021596747516574727 0 -0.0021958810009875276 -0.02171540649041679 0 -0.0021016324373631531 -0.021668433068907124 0 -0.0021979855808046157 -0.021723782660266706 0 -0.0020401760194782279 -0.021697196034954132 0 -0.0018551603250209882 -0.021783003865562336 0 -0.0021979855808046157 -0.021723782660266706 0 -0.0023378681024983994 -0.021596747516574727 0 -0.0024612086545446753 -0.021574345033302942 0 -0.0020401760194782279 -0.021697196034954132 0 -0.0020804559060335183 -0.021661352262780643 0 -0.0018713620891830614 -0.02158448581135446 0 -0.0020804559060335183 -0.021661352262780643 0 -0.0021730761986373912 -0.021641516367876951 0 -0.0018713620891830614 -0.02158448581135446 0 0.00012213731208766287 -0.02323617262527845 0 -0.0004781862224683942 -0.022517420806127012 0 -0.0020401760194782279 -0.021697196034954132 0 -0.0021468509292088826 -0.021691745806671353 0 -0.0020804559060335183 -0.021661352262780643 0 -0.0021979855808046157 -0.021723782660266706 0 -0.0020401760194782279 -0.021697196034954132 0 -0.0021468509292088826 -0.021691745806671353 0 -0.0021468509292088826 -0.021691745806671353 0 -0.0020804559060335183 -0.021661352262780643 0 -0.0021534359475917624 -0.021672263347841173 0 -0.0020804559060335183 -0.021661352262780643 0 -0.0021730761986373912 -0.021641516367876951 0 -0.0021534359475917624 -0.021672263347841173 0 0.0010471762039670478 -0.023578104429977362 0 0.0012813208197327978 -0.023470623262848482 0 0.0012989198908278587 -0.02358052915797014 0 0.00012213731208766287 -0.02323617262527845 0 0.0017864011447821736 -0.023567952116509954 0 0.0018451610013045527 -0.02379870441496322 0 0.0018102285705380095 -0.024154419688404656 0 0.0019065061862291348 -0.023578253477145091 0 0.0018451610013045527 -0.02379870441496322 0 0.0017751258489144433 -0.024012182990380753 0 0.0018102285705380095 -0.024154419688404656 0 0.0018451610013045527 -0.02379870441496322 0 0.0018030840689860878 -0.023822929433243493 0 0.0017751258489144433 -0.024012182990380753 0 0.0018451610013045527 -0.02379870441496322 0 0.0018422313107957747 -0.023705239250893847 0 0.0018878298316820884 -0.023613203866628792 0 0.0018451610013045527 -0.02379870441496322 0 0.0018030840689860878 -0.023822929433243493 0 0.0018422313107957747 -0.023705239250893847 0 0.0018030840689860878 -0.023822929433243493 0 0.0018422313107957747 -0.023705239250893847 0 0.0017513694513697801 -0.023748157470964388 0 0.0018451610013045527 -0.02379870441496322 0 0.0018878298316820884 -0.023613203866628792 0 0.0019065061862291348 -0.023578253477145091 0 0.0016036327948025098 -0.023845156740652528 0 0.0014302559404443273 -0.023851797730890856 0 0.0014488037767713389 -0.023953397199656817 0 0.0016635562351296114 -0.023712633049362265 0 0.0016036327948025098 -0.023845156740652528 0 0.0014302559404443273 -0.023851797730890856 0 0.0016635562351296114 -0.023712633049362265 0 0.0016036327948025098 -0.023845156740652528 0 0.0017513694513697801 -0.023748157470964388 0 0.0018030840689860878 -0.023822929433243493 0 0.0017513694513697801 -0.023748157470964388 0 0.0017015225858108851 -0.02386646941344598 0 0.0016036327948025098 -0.023845156740652528 0 0.0017015225858108851 -0.02386646941344598 0 0.0015748668782722998 -0.023961080202944112 0 0.0016036327948025098 -0.023845156740652528 0 0.0017513694513697801 -0.023748157470964388 0 0.0017015225858108851 -0.02386646941344598 0 0.0017015225858108851 -0.02386646941344598 0 0.0017436978314912578 -0.023932965902176345 0 0.0016748818926367005 -0.024017940448264261 0 0.0017015225858108851 -0.02386646941344598 0 0.0016748818926367005 -0.024017940448264261 0 0.0015748668782722998 -0.023961080202944112 0 0.0018030840689860878 -0.023822929433243493 0 0.0017015225858108851 -0.02386646941344598 0 0.0017436978314912578 -0.023932965902176345 0 0.0018030840689860878 -0.023822929433243493 0 0.0017436978314912578 -0.023932965902176345 0 0.0017751258489144433 -0.024012182990380753 0 0.0017436978314912578 -0.023932965902176345 0 0.0017751258489144433 -0.024012182990380753 0 0.0016748818926367005 -0.024017940448264261 0 0.0017751258489144433 -0.024012182990380753 0 0.0016748818926367005 -0.024017940448264261 0 0.0016863660306901964 -0.02409020417841911 0 0.0016748818926367005 -0.024017940448264261 0 0.0015782648344397584 -0.024113742805346769 0 0.0016863660306901964 -0.02409020417841911 0 0.0016748818926367005 -0.024017940448264261 0 0.0015748668782722998 -0.023961080202944112 0 0.0015782648344397584 -0.024113742805346769 0 0.0014302559404443273 -0.023851797730890856 0 0.0014488037767713389 -0.023953397199656817 0 0.0012849912862083104 -0.024053777461847295 0 0.0015748668782722998 -0.023961080202944112 0 0.0014003385944917686 -0.024122016911785987 0 0.0015782648344397584 -0.024113742805346769 0 0.0016036327948025098 -0.023845156740652528 0 0.0015748668782722998 -0.023961080202944112 0 0.0014488037767713389 -0.023953397199656817 0 0.0015748668782722998 -0.023961080202944112 0 0.0014488037767713389 -0.023953397199656817 0 0.0014003385944917686 -0.024122016911785987 0 0.0014488037767713389 -0.023953397199656817 0 0.0014003385944917686 -0.024122016911785987 0 0.0012849912862083104 -0.024053777461847295 0 -0.0021730761986373912 -0.021641516367876951 0 -0.0021738761025989406 -0.021690288355848929 0 -0.0021759634808897216 -0.021740734028717006 0 0.0014003385944917686 -0.024122016911785987 0 0.0015782648344397584 -0.024113742805346769 0 0.0014275075576862238 -0.02438429732940604 0 0.00012213731208766287 -0.02323617262527845 0 -0.00032866304801001429 -0.0230418381998145 0 0.0014275075576862238 -0.02438429732940604 0 0.0018102285705380095 -0.024154419688404656 0 0.0012520039563620135 -0.0247605676150278 0 0.0015782648344397584 -0.024113742805346769 0 0.0014275075576862238 -0.02438429732940604 0 0.0016398601898539255 -0.024176299550795637 0 0.0014275075576862238 -0.02438429732940604 0 0.0018102285705380095 -0.024154419688404656 0 0.0016398601898539255 -0.024176299550795637 0 0.0017751258489144433 -0.024012182990380753 0 0.0018102285705380095 -0.024154419688404656 0 0.0017755926363924263 -0.024109233430890095 0 0.0017751258489144433 -0.024012182990380753 0 0.0017755926363924263 -0.024109233430890095 0 0.0017305142841424624 -0.024134928427318372 0 0.0017751258489144433 -0.024012182990380753 0 0.0017305142841424624 -0.024134928427318372 0 0.0016863660306901964 -0.02409020417841911 0 0.0018102285705380095 -0.024154419688404656 0 0.0017755926363924263 -0.024109233430890095 0 0.0017305142841424624 -0.024134928427318372 0 0.0018102285705380095 -0.024154419688404656 0 0.0017305142841424624 -0.024134928427318372 0 0.0016398601898539255 -0.024176299550795637 0 0.0017305142841424624 -0.024134928427318372 0 0.0016863660306901964 -0.02409020417841911 0 0.0016398601898539255 -0.024176299550795637 0 0.0015782648344397584 -0.024113742805346769 0 0.0016863660306901964 -0.02409020417841911 0 0.0016398601898539255 -0.024176299550795637 0 -0.0021730761986373912 -0.021641516367876951 0 -0.0021534359475917624 -0.021672263347841173 0 -0.0021738761025989406 -0.021690288355848929 0 -0.0021815126855344305 -0.021717595671571999 0 -0.0021468509292088826 -0.021691745806671353 0 -0.0021738761025989406 -0.021690288355848929 0 -0.0021468509292088826 -0.021691745806671353 0 -0.0021534359475917624 -0.021672263347841173 0 -0.0021738761025989406 -0.021690288355848929 0 -0.0021815126855344305 -0.021717595671571999 0 -0.0021738761025989406 -0.021690288355848929 0 -0.0021759634808897216 -0.021740734028717006 0 0.0014275075576862238 -0.02438429732940604 0 0.0012520039563620135 -0.0247605676150278 0 0.0011759140819492678 -0.024347057446125583 0 0.0012520039563620135 -0.0247605676150278 0 0.00074302491942130516 -0.024784541778472752 0 0.0011759140819492678 -0.024347057446125583 0 0.00074302491942130516 -0.024784541778472752 0 0.0011759140819492678 -0.024347057446125583 0 0.0009613872864523374 -0.024082012605711554 0 0.0011759140819492678 -0.024347057446125583 0 0.0012849912862083104 -0.024053777461847295 0 0.0009613872864523374 -0.024082012605711554 0 0.0014003385944917686 -0.024122016911785987 0 0.0014275075576862238 -0.02438429732940604 0 0.0011759140819492678 -0.024347057446125583 0 0.0014003385944917686 -0.024122016911785987 0 0.0011759140819492678 -0.024347057446125583 0 0.0012849912862083104 -0.024053777461847295 0 0.0011640534725017393 -0.034850062890119826 0 -0.0003798790680659561 -0.038259829285241097 0 -0.001000022324150325 -0.037706665908197795 0 0.0014302559404443273 -0.023851797730890856 0 0.0012849912862083104 -0.024053777461847295 0 0.0009613872864523374 -0.024082012605711554 0 0.0016564069047906222 -0.023547512587382653 0 0.0014302559404443273 -0.023851797730890856 0 0.0009613872864523374 -0.024082012605711554 0 0.0013825315273530432 -0.029204972440308438 0 0.00030922905106594829 -0.031220426915575174 0 -0.00075902892846721763 -0.038019280284346806 0 -0.001000022324150325 -0.037706665908197795 0 -0.00070366700039059332 -0.038069700329296477 0 -0.00075902892846721763 -0.038019280284346806 0 -0.00070366700039059332 -0.038069700329296477 0 -0.00059545533467661102 -0.038204544211822615 0 -0.0003798790680659561 -0.038259829285241097 0 -0.001000022324150325 -0.037706665908197795 0 -0.00074959795093029161 -0.038072999366436981 0 -0.001000022324150325 -0.037706665908197795 0 -0.00074959795093029161 -0.038072999366436981 0 -0.00070366700039059332 -0.038069700329296477 0 -0.00074959795093029161 -0.038072999366436981 0 -0.00070366700039059332 -0.038069700329296477 0 -0.00067647960571450027 -0.038114078299877355 0 0.00074302491942130516 -0.024784541778472752 0 0.0009613872864523374 -0.024082012605711554 0 0.00014440921869545537 -0.025261604328601497 0 -0.0003798790680659561 -0.038259829285241097 0 -0.00067916874293842374 -0.03811928414109781 0 -0.00074110773972464435 -0.038011481502564622 0 -0.00074959795093029161 -0.038072999366436981 0 -0.00067647960571450027 -0.038114078299877355 0 -0.00067916874293842374 -0.03811928414109781 0 0.00030922905106594829 -0.031220426915575174 0 -0.00059306487305742087 -0.031133197433351963 0 -0.00067647960571450027 -0.038114078299877355 0 -0.00067916874293842374 -0.03811928414109781 0 -0.0006354443739219033 -0.038122088702874958 0 -0.0003798790680659561 -0.038259829285241097 0 -0.00074959795093029161 -0.038072999366436981 0 -0.00067916874293842374 -0.03811928414109781 0 -0.00067916874293842374 -0.03811928414109781 0 -0.00059740803760067714 -0.038091540145130019 0 -0.0006354443739219033 -0.038122088702874958 0 -0.00067916874293842374 -0.03811928414109781 0 -0.00074110773972464435 -0.038011481502564622 0 -0.00059740803760067714 -0.038091540145130019 0 -0.00076157569194455494 -0.029033769192830201 0 -0.0011131790485612416 -0.025830274465961173 0 -0.0020796792757378007 -0.021805787279063394 0 -0.0021178162296824296 -0.021806364817636203 0 -0.0021129954827956102 -0.021769025392966285 0 -0.0011768909865855172 -0.027625860316060149 0 -0.0016145931866146275 -0.028342632788000338 0 -0.00065546586167280997 -0.02778229183586961 0 -0.00038543811764153279 -0.035701769222898937 0 -0.00028966660764122786 -0.035541458871209727 0 -3.1362220198219727e-05 -0.035561547559649576 0 -0.00059306487305742087 -0.031133197433351963 0 -0.00076157569194455494 -0.029033769192830201 0 -0.0021178162296824296 -0.021806364817636203 0 -0.0021379749765245049 -0.021758449059725203 0 -0.0021129954827956102 -0.021769025392966285 0 0.00074302491942130516 -0.024784541778472752 0 0.00014440921869545537 -0.025261604328601497 0 0.00039075472855388226 -0.025337200304211511 0 -0.00059306487305742087 -0.031133197433351963 0 -0.0011131790485612416 -0.025830274465961173 0 0.0012520039563620135 -0.0247605676150278 0 0.00074302491942130516 -0.024784541778472752 0 0.00039075472855388226 -0.025337200304211511 0 -0.0021759634808897216 -0.021740734028717006 0 -0.0021358066656647404 -0.021771258430560592 0 -0.0021609339515683643 -0.021741512711155569 0 -0.00032866304801001429 -0.0230418381998145 0 -0.0011131790485612416 -0.025830274465961173 0 -0.0021771691141029129 -0.02172576270240054 0 -0.0021759634808897216 -0.021740734028717006 0 -0.0021609339515683643 -0.021741512711155569 0 -0.0011131790485612416 -0.025830274465961173 0 -0.0028427616373118388 -0.022248126308769156 0 -0.0021178162296824296 -0.021806364817636203 0 -0.0021609339515683643 -0.021741512711155569 0 -0.0021379749765245049 -0.021758449059725203 0 -0.0021824213530320688 -0.021679907707505237 0 -0.0021399305015052531 -0.021728688312256862 0 -0.0021486424637273856 -0.021674444106372179 0 -0.0022546144934126066 -0.021567880343748812 0 -0.0021642705338603282 -0.021585597617312578 0 -0.0021609339515683643 -0.021741512711155569 0 -0.0021379749765245049 -0.021758449059725203 0 -0.0021399305015052531 -0.021728688312256862 0 -0.0021824213530320688 -0.021679907707505237 0 -0.0021609339515683643 -0.021741512711155569 0 -0.0021399305015052531 -0.021728688312256862 0 -0.0020816087796088618 -0.021723961331471316 0 -0.0021399305015052531 -0.021728688312256862 0 -0.0021486424637273856 -0.021674444106372179 0 -0.0020796792757378007 -0.021805787279063394 0 -0.0020816087796088618 -0.021723961331471316 0 -0.0021129954827956102 -0.021769025392966285 0 -0.0020816087796088618 -0.021723961331471316 0 -0.0021129954827956102 -0.021769025392966285 0 -0.0021399305015052531 -0.021728688312256862 0 -0.0021379749765245049 -0.021758449059725203 0 -0.0021129954827956102 -0.021769025392966285 0 -0.0021399305015052531 -0.021728688312256862 0 9.4185430393108123e-05 -0.030343684285843903 0 0.00024687723406674895 -0.030300243017034781 0 0.00016870608339068777 -0.03025510251838219 0 -0.00076157569194455494 -0.029033769192830201 0 0.00024836688174286175 -0.033132812604592818 0 -0.00076157569194455494 -0.029033769192830201 0 -0.00082277647185574393 -0.025606396465043851 0 -0.00028966660764122786 -0.035541458871209727 0 0.00038501413999270291 -0.035106927311799777 0 -3.1362220198219727e-05 -0.035561547559649576 0 -0.0020796792757378007 -0.021805787279063394 0 -0.0020816087796088618 -0.021723961331471316 0 -0.0020081158003745396 -0.02169327406832602 0 0.00038501413999270291 -0.035106927311799777 0 0.00052070639335188059 -0.035306176103847495 0 0.0010530412011086063 -0.035094763410662311 0 0.00041694944188226592 -0.035434604138825071 0 1.3263311037114821e-05 -0.03555591994275753 0 0.00038501413999270291 -0.035106927311799777 0 0.00052070639335188059 -0.035306176103847495 0 -3.1362220198219727e-05 -0.035561547559649576 0 0.00039322379620999886 -0.035535829409815589 0 0.00026069796991785328 -0.035687335331826199 0 -3.1362220198219727e-05 -0.035561547559649576 0 0.00039322379620999886 -0.035535829409815589 0 0.00026069796991785328 -0.035687335331826199 0 0.00044404034512713519 -0.035767795306752184 0 0.00026069796991785328 -0.035687335331826199 0 0.00044404034512713519 -0.035767795306752184 0 0.00020786774090951132 -0.035922541638515285 0 0.00026069796991785328 -0.035687335331826199 0 -3.1362220198219727e-05 -0.035561547559649576 0 0.00020786774090951132 -0.035922541638515285 0 -0.00059306487305742087 -0.031133197433351963 0 0.000122843057663883 -0.037619573910605053 0 -0.00038543811764153279 -0.035701769222898937 0 -3.1362220198219727e-05 -0.035561547559649576 0 0.00020786774090951132 -0.035922541638515285 0 -0.00074110773972464435 -0.038011481502564622 0 -0.00059740803760067714 -0.038091540145130019 0 -0.00037122115011283517 -0.038061010394349115 0 -0.00059740803760067714 -0.038091540145130019 0 -0.0006354443739219033 -0.038122088702874958 0 -0.00055960448354786679 -0.038183294185424231 0 -0.00059740803760067714 -0.038091540145130019 0 -0.00055960448354786679 -0.038183294185424231 0 -0.00037122115011283517 -0.038061010394349115 0 -0.00055960448354786679 -0.038183294185424231 0 -0.00027526057508876436 -0.03836828945010675 0 -0.00037122115011283517 -0.038061010394349115 0 -0.00067647960571450027 -0.038114078299877355 0 -0.0006354443739219033 -0.038122088702874958 0 -0.00055960448354786679 -0.038183294185424231 0 -0.00070366700039059332 -0.038069700329296477 0 -0.00067647960571450027 -0.038114078299877355 0 -0.00055960448354786679 -0.038183294185424231 0 -0.00070366700039059332 -0.038069700329296477 0 -0.00055960448354786679 -0.038183294185424231 0 -0.00041574103386696822 -0.038368109676357037 0 -0.00055960448354786679 -0.038183294185424231 0 -0.00041574103386696822 -0.038368109676357037 0 -0.00027526057508876436 -0.03836828945010675 0 -0.00070366700039059332 -0.038069700329296477 0 -0.00041574103386696822 -0.038368109676357037 0 -0.00059545533467661102 -0.038204544211822615 0 0.00010125331163022117 -0.039021800460459638 0 -0.00015419680204388123 -0.038715647755490447 0 -9.8718421653734497e-05 -0.038659346418360316 0 -0.00015419680204388123 -0.038715647755490447 0 -0.00041574103386696822 -0.038368109676357037 0 -9.8718421653734497e-05 -0.038659346418360316 0 -0.00041574103386696822 -0.038368109676357037 0 -9.8718421653734497e-05 -0.038659346418360316 0 -0.00027526057508876436 -0.03836828945010675 0 0.000122843057663883 -0.037619573910605053 0 0.00027872716965013096 -0.037120553877887735 0 -0.00027526057508876436 -0.03836828945010675 0 -0.00037122115011283517 -0.038061010394349115 0 0.00015836326064452234 -0.038480501892053591 0 0.00044404034512713519 -0.035767795306752184 0 0.00020786774090951132 -0.035922541638515285 0 0.00064739781963944721 -0.036086619971461717 0 -9.8718421653734497e-05 -0.038659346418360316 0 -0.00027526057508876436 -0.03836828945010675 0 0.00015836326064452234 -0.038480501892053591 0 -9.8718421653734497e-05 -0.038659346418360316 0 0.00015836326064452234 -0.038480501892053591 0 0.00018660219626376011 -0.038969647775483875 0 0.00015836326064452234 -0.038480501892053591 0 0.00018660219626376011 -0.038969647775483875 0 0.00044121891857044047 -0.039218800573232397 0 0.00035236256699919298 -0.039301524115224848 0 0.00018660219626376011 -0.038969647775483875 0 0.00044121891857044047 -0.039218800573232397 0 0.00010125331163022117 -0.039021800460459638 0 0.00035236256699919298 -0.039301524115224848 0 0.00018660219626376011 -0.038969647775483875 0 0.00010125331163022117 -0.039021800460459638 0 -9.8718421653734497e-05 -0.038659346418360316 0 0.00018660219626376011 -0.038969647775483875 0 0.00059221372951871298 -0.039602760717252682 0 0.00044121891857044047 -0.039218800573232397 0 0.00076653309298034393 -0.039651777499833507 0 0.00059221372951871298 -0.039602760717252682 0 0.00076653309298034393 -0.039651777499833507 0 0.00067819494704678249 -0.039931988688333808 0 0.00035236256699919298 -0.039301524115224848 0 0.00059221372951871298 -0.039602760717252682 0 0.00044121891857044047 -0.039218800573232397 0 0.00078429598255642594 -0.039657192935497416 0 0.0010675910924065604 -0.038530048260923044 0 0.00044121891857044047 -0.039218800573232397 0 0.00076653309298034393 -0.039651777499833507 0 0.00086379652736110239 -0.039130799389403857 0 0.00027872716965013096 -0.037120553877887735 0 0.0010675910924065604 -0.038530048260923044 0 0.00088765521072684905 -0.035874775284103724 0 0.001076026853204848 -0.036244943760139467 0 0.0011544528422860812 -0.035908201583314169 0 0.00015836326064452234 -0.038480501892053591 0 0.00044121891857044047 -0.039218800573232397 0 0.00086379652736110239 -0.039130799389403857 0 0.00064739781963944721 -0.036086619971461717 0 0.00088765521072684905 -0.035874775284103724 0 0.001076026853204848 -0.036244943760139467 0 0.00088765521072684905 -0.035874775284103724 0 0.0009820157871132571 -0.035643902003632176 0 0.0011544528422860812 -0.035908201583314169 0 0.00088765521072684905 -0.035874775284103724 0 0.0009820157871132571 -0.035643902003632176 0 0.00080773231241117573 -0.035641019240257144 0 0.00088765521072684905 -0.035874775284103724 0 0.00065898774788608692 -0.035747431220790556 0 0.00080773231241117573 -0.035641019240257144 0 0.00044404034512713519 -0.035767795306752184 0 0.00064739781963944721 -0.036086619971461717 0 0.00065898774788608692 -0.035747431220790556 0 0.00064739781963944721 -0.036086619971461717 0 0.00088765521072684905 -0.035874775284103724 0 0.00065898774788608692 -0.035747431220790556 0 0.00039322379620999886 -0.035535829409815589 0 0.00044404034512713519 -0.035767795306752184 0 0.00065898774788608692 -0.035747431220790556 0 0.00038501413999270291 -0.035106927311799777 0 0.0010530412011086063 -0.035094763410662311 0 0.0010430785167512889 -0.034717816583895923 0 0.00041694944188226592 -0.035434604138825071 0 0.00099766005411444322 -0.035201243929427438 0 0.00065898774788608692 -0.035747431220790556 0 0.00074545704313674801 -0.035460898661933846 0 0.00080773231241117573 -0.035641019240257144 0 0.00039322379620999886 -0.035535829409815589 0 0.00065898774788608692 -0.035747431220790556 0 0.00074545704313674801 -0.035460898661933846 0 0.00099766005411444322 -0.035201243929427438 0 0.0010098670680890813 -0.036062630339095625 0 0.00074545704313674801 -0.035460898661933846 0 0.0009820157871132571 -0.035643902003632176 0 0.0010799883757592577 -0.035368426644834638 0 0.00074545704313674801 -0.035460898661933846 0 0.0009820157871132571 -0.035643902003632176 0 0.00080773231241117573 -0.035641019240257144 0 0.0010809911980584753 -0.03480480148030593 0 0.0011087614097015474 -0.03468301245363957 0 0.0015718687825699779 -0.034902814945961785 0 0.00093662350222450442 -0.034241555033525356 0 0.0010098670680890813 -0.036062630339095625 0 0.0010530412011086063 -0.035094763410662311 0 0.0010809911980584753 -0.03480480148030593 0 0.0015718687825699779 -0.034902814945961785 0 0.00078443066338505394 -0.035943968225396222 0 0.00090826684819706686 -0.035933870920426617 0 0.00047199834255103892 -0.036052828651166449 0 0.00078443066338505394 -0.035943968225396222 0 0.00064790712824568347 -0.035929842780894963 0 0.00047199834255103892 -0.036052828651166449 0 0.00084105348152239078 -0.033540080791119725 0 0.00020312552818664906 -0.037404298797579671 0 0.00064790712824568347 -0.035929842780894963 0 0.00084366169278872526 -0.03590704958194009 0 0.00058455551634145381 -0.035813373379701675 0 0.00078443066338505394 -0.035943968225396222 0 0.00064790712824568347 -0.035929842780894963 0 0.00084366169278872526 -0.03590704958194009 0 0.00062651977444146373 -0.034706019320139898 0 0.00093662350222450442 -0.034241555033525356 0 0.0004106243900131077 -0.030259174474517463 0 0.00039966844540652335 -0.030235056088798729 0 0.00027191729802156624 -0.030213732783350673 0 0.00024836688174286175 -0.033132812604592818 0 0.0011336301947991588 -0.033352044187175404 0 0.0010530412011086063 -0.035094763410662311 0 0.0010809911980584753 -0.03480480148030593 0 0.0010430785167512889 -0.034717816583895923 0 0.00084105348152239078 -0.033540080791119725 0 0.00031726550747367615 -0.029960175727660483 0 0.00053093462061499066 -0.030219283863417785 0 0.00034471609838945632 -0.030114941361088495 0 0.00027191729802156624 -0.030213732783350673 0 0.0012514458280650633 -0.033772177424179504 0 0.0011336301947991588 -0.033352044187175404 0 0.00084105348152239078 -0.033540080791119725 0 -0.00012912387132289399 -0.030180083017000304 0 0.00078443066338505394 -0.035943968225396222 0 0.00084464722884261426 -0.035901025254483826 0 0.00090826684819706686 -0.035933870920426617 0 0.0010809911980584753 -0.03480480148030593 0 0.0011087614097015474 -0.03468301245363957 0 0.001042607386361398 -0.034719951972724108 0 0.0011607521732558172 -0.034005670572290009 0 0.0009169456266164464 -0.034145955887427692 0 0.00074164222067769285 -0.03376027821892618 0 0.00093662350222450442 -0.034241555033525356 0 0.00084105348152239078 -0.033540080791119725 0 0.0011336301947991588 -0.033352044187175404 0 0.00084105348152239078 -0.033540080791119725 0 0.00093662350222450442 -0.034241555033525356 0 0.0011336301947991588 -0.033352044187175404 0 0.00084105348152239078 -0.033540080791119725 0 -0.00013430894754809083 -0.029611769746536315 0 0.00060755289354896738 -0.03024226851333562 0 0.00039263698155633401 -0.029785784280317348 0 0.00034471609838945632 -0.030114941361088495 0 0.00056298138018736048 -0.036930768269600504 0 0.00050179889525212289 -0.037181161767068559 0 0.00065245876188041332 -0.037130896812028122 0 0.00056298138018736048 -0.036930768269600504 0 0.00040596403901811153 -0.037151072804149962 0 0.00036846012132651582 -0.037067338527473313 0 0.00056298138018736048 -0.036930768269600504 0 0.00040596403901811153 -0.037151072804149962 0 0.00050179889525212289 -0.037181161767068559 0 0.00056298138018736048 -0.036930768269600504 0 0.00030729799365954125 -0.037031645811104248 0 0.00036846012132651582 -0.037067338527473313 0 0.00040596403901811153 -0.037151072804149962 0 0.00050179889525212289 -0.037181161767068559 0 0.00036890999714252979 -0.037264017675683651 0 0.00050179889525212289 -0.037181161767068559 0 0.00042454136094743938 -0.037322396207281568 0 0.00036890999714252979 -0.037264017675683651 0 0.00042454136094743938 -0.037322396207281568 0 0.00056758842913560135 -0.037287759408249868 0 0.00048972734948664472 -0.037403020352778975 0 0.00059629286777772544 -0.038559090498123769 0 0.00037466020014294803 -0.033432393509009221 0 0.00050179889525212289 -0.037181161767068559 0 0.00042454136094743938 -0.037322396207281568 0 0.00056758842913560135 -0.037287759408249868 0 0.00042454136094743938 -0.037322396207281568 0 0.00028080308258252251 -0.0373834270542917 0 0.00048972734948664472 -0.037403020352778975 0 -0.00052741395809612925 -0.02908728650666903 0 -0.00046836948554073089 -0.029007389258729716 0 -0.00049380119128732104 -0.028985504686787636 0 -0.00052741395809612925 -0.02908728650666903 0 -0.00066371010659688515 -0.028994519243255787 0 -0.00049380119128732104 -0.028985504686787636 0 -0.00023471510217470544 -0.033605344468968915 0 0.00037466020014294803 -0.033432393509009221 0 0.00050179889525212289 -0.037181161767068559 0 0.00056758842913560135 -0.037287759408249868 0 0.00065245876188041332 -0.037130896812028122 0 -0.00023471510217470544 -0.033605344468968915 0 -0.00013430894754809083 -0.029611769746536315 0 -0.0018515831473823372 -0.021465883102192239 0 -0.0019216659218707652 -0.02129585853759201 0 -0.0019875145763909854 -0.02143129080976414 0 -0.00013430894754809083 -0.029611769746536315 0 -0.0014204018712223945 -0.022785500881240258 0 -0.00052741395809612925 -0.02908728650666903 0 -0.00058896437756948271 -0.029185134299883658 0 -0.00066371010659688515 -0.028994519243255787 0 -0.0014036699693501585 -0.020807286111691834 0 -0.0017963308682326935 -0.020965513381547687 0 -0.0015670148029752291 -0.020678648408073114 0 -0.0014204018712223945 -0.022785500881240258 0 -0.0019619101727358966 -0.020876004082354887 0 -0.0019216659218707652 -0.02129585853759201 0 -0.0019875145763909854 -0.02143129080976414 0 -0.002107697062871183 -0.021293515413745353 0 -0.0019875145763909854 -0.02143129080976414 0 -0.0021022597409300603 -0.021410566941770463 0 -0.002107697062871183 -0.021293515413745353 0 -0.0019875145763909854 -0.02143129080976414 0 -0.001929694234489952 -0.021557492839062206 0 -0.00202988062939793 -0.021558628790496887 0 -0.0019875145763909854 -0.02143129080976414 0 -0.00202988062939793 -0.021558628790496887 0 -0.0021022597409300603 -0.021410566941770463 0 -0.00013430894754809083 -0.029611769746536315 0 -0.00071304722410884278 -0.025289218711766856 0 -0.0018515831473823372 -0.021465883102192239 0 -0.0019875145763909854 -0.02143129080976414 0 -0.001929694234489952 -0.021557492839062206 0 0.00039263698155633401 -0.029785784280317348 0 0.00034471609838945632 -0.030114941361088495 0 0.00022785761939888958 -0.030106128217831502 0 0.00024687723406674895 -0.030300243017034781 0 0.0004106243900131077 -0.030259174474517463 0 0.00027191729802156624 -0.030213732783350673 0 0.00022785761939888958 -0.030106128217831502 0 0.00027191729802156624 -0.030213732783350673 0 0.00023198260056759632 -0.030225937498996415 0 0.00022785761939888958 -0.030106128217831502 0 0.00023198260056759632 -0.030225937498996415 0 0.00016870608339068777 -0.03025510251838219 0 0.00034471609838945632 -0.030114941361088495 0 0.00022785761939888958 -0.030106128217831502 0 0.00027191729802156624 -0.030213732783350673 0 0.00024687723406674895 -0.030300243017034781 0 0.00027191729802156624 -0.030213732783350673 0 0.00023198260056759632 -0.030225937498996415 0 0.00024687723406674895 -0.030300243017034781 0 0.00023198260056759632 -0.030225937498996415 0 0.00016870608339068777 -0.03025510251838219 0 -0.001929694234489952 -0.021557492839062206 0 -0.0020081158003745396 -0.02169327406832602 0 -0.00202988062939793 -0.021558628790496887 0 -0.0020816087796088618 -0.021723961331471316 0 -0.0020081158003745396 -0.02169327406832602 0 -0.00202988062939793 -0.021558628790496887 0 -0.00071304722410884278 -0.025289218711766856 0 -0.00082277647185574393 -0.025606396465043851 0 -0.0020333078453817046 -0.021552854611211023 0 -0.0021642705338603282 -0.021585597617312578 0 -0.00202988062939793 -0.021558628790496887 0 -0.0021992419678718384 -0.021507323986513869 0 -0.0021796494648942694 -0.02144707843290616 0 -0.0020816087796088618 -0.021723961331471316 0 -0.00202988062939793 -0.021558628790496887 0 -0.0021486424637273856 -0.021674444106372179 0 -0.0023245508081473874 -0.02146403146409381 0 -0.0021992419678718384 -0.021507323986513869 0 -0.002258839086247751 -0.021454922945780427 0 -0.0021992419678718384 -0.021507323986513869 0 -0.002258839086247751 -0.021454922945780427 0 -0.0021796494648942694 -0.02144707843290616 0 -0.0021796494648942694 -0.02144707843290616 0 -0.0022047854124087702 -0.021340950224597355 0 -0.0023832313070747003 -0.021327414685302627 0 -0.0022100796460147515 -0.021409175076564452 0 -0.0023072222672127019 -0.021419407509479616 0 -0.002268596024959223 -0.021411800911147343 0 -0.0021796494648942694 -0.02144707843290616 0 -0.0023010686571383744 -0.021328271264291206 0 -0.002258839086247751 -0.021454922945780427 0 -0.002268596024959223 -0.021411800911147343 0 -0.0021796494648942694 -0.02144707843290616 0 -0.0021796494648942694 -0.02144707843290616 0 -0.0021022597409300603 -0.021410566941770463 0 -0.0022047854124087702 -0.021340950224597355 0 -0.00202988062939793 -0.021558628790496887 0 -0.0021796494648942694 -0.02144707843290616 0 -0.0021022597409300603 -0.021410566941770463 0 -0.0021022597409300603 -0.021410566941770463 0 -0.002107697062871183 -0.021293515413745353 0 -0.0022047854124087702 -0.021340950224597355 0 -0.0017963308682326935 -0.020965513381547687 0 -0.0020036187983293011 -0.020747842816278242 0 -0.0018559709398073944 -0.020599502111074811 0 -0.0017963308682326935 -0.020965513381547687 0 -0.0020036187983293011 -0.020747842816278242 0 -0.0021736222531371775 -0.020906154117784893 0 -0.0017963308682326935 -0.020965513381547687 0 -0.0021736222531371775 -0.020906154117784893 0 -0.002329386012107281 -0.021219091681004804 0 -0.0021736222531371775 -0.020906154117784893 0 -0.0023270923185417982 -0.020778527066837055 0 -0.0022435819482357279 -0.020626007988449532 0 -0.0020036187983293011 -0.020747842816278242 0 -0.0021736222531371775 -0.020906154117784893 0 -0.0022435819482357279 -0.020626007988449532 0 -0.0021736222531371775 -0.020906154117784893 0 -0.002329386012107281 -0.021219091681004804 0 -0.0023651967088252177 -0.020956547841333342 0 -0.0021736222531371775 -0.020906154117784893 0 -0.0023651967088252177 -0.020956547841333342 0 -0.0023270923185417982 -0.020778527066837055 0 -0.0022047854124087702 -0.021340950224597355 0 -0.0023832313070747003 -0.021327414685302627 0 -0.002329386012107281 -0.021219091681004804 0 -0.0019619101727358966 -0.020876004082354887 0 -0.002332291972434208 -0.021297571281178658 0 -0.002107697062871183 -0.021293515413745353 0 -0.0022047854124087702 -0.021340950224597355 0 -0.002329386012107281 -0.021219091681004804 0 -0.0023832313070747003 -0.021327414685302627 0 -0.0025161742910898527 -0.021053558731202397 0 -0.0029108964992757328 -0.021041843214196609 0 -0.0023832313070747003 -0.021327414685302627 0 -0.0025161742910898527 -0.021053558731202397 0 -0.002329386012107281 -0.021219091681004804 0 -0.0023010686571383744 -0.021328271264291206 0 -0.0023922366390203916 -0.021276169411762014 0 -0.0023403391772459478 -0.021338403428641958 0 -0.0025161742910898527 -0.021053558731202397 0 -0.002329386012107281 -0.021219091681004804 0 -0.0023651967088252177 -0.020956547841333342 0 -0.0025161742910898527 -0.021053558731202397 0 -0.0023651967088252177 -0.020956547841333342 0 -0.0024968209543174626 -0.020829732445205668 0 -0.0023651967088252177 -0.020956547841333342 0 -0.0024968209543174626 -0.020829732445205668 0 -0.0023270923185417982 -0.020778527066837055 0 -0.0025161742910898527 -0.021053558731202397 0 -0.0024968209543174626 -0.020829732445205668 0 -0.0026693631887476105 -0.02089284665903339 0 -0.0024968209543174626 -0.020829732445205668 0 -0.0027780652183103769 -0.020626045886312078 0 -0.0025168043103055765 -0.020522411580692821 0 -0.0024968209543174626 -0.020829732445205668 0 -0.0023270923185417982 -0.020778527066837055 0 -0.0025168043103055765 -0.020522411580692821 0 -0.0027780652183103769 -0.020626045886312078 0 -0.0026693631887476105 -0.02089284665903339 0 -0.0029108964992757328 -0.021041843214196609 0 -0.0024968209543174626 -0.020829732445205668 0 -0.0027780652183103769 -0.020626045886312078 0 -0.0026693631887476105 -0.02089284665903339 0 -0.0028273944739701483 -0.020802348307238244 0 -0.0026847668502373114 -0.020507297975974653 0 -0.0023072222672127019 -0.021419407509479616 0 -0.0026847668502373114 -0.020507297975974653 0 -0.0026847668502373114 -0.020507297975974653 0 -0.002417442002381321 -0.020528848318547736 0 -0.0025161742910898527 -0.021053558731202397 0 -0.0026693631887476105 -0.02089284665903339 0 -0.0029108964992757328 -0.021041843214196609 0 -0.0023922366390203916 -0.021276169411762014 0 -0.002355735551040866 -0.021372312173740905 0 -0.0023403391772459478 -0.021338403428641958 0 -0.0023922366390203916 -0.021276169411762014 0 -0.002355735551040866 -0.021372312173740905 0 -0.0024049949417553344 -0.021366661455472582 0 -0.002355735551040866 -0.021372312173740905 0 -0.0023738267251170076 -0.021411036377720669 0 -0.0024049949417553344 -0.021366661455472582 0 -0.002355735551040866 -0.021372312173740905 0 -0.0023403391772459478 -0.021338403428641958 0 -0.0023083078509424809 -0.021384449750003566 0 -0.0023010686571383744 -0.021328271264291206 0 -0.0023403391772459478 -0.021338403428641958 0 -0.0023083078509424809 -0.021384449750003566 0 -0.002268596024959223 -0.021411800911147343 0 -0.0023010686571383744 -0.021328271264291206 0 -0.0023083078509424809 -0.021384449750003566 0 -0.002268596024959223 -0.021411800911147343 0 -0.0023083078509424809 -0.021384449750003566 0 -0.0023108979703977796 -0.02142311972204684 0 -0.002355735551040866 -0.021372312173740905 0 -0.0023083078509424809 -0.021384449750003566 0 -0.0023108979703977796 -0.02142311972204684 0 -0.0023245508081473874 -0.02146403146409381 0 -0.0023108979703977796 -0.02142311972204684 0 -0.0023738267251170076 -0.021411036377720669 0 -0.0023245508081473874 -0.02146403146409381 0 -0.002258839086247751 -0.021454922945780427 0 -0.0023108979703977796 -0.02142311972204684 0 -0.002258839086247751 -0.021454922945780427 0 -0.002268596024959223 -0.021411800911147343 0 -0.0023108979703977796 -0.02142311972204684 0 -0.002355735551040866 -0.021372312173740905 0 -0.0023108979703977796 -0.02142311972204684 0 -0.0023738267251170076 -0.021411036377720669 0 0.00047869821675028228 -0.044438266592004151 0 0.00027008828264435685 -0.044285096646967392 0 0.00017546077257225856 -0.044526127743178545 0 0.00047869821675028228 -0.044438266592004151 0 0.00027008828264435685 -0.044285096646967392 0 0.00049450138165759783 -0.044144066800318099 0 0.00027008828264435685 -0.044285096646967392 0 0.00017546077257225856 -0.044526127743178545 0 5.0503883471484982e-05 -0.044294961036077711 0 0.00027008828264435685 -0.044285096646967392 0 5.0503883471484982e-05 -0.044294961036077711 0 0.00037646283946205259 -0.04379877037287256 0 0.00049450138165759783 -0.044144066800318099 0 0.00063273178261349851 -0.043809765546792383 0 0.00037646283946205259 -0.04379877037287256 0 0.00027008828264435685 -0.044285096646967392 0 0.00049450138165759783 -0.044144066800318099 0 0.00037646283946205259 -0.04379877037287256 0 0.0006837058397547892 -0.044099485202462985 0 0.00073456298583855794 -0.044410264481849329 0 0.00092272415013573792 -0.044465437778900087 0 0.0006837058397547892 -0.044099485202462985 0 0.0011069984184205969 -0.044114275905160524 0 0.0012355099562940891 -0.044391940198922591 0 0.00066847763217780826 -0.044105032576439336 0 0.0011358160467242037 -0.044515135542795792 0 0.00049450138165759783 -0.044144066800318099 0 0.00063273178261349851 -0.043809765546792383 0 0.0006837058397547892 -0.044099485202462985 0 0.00063273178261349851 -0.043809765546792383 0 0.0012781153788206665 -0.043326743229186858 0 0.0015897472997722245 -0.044170692201611177 0 0.00063273178261349851 -0.043809765546792383 0 0.0006837058397547892 -0.044099485202462985 0 0.0011069984184205969 -0.044114275905160524 0 0.00067199117706568366 -0.043827353987416544 0 0.0015126543447131022 -0.044152401485132463 0 0.00047869821675028228 -0.044438266592004151 0 0.00049450138165759783 -0.044144066800318099 0 0.00062947046489665788 -0.044321857106769919 0 0.00047869821675028228 -0.044438266592004151 0 0.00062947046489665788 -0.044321857106769919 0 0.00073456298583855794 -0.044410264481849329 0 0.0006837058397547892 -0.044099485202462985 0 0.00062947046489665788 -0.044321857106769919 0 0.00073456298583855794 -0.044410264481849329 0 0.00049450138165759783 -0.044144066800318099 0 0.0006837058397547892 -0.044099485202462985 0 0.00062947046489665788 -0.044321857106769919 0 0.00047869821675028228 -0.044438266592004151 0 0.00073456298583855794 -0.044410264481849329 0 0.00055799257903474668 -0.044638314292619656 0 0.00073456298583855794 -0.044410264481849329 0 0.0007778962334504271 -0.044647245147616157 0 0.00055799257903474668 -0.044638314292619656 0 0.0007778962334504271 -0.044647245147616157 0 0.00055799257903474668 -0.044638314292619656 0 0.00057863959079687576 -0.044895337990887532 0 0.00055799257903474668 -0.044638314292619656 0 0.00027458310842235471 -0.044668881744186352 0 0.0003975005206136143 -0.044765251488703993 0 0.00027458310842235471 -0.044668881744186352 0 0.00010305820125853103 -0.044722098092997847 0 0.00026705076543938002 -0.04489546014204171 0 0.00027458310842235471 -0.044668881744186352 0 0.00026705076543938002 -0.04489546014204171 0 0.0003975005206136143 -0.044765251488703993 0 0.00047869821675028228 -0.044438266592004151 0 0.00055799257903474668 -0.044638314292619656 0 0.00027458310842235471 -0.044668881744186352 0 0.00047869821675028228 -0.044438266592004151 0 0.00017546077257225856 -0.044526127743178545 0 0.00027458310842235471 -0.044668881744186352 0 0.00017546077257225856 -0.044526127743178545 0 0.00027458310842235471 -0.044668881744186352 0 0.00010305820125853103 -0.044722098092997847 0 2.9551806026209517e-05 -0.044873535681790394 0 0.00010305820125853103 -0.044722098092997847 0 0.00026705076543938002 -0.04489546014204171 0 2.9551806026209517e-05 -0.044873535681790394 0 0.00010305820125853103 -0.044722098092997847 0 -4.5561354258469368e-05 -0.044783336879277422 0 0.00010305820125853103 -0.044722098092997847 0 -4.5561354258469368e-05 -0.044783336879277422 0 -1.9066752791330599e-06 -0.044569271841492668 0 0.00017546077257225856 -0.044526127743178545 0 0.00010305820125853103 -0.044722098092997847 0 -1.9066752791330599e-06 -0.044569271841492668 0 2.9551806026209517e-05 -0.044873535681790394 0 -4.5561354258469368e-05 -0.044783336879277422 0 -4.6399139834140794e-08 -0.044999870731251161 0 -4.5561354258469368e-05 -0.044783336879277422 0 -2.5519101177896931e-07 -0.044998955689409335 0 -4.6399139834140794e-08 -0.044999870731251161 0 -4.5561354258469368e-05 -0.044783336879277422 0 -8.2515055602595098e-05 -0.044657420250844376 0 -2.5519101177896931e-07 -0.044998955689409335 0 0.00017546077257225856 -0.044526127743178545 0 -1.9066752791330599e-06 -0.044569271841492668 0 5.0503883471484982e-05 -0.044294961036077711 0 -4.5561354258469368e-05 -0.044783336879277422 0 -8.2515055602595098e-05 -0.044657420250844376 0 -1.9066752791330599e-06 -0.044569271841492668 0 -8.2515055602595098e-05 -0.044657420250844376 0 -1.9066752791330599e-06 -0.044569271841492668 0 -8.6286404673280895e-05 -0.044313983564706144 0 -1.9066752791330599e-06 -0.044569271841492668 0 5.0503883471484982e-05 -0.044294961036077711 0 -8.6286404673280895e-05 -0.044313983564706144 0 -8.6286404673280895e-05 -0.044313983564706144 0 -0.00016389592456542655 -0.044649499575500518 0 -7.2402497972515629e-05 -0.043079293705500017 0 5.0503883471484982e-05 -0.044294961036077711 0 -8.6286404673280895e-05 -0.044313983564706144 0 0.00012446087037357363 -0.043695349199656917 0 -8.6286404673280895e-05 -0.044313983564706144 0 -7.2402497972515629e-05 -0.043079293705500017 0 0.00012446087037357363 -0.043695349199656917 0 -2.5519101177896931e-07 -0.044998955689409335 0 -0.00016389592456542655 -0.044649499575500518 0 -3.5281747051770075e-07 -0.044998982078454874 0 -8.2515055602595098e-05 -0.044657420250844376 0 -2.5519101177896931e-07 -0.044998955689409335 0 -0.00016389592456542655 -0.044649499575500518 0 -8.2515055602595098e-05 -0.044657420250844376 0 -8.6286404673280895e-05 -0.044313983564706144 0 -0.00016389592456542655 -0.044649499575500518 0 -0.00041548413048209576 -0.044440618379089282 0 -3.5281747051770075e-07 -0.044998982078454874 0 -0.00034624348977331233 -0.044563212075464223 0 -0.00016389592456542655 -0.044649499575500518 0 -3.5281747051770075e-07 -0.044998982078454874 0 -0.00034624348977331233 -0.044563212075464223 0 -0.00041548413048209576 -0.044440618379089282 0 -0.00034624348977331233 -0.044563212075464223 0 -0.00072122774625490971 -0.044191177805020125 0 -0.00021303476459216792 -0.04443479795043024 0 -0.00033322340394778636 -0.0436611914831656 0 -0.00016389592456542655 -0.044649499575500518 0 -0.00034624348977331233 -0.044563212075464223 0 -0.00072122774625490971 -0.044191177805020125 0 0.0008647309262382124 -0.041636447363228656 0 -7.2402497972515629e-05 -0.043079293705500017 0 0.00060883254497661138 -0.042773629568641884 0 8.3130822529111047e-07 -0.042648346831823246 0 -0.00033322340394778636 -0.0436611914831656 0 -7.2402497972515629e-05 -0.043079293705500017 0 0.00012446087037357363 -0.043695349199656917 0 0.00060883254497661138 -0.042773629568641884 0 0.00037646283946205259 -0.04379877037287256 0 0.00012446087037357363 -0.043695349199656917 0 0.00060883254497661138 -0.042773629568641884 0 5.0503883471484982e-05 -0.044294961036077711 0 0.00037646283946205259 -0.04379877037287256 0 0.00012446087037357363 -0.043695349199656917 0 0.0008033099185796339 -0.04314451953516954 0 0.00060883254497661138 -0.042773629568641884 0 0.0013507755861414405 -0.041796021402884263 0 0.00063273178261349851 -0.043809765546792383 0 0.0012781153788206665 -0.043326743229186858 0 0.0008033099185796339 -0.04314451953516954 0 0.00063273178261349851 -0.043809765546792383 0 0.00037646283946205259 -0.04379877037287256 0 0.0008033099185796339 -0.04314451953516954 0 0.00037646283946205259 -0.04379877037287256 0 0.0008033099185796339 -0.04314451953516954 0 0.00060883254497661138 -0.042773629568641884 0 0.0012781153788206665 -0.043326743229186858 0 0.0008033099185796339 -0.04314451953516954 0 0.0013507755861414405 -0.041796021402884263 0 0.0008647309262382124 -0.041636447363228656 0 0.00060883254497661138 -0.042773629568641884 0 0.0013507755861414405 -0.041796021402884263 0 0.0008647309262382124 -0.041636447363228656 0 0.0013507755861414405 -0.041796021402884263 0 0.001140324001143605 -0.041260632386919113 0 0.0013507755861414405 -0.041796021402884263 0 0.001140324001143605 -0.041260632386919113 0 0.0010060339500593963 -0.041087334618521903 0 0.00083942937455452795 -0.040759910411626674 0 0.001140324001143605 -0.041260632386919113 0 0.00085167719820475416 -0.040814326167718754 0 0.00083942937455452795 -0.040759910411626674 0 0.00085167719820475416 -0.040814326167718754 0 0.00072350978107332288 -0.040506384389998942 0 0.00085167719820475416 -0.040814326167718754 0 0.00080164832349306043 -0.040694248570628713 0 0.00072924840887131153 -0.040558944265716879 0 0.001140324001143605 -0.041260632386919113 0 0.00085167719820475416 -0.040814326167718754 0 0.0010060339500593963 -0.041087334618521903 0 0.0010060339500593963 -0.041087334618521903 0 0.00080164832349306043 -0.040694248570628713 0 0.00095024772781809278 -0.040722459502159081 0 0.00085167719820475416 -0.040814326167718754 0 0.0010060339500593963 -0.041087334618521903 0 0.00080164832349306043 -0.040694248570628713 0 0.00080164832349306043 -0.040694248570628713 0 0.00081447948669402818 -0.040559172289290422 0 0.00095024772781809278 -0.040722459502159081 0 0.00081447948669402818 -0.040559172289290422 0 0.00095024772781809278 -0.040722459502159081 0 0.00095412274282237767 -0.040545007674309033 0 0.00095024772781809278 -0.040722459502159081 0 0.0012120318053186424 -0.040673052817236141 0 0.00095412274282237767 -0.040545007674309033 0 0.0010060339500593963 -0.041087334618521903 0 0.00095024772781809278 -0.040722459502159081 0 0.0012120318053186424 -0.040673052817236141 0 0.0014319536426275472 -0.041791402134639853 0 0.0016683591565560807 -0.042077793732155644 0 0.0012781153788206665 -0.043326743229186858 0 0.0013507755861414405 -0.041796021402884263 0 0.0022181700632246258 -0.043460044097315395 0 0.0013507755861414405 -0.041796021402884263 0 0.0010060339500593963 -0.041087334618521903 0 0.0012120318053186424 -0.040673052817236141 0 0.00076653309298034393 -0.039651777499833507 0 0.00068661403022887593 -0.040307600445519134 0 0.00084475201418707506 -0.040140179391689478 0 0.00076653309298034393 -0.039651777499833507 0 0.00068333539645120019 -0.040077118085468412 0 0.00068661403022887593 -0.040307600445519134 0 0.00076653309298034393 -0.039651777499833507 0 0.00067819494704678249 -0.039931988688333808 0 0.00068333539645120019 -0.040077118085468412 0 0.00067819494704678249 -0.039931988688333808 0 0.00067335949134486258 -0.040226493482095872 0 0.00068333539645120019 -0.040077118085468412 0 0.00065539611190097865 -0.040370100945141527 0 0.00067819494704678249 -0.039931988688333808 0 0.00067335949134486258 -0.040226493482095872 0 0.00068333539645120019 -0.040077118085468412 0 0.00067006661955514729 -0.040366599313779172 0 0.00068661403022887593 -0.040307600445519134 0 0.00067335949134486258 -0.040226493482095872 0 0.00068333539645120019 -0.040077118085468412 0 0.00067006661955514729 -0.040366599313779172 0 0.00067006661955514729 -0.040366599313779172 0 0.00072350978107332288 -0.040506384389998942 0 0.00072924840887131153 -0.040558944265716879 0 0.00067335949134486258 -0.040226493482095872 0 0.00067006661955514729 -0.040366599313779172 0 0.00072350978107332288 -0.040506384389998942 0 0.00065539611190097865 -0.040370100945141527 0 0.00067335949134486258 -0.040226493482095872 0 0.00072350978107332288 -0.040506384389998942 0 0.00085167719820475416 -0.040814326167718754 0 0.00072350978107332288 -0.040506384389998942 0 0.00072924840887131153 -0.040558944265716879 0 0.00080164832349306043 -0.040694248570628713 0 0.00072924840887131153 -0.040558944265716879 0 0.00068318076966520779 -0.040472971884898325 0 0.00080164832349306043 -0.040694248570628713 0 0.00081447948669402818 -0.040559172289290422 0 0.00068318076966520779 -0.040472971884898325 0 0.00067006661955514729 -0.040366599313779172 0 0.00072924840887131153 -0.040558944265716879 0 0.00068318076966520779 -0.040472971884898325 0 0.00067006661955514729 -0.040366599313779172 0 0.00068318076966520779 -0.040472971884898325 0 0.00068661403022887593 -0.040307600445519134 0 0.00068661403022887593 -0.040307600445519134 0 0.00084475201418707506 -0.040140179391689478 0 0.0007013655844738709 -0.040449592371809152 0 0.00068318076966520779 -0.040472971884898325 0 0.00068661403022887593 -0.040307600445519134 0 0.0007013655844738709 -0.040449592371809152 0 0.0010675910924065604 -0.038530048260923044 0 0.00099686656954041343 -0.038011591681712031 0 0.00068318076966520779 -0.040472971884898325 0 0.0007013655844738709 -0.040449592371809152 0 0.00070950689737246122 -0.040417652102134632 0 0.0009820157871132571 -0.035643902003632176 0 0.0011544528422860812 -0.035908201583314169 0 0.0011177133809058392 -0.035593043765585183 0 0.0007013655844738709 -0.040449592371809152 0 0.00070950689737246122 -0.040417652102134632 0 0.00067177107742319973 -0.040310403823991738 0 0.00074463484121123585 -0.040461918971047499 0 0.00077146217580763364 -0.0403385447648291 0 0.00084585614490624778 -0.040446691724362306 0 0.00070950689737246122 -0.040417652102134632 0 0.00074463484121123585 -0.040461918971047499 0 0.00077146217580763364 -0.0403385447648291 0 0.00068318076966520779 -0.040472971884898325 0 0.00070950689737246122 -0.040417652102134632 0 0.00074463484121123585 -0.040461918971047499 0 0.00081447948669402818 -0.040559172289290422 0 0.00068318076966520779 -0.040472971884898325 0 0.00074463484121123585 -0.040461918971047499 0 0.0011606075418644304 -0.041181561175671809 0 0.00069957597115054846 -0.040539950645551562 0 0.0019548158361075698 -0.040725331938521278 0 0.0011606075418644304 -0.041181561175671809 0 0.00069957597115054846 -0.040539950645551562 0 -7.7745223763220269e-05 -0.040603360385676704 0 0.00070950689737246122 -0.040417652102134632 0 0.00077146217580763364 -0.0403385447648291 0 0.00067177107742319973 -0.040310403823991738 0 0.00095030651513090889 -0.040772812417105869 0 0.00064430000348780802 -0.038316426989986073 0 0.0009820157871132571 -0.035643902003632176 0 0.0011177133809058392 -0.035593043765585183 0 0.0010799883757592577 -0.035368426644834638 0 0.00099686656954041343 -0.038011591681712031 0 0.00064430000348780802 -0.038316426989986073 0 0.0011544528422860812 -0.035908201583314169 0 0.0012581572779828351 -0.035458176429134881 0 0.0011177133809058392 -0.035593043765585183 0 0.0012581572779828351 -0.035458176429134881 0 0.0011177133809058392 -0.035593043765585183 0 0.0010799883757592577 -0.035368426644834638 0 0.0015126543447131022 -0.044152401485132463 0 0.0017449887577814518 -0.04256362345229156 0 0.0011069984184205969 -0.044114275905160524 0 0.0014912675889527367 -0.044292520117125748 0 0.0012355099562940891 -0.044391940198922591 0 0.0012781153788206665 -0.043326743229186858 0 0.0022181700632246258 -0.043460044097315395 0 0.0015897472997722245 -0.044170692201611177 0 0.0022181700632246258 -0.043460044097315395 0 0.0015897472997722245 -0.044170692201611177 0 0.0027137225733710186 -0.044655152414494886 0 0.0016683591565560807 -0.042077793732155644 0 0.0017449887577814518 -0.04256362345229156 0 0.0012120318053186424 -0.040673052817236141 0 0.00095412274282237767 -0.040545007674309033 0 0.00099861879185483339 -0.040369913430620408 0 0.00077146217580763364 -0.0403385447648291 0 0.00084585614490624778 -0.040446691724362306 0 0.00099861879185483339 -0.040369913430620408 0 0.00081447948669402818 -0.040559172289290422 0 0.00074463484121123585 -0.040461918971047499 0 0.00084585614490624778 -0.040446691724362306 0 0.00081447948669402818 -0.040559172289290422 0 0.00095412274282237767 -0.040545007674309033 0 0.00084585614490624778 -0.040446691724362306 0 0.00095412274282237767 -0.040545007674309033 0 0.00084585614490624778 -0.040446691724362306 0 0.00099861879185483339 -0.040369913430620408 0 0.0017449887577814518 -0.04256362345229156 0 0.0015967652618896768 -0.04322626378328611 0 0.0011606075418644304 -0.041181561175671809 0 0.0024024915101506154 -0.041756080730171119 0 0.0019548158361075698 -0.040725331938521278 0 0.00095030651513090889 -0.040772812417105869 0 0.0017449887577814518 -0.04256362345229156 0 0.0014912675889527367 -0.044292520117125748 0 0.0016390777230048065 -0.04461966536463037 0 0.0012355099562940891 -0.044391940198922591 0 0.001159946068352388 -0.044642573431143751 0 0.00095878339323949831 -0.044681213101874229 0 0.00092272415013573792 -0.044465437778900087 0 0.0015967652618896768 -0.04322626378328611 0 0.0011358160467242037 -0.044515135542795792 0 0.00073456298583855794 -0.044410264481849329 0 0.0007778962334504271 -0.044647245147616157 0 0.00092272415013573792 -0.044465437778900087 0 0.0007778962334504271 -0.044647245147616157 0 0.00095878339323949831 -0.044681213101874229 0 0.00092272415013573792 -0.044465437778900087 0 0.0007778962334504271 -0.044647245147616157 0 0.00095878339323949831 -0.044681213101874229 0 0.00086577823346812416 -0.044816519587849053 0 0.00086577823346812416 -0.044816519587849053 0 0.0010540341110777016 -0.044835262140008679 0 0.00091260226098409142 -0.045083025359740209 0 0.00086577823346812416 -0.044816519587849053 0 0.00091260226098409142 -0.045083025359740209 0 0.00057863959079687576 -0.044895337990887532 0 0.00095878339323949831 -0.044681213101874229 0 0.00086577823346812416 -0.044816519587849053 0 0.0010540341110777016 -0.044835262140008679 0 0.001159946068352388 -0.044642573431143751 0 0.00095878339323949831 -0.044681213101874229 0 0.0010540341110777016 -0.044835262140008679 0 0.0015967652618896768 -0.04322626378328611 0 0.0007423664034509822 -0.041805951366594395 0 0.0012864659394115959 -0.044917272903328441 0 0.0010540341110777016 -0.044835262140008679 0 0.00091260226098409142 -0.045083025359740209 0 0.001159946068352388 -0.044642573431143751 0 0.0012864659394115959 -0.044917272903328441 0 0.0010540341110777016 -0.044835262140008679 0 0.00058252800510615922 -0.040610853508508932 0 0.00044783591279174431 -0.040701484377125348 0 0.00060653841792029212 -0.040661643978085596 0 0.00037278087990704568 -0.038986214815930759 0 0.00012313226441112445 -0.038570496270695864 0 0.0007423664034509822 -0.041805951366594395 0 0.00056737024494912434 -0.042927455389471778 0 0.00019115613524683139 -0.03741265061316406 0 0.00019003433701681374 -0.037431011499530854 0 0.00018440617137980525 -0.037425873509305797 0 0.00058252800510615922 -0.040610853508508932 0 0.00044783591279174431 -0.040701484377125348 0 0.00040318916080332766 -0.040687763456708465 0 0.00019115613524683139 -0.03741265061316406 0 0.00018440617137980525 -0.037425873509305797 0 0.00019368885794335971 -0.037385408472151702 0 0.00019115613524683139 -0.03741265061316406 0 0.00019007430060428673 -0.037422076068619657 0 0.0001907473177436158 -0.03740729328207839 0 0.00019007430060428673 -0.037422076068619657 0 0.00019003433701681374 -0.037431011499530854 0 0.00018220763292400917 -0.03743974323856275 0 0.00019115613524683139 -0.03741265061316406 0 0.00019007430060428673 -0.037422076068619657 0 0.00019003433701681374 -0.037431011499530854 0 0.00019003433701681374 -0.037431011499530854 0 0.00016851087756960468 -0.03746558833996539 0 0.00014318993866943347 -0.037448001650774311 0 0.00037278087990704568 -0.038986214815930759 0 0.00034064367729298939 -0.041095299501754758 0 0.00019003433701681374 -0.037431011499530854 0 0.00016851087756960468 -0.03746558833996539 0 0.00018220763292400917 -0.03743974323856275 0 0.00044783591279174431 -0.040701484377125348 0 0.00040318916080332766 -0.040687763456708465 0 0.00028672501295121263 -0.040740487841487386 0 0.00056737024494912434 -0.042927455389471778 0 0.00034064367729298939 -0.041095299501754758 0 0.00064790712824568347 -0.035929842780894963 0 0.00050363346918927009 -0.035926205820662784 0 0.00047199834255103892 -0.036052828651166449 0 0.0010098670680890813 -0.036062630339095625 0 0.00038667659227972767 -0.038212765708392604 0 0.00064430000348780802 -0.038316426989986073 0 0.0010098670680890813 -0.036062630339095625 0 0.00064790712824568347 -0.035929842780894963 0 0.00050363346918927009 -0.035926205820662784 0 0.00058455551634145381 -0.035813373379701675 0 0.00050363346918927009 -0.035926205820662784 0 0.00058455551634145381 -0.035813373379701675 0 0.00038080890396316165 -0.03589863364431272 0 0.0005617754148551751 -0.037270732434377771 0 0.00088890899359155332 -0.037411279007649859 0 0.00048452356162303746 -0.037566983350715462 0 0.00064430000348780802 -0.038316426989986073 0 0.00038667659227972767 -0.038212765708392604 0 0.00050363346918927009 -0.035926205820662784 0 0.00038080890396316165 -0.03589863364431272 0 0.00035851717196534771 -0.035984398913288099 0 0.00050363346918927009 -0.035926205820662784 0 0.00035851717196534771 -0.035984398913288099 0 0.00047199834255103892 -0.036052828651166449 0 0.00038667659227972767 -0.038212765708392604 0 0.00011388161555738993 -0.03807576734390504 0 0.00011388161555738993 -0.03807576734390504 0 0.00020312552818664906 -0.037404298797579671 0 0.0015967652618896768 -0.04322626378328611 0 0.00038590317819383723 -0.039499869001416707 0 0.0017670981375960955 -0.042367953808070818 0 0.0011041207564771395 -0.040855270267881029 0 6.3396364080815031e-05 -0.041233517476761392 0 0.00069957597115054846 -0.040539950645551562 0 0.0019548158361075698 -0.040725331938521278 0 0.00053396371732446874 -0.039769592050017726 0 0.00018486510749954075 -0.03930067513874292 0 0.00018302340160867913 -0.039303432422757932 0 0.00018286090834096109 -0.039302245459716348 0 0.00011388161555738993 -0.03807576734390504 0 8.491927693749574e-05 -0.037757013441680504 0 0.00018486510749954075 -0.03930067513874292 0 0.00018302340160867913 -0.039303432422757932 0 0.00018392061723016372 -0.039303425289607917 0 0.00018302340160867913 -0.039303432422757932 0 0.00018286090834096109 -0.039302245459716348 0 0.00018045827452855349 -0.039306845501583067 0 0.00011388161555738993 -0.03807576734390504 0 0.00038590317819383723 -0.039499869001416707 0 0.00038667659227972767 -0.038212765708392604 0 0.00038590317819383723 -0.039499869001416707 0 0.00032344675837317363 -0.03873134334470775 0 0.00029690743606609096 -0.038831742434808664 0 0.00020913129859008973 -0.038775702197650502 0 0.00069957597115054846 -0.040539950645551562 0 9.6842997298410323e-05 -0.039927859328278581 0 0.00053396371732446874 -0.039769592050017726 0 0.00069957597115054846 -0.040539950645551562 0 -7.7745223763220269e-05 -0.040603360385676704 0 9.6842997298410323e-05 -0.039927859328278581 0 0.0007423664034509822 -0.041805951366594395 0 0.00038590317819383723 -0.039499869001416707 0 0.00017695241924528416 -0.039313156239609875 0 0.00018286090834096109 -0.039302245459716348 0 0.00018045827452855349 -0.039306845501583067 0 0.00018440617137980525 -0.037425873509305797 0 0.00019483508746779868 -0.037329502327567363 0 0.00019368885794335971 -0.037385408472151702 0 0.00012313226441112445 -0.038570496270695864 0 3.4123911176090347e-05 -0.036926673264382343 0 6.4684665629758729e-05 -0.037079031611386343 0 0.00021087574818767007 -0.037169903113984354 0 0.00019483508746779868 -0.037329502327567363 0 0.00017695241924528416 -0.039313156239609875 0 0.00018045827452855349 -0.039306845501583067 0 0.00017739650049918514 -0.039310607228378133 0 0.0007423664034509822 -0.041805951366594395 0 0.00012313226441112445 -0.038570496270695864 0 0.00023587980127657334 -0.037117068691594965 0 8.491927693749574e-05 -0.037757013441680504 0 0.00012313226441112445 -0.038570496270695864 0 8.491927693749574e-05 -0.037757013441680504 0 6.4684665629758729e-05 -0.037079031611386343 0 0.00021087574818767007 -0.037169903113984354 0 0.00024067255348163635 -0.037050471354369549 0 0.00018045827452855349 -0.039306845501583067 0 0.00017739650049918514 -0.039310607228378133 0 0.00018392061723016372 -0.039303425289607917 0 0.00018302340160867913 -0.039303432422757932 0 0.00018045827452855349 -0.039306845501583067 0 0.00018392061723016372 -0.039303425289607917 0 8.491927693749574e-05 -0.037757013441680504 0 0.00020312552818664906 -0.037404298797579671 0 0.00022944184942483596 -0.037068086517484715 0 0.00031343785743364927 -0.037045124605082989 0 0.00030451370567045384 -0.037139526131161768 0 0.00011639064570282876 -0.037683874470038084 0 0.00011293507533708197 -0.037696426463165365 0 0.00013155312777130384 -0.037692382996836735 0 0.00021087574818767007 -0.037169903113984354 0 0.00022944184942483596 -0.037068086517484715 0 0.00030451370567045384 -0.037139526131161768 0 0.00021087574818767007 -0.037169903113984354 0 0.00030451370567045384 -0.037139526131161768 0 0.00026531358809503218 -0.037240510985050504 0 0.00040596403901811153 -0.037151072804149962 0 0.00030451370567045384 -0.037139526131161768 0 0.00036846012132651582 -0.037067338527473313 0 0.00040596403901811153 -0.037151072804149962 0 0.00030451370567045384 -0.037139526131161768 0 0.00032937744718777585 -0.037221217993801001 0 0.00031343785743364927 -0.037045124605082989 0 0.00030451370567045384 -0.037139526131161768 0 0.00036846012132651582 -0.037067338527473313 0 0.00020312552818664906 -0.037404298797579671 0 0.00023933678719719132 -0.037235399686976214 0 0.00036890999714252979 -0.037264017675683651 0 0.00032937744718777585 -0.037221217993801001 0 0.00027476483168668245 -0.037309984873932313 0 0.00040596403901811153 -0.037151072804149962 0 0.00036890999714252979 -0.037264017675683651 0 0.00032937744718777585 -0.037221217993801001 0 0.00030451370567045384 -0.037139526131161768 0 0.00032937744718777585 -0.037221217993801001 0 0.00026531358809503218 -0.037240510985050504 0 0.00032937744718777585 -0.037221217993801001 0 0.00026531358809503218 -0.037240510985050504 0 0.00027476483168668245 -0.037309984873932313 0 0.00036890999714252979 -0.037264017675683651 0 0.00027476483168668245 -0.037309984873932313 0 0.00028080308258252251 -0.0373834270542917 0 0.00027476483168668245 -0.037309984873932313 0 0.00019483508746779868 -0.037329502327567363 0 0.00022034560878315425 -0.037388848704861442 0 0.00021087574818767007 -0.037169903113984354 0 0.00026531358809503218 -0.037240510985050504 0 0.00019483508746779868 -0.037329502327567363 0 0.00026531358809503218 -0.037240510985050504 0 0.00027476483168668245 -0.037309984873932313 0 0.00019483508746779868 -0.037329502327567363 0 0.00019483508746779868 -0.037329502327567363 0 0.00019368885794335971 -0.037385408472151702 0 0.00019295063364685767 -0.037390847559426982 0 0.00019483508746779868 -0.037329502327567363 0 0.00019295063364685767 -0.037390847559426982 0 0.00022034560878315425 -0.037388848704861442 0 0.00022034560878315425 -0.037388848704861442 0 0.00019341177631431974 -0.037444026062534802 0 0.00023417536484556927 -0.037455626921208941 0 0.00022034560878315425 -0.037388848704861442 0 0.00028080308258252251 -0.0373834270542917 0 0.00023417536484556927 -0.037455626921208941 0 0.00019295063364685767 -0.037390847559426982 0 0.00022034560878315425 -0.037388848704861442 0 0.00019341177631431974 -0.037444026062534802 0 0.00028080308258252251 -0.0373834270542917 0 0.00023417536484556927 -0.037455626921208941 0 0.00030033773035340202 -0.037439244750679751 0 0.00042454136094743938 -0.037322396207281568 0 0.00036890999714252979 -0.037264017675683651 0 0.00028080308258252251 -0.0373834270542917 0 0.00027476483168668245 -0.037309984873932313 0 0.00022034560878315425 -0.037388848704861442 0 0.00028080308258252251 -0.0373834270542917 0 0.00015899284191748356 -0.037485871558512726 0 0.00018220763292400917 -0.03743974323856275 0 0.00017913212840574015 -0.037441386389682502 0 0.00015899284191748356 -0.037485871558512726 0 0.00016851087756960468 -0.03746558833996539 0 0.00013974771954356071 -0.037508629367398037 0 0.00015899284191748356 -0.037485871558512726 0 0.00016851087756960468 -0.03746558833996539 0 0.00018220763292400917 -0.03743974323856275 0 0.00019007430060428673 -0.037422076068619657 0 0.00018220763292400917 -0.03743974323856275 0 0.0001907473177436158 -0.03740729328207839 0 0.00018220763292400917 -0.03743974323856275 0 0.0001907473177436158 -0.03740729328207839 0 0.00017913212840574015 -0.037441386389682502 0 0.00019368885794335971 -0.037385408472151702 0 0.00019295063364685767 -0.037390847559426982 0 0.0001907473177436158 -0.03740729328207839 0 0.00019115613524683139 -0.03741265061316406 0 0.00019368885794335971 -0.037385408472151702 0 0.0001907473177436158 -0.03740729328207839 0 0.00019295063364685767 -0.037390847559426982 0 0.0001907473177436158 -0.03740729328207839 0 0.00017913212840574015 -0.037441386389682502 0 0.00017913212840574015 -0.037441386389682502 0 0.00019341177631431974 -0.037444026062534802 0 0.00016182723121351683 -0.037488526454050618 0 0.00019295063364685767 -0.037390847559426982 0 0.00017913212840574015 -0.037441386389682502 0 0.00019341177631431974 -0.037444026062534802 0 0.00015899284191748356 -0.037485871558512726 0 0.00016182723121351683 -0.037488526454050618 0 0.00014154421910610125 -0.037509349121585232 0 0.00015899284191748356 -0.037485871558512726 0 0.00017913212840574015 -0.037441386389682502 0 0.00016182723121351683 -0.037488526454050618 0 0.00010957026984591891 -0.037285945791522696 0 0.00028654114754449249 -0.038371132644124652 0 0.00016182723121351683 -0.037488526454050618 0 0.00014154421910610125 -0.037509349121585232 0 0.0001410520051303256 -0.037542776707444589 0 0.00014154421910610125 -0.037509349121585232 0 0.00011531402506543625 -0.037514521463690866 0 0.0001410520051303256 -0.037542776707444589 0 0.00015899284191748356 -0.037485871558512726 0 0.00014154421910610125 -0.037509349121585232 0 0.00011531402506543625 -0.037514521463690866 0 0.00028654114754449249 -0.038371132644124652 0 0.000313137486750175 -0.040968491956356039 0 0.00018753303916312403 -0.041130230264081774 0 0.000246812869815071 -0.043167741589515383 0 0.00011213996767065352 -0.037556524262778036 0 4.8017201223881678e-05 -0.03741158248110369 0 -0.00089391447537142212 -0.037782335716944011 0 -0.00030553025729029431 -0.038323350590568704 0 0.00011213996767065352 -0.037556524262778036 0 -0.00089391447537142212 -0.037782335716944011 0 0.00028654114754449249 -0.038371132644124652 0 0.00010094044742020042 -0.037551440138444594 0 0.00015899284191748356 -0.037485871558512726 0 9.8037965028242562e-05 -0.037582364974427386 0 0.00013974771954356071 -0.037508629367398037 0 9.8037965028242562e-05 -0.037582364974427386 0 0.00011213996767065352 -0.037556524262778036 0 0.00013974771954356071 -0.037508629367398037 0 0.00016851087756960468 -0.03746558833996539 0 0.00013974771954356071 -0.037508629367398037 0 0.00014318993866943347 -0.037448001650774311 0 0.00011213996767065352 -0.037556524262778036 0 0.00013974771954356071 -0.037508629367398037 0 0.00014318993866943347 -0.037448001650774311 0 0.00064290563636933053 -0.045177039764201163 0 0.00049608700074091968 -0.045218694205161357 0 0.00057863959079687576 -0.044895337990887532 0 0.00049608700074091968 -0.045218694205161357 0 0.0003912755154658072 -0.045034670245140608 0 0.00057863959079687576 -0.044895337990887532 0 0.00091260226098409142 -0.045083025359740209 0 0.00064290563636933053 -0.045177039764201163 0 0.00057863959079687576 -0.044895337990887532 0 0.00011213996767065352 -0.037556524262778036 0 0.00014318993866943347 -0.037448001650774311 0 4.8017201223881678e-05 -0.03741158248110369 0 0.00034064367729298939 -0.041095299501754758 0 0.00018753303916312403 -0.041130230264081774 0 0.00049608700074091968 -0.045218694205161357 0 0.00024503365739989702 -0.04510810330343959 0 0.00017784711721268562 -0.045298830049579804 0 0.00049608700074091968 -0.045218694205161357 0 0.00024503365739989702 -0.04510810330343959 0 0.0003912755154658072 -0.045034670245140608 0 0.00024503365739989702 -0.04510810330343959 0 0.0003912755154658072 -0.045034670245140608 0 0.00026705076543938002 -0.04489546014204171 0 0.0003912755154658072 -0.045034670245140608 0 0.00026705076543938002 -0.04489546014204171 0 0.00057863959079687576 -0.044895337990887532 0 7.9733995315871514e-05 -0.045332624802478586 0 0.00028479809404352227 -0.044813391461366939 0 0.00026705076543938002 -0.04489546014204171 0 0.0003975005206136143 -0.044765251488703993 0 0.00057863959079687576 -0.044895337990887532 0 0.00055799257903474668 -0.044638314292619656 0 0.0003975005206136143 -0.044765251488703993 0 0.00057863959079687576 -0.044895337990887532 0 0.0007778962334504271 -0.044647245147616157 0 0.00086577823346812416 -0.044816519587849053 0 0.00057863959079687576 -0.044895337990887532 0 -4.6399139834140794e-08 -0.044999870731251161 0 5.6610436819115393e-05 -0.044952257462270467 0 3.5915346190919414e-05 -0.044992539927859461 0 2.9551806026209517e-05 -0.044873535681790394 0 -4.6399139834140794e-08 -0.044999870731251161 0 5.6610436819115393e-05 -0.044952257462270467 0 2.9551806026209517e-05 -0.044873535681790394 0 0.00026705076543938002 -0.04489546014204171 0 5.6610436819115393e-05 -0.044952257462270467 0 0.00013145356204557717 -0.045004294826177953 0 0.00026705076543938002 -0.04489546014204171 0 5.6610436819115393e-05 -0.044952257462270467 0 0.00013145356204557717 -0.045004294826177953 0 3.5915346190919414e-05 -0.044992539927859461 0 7.4222185394002649e-05 -0.045015352560180806 0 0.00013145356204557717 -0.045004294826177953 0 5.6610436819115393e-05 -0.044952257462270467 0 3.5915346190919414e-05 -0.044992539927859461 0 7.9733995315871514e-05 -0.045332624802478586 0 0.000246812869815071 -0.043167741589515383 0 -4.6399139834140794e-08 -0.044999870731251161 0 3.5915346190919414e-05 -0.044992539927859461 0 5.0704150207974776e-08 -0.045000022931107206 0 5.0704150207974776e-08 -0.045000022931107206 0 2.700947157317986e-05 -0.045001393353603834 0 7.6720059833392154e-09 -0.045000004209206489 0 3.5915346190919414e-05 -0.044992539927859461 0 5.0704150207974776e-08 -0.045000022931107206 0 2.700947157317986e-05 -0.045001393353603834 0 0.000246812869815071 -0.043167741589515383 0 -0.00039642669107376751 -0.042121391779683048 0 3.5681961776860511e-05 -0.044984026605240278 0 2.700947157317986e-05 -0.045001393353603834 0 2.6801839168333898e-05 -0.044995440201359517 0 3.5915346190919414e-05 -0.044992539927859461 0 7.4222185394002649e-05 -0.045015352560180806 0 2.700947157317986e-05 -0.045001393353603834 0 0.000246812869815071 -0.043167741589515383 0 -0.00025835014945444602 -0.044659560194975682 0 -0.00030553025729029431 -0.038323350590568704 0 -0.00089391447537142212 -0.037782335716944011 0 -0.0011536548745092442 -0.038563154317773726 0 0.00028654114754449249 -0.038371132644124652 0 -0.00039642669107376751 -0.042121391779683048 0 0.00096017320506982195 -0.040387464596414686 0 -0.00038723829890601412 -0.040714410374861183 0 0.00019656916683947394 -0.041586138349875242 0 -0.00038723829890601412 -0.040714410374861183 0 -0.00062624951363309043 -0.041435795944697741 0 0.00019656916683947394 -0.041586138349875242 0 -0.00039642669107376751 -0.042121391779683048 0 6.1846811687596995e-05 -0.043430555661223356 0 2.700947157317986e-05 -0.045001393353603834 0 2.6801839168333898e-05 -0.044995440201359517 0 7.6720059833392154e-09 -0.045000004209206489 0 -1.2264703887316505e-08 -0.044999931820236864 0 1.0328513187920914e-08 -0.045000032495874386 0 2.506182365845079e-05 -0.044960190595877116 0 3.0001048582853384e-05 -0.044932440417674878 0 -1.2264703887316505e-08 -0.044999931820236864 0 2.506182365845079e-05 -0.044960190595877116 0 -0.00039642669107376751 -0.042121391779683048 0 -6.1747117147861411e-08 -0.045000862420021756 0 6.1846811687596995e-05 -0.043430555661223356 0 0.00016843498222510032 -0.044514636495833058 0 -8.8510251214094202e-09 -0.044999981546280592 0 7.0710524688537521e-07 -0.044996027578656395 0 1.7256473318593594e-08 -0.04499999715837677 0 7.0710524688537521e-07 -0.044996027578656395 0 3.2539403477422861e-06 -0.044987928743506676 0 8.5407212244460483e-07 -0.044997320379782324 0 2.0667946844258377e-07 -0.045000156424902078 0 6.1846811687596995e-05 -0.043430555661223356 0 -8.8510251214094202e-09 -0.044999981546280592 0 7.0710524688537521e-07 -0.044996027578656395 0 3.2539403477422861e-06 -0.044987928743506676 0 0.00069449809059649579 -0.042760781903845337 0 0.0013606332599197123 -0.042882070513288073 0 0.00067389985409883478 -0.043981846984885282 0 0.000313137486750175 -0.040968491956356039 0 0.0006925646484750664 -0.043169968907545979 0 6.1846811687596995e-05 -0.043430555661223356 0 0.000313137486750175 -0.040968491956356039 0 0.00069449809059649579 -0.042760781903845337 0 0.00067389985409883478 -0.043981846984885282 0 0.00033794152878507142 -0.043877387837920369 0 0.00060992835075504353 -0.042089493810666408 0 0.00063809356275322364 -0.042045993227451804 0 0.00058631799276062722 -0.042044009482444092 0 4.3643124804006824e-06 -0.044997086158578836 0 8.5407212244460483e-07 -0.044997320379782324 0 1.2671571660917194e-05 -0.044993965103181509 0 4.3643124804006824e-06 -0.044997086158578836 0 1.7256473318593594e-08 -0.04499999715837677 0 -3.6247858017296673e-08 -0.044999969833758341 0 0.00067389985409883478 -0.043981846984885282 0 0.00033794152878507142 -0.043877387837920369 0 1.2671571660917194e-05 -0.044993965103181509 0 4.3643124804006824e-06 -0.044997086158578836 0 2.0610892528844299e-06 -0.04499813001678938 0 8.5407212244460483e-07 -0.044997320379782324 0 4.3643124804006824e-06 -0.044997086158578836 0 2.0610892528844299e-06 -0.04499813001678938 0 1.7256473318593594e-08 -0.04499999715837677 0 2.0610892528844299e-06 -0.04499813001678938 0 1.7256473318593594e-08 -0.04499999715837677 0 1.0390694759003952e-06 -0.044998074286293245 0 7.0710524688537521e-07 -0.044996027578656395 0 1.7256473318593594e-08 -0.04499999715837677 0 1.0390694759003952e-06 -0.044998074286293245 0 7.0710524688537521e-07 -0.044996027578656395 0 1.0390694759003952e-06 -0.044998074286293245 0 8.5407212244460483e-07 -0.044997320379782324 0 2.0610892528844299e-06 -0.04499813001678938 0 1.0390694759003952e-06 -0.044998074286293245 0 8.5407212244460483e-07 -0.044997320379782324 0 0.000313137486750175 -0.040968491956356039 0 0.00030879625651437269 -0.039669529691654798 0 0.00060992835075504353 -0.042089493810666408 0 0.0005318769076526808 -0.042094802085855684 0 0.00058631799276062722 -0.042044009482444092 0 0.00011531402506543625 -0.037514521463690866 0 9.3354745221192739e-05 -0.03756875140277275 0 0.0001410520051303256 -0.037542776707444589 0 0.00063809356275322364 -0.042045993227451804 0 0.00058631799276062722 -0.042044009482444092 0 0.00059419141853754207 -0.042003154156004363 0 0.0005318769076526808 -0.042094802085855684 0 0.00053853530724018309 -0.041994199941450122 0 0.00046619892040501265 -0.042034770718367476 0 0.0005318769076526808 -0.042094802085855684 0 0.00058631799276062722 -0.042044009482444092 0 0.00053853530724018309 -0.041994199941450122 0 0.00053853530724018309 -0.041994199941450122 0 0.00056767273345975579 -0.041934475335993794 0 0.00050920372681636367 -0.041905818168500905 0 0.00053853530724018309 -0.041994199941450122 0 0.00059419141853754207 -0.042003154156004363 0 0.00056767273345975579 -0.041934475335993794 0 0.00059419141853754207 -0.042003154156004363 0 0.00056767273345975579 -0.041934475335993794 0 0.00062111406420942031 -0.041984230469374294 0 0.00058631799276062722 -0.042044009482444092 0 0.00053853530724018309 -0.041994199941450122 0 0.00059419141853754207 -0.042003154156004363 0 2.0082273141130917e-05 -0.044944329107665826 0 9.2953856392837392e-06 -0.044965920125559312 0 8.0712797189759645e-06 -0.044975614793327748 0 0.00023570396182256309 -0.043475222833189012 0 0.0003596905836224851 -0.043461803770677314 0 0.00056767273345975579 -0.041934475335993794 0 0.00050920372681636367 -0.041905818168500905 0 0.00050885205775115473 -0.041890001697090742 0 2.0082273141130917e-05 -0.044944329107665826 0 2.0353722727099921e-05 -0.044954830088124002 0 3.3814870973191842e-05 -0.044927706410510748 0 0.00023570396182256309 -0.043475222833189012 0 0.0006745498155716781 -0.042676907013604826 0 0.00067389985409883478 -0.043981846984885282 0 1.2671571660917194e-05 -0.044993965103181509 0 1.9126677887465277e-05 -0.045069667375221299 0 0.00016843498222510032 -0.044514636495833058 0 2.8254483063248416e-05 -0.044915905054410843 0 0.0006925646484750664 -0.043169968907545979 0 8.1642192497960973e-05 -0.043803397948191256 0 8.1642192497960973e-05 -0.043803397948191256 0 0.0003596905836224851 -0.043461803770677314 0 -3.6247858017296673e-08 -0.044999969833758341 0 1.2671571660917194e-05 -0.044993965103181509 0 1.9126677887465277e-05 -0.045069667375221299 0 3.8272850168638457e-07 -0.04499820219028202 0 8.1642192497960973e-05 -0.043803397948191256 0 4.3643124804006824e-06 -0.044997086158578836 0 -3.6247858017296673e-08 -0.044999969833758341 0 1.2671571660917194e-05 -0.044993965103181509 0 0.00063809356275322364 -0.042045993227451804 0 0.00065767184715633269 -0.04201460547238918 0 0.00062111406420942031 -0.041984230469374294 0 0.00063809356275322364 -0.042045993227451804 0 0.00059419141853754207 -0.042003154156004363 0 0.00062111406420942031 -0.041984230469374294 0 9.2953856392837392e-06 -0.044965920125559312 0 3.342175746045538e-06 -0.044985148322994453 0 8.0712797189759645e-06 -0.044975614793327748 0 2.5427940830978134e-09 -0.044999964466858985 0 1.071045868165104e-06 -0.044992631156716312 0 1.8372792147476154e-09 -0.044999972434774105 0 1.071045868165104e-06 -0.044992631156716312 0 3.342175746045538e-06 -0.044985148322994453 0 1.8372792147476154e-09 -0.044999972434774105 0 1.071045868165104e-06 -0.044992631156716312 0 9.2953856392837392e-06 -0.044965920125559312 0 3.342175746045538e-06 -0.044985148322994453 0 1.8372792147476154e-09 -0.044999972434774105 0 5.8808110782173531e-06 -0.044984346570517884 0 8.0712797189759645e-06 -0.044975614793327748 0 3.342175746045538e-06 -0.044985148322994453 0 1.8372792147476154e-09 -0.044999972434774105 0 8.0712797189759645e-06 -0.044975614793327748 0 1.8372792147476154e-09 -0.044999972434774105 0 4.1575508849980107e-09 -0.044999977996346877 0 5.8808110782173531e-06 -0.044984346570517884 0 5.8808110782173531e-06 -0.044984346570517884 0 8.0712797189759645e-06 -0.044975614793327748 0 1.4384099826465658e-05 -0.044969354663929442 0 2.0082273141130917e-05 -0.044944329107665826 0 8.0712797189759645e-06 -0.044975614793327748 0 2.0353722727099921e-05 -0.044954830088124002 0 2.0353722727099921e-05 -0.044954830088124002 0 3.2800130966609103e-05 -0.044940656014668331 0 3.3814870973191842e-05 -0.044927706410510748 0 2.0353722727099921e-05 -0.044954830088124002 0 2.4789351201139079e-05 -0.044954294265834437 0 3.2800130966609103e-05 -0.044940656014668331 0 2.0353722727099921e-05 -0.044954830088124002 0 2.4789351201139079e-05 -0.044954294265834437 0 1.4384099826465658e-05 -0.044969354663929442 0 8.0712797189759645e-06 -0.044975614793327748 0 2.0353722727099921e-05 -0.044954830088124002 0 1.4384099826465658e-05 -0.044969354663929442 0 2.4789351201139079e-05 -0.044954294265834437 0 1.4384099826465658e-05 -0.044969354663929442 0 2.3079179869284323e-05 -0.044961341776546426 0 1.4384099826465658e-05 -0.044969354663929442 0 2.3079179869284323e-05 -0.044961341776546426 0 8.3491846967079595e-06 -0.0449814953019428 0 2.4789351201139079e-05 -0.044954294265834437 0 2.3079179869284323e-05 -0.044961341776546426 0 3.2306147970267453e-05 -0.044944443028409137 0 2.3079179869284323e-05 -0.044961341776546426 0 3.5575000839887849e-05 -0.044947345948985022 0 2.1692193092264768e-05 -0.044974152736212435 0 2.3079179869284323e-05 -0.044961341776546426 0 8.3491846967079595e-06 -0.0449814953019428 0 2.1692193092264768e-05 -0.044974152736212435 0 2.8328152735030342e-09 -0.04499998271881829 0 8.3491846967079595e-06 -0.0449814953019428 0 5.6062828925013937e-06 -0.044990251740662943 0 4.1575508849980107e-09 -0.044999977996346877 0 2.8328152735030342e-09 -0.04499998271881829 0 8.3491846967079595e-06 -0.0449814953019428 0 4.1575508849980107e-09 -0.044999977996346877 0 5.8808110782173531e-06 -0.044984346570517884 0 8.3491846967079595e-06 -0.0449814953019428 0 5.8808110782173531e-06 -0.044984346570517884 0 1.4384099826465658e-05 -0.044969354663929442 0 8.3491846967079595e-06 -0.0449814953019428 0 0.00043903030226146426 -0.040971298411371308 0 8.9999023960032556e-05 -0.040818284740598856 0 0.00047098049406860002 -0.040746615498294919 0 0.00043903030226146426 -0.040971298411371308 0 8.9999023960032556e-05 -0.040818284740598856 0 0.00016183356572991824 -0.041261710385161111 0 8.9999023960032556e-05 -0.040818284740598856 0 0.00015162908719092575 -0.040509165953331927 0 0.00047098049406860002 -0.040746615498294919 0 0.00015162908719092575 -0.040509165953331927 0 0.00047098049406860002 -0.040746615498294919 0 0.00045273159531545709 -0.040214160046286584 0 8.9999023960032556e-05 -0.040818284740598856 0 0.00015162908719092575 -0.040509165953331927 0 -0.00023915348261207214 -0.040397672919628647 0 0.00015162908719092575 -0.040509165953331927 0 -0.00023915348261207214 -0.040397672919628647 0 -3.4021899973465345e-05 -0.040148721392596044 0 0.00043903030226146426 -0.040971298411371308 0 0.00047098049406860002 -0.040746615498294919 0 0.00063485451797046211 -0.04089346752540246 0 0.00047098049406860002 -0.040746615498294919 0 0.00063485451797046211 -0.04089346752540246 0 0.00065238695942337118 -0.040812415031951821 0 0.00043903030226146426 -0.040971298411371308 0 0.00063485451797046211 -0.04089346752540246 0 0.00063480704617695824 -0.040933480029977813 0 0.00063485451797046211 -0.04089346752540246 0 0.00059685186633130598 -0.041169828682505551 0 0.00063480704617695824 -0.040933480029977813 0 0.00063485451797046211 -0.04089346752540246 0 0.00059685186633130598 -0.041169828682505551 0 0.00068280371597700712 -0.041140120595482263 0 0.00059685186633130598 -0.041169828682505551 0 0.00063480704617695824 -0.040933480029977813 0 0.00038695612598412481 -0.041208443713627529 0 0.00026114372907608415 -0.04240384958249311 0 0.00047020598587944071 -0.043060786856817905 0 2.3079179869284323e-05 -0.044961341776546426 0 3.5575000839887849e-05 -0.044947345948985022 0 3.2306147970267453e-05 -0.044944443028409137 0 0.00064182498013901621 -0.040884572715759723 0 0.00084477506788086236 -0.040771466982176742 0 0.0008780155519264362 -0.041037724602979699 0 0.00026114372907608415 -0.04240384958249311 0 0.00026545256639010643 -0.041745490768319328 0 0.00059685186633130598 -0.041169828682505551 0 0.00038695612598412481 -0.041208443713627529 0 0.00039388178927366276 -0.041429949132239088 0 0.00078392544027653006 -0.040789891370448028 0 0.00026114372907608415 -0.04240384958249311 0 0.00064182498013901621 -0.040884572715759723 0 0.0008780155519264362 -0.041037724602979699 0 0.00067435793108932337 -0.041093149688431044 0 0.00043903030226146426 -0.040971298411371308 0 0.00064182498013901621 -0.040884572715759723 0 0.00067435793108932337 -0.041093149688431044 0 0.00041412891832275474 -0.04100979630015255 0 0.00078392544027653006 -0.040789891370448028 0 0.00067435793108932337 -0.041093149688431044 0 0.00052345315270486601 -0.041309322965379536 0 0.00092972896540157801 -0.04137796693216441 0 0.00043903030226146426 -0.040971298411371308 0 0.00067435793108932337 -0.041093149688431044 0 0.00052345315270486601 -0.041309322965379536 0 2.4789351201139079e-05 -0.044954294265834437 0 3.2306147970267453e-05 -0.044944443028409137 0 3.2800130966609103e-05 -0.044940656014668331 0 0.00047020598587944071 -0.043060786856817905 0 0.00047336324332186063 -0.043274429358721438 0 0.0008780155519264362 -0.041037724602979699 0 0.00067435793108932337 -0.041093149688431044 0 0.00092972896540157801 -0.04137796693216441 0 0.00047336324332186063 -0.043274429358721438 0 0.0006745498155716781 -0.042676907013604826 0 0.00092972896540157801 -0.04137796693216441 0 0.00064753442060723986 -0.041677739694464783 0 0.00095875000002287067 -0.041769042943738482 0 0.00048502288398868937 -0.041680257081124487 0 0.00030954445013244578 -0.041613223676783669 0 0.00052345315270486601 -0.041309322965379536 0 0.00092972896540157801 -0.04137796693216441 0 0.00064753442060723986 -0.041677739694464783 0 0.00052345315270486601 -0.041309322965379536 0 0.00064753442060723986 -0.041677739694464783 0 0.00028263754343269047 -0.041590870071571952 0 0.00052345315270486601 -0.041309322965379536 0 0.00028263754343269047 -0.041590870071571952 0 0.00016183356572991824 -0.041261710385161111 0 0.00028263754343269047 -0.041590870071571952 0 0.00016183356572991824 -0.041261710385161111 0 3.3494479579936833e-05 -0.041668064490211133 0 0.00043903030226146426 -0.040971298411371308 0 0.00052345315270486601 -0.041309322965379536 0 0.00016183356572991824 -0.041261710385161111 0 0.00016183356572991824 -0.041261710385161111 0 -0.00027912363050005146 -0.041044164884046171 0 -0.00015817566132531424 -0.041364906846538298 0 8.9999023960032556e-05 -0.040818284740598856 0 0.00016183356572991824 -0.041261710385161111 0 -0.00027912363050005146 -0.041044164884046171 0 0.00016183356572991824 -0.041261710385161111 0 3.3494479579936833e-05 -0.041668064490211133 0 -0.00015817566132531424 -0.041364906846538298 0 3.3494479579936833e-05 -0.041668064490211133 0 -0.00015817566132531424 -0.041364906846538298 0 -0.00024897695740339233 -0.041603312157641514 0 3.3494479579936833e-05 -0.041668064490211133 0 6.6306154858953513e-05 -0.041893835606776175 0 -0.00025664908370827747 -0.041905018280593655 0 3.3494479579936833e-05 -0.041668064490211133 0 -0.00025664908370827747 -0.041905018280593655 0 -0.00024897695740339233 -0.041603312157641514 0 0.00028263754343269047 -0.041590870071571952 0 3.3494479579936833e-05 -0.041668064490211133 0 0.00027431288660359954 -0.041809167788640279 0 3.3494479579936833e-05 -0.041668064490211133 0 0.00027431288660359954 -0.041809167788640279 0 6.6306154858953513e-05 -0.041893835606776175 0 0.00027431288660359954 -0.041809167788640279 0 0.00022469839078192164 -0.04198436763884094 0 6.6306154858953513e-05 -0.041893835606776175 0 0.00027431288660359954 -0.041809167788640279 0 0.00022469839078192164 -0.04198436763884094 0 0.00036051383456786097 -0.041937037259876041 0 0.00022469839078192164 -0.04198436763884094 0 5.0203678012871508e-05 -0.042061337101470114 0 6.6306154858953513e-05 -0.041893835606776175 0 5.0203678012871508e-05 -0.042061337101470114 0 -0.00021789003763734584 -0.042200450901030688 0 -0.00025664908370827747 -0.041905018280593655 0 5.0203678012871508e-05 -0.042061337101470114 0 6.6306154858953513e-05 -0.041893835606776175 0 -0.00025664908370827747 -0.041905018280593655 0 0.00039889230028584266 -0.041724799597707619 0 0.00051866962612752161 -0.041814328404201476 0 0.00043561051625236216 -0.041864523054840883 0 0.00048502288398868937 -0.041680257081124487 0 0.0006745498155716781 -0.042676907013604826 0 0.00050920372681636367 -0.041905818168500905 0 0.00051866962612752161 -0.041814328404201476 0 0.00043561051625236216 -0.041864523054840883 0 0.00056646952650046465 -0.041874250966450574 0 0.0006745498155716781 -0.042676907013604826 0 0.00039889230028584266 -0.041724799597707619 0 0.00028263754343269047 -0.041590870071571952 0 0.00027431288660359954 -0.041809167788640279 0 0.00043561051625236216 -0.041864523054840883 0 0.00036783454358032251 -0.041835050385252384 0 0.00036051383456786097 -0.041937037259876041 0 0.00039889230028584266 -0.041724799597707619 0 0.00043561051625236216 -0.041864523054840883 0 0.00036783454358032251 -0.041835050385252384 0 0.00039889230028584266 -0.041724799597707619 0 0.00027431288660359954 -0.041809167788640279 0 0.00036783454358032251 -0.041835050385252384 0 0.00027431288660359954 -0.041809167788640279 0 0.00036783454358032251 -0.041835050385252384 0 0.00036051383456786097 -0.041937037259876041 0 0.00022469839078192164 -0.04198436763884094 0 0.00036051383456786097 -0.041937037259876041 0 0.00036008806036767738 -0.042044967788121258 0 0.00036051383456786097 -0.041937037259876041 0 0.00045611108598662693 -0.041959045973451313 0 0.00036008806036767738 -0.042044967788121258 0 0.00043561051625236216 -0.041864523054840883 0 0.00036051383456786097 -0.041937037259876041 0 0.00045611108598662693 -0.041959045973451313 0 0.00053853530724018309 -0.041994199941450122 0 0.00045611108598662693 -0.041959045973451313 0 0.00046619892040501265 -0.042034770718367476 0 0.00053853530724018309 -0.041994199941450122 0 0.00050920372681636367 -0.041905818168500905 0 0.00045611108598662693 -0.041959045973451313 0 0.00050920372681636367 -0.041905818168500905 0 0.00043561051625236216 -0.041864523054840883 0 0.00045611108598662693 -0.041959045973451313 0 0.00045611108598662693 -0.041959045973451313 0 0.00046619892040501265 -0.042034770718367476 0 0.00036008806036767738 -0.042044967788121258 0 0.0005318769076526808 -0.042094802085855684 0 0.00046619892040501265 -0.042034770718367476 0 0.0003878399090438626 -0.042123657969528355 0 0.00036008806036767738 -0.042044967788121258 0 0.0003878399090438626 -0.042123657969528355 0 0.0002397151260771131 -0.042115767650204243 0 0.00046619892040501265 -0.042034770718367476 0 0.00036008806036767738 -0.042044967788121258 0 0.0003878399090438626 -0.042123657969528355 0 0.00019341177631431974 -0.037444026062534802 0 0.00017473875449921841 -0.037519055658641984 0 0.00023417536484556927 -0.037455626921208941 0 0.00019341177631431974 -0.037444026062534802 0 0.00016182723121351683 -0.037488526454050618 0 0.00017473875449921841 -0.037519055658641984 0 0.00016182723121351683 -0.037488526454050618 0 0.0001410520051303256 -0.037542776707444589 0 0.00017473875449921841 -0.037519055658641984 0 0.00030879625651437269 -0.039669529691654798 0 0.0003150646186579403 -0.039953105633920211 0 5.0203678012871508e-05 -0.042061337101470114 0 0.00011404482934345602 -0.042199674490316107 0 -0.00021789003763734584 -0.042200450901030688 0 0.00014070898856832919 -0.038872326582792403 0 -0.00043450391601821114 -0.038464469820079263 0 -0.00033422676214974855 -0.03486478047536138 0 -0.0006913091201309863 -0.034888975520341481 0 -0.00061804493696402828 -0.034760848114124568 0 0.00022469839078192164 -0.04198436763884094 0 5.0203678012871508e-05 -0.042061337101470114 0 0.0002397151260771131 -0.042115767650204243 0 0.0003150646186579403 -0.039953105633920211 0 0.00014070898856832919 -0.038872326582792403 0 0.0003878399090438626 -0.042123657969528355 0 0.0002397151260771131 -0.042115767650204243 0 0.00017108607445706753 -0.042142678120974608 0 5.0203678012871508e-05 -0.042061337101470114 0 0.0002397151260771131 -0.042115767650204243 0 0.00011404482934345602 -0.042199674490316107 0 0.00022469839078192164 -0.04198436763884094 0 0.00036008806036767738 -0.042044967788121258 0 0.0002397151260771131 -0.042115767650204243 0 -0.00033801572544441471 -0.040831474636369783 0 0.00014070898856832919 -0.038872326582792403 0 0.00017473875449921841 -0.037519055658641984 0 0.00024816564520936186 -0.037514131316884892 0 0.00023417536484556927 -0.037455626921208941 0 0.00024816564520936186 -0.037514131316884892 0 0.00030033773035340202 -0.037439244750679751 0 0.00035863924929018366 -0.037433452043297552 0 -0.00033422676214974855 -0.03486478047536138 0 -0.00072412364204614511 -0.034932276838429442 0 -0.0006913091201309863 -0.034888975520341481 0 0.00028080308258252251 -0.0373834270542917 0 0.00030033773035340202 -0.037439244750679751 0 0.00037031603174045947 -0.037410403781129004 0 0.00014070898856832919 -0.038872326582792403 0 -0.00067581185265990287 -0.033964397515940811 0 0.00024816564520936186 -0.037514131316884892 0 0.00023417536484556927 -0.037455626921208941 0 0.00030033773035340202 -0.037439244750679751 0 0.00030033773035340202 -0.037439244750679751 0 0.00037031603174045947 -0.037410403781129004 0 0.00035863924929018366 -0.037433452043297552 0 0.00037466020014294803 -0.033432393509009221 0 -0.00067581185265990287 -0.033964397515940811 0 -0.00020648850565157804 -0.03126077934940491 0 -0.00078359900523666836 -0.032204918257494337 0 0.00057949287315400822 -0.031678460240846591 0 -0.00067581185265990287 -0.033964397515940811 0 -2.0678703155984828e-05 -0.02948321385790046 0 0.00037466020014294803 -0.033432393509009221 0 -2.0678703155984828e-05 -0.02948321385790046 0 -0.00071277559549823874 -0.03495704803130429 0 -0.0006913091201309863 -0.034888975520341481 0 -0.00089417969264470271 -0.034845121197352433 0 -0.00071277559549823874 -0.03495704803130429 0 -0.00089417969264470271 -0.034845121197352433 0 -0.00082253194509648592 -0.035042938410919329 0 -0.00067581185265990287 -0.033964397515940811 0 -0.00082877305527569644 -0.03437276602787788 0 -0.00043450391601821114 -0.038464469820079263 0 -0.00098217764308908533 -0.038309200584004402 0 -0.0006913091201309863 -0.034888975520341481 0 -0.00061804493696402828 -0.034760848114124568 0 -0.00093110903238341144 -0.034679978026895909 0 -0.00099713642361740767 -0.034283951300284742 0 -0.00089417969264470271 -0.034845121197352433 0 -0.0015277423659553271 -0.034676127586138181 0 -0.00098217764308908533 -0.038309200584004402 0 -0.0012259543377760936 -0.033792965087688261 0 -0.0006913091201309863 -0.034888975520341481 0 -0.00093110903238341144 -0.034679978026895909 0 -0.00089417969264470271 -0.034845121197352433 0 -0.00089417969264470271 -0.034845121197352433 0 -0.00082253194509648592 -0.035042938410919329 0 -0.0015277423659553271 -0.034676127586138181 0 -0.0014204018712223945 -0.022785500881240258 0 -2.0678703155984828e-05 -0.02948321385790046 0 -2.0678703155984828e-05 -0.02948321385790046 0 -0.00095091972146575372 -0.027778293256703428 0 -0.00077419423635146864 -0.022425358711286359 0 0.001010399693874089 -0.021826597536369011 0 -0.00040729002561047618 -0.020982933559040906 0 -0.00077419423635146864 -0.022425358711286359 0 -0.0014884223523814663 -0.020505707020365346 0 -0.00040729002561047618 -0.020982933559040906 0 -0.0015670148029752291 -0.020678648408073114 0 -0.0016458340273626871 -0.020556054881004125 0 -0.0014884223523814663 -0.020505707020365346 0 -0.0014036699693501585 -0.020807286111691834 0 -0.0015670148029752291 -0.020678648408073114 0 -0.0014884223523814663 -0.020505707020365346 0 -0.0014204018712223945 -0.022785500881240258 0 -0.0014589778485323724 -0.020119696517220283 0 -0.0015670148029752291 -0.020678648408073114 0 -0.0016458340273626871 -0.020556054881004125 0 -0.0018559709398073944 -0.020599502111074811 0 -0.0014884223523814663 -0.020505707020365346 0 -0.001646088841183212 -0.020239921699020218 0 -0.00040729002561047618 -0.020982933559040906 0 -0.0014884223523814663 -0.020505707020365346 0 -0.001646088841183212 -0.020239921699020218 0 -0.0017661513322024976 -0.020410114733270673 0 -0.0016458340273626871 -0.020556054881004125 0 -0.0014884223523814663 -0.020505707020365346 0 -0.0017661513322024976 -0.020410114733270673 0 -0.0020339269086344525 -0.034231551280368533 0 -0.0019042588653806723 -0.038089094730307957 0 -0.0019830131824882346 -0.034370811266403463 0 -0.0023433264239960403 -0.034199321683094121 0 -0.0019748265925702696 -0.033982966058447646 0 -0.0019830131824882346 -0.034370811266403463 0 -0.0023433264239960403 -0.034199321683094121 0 -0.0015277423659553271 -0.034676127586138181 0 -0.00099713642361740767 -0.034283951300284742 0 -0.0015277423659553271 -0.034676127586138181 0 -0.0019956892669357909 -0.034039152945119049 0 -0.0021835536412827001 -0.026800628214339754 0 -0.00095091972146575372 -0.027778293256703428 0 -0.00098217764308908533 -0.038309200584004402 0 -0.0019042588653806723 -0.038089094730307957 0 -0.0019830131824882346 -0.034370811266403463 0 -0.0015277423659553271 -0.034676127586138181 0 -0.0019956892669357909 -0.034039152945119049 0 -0.0016651557997766336 -0.040682526070463396 0 -0.0014520357690433689 -0.040740145541500704 0 -0.0016077666554139341 -0.040923350732426388 0 -0.0019042588653806723 -0.038089094730307957 0 -0.0027404943231247804 -0.031227102321879387 0 -0.0022114351399600191 -0.039764027634841367 0 -0.0024814769188001374 -0.039736980941530012 0 -0.0023635445530571838 -0.039606007221178692 0 -0.0023433264239960403 -0.034199321683094121 0 -0.0019748265925702696 -0.033982966058447646 0 -0.0032368907838639981 -0.033655426513122991 0 -0.0019042588653806723 -0.038089094730307957 0 -0.0018390407460861951 -0.040758875558744426 0 -0.0022115416060635947 -0.039513602586617756 0 -0.0023635445530571838 -0.039606007221178692 0 -0.0023426474494737119 -0.03944789054222473 0 -0.0022114351399600191 -0.039764027634841367 0 -0.0022115416060635947 -0.039513602586617756 0 -0.0023635445530571838 -0.039606007221178692 0 -0.0014520357690433689 -0.040740145541500704 0 -0.0014898315075096466 -0.041015496562938944 0 -0.0016077666554139341 -0.040923350732426388 0 -0.0014898315075096466 -0.041015496562938944 0 -0.0016077666554139341 -0.040923350732426388 0 -0.0014991183300493594 -0.041046655341349852 0 -0.00070114886429126168 -0.041847100301751934 0 -0.00051706364852233371 -0.041675171834102707 0 -0.00096124077168541796 -0.041467002040939532 0 -0.00070114886429126168 -0.041847100301751934 0 -0.00051706364852233371 -0.041675171834102707 0 -0.00025664908370827747 -0.041905018280593655 0 -0.0010905541643403056 -0.042018461178901886 0 -0.0012597729900302025 -0.041078896472715266 0 -0.00051706364852233371 -0.041675171834102707 0 -0.00025664908370827747 -0.041905018280593655 0 -0.00024897695740339233 -0.041603312157641514 0 -0.00021789003763734584 -0.042200450901030688 0 -0.00056826325096856554 -0.042162847519748761 0 -0.00025664908370827747 -0.041905018280593655 0 -0.00098217764308908533 -0.038309200584004402 0 -0.0010905541643403056 -0.042018461178901886 0 -0.00056826325096856554 -0.042162847519748761 0 -0.00070114886429126168 -0.041847100301751934 0 -0.00025664908370827747 -0.041905018280593655 0 -0.0026767998182234288 -0.020148928289096549 0 -0.0032108390632083279 -0.020036451319872257 0 -0.0027642819042281793 -0.020133943304338296 0 -0.0029850484825769256 -0.019892216673421635 0 -0.0032916138681273301 -0.020004088425676556 0 -0.0028130712879140024 -0.020357524239932385 0 -0.0026143870125783712 -0.020166464125585464 0 -0.0031156633131276647 -0.020093081007443097 0 -0.0028130712879140024 -0.020357524239932385 0 -0.0025168043103055765 -0.020522411580692821 0 -0.0026143870125783712 -0.020166464125585464 0 -0.0027780652183103769 -0.020626045886312078 0 -0.0028130712879140024 -0.020357524239932385 0 -0.0025168043103055765 -0.020522411580692821 0 -0.0027780652183103769 -0.020626045886312078 0 -0.0028130712879140024 -0.020357524239932385 0 -0.0030363973716791681 -0.020373814839940194 0 -0.0025168043103055765 -0.020522411580692821 0 -0.0026143870125783712 -0.020166464125585464 0 -0.0023194164020236083 -0.020387886479801415 0 -0.0025168043103055765 -0.020522411580692821 0 -0.0023194164020236083 -0.020387886479801415 0 -0.0022435819482357279 -0.020626007988449532 0 -0.0023270923185417982 -0.020778527066837055 0 -0.0025168043103055765 -0.020522411580692821 0 -0.0022435819482357279 -0.020626007988449532 0 -0.0026143870125783712 -0.020166464125585464 0 -0.0021079404621475919 -0.02019415222772274 0 -0.0023194164020236083 -0.020387886479801415 0 -0.0027642819042281793 -0.020133943304338296 0 -0.0021079404621475919 -0.02019415222772274 0 -0.0025763195503873998 -0.019786016144602087 0 -0.0026767998182234288 -0.020148928289096549 0 -0.0021388715197718307 -0.020177370782481472 0 -0.0021079404621475919 -0.02019415222772274 0 -0.0023194164020236083 -0.020387886479801415 0 -0.0021119202829925163 -0.020446300998561366 0 -0.0021079404621475919 -0.02019415222772274 0 -0.0021119202829925163 -0.020446300998561366 0 -0.00195648865637692 -0.020367949758534957 0 -0.0023194164020236083 -0.020387886479801415 0 -0.0022435819482357279 -0.020626007988449532 0 -0.0021119202829925163 -0.020446300998561366 0 -0.0022435819482357279 -0.020626007988449532 0 -0.0020655022265162405 -0.020604304737322936 0 -0.0021119202829925163 -0.020446300998561366 0 -0.0020036187983293011 -0.020747842816278242 0 -0.0022435819482357279 -0.020626007988449532 0 -0.0020655022265162405 -0.020604304737322936 0 -0.0020655022265162405 -0.020604304737322936 0 -0.0021119202829925163 -0.020446300998561366 0 -0.0018559709398073944 -0.020599502111074811 0 -0.0021119202829925163 -0.020446300998561366 0 -0.0018559709398073944 -0.020599502111074811 0 -0.00195648865637692 -0.020367949758534957 0 -0.0017963308682326935 -0.020965513381547687 0 -0.0015670148029752291 -0.020678648408073114 0 -0.0018559709398073944 -0.020599502111074811 0 -0.0020036187983293011 -0.020747842816278242 0 -0.0020655022265162405 -0.020604304737322936 0 -0.0018559709398073944 -0.020599502111074811 0 -0.0016458340273626871 -0.020556054881004125 0 -0.0018559709398073944 -0.020599502111074811 0 -0.0017661513322024976 -0.020410114733270673 0 -0.0017661513322024976 -0.020410114733270673 0 -0.00195648865637692 -0.020367949758534957 0 -0.00188763366797133 -0.020246085616580159 0 -0.0018559709398073944 -0.020599502111074811 0 -0.0017661513322024976 -0.020410114733270673 0 -0.00195648865637692 -0.020367949758534957 0 -0.001646088841183212 -0.020239921699020218 0 -0.00188763366797133 -0.020246085616580159 0 -0.0019728181758837397 -0.020030867054859163 0 -0.0021079404621475919 -0.02019415222772274 0 -0.00188763366797133 -0.020246085616580159 0 -0.0019728181758837397 -0.020030867054859163 0 -0.0021079404621475919 -0.02019415222772274 0 -0.00195648865637692 -0.020367949758534957 0 -0.00188763366797133 -0.020246085616580159 0 -0.001646088841183212 -0.020239921699020218 0 -0.0017661513322024976 -0.020410114733270673 0 -0.00188763366797133 -0.020246085616580159 0 -0.0021835536412827001 -0.026800628214339754 0 -0.0027404943231247804 -0.031227102321879387 0 -0.0024814769188001374 -0.039736980941530012 0 -0.0023635445530571838 -0.039606007221178692 0 -0.002523396023573102 -0.039635733595601026 0 -0.0023635445530571838 -0.039606007221178692 0 -0.0025046062952122292 -0.039486684726379416 0 -0.0023426474494737119 -0.03944789054222473 0 -0.0023635445530571838 -0.039606007221178692 0 -0.002523396023573102 -0.039635733595601026 0 -0.0025046062952122292 -0.039486684726379416 0 -0.002523396023573102 -0.039635733595601026 0 -0.002775802255934102 -0.039706906808244492 0 -0.0025046062952122292 -0.039486684726379416 0 -0.002775802255934102 -0.039706906808244492 0 -0.0028359834813520704 -0.039437026118136549 0 -0.0025046062952122292 -0.039486684726379416 0 -0.0024814769188001374 -0.039736980941530012 0 -0.002523396023573102 -0.039635733595601026 0 -0.002775802255934102 -0.039706906808244492 0 -0.0021079404621475919 -0.02019415222772274 0 -0.0019728181758837397 -0.020030867054859163 0 -0.0025763195503873998 -0.019786016144602087 0 -0.0027404943231247804 -0.031227102321879387 0 -0.0029975531769496615 -0.024699750586225446 0 -0.0027404943231247804 -0.031227102321879387 0 -0.0028048340689306203 -0.03580516176649768 0 -0.0031541211421330815 -0.030828551242416267 0 -0.0032229605693442891 -0.030807862718198523 0 -0.0032149282497747123 -0.030811950029982351 0 -0.002775802255934102 -0.039706906808244492 0 -0.0032514089014876175 -0.039611149621364347 0 -0.0028359834813520704 -0.039437026118136549 0 -0.0028048340689306203 -0.03580516176649768 0 -0.0033504934290820693 -0.034859777365601342 0 -0.0032229605693442891 -0.030807862718198523 0 -0.0032149282497747123 -0.030811950029982351 0 -0.0032402771200419982 -0.030834480908815094 0 -0.0032229605693442891 -0.030807862718198523 0 -0.0032402771200419982 -0.030834480908815094 0 -0.0032342824923997345 -0.030795476647778663 0 -0.0025763195503873998 -0.019786016144602087 0 -0.0030388003360533778 -0.019678303327982961 0 -0.0029850484825769256 -0.019892216673421635 0 -0.0027642819042281793 -0.020133943304338296 0 -0.0025763195503873998 -0.019786016144602087 0 -0.0029850484825769256 -0.019892216673421635 0 -0.0037281952465909435 -0.023170521219514965 0 -0.0029762678839118841 -0.024433319918449173 0 -0.0029975531769496615 -0.024699750586225446 0 -0.0029762678839118841 -0.024433319918449173 0 -0.0025763195503873998 -0.019786016144602087 0 -0.0030388003360533778 -0.019678303327982961 0 -0.003118447132257225 -0.019626043622840161 0 -0.0033022148261287253 -0.039195591874948137 0 -0.0028923338491577948 -0.039147448401005612 0 -0.0031769696359793651 -0.038930947027865648 0 -0.0033022148261287253 -0.039195591874948137 0 -0.0031769696359793651 -0.038930947027865648 0 -0.0035725019770082153 -0.038922981411413628 0 -0.0032514089014876175 -0.039611149621364347 0 -0.0033022148261287253 -0.039195591874948137 0 -0.003752530238415628 -0.039208300528585358 0 -0.0032514089014876175 -0.039611149621364347 0 -0.0033022148261287253 -0.039195591874948137 0 -0.0028359834813520704 -0.039437026118136549 0 -0.0028923338491577948 -0.039147448401005612 0 -0.0025616560324335695 -0.039241664643233441 0 -0.0026418344512734362 -0.03891977327491724 0 -0.0028359834813520704 -0.039437026118136549 0 -0.0028923338491577948 -0.039147448401005612 0 -0.0025616560324335695 -0.039241664643233441 0 -0.0033022148261287253 -0.039195591874948137 0 -0.0028359834813520704 -0.039437026118136549 0 -0.0028923338491577948 -0.039147448401005612 0 -0.0028359834813520704 -0.039437026118136549 0 -0.0025616560324335695 -0.039241664643233441 0 -0.0025046062952122292 -0.039486684726379416 0 -0.0025616560324335695 -0.039241664643233441 0 -0.0025046062952122292 -0.039486684726379416 0 -0.002364478433915788 -0.039312188891349645 0 -0.0025046062952122292 -0.039486684726379416 0 -0.0023426474494737119 -0.03944789054222473 0 -0.002364478433915788 -0.039312188891349645 0 -0.0023426474494737119 -0.03944789054222473 0 -0.002364478433915788 -0.039312188891349645 0 -0.0022932029914277843 -0.039344070042959221 0 -0.002364478433915788 -0.039312188891349645 0 -0.002321083313238164 -0.039186321565760629 0 -0.0022578845741570517 -0.039268421189777386 0 -0.0025616560324335695 -0.039241664643233441 0 -0.002364478433915788 -0.039312188891349645 0 -0.002321083313238164 -0.039186321565760629 0 -0.002364478433915788 -0.039312188891349645 0 -0.0022932029914277843 -0.039344070042959221 0 -0.0022578845741570517 -0.039268421189777386 0 -0.002321083313238164 -0.039186321565760629 0 -0.0022578845741570517 -0.039268421189777386 0 -0.0021808897567534833 -0.039318045030332698 0 -0.002321083313238164 -0.039186321565760629 0 -0.0021824388687506089 -0.039280182755388644 0 -0.0021808897567534833 -0.039318045030332698 0 -0.002321083313238164 -0.039186321565760629 0 -0.0021824388687506089 -0.039280182755388644 0 -0.0023648824331374161 -0.038948345063736359 0 -0.0026418344512734362 -0.03891977327491724 0 -0.0027795661710204671 -0.038440065375013321 0 -0.0023648824331374161 -0.038948345063736359 0 -0.002321083313238164 -0.039186321565760629 0 -0.0026418344512734362 -0.03891977327491724 0 -0.0023648824331374161 -0.038948345063736359 0 -0.0027496298983977672 -0.038497289565708234 0 -0.0020577713187968209 -0.038624088662274285 0 -0.0025616560324335695 -0.039241664643233441 0 -0.002321083313238164 -0.039186321565760629 0 -0.0026418344512734362 -0.03891977327491724 0 -0.0028923338491577948 -0.039147448401005612 0 -0.0026418344512734362 -0.03891977327491724 0 -0.0031769696359793651 -0.038930947027865648 0 -0.0026418344512734362 -0.03891977327491724 0 -0.0031431748419730753 -0.038637557817889807 0 -0.0031769696359793651 -0.038930947027865648 0 -0.0026418344512734362 -0.03891977327491724 0 -0.0027795661710204671 -0.038440065375013321 0 -0.0031431748419730753 -0.038637557817889807 0 -0.0027795661710204671 -0.038440065375013321 0 -0.0031431748419730753 -0.038637557817889807 0 -0.0035098695643965261 -0.038319974221515375 0 -0.0027795661710204671 -0.038440065375013321 0 -0.0035098695643965261 -0.038319974221515375 0 -0.0033887318030147743 -0.037683072334436317 0 -0.0031431748419730753 -0.038637557817889807 0 -0.0035098695643965261 -0.038319974221515375 0 -0.0036069634367091896 -0.038664559780797546 0 -0.0031431748419730753 -0.038637557817889807 0 -0.0031769696359793651 -0.038930947027865648 0 -0.0036069634367091896 -0.038664559780797546 0 -0.0031769696359793651 -0.038930947027865648 0 -0.0036069634367091896 -0.038664559780797546 0 -0.0035725019770082153 -0.038922981411413628 0 -0.00078016786410657006 -0.041082987569023489 0 -0.00051649484710779628 -0.041378160631818511 0 -0.00096124077168541796 -0.041467002040939532 0 -0.00078016786410657006 -0.041082987569023489 0 -0.00027912363050005146 -0.041044164884046171 0 -0.00073150690347665236 -0.040683137697060924 0 -0.00078016786410657006 -0.041082987569023489 0 -0.00027912363050005146 -0.041044164884046171 0 -0.00051649484710779628 -0.041378160631818511 0 -0.00027912363050005146 -0.041044164884046171 0 -0.00051649484710779628 -0.041378160631818511 0 -0.00015817566132531424 -0.041364906846538298 0 -0.00051649484710779628 -0.041378160631818511 0 -0.00015817566132531424 -0.041364906846538298 0 -0.00024897695740339233 -0.041603312157641514 0 -0.00051706364852233371 -0.041675171834102707 0 -0.00051649484710779628 -0.041378160631818511 0 -0.00024897695740339233 -0.041603312157641514 0 -0.00051706364852233371 -0.041675171834102707 0 -0.00051649484710779628 -0.041378160631818511 0 -0.00096124077168541796 -0.041467002040939532 0 -0.0014898315075096466 -0.041015496562938944 0 -0.0014991183300493594 -0.041046655341349852 0 -0.0016773551684747836 -0.040952456375728044 0 -0.0022115416060635947 -0.039513602586617756 0 -0.0023426474494737119 -0.03944789054222473 0 -0.0022932029914277843 -0.039344070042959221 0 -0.0018390407460861951 -0.040758875558744426 0 -0.0019655076438929915 -0.039953733749249924 0 -0.0022115416060635947 -0.039513602586617756 0 -0.0022932029914277843 -0.039344070042959221 0 -0.0022533212093540653 -0.039253551002658024 0 -0.0022932029914277843 -0.039344070042959221 0 -0.0022533212093540653 -0.039253551002658024 0 -0.0022578845741570517 -0.039268421189777386 0 -0.0012597729900302025 -0.041078896472715266 0 -0.0013399040718205092 -0.040827783115379636 0 -0.00078016786410657006 -0.041082987569023489 0 -0.00096124077168541796 -0.041467002040939532 0 -0.0013570003869630249 -0.040756393991602489 0 -0.0014991183300493594 -0.041046655341349852 0 -0.0016773551684747836 -0.040952456375728044 0 -0.0013570003869630249 -0.040756393991602489 0 -0.0013570003869630249 -0.040756393991602489 0 -0.0015369336143569053 -0.040166385863534146 0 -0.0011133890313841945 -0.040057648343563672 0 -0.0016773551684747836 -0.040952456375728044 0 -0.0013570003869630249 -0.040756393991602489 0 -0.0015369336143569053 -0.040166385863534146 0 -0.0019655076438929915 -0.039953733749249924 0 -0.0020180423797746959 -0.039598904189031683 0 -0.0022533212093540653 -0.039253551002658024 0 -0.0021808897567534833 -0.039318045030332698 0 -0.0020237278397011189 -0.039540715128224241 0 -0.0016773551684747836 -0.040952456375728044 0 -0.0020237278397011189 -0.039540715128224241 0 -0.0015369336143569053 -0.040166385863534146 0 -0.0022533212093540653 -0.039253551002658024 0 -0.0022578845741570517 -0.039268421189777386 0 -0.0021808897567534833 -0.039318045030332698 0 -0.0021824388687506089 -0.039280182755388644 0 -0.0021808897567534833 -0.039318045030332698 0 -0.0020237278397011189 -0.039540715128224241 0 -0.0020237278397011189 -0.039540715128224241 0 -0.0015243557271596916 -0.039683273703930322 0 -0.001967942321544331 -0.039287260408749032 0 -0.0021824388687506089 -0.039280182755388644 0 -0.0020237278397011189 -0.039540715128224241 0 -0.001967942321544331 -0.039287260408749032 0 -0.0015369336143569053 -0.040166385863534146 0 -0.0015243557271596916 -0.039683273703930322 0 -0.0011133890313841945 -0.040057648343563672 0 -0.0020237278397011189 -0.039540715128224241 0 -0.0015369336143569053 -0.040166385863534146 0 -0.0015243557271596916 -0.039683273703930322 0 -0.00058669568062487648 -0.040347003675822529 0 -0.0011133890313841945 -0.040057648343563672 0 -0.00052523049252675669 -0.039979502847560647 0 -0.00058669568062487648 -0.040347003675822529 0 -0.0011133890313841945 -0.040057648343563672 0 -0.00073150690347665236 -0.040683137697060924 0 -0.0013570003869630249 -0.040756393991602489 0 -0.0011133890313841945 -0.040057648343563672 0 -0.00073150690347665236 -0.040683137697060924 0 -0.00078016786410657006 -0.041082987569023489 0 -0.0013570003869630249 -0.040756393991602489 0 -0.00073150690347665236 -0.040683137697060924 0 8.9999023960032556e-05 -0.040818284740598856 0 -0.00027912363050005146 -0.041044164884046171 0 -0.00034450959687033897 -0.040683018873029983 0 -0.00027912363050005146 -0.041044164884046171 0 -0.00073150690347665236 -0.040683137697060924 0 -0.00034450959687033897 -0.040683018873029983 0 -0.00058669568062487648 -0.040347003675822529 0 -0.00073150690347665236 -0.040683137697060924 0 -0.00034450959687033897 -0.040683018873029983 0 8.9999023960032556e-05 -0.040818284740598856 0 -0.00034450959687033897 -0.040683018873029983 0 -0.00023915348261207214 -0.040397672919628647 0 -0.00058669568062487648 -0.040347003675822529 0 -0.00034450959687033897 -0.040683018873029983 0 -0.00023915348261207214 -0.040397672919628647 0 -0.00058669568062487648 -0.040347003675822529 0 -0.00023915348261207214 -0.040397672919628647 0 -0.00052523049252675669 -0.039979502847560647 0 -0.00023915348261207214 -0.040397672919628647 0 -0.00052523049252675669 -0.039979502847560647 0 -3.4021899973465345e-05 -0.040148721392596044 0 -0.00052523049252675669 -0.039979502847560647 0 -0.00096265109678737003 -0.039476612123306026 0 -0.00013111263582891975 -0.039548963498995539 0 -0.00079709638301805614 -0.039187902925436148 0 -0.00015397226332316923 -0.03945847157223744 0 -0.00052523049252675669 -0.039979502847560647 0 -3.4021899973465345e-05 -0.040148721392596044 0 -0.00013111263582891975 -0.039548963498995539 0 -0.00018184599715833979 -0.038948732633814084 0 -0.00058039394772901171 -0.03863659310932633 0 -0.00013111263582891975 -0.039548963498995539 0 -0.00067632313144386658 -0.038879371173442756 0 -0.00058039394772901171 -0.03863659310932633 0 -0.00013111263582891975 -0.039548963498995539 0 -0.00067632313144386658 -0.038879371173442756 0 -0.00091860211211666244 -0.038429976345249445 0 -0.00058039394772901171 -0.03863659310932633 0 -0.0011133890313841945 -0.040057648343563672 0 -0.00052523049252675669 -0.039979502847560647 0 -0.00096265109678737003 -0.039476612123306026 0 -0.0015243557271596916 -0.039683273703930322 0 -0.0011133890313841945 -0.040057648343563672 0 -0.00096265109678737003 -0.039476612123306026 0 -0.0015243557271596916 -0.039683273703930322 0 -0.00096265109678737003 -0.039476612123306026 0 -0.001967942321544331 -0.039287260408749032 0 -0.00067632313144386658 -0.038879371173442756 0 -0.0011098701170768992 -0.038446025371029154 0 -0.00091860211211666244 -0.038429976345249445 0 -0.00079709638301805614 -0.039187902925436148 0 -0.0015296678629166333 -0.038874672517632824 0 -0.0011098701170768992 -0.038446025371029154 0 -0.0012326619199318617 -0.038100075131360933 0 -0.0016803253843446872 -0.038302446334360009 0 -0.0012326619199318617 -0.038100075131360933 0 -0.0010324115701971306 -0.038002279787157409 0 -0.0016115051631746603 -0.037512661738050519 0 -0.0012326619199318617 -0.038100075131360933 0 -0.00091860211211666244 -0.038429976345249445 0 -0.0010324115701971306 -0.038002279787157409 0 -0.0011098701170768992 -0.038446025371029154 0 -0.0012326619199318617 -0.038100075131360933 0 -0.00091860211211666244 -0.038429976345249445 0 -0.0010324115701971306 -0.038002279787157409 0 -0.0007479247989129684 -0.038217461114490668 0 -0.00058039394772901171 -0.03863659310932633 0 -0.00091860211211666244 -0.038429976345249445 0 -0.0010324115701971306 -0.038002279787157409 0 -0.00058039394772901171 -0.03863659310932633 0 -0.0010324115701971306 -0.038002279787157409 0 -0.0014969337624606053 -0.037221043510669558 0 -0.00096168150437487654 -0.037837410787277717 0 -0.0017543685715831208 -0.036976524296881391 0 -0.0010813100949832435 -0.037628478323603845 0 -0.0010324115701971306 -0.038002279787157409 0 -0.0007479247989129684 -0.038217461114490668 0 -0.00096168150437487654 -0.037837410787277717 0 -0.0007479247989129684 -0.038217461114490668 0 -0.00039885897759479383 -0.038519358092181925 0 -0.00055430170201304437 -0.038184208617904711 0 -0.0007479247989129684 -0.038217461114490668 0 -0.00039885897759479383 -0.038519358092181925 0 -0.00058039394772901171 -0.03863659310932633 0 -0.00039885897759479383 -0.038519358092181925 0 -0.00018184599715833979 -0.038948732633814084 0 -5.4981052513508794e-05 -0.038879331063989594 0 -0.00039885897759479383 -0.038519358092181925 0 -0.00018184599715833979 -0.038948732633814084 0 -0.00058039394772901171 -0.03863659310932633 0 -0.0034082401962398012 -0.03600836479109442 0 -0.0033887318030147743 -0.037683072334436317 0 -0.0041229197194782193 -0.037523576635369267 0 -0.0034082401962398012 -0.03600836479109442 0 -0.0033887318030147743 -0.037683072334436317 0 -0.0024881043049471327 -0.03715482815557429 0 -0.0027795661710204671 -0.038440065375013321 0 -0.0033887318030147743 -0.037683072334436317 0 -0.0024881043049471327 -0.03715482815557429 0 -0.0024881043049471327 -0.03715482815557429 0 -0.0016803253843446872 -0.038302446334360009 0 -0.0016115051631746603 -0.037512661738050519 0 -0.0027795661710204671 -0.038440065375013321 0 -0.0024881043049471327 -0.03715482815557429 0 -0.0016803253843446872 -0.038302446334360009 0 -0.0021824388687506089 -0.039280182755388644 0 -0.001967942321544331 -0.039287260408749032 0 -0.0023648824331374161 -0.038948345063736359 0 -0.0015296678629166333 -0.038874672517632824 0 -0.0020577713187968209 -0.038624088662274285 0 -0.0012326619199318617 -0.038100075131360933 0 -0.0016803253843446872 -0.038302446334360009 0 -0.0016115051631746603 -0.037512661738050519 0 -0.0010324115701971306 -0.038002279787157409 0 -0.0016115051631746603 -0.037512661738050519 0 -0.0014969337624606053 -0.037221043510669558 0 -0.0019522020910522795 -0.036763816333668965 0 -0.0024808135243398412 -0.036344235271396047 0 -0.0022912341311659701 -0.036271660076879049 0 -0.0017543685715831208 -0.036976524296881391 0 -0.0024319420846981286 -0.036486269525029626 0 -0.0016115051631746603 -0.037512661738050519 0 -0.0014969337624606053 -0.037221043510669558 0 -0.0024808135243398412 -0.036344235271396047 0 -0.0024881043049471327 -0.03715482815557429 0 -0.0016115051631746603 -0.037512661738050519 0 -0.0024808135243398412 -0.036344235271396047 0 -0.0034082401962398012 -0.03600836479109442 0 -0.0024881043049471327 -0.03715482815557429 0 -0.0030457110192986811 -0.035865451378060187 0 -0.0024881043049471327 -0.03715482815557429 0 -0.0024808135243398412 -0.036344235271396047 0 -0.0030457110192986811 -0.035865451378060187 0 -0.0024808135243398412 -0.036344235271396047 0 -0.0030457110192986811 -0.035865451378060187 0 -0.0029453976394970575 -0.035623485003284563 0 -0.0024808135243398412 -0.036344235271396047 0 -0.0029453976394970575 -0.035623485003284563 0 -0.0022912341311659701 -0.036271660076879049 0 -0.0034132355583224526 -0.035204521988431874 0 -0.0030457110192986811 -0.035865451378060187 0 -0.0029453976394970575 -0.035623485003284563 0 -0.0034132355583224526 -0.035204521988431874 0 -0.0035247384318002179 -0.035321433545975132 0 -0.0030457110192986811 -0.035865451378060187 0 -0.0034082401962398012 -0.03600836479109442 0 -0.0035247384318002179 -0.035321433545975132 0 -0.0030457110192986811 -0.035865451378060187 0 -0.0034082401962398012 -0.03600836479109442 0 -0.0035247384318002179 -0.035321433545975132 0 -0.003813558009705521 -0.035059389138164462 0 -0.0030939411644356415 -0.035373347649043443 0 -0.0033883130615283241 -0.035071092542145146 0 -0.0036053710676167065 -0.034817156710497121 0 -0.0034132355583224526 -0.035204521988431874 0 -0.0029453976394970575 -0.035623485003284563 0 -0.0036053710676167065 -0.034817156710497121 0 -0.0029453976394970575 -0.035623485003284563 0 -0.0030939411644356415 -0.035373347649043443 0 -0.0036053710676167065 -0.034817156710497121 0 -0.0029453976394970575 -0.035623485003284563 0 -0.0030939411644356415 -0.035373347649043443 0 -0.0025159064081817042 -0.035926764153147751 0 -0.0025159064081817042 -0.035926764153147751 0 -0.0022912341311659701 -0.036271660076879049 0 -0.0017213062513453219 -0.036753118504411555 0 -0.0029453976394970575 -0.035623485003284563 0 -0.0025159064081817042 -0.035926764153147751 0 -0.0022912341311659701 -0.036271660076879049 0 -0.0019522020910522795 -0.036763816333668965 0 -0.0022912341311659701 -0.036271660076879049 0 -0.0017213062513453219 -0.036753118504411555 0 -0.0025159064081817042 -0.035926764153147751 0 -0.0017213062513453219 -0.036753118504411555 0 -0.0021190637531839506 -0.036115804458552753 0 -0.0021190637531839506 -0.036115804458552753 0 -0.0018847443694102576 -0.035772340707575553 0 -0.0025030589036680513 -0.035371760202122807 0 -0.0021190637531839506 -0.036115804458552753 0 -0.0028128876475410126 -0.035502217756442425 0 -0.0025030589036680513 -0.035371760202122807 0 -0.0025159064081817042 -0.035926764153147751 0 -0.0021190637531839506 -0.036115804458552753 0 -0.0028128876475410126 -0.035502217756442425 0 -0.0030939411644356415 -0.035373347649043443 0 -0.0025159064081817042 -0.035926764153147751 0 -0.0028128876475410126 -0.035502217756442425 0 -0.0028128876475410126 -0.035502217756442425 0 -0.0025030589036680513 -0.035371760202122807 0 -0.0030120800690200651 -0.035079528623483354 0 -0.0033883130615283241 -0.035071092542145146 0 -0.0030120800690200651 -0.035079528623483354 0 -0.0033970005993055365 -0.034913550009286483 0 -0.0028128876475410126 -0.035502217756442425 0 -0.0033883130615283241 -0.035071092542145146 0 -0.0030120800690200651 -0.035079528623483354 0 -0.0030939411644356415 -0.035373347649043443 0 -0.0028128876475410126 -0.035502217756442425 0 -0.0033883130615283241 -0.035071092542145146 0 -0.00055430170201304437 -0.038184208617904711 0 -0.0010126885095141003 -0.037420542165785664 0 -0.00072060755234261583 -0.037839273037670554 0 -0.00055430170201304437 -0.038184208617904711 0 -0.00030774038850339767 -0.038659969553696549 0 -0.00011080869911195087 -0.038816075049483083 0 -0.00039885897759479383 -0.038519358092181925 0 -0.00055430170201304437 -0.038184208617904711 0 -0.00011080869911195087 -0.038816075049483083 0 -0.0007479247989129684 -0.038217461114490668 0 -0.00055430170201304437 -0.038184208617904711 0 -0.00096168150437487654 -0.037837410787277717 0 -0.00059069134599139554 -0.038069320701522087 0 -0.0010813100949832435 -0.037628478323603845 0 -0.00055430170201304437 -0.038184208617904711 0 -0.0012480581795816035 -0.037414880946605215 0 -0.0010126885095141003 -0.037420542165785664 0 -0.0019522020910522795 -0.036763816333668965 0 -0.0017213062513453219 -0.036753118504411555 0 -0.0012480581795816035 -0.037414880946605215 0 -0.0017213062513453219 -0.036753118504411555 0 -0.0012480581795816035 -0.037414880946605215 0 -0.0010126885095141003 -0.037420542165785664 0 -0.0010126885095141003 -0.037420542165785664 0 -0.000950745152697789 -0.036982744419112784 0 -0.00072060755234261583 -0.037839273037670554 0 -0.0017213062513453219 -0.036753118504411555 0 -0.0021190637531839506 -0.036115804458552753 0 -0.000950745152697789 -0.036982744419112784 0 -0.0017213062513453219 -0.036753118504411555 0 -0.0010126885095141003 -0.037420542165785664 0 -0.000950745152697789 -0.036982744419112784 0 -0.0018847443694102576 -0.035772340707575553 0 -0.000950745152697789 -0.036982744419112784 0 -0.0012598026695356005 -0.035231298217313897 0 -0.0009472161406577892 -0.036943650268402045 0 -0.00089337191146064492 -0.036540368410324979 0 -0.0021190637531839506 -0.036115804458552753 0 -0.0018847443694102576 -0.035772340707575553 0 -0.000950745152697789 -0.036982744419112784 0 -0.000950745152697789 -0.036982744419112784 0 -0.00072060755234261583 -0.037839273037670554 0 -0.00088148360247906053 -0.037752264765001715 0 -0.00072060755234261583 -0.037839273037670554 0 -0.00062661575647621919 -0.03823774986415323 0 -0.00088148360247906053 -0.037752264765001715 0 -0.00055430170201304437 -0.038184208617904711 0 -0.00072060755234261583 -0.037839273037670554 0 -0.00030774038850339767 -0.038659969553696549 0 -0.00062661575647621919 -0.03823774986415323 0 -0.00030774038850339767 -0.038659969553696549 0 -0.00040131252405967941 -0.038826369363141419 0 -0.00072060755234261583 -0.037839273037670554 0 -0.00062661575647621919 -0.03823774986415323 0 -0.00030774038850339767 -0.038659969553696549 0 -6.8690345822163882e-05 -0.039424953695033405 0 -0.00030774038850339767 -0.038659969553696549 0 -0.00040131252405967941 -0.038826369363141419 0 -6.8690345822163882e-05 -0.039424953695033405 0 9.1818693774540469e-05 -0.039936032686190469 0 0.00023466158178649124 -0.039835466302253458 0 -6.8690345822163882e-05 -0.039424953695033405 0 5.6352810363527955e-05 -0.0393870702626705 0 9.1818693774540469e-05 -0.039936032686190469 0 -6.8690345822163882e-05 -0.039424953695033405 0 -0.00030774038850339767 -0.038659969553696549 0 5.6352810363527955e-05 -0.0393870702626705 0 -0.00030774038850339767 -0.038659969553696549 0 5.6352810363527955e-05 -0.0393870702626705 0 -0.00011080869911195087 -0.038816075049483083 0 5.6352810363527955e-05 -0.0393870702626705 0 -0.00011080869911195087 -0.038816075049483083 0 0.00018663535533061727 -0.039163210487929895 0 9.4098938082270601e-05 -0.039967311404893437 0 0.00018663535533061727 -0.039163210487929895 0 3.7218200244351396e-05 -0.039313975393938938 0 9.4098938082270601e-05 -0.039967311404893437 0 -0.00036162885071893628 -0.040007091637683651 0 3.7218200244351396e-05 -0.039313975393938938 0 5.6352810363527955e-05 -0.0393870702626705 0 9.4098938082270601e-05 -0.039967311404893437 0 0.00018663535533061727 -0.039163210487929895 0 5.6352810363527955e-05 -0.0393870702626705 0 9.4098938082270601e-05 -0.039967311404893437 0 9.1818693774540469e-05 -0.039936032686190469 0 9.4098938082270601e-05 -0.039967311404893437 0 5.2956622411543113e-06 -0.040619229917980358 0 -0.00024693883538487373 -0.041275531836591717 0 9.4098938082270601e-05 -0.039967311404893437 0 5.2956622411543113e-06 -0.040619229917980358 0 9.1818693774540469e-05 -0.039936032686190469 0 9.1818693774540469e-05 -0.039936032686190469 0 8.0486303661284921e-05 -0.040620087871921895 0 0.00023466158178649124 -0.039835466302253458 0 5.2956622411543113e-06 -0.040619229917980358 0 9.1818693774540469e-05 -0.039936032686190469 0 8.0486303661284921e-05 -0.040620087871921895 0 5.2956622411543113e-06 -0.040619229917980358 0 8.0486303661284921e-05 -0.040620087871921895 0 -0.00022135904841210009 -0.041449360655745664 0 -0.00022135904841210009 -0.041449360655745664 0 -0.00052136181417901091 -0.042400303067378471 0 -0.00024693883538487373 -0.041275531836591717 0 5.2956622411543113e-06 -0.040619229917980358 0 -0.00022135904841210009 -0.041449360655745664 0 -0.00024693883538487373 -0.041275531836591717 0 -0.00052136181417901091 -0.042400303067378471 0 -0.00024693883538487373 -0.041275531836591717 0 -0.00055316428172605609 -0.042652096220456091 0 -0.00024693883538487373 -0.041275531836591717 0 -0.00055316428172605609 -0.042652096220456091 0 -0.00078402590020662955 -0.041451157281209218 0 -0.00029533711556097486 -0.044455509474440567 0 -3.6389554222948907e-07 -0.044999964128464756 0 8.6270387305759986e-08 -0.044993981706538608 0 -0.00029533711556097486 -0.044455509474440567 0 -0.00050902904202514588 -0.043417560337802592 0 -0.00036408814242930093 -0.043874810782083135 0 -0.00029533711556097486 -0.044455509474440567 0 -0.00036408814242930093 -0.043874810782083135 0 8.6270387305759986e-08 -0.044993981706538608 0 -0.00052136181417901091 -0.042400303067378471 0 -0.00050902904202514588 -0.043417560337802592 0 -0.00055316428172605609 -0.042652096220456091 0 -0.00029533711556097486 -0.044455509474440567 0 -0.00050902904202514588 -0.043417560337802592 0 -0.00055316428172605609 -0.042652096220456091 0 -0.00029533711556097486 -0.044455509474440567 0 -0.00013438187526799503 -0.044961719828876263 0 -0.00018105155684483356 -0.044909728089465063 0 -0.00028931239884378901 -0.044200775072074823 0 -0.00037720587342286575 -0.043181997267916036 0 -0.00029533711556097486 -0.044455509474440567 0 -0.00055316428172605609 -0.042652096220456091 0 -0.00078402590020662955 -0.041451157281209218 0 -0.00029533711556097486 -0.044455509474440567 0 -3.6389554222948907e-07 -0.044999964128464756 0 -0.00013438187526799503 -0.044961719828876263 0 -3.6389554222948907e-07 -0.044999964128464756 0 -0.00013438187526799503 -0.044961719828876263 0 5.5648468400573336e-08 -0.045000018054261244 0 -0.00013438187526799503 -0.044961719828876263 0 -0.00018105155684483356 -0.044909728089465063 0 -0.00022525314674464678 -0.044603312448802813 0 -0.00013438187526799503 -0.044961719828876263 0 5.5648468400573336e-08 -0.045000018054261244 0 -0.00022525314674464678 -0.044603312448802813 0 9.4098938082270601e-05 -0.039967311404893437 0 -0.00024693883538487373 -0.041275531836591717 0 -0.00036162885071893628 -0.040007091637683651 0 -0.00024693883538487373 -0.041275531836591717 0 -0.00078402590020662955 -0.041451157281209218 0 -0.00036162885071893628 -0.040007091637683651 0 -0.00037720587342286575 -0.043181997267916036 0 -0.00011604475575624487 -0.042269572102316987 0 -0.00018105155684483356 -0.044909728089465063 0 0.00012566624319872247 -0.044539775271271946 0 -0.00022525314674464678 -0.044603312448802813 0 0.00012566624319872247 -0.044539775271271946 0 3.5964331138663395e-05 -0.043384244950659526 0 -0.00022525314674464678 -0.044603312448802813 0 3.5964331138663395e-05 -0.043384244950659526 0 -0.00022525314674464678 -0.044603312448802813 0 -0.00037027620340345868 -0.043727311561899761 0 -0.00011604475575624487 -0.042269572102316987 0 0.00030181978590714372 -0.041482226823151939 0 0.00012566624319872247 -0.044539775271271946 0 3.5964331138663395e-05 -0.043384244950659526 0 0.00058230559852949493 -0.043626390433714621 0 -0.00022525314674464678 -0.044603312448802813 0 -1.0825166728259509e-06 -0.044998019664468439 0 -0.00037027620340345868 -0.043727311561899761 0 5.5648468400573336e-08 -0.045000018054261244 0 -0.00022525314674464678 -0.044603312448802813 0 -1.0825166728259509e-06 -0.044998019664468439 0 4.0982692803657407e-08 -0.04499970031642464 0 -0.00010603874455098386 -0.044309844923244954 0 1.1020561315240153e-09 -0.045000005175025989 0 2.5605116468015329e-09 -0.044999988010915488 0 7.2077548771395211e-06 -0.044994470045875798 0 2.5605116468015329e-09 -0.044999988010915488 0 7.2077548771395211e-06 -0.044994470045875798 0 5.6062828925013937e-06 -0.044990251740662943 0 8.3491846967079595e-06 -0.0449814953019428 0 5.6062828925013937e-06 -0.044990251740662943 0 2.1692193092264768e-05 -0.044974152736212435 0 7.2077548771395211e-06 -0.044994470045875798 0 5.6062828925013937e-06 -0.044990251740662943 0 2.1692193092264768e-05 -0.044974152736212435 0 2.8328152735030342e-09 -0.04499998271881829 0 2.5605116468015329e-09 -0.044999988010915488 0 5.6062828925013937e-06 -0.044990251740662943 0 3.5964331138663395e-05 -0.043384244950659526 0 -0.00015237931217099293 -0.042365997514092812 0 0.0002687363676792275 -0.042244281578883831 0 3.5964331138663395e-05 -0.043384244950659526 0 0.00054099248151411668 -0.042437404736509365 0 0.0002687363676792275 -0.042244281578883831 0 -0.00010603874455098386 -0.044309844923244954 0 -6.6639399188055234e-05 -0.043769621770074242 0 3.5964331138663395e-05 -0.043384244950659526 0 -0.00037027620340345868 -0.043727311561899761 0 -0.00015237931217099293 -0.042365997514092812 0 -0.00015237931217099293 -0.042365997514092812 0 0.00039388178927366276 -0.041429949132239088 0 0.0002687363676792275 -0.042244281578883831 0 0.00036585681012379955 -0.041215636053757818 0 -0.00015237931217099293 -0.042365997514092812 0 0.00039388178927366276 -0.041429949132239088 0 0.00026114372907608415 -0.04240384958249311 0 -6.6639399188055234e-05 -0.043769621770074242 0 0.00039388178927366276 -0.041429949132239088 0 0.00056915274874920008 -0.041610976043116289 0 0.0002687363676792275 -0.042244281578883831 0 0.00059685186633130598 -0.041169828682505551 0 0.00039388178927366276 -0.041429949132239088 0 0.00056915274874920008 -0.041610976043116289 0 0.00056915274874920008 -0.041610976043116289 0 0.00054099248151411668 -0.042437404736509365 0 0.0002687363676792275 -0.042244281578883831 0 0.00056915274874920008 -0.041610976043116289 0 0.00054099248151411668 -0.042437404736509365 0 0.00076771180976253634 -0.041390221988484056 0 0.00054099248151411668 -0.042437404736509365 0 0.0010011124752190837 -0.042192662567918468 0 0.00076771180976253634 -0.041390221988484056 0 0.00076771180976253634 -0.041390221988484056 0 0.00068280371597700712 -0.041140120595482263 0 0.00065238695942337118 -0.040812415031951821 0 0.00056915274874920008 -0.041610976043116289 0 0.00076771180976253634 -0.041390221988484056 0 0.00068280371597700712 -0.041140120595482263 0 0.00059685186633130598 -0.041169828682505551 0 0.00056915274874920008 -0.041610976043116289 0 0.00068280371597700712 -0.041140120595482263 0 0.00076771180976253634 -0.041390221988484056 0 0.00065238695942337118 -0.040812415031951821 0 0.00045273159531545709 -0.040214160046286584 0 0.00047098049406860002 -0.040746615498294919 0 0.00065238695942337118 -0.040812415031951821 0 0.00045273159531545709 -0.040214160046286584 0 0.00063485451797046211 -0.04089346752540246 0 0.00068280371597700712 -0.041140120595482263 0 0.00065238695942337118 -0.040812415031951821 0 0.00015162908719092575 -0.040509165953331927 0 -3.4021899973465345e-05 -0.040148721392596044 0 0.00045273159531545709 -0.040214160046286584 0 -3.4021899973465345e-05 -0.040148721392596044 0 0.00045273159531545709 -0.040214160046286584 0 -0.00013111263582891975 -0.039548963498995539 0 -0.00018184599715833979 -0.038948732633814084 0 -0.00013111263582891975 -0.039548963498995539 0 0.00016202477050005786 -0.039127366555251522 0 0.00045273159531545709 -0.040214160046286584 0 -0.00013111263582891975 -0.039548963498995539 0 0.00016202477050005786 -0.039127366555251522 0 0.0010011124752190837 -0.042192662567918468 0 0.00076771180976253634 -0.041390221988484056 0 0.00045273159531545709 -0.040214160046286584 0 0.00059974405547995812 -0.04074349805661058 0 0.00041907837612111443 -0.040364964637617705 0 0.00036940171251757288 -0.039209878013754584 0 0.00045273159531545709 -0.040214160046286584 0 0.00016202477050005786 -0.039127366555251522 0 0.00036940171251757288 -0.039209878013754584 0 0.00016202477050005786 -0.039127366555251522 0 0.00018663535533061727 -0.039163210487929895 0 -0.00018184599715833979 -0.038948732633814084 0 0.00016202477050005786 -0.039127366555251522 0 -5.4981052513508794e-05 -0.038879331063989594 0 -0.00039885897759479383 -0.038519358092181925 0 -0.00011080869911195087 -0.038816075049483083 0 -5.4981052513508794e-05 -0.038879331063989594 0 -0.00011080869911195087 -0.038816075049483083 0 -5.4981052513508794e-05 -0.038879331063989594 0 0.00018663535533061727 -0.039163210487929895 0 0.00016202477050005786 -0.039127366555251522 0 -5.4981052513508794e-05 -0.038879331063989594 0 0.00018663535533061727 -0.039163210487929895 0 3.5964331138663395e-05 -0.043384244950659526 0 0.00054099248151411668 -0.042437404736509365 0 0.00058230559852949493 -0.043626390433714621 0 0.00036940171251757288 -0.039209878013754584 0 0.00018663535533061727 -0.039163210487929895 0 3.7218200244351396e-05 -0.039313975393938938 0 0.00054099248151411668 -0.042437404736509365 0 0.0010011124752190837 -0.042192662567918468 0 0.00058230559852949493 -0.043626390433714621 0 0.00059974405547995812 -0.04074349805661058 0 0.00030181978590714372 -0.041482226823151939 0 8.414321490561156e-05 -0.024792307645357184 0 6.7016199689012664e-05 -0.025063359253681146 0 0.00010200971133955772 -0.025407257415465432 0 8.414321490561156e-05 -0.024792307645357184 0 0.00010200971133955772 -0.025407257415465432 0 0.00010839305069323469 -0.02476502775703078 0 8.414321490561156e-05 -0.024792307645357184 0 0.00022480561889526404 -0.024168350643779334 0 0.00034071686734970006 -0.024524076980930631 0 8.414321490561156e-05 -0.024792307645357184 0 0.00010014749145084663 -0.024885552974678659 0 0.00034071686734970006 -0.024524076980930631 0 0.00010014749145084663 -0.024885552974678659 0 0.00034071686734970006 -0.024524076980930631 0 0.00020188006575467019 -0.024942068629193813 0 0.00010014749145084663 -0.024885552974678659 0 6.7016199689012664e-05 -0.025063359253681146 0 6.3902512292333906e-05 -0.024983284853777168 0 8.414321490561156e-05 -0.024792307645357184 0 0.00010014749145084663 -0.024885552974678659 0 6.7016199689012664e-05 -0.025063359253681146 0 0.0011695527420930937 -0.0272729614200924 0 0.00037693039564947888 -0.027662966176393008 0 6.7016199689012664e-05 -0.025063359253681146 0 0.00019867577152860605 -0.025290719843887324 0 6.3902512292333906e-05 -0.024983284853777168 0 0.0018585344863422967 -0.02905863985472263 0 0.00021835821908362807 -0.026770929068850171 0 0.00042884655194506331 -0.029556505902717113 0 0.0018585344863422967 -0.02905863985472263 0 0.0018119931851134322 -0.030679192734411012 0 0.00042884655194506331 -0.029556505902717113 0 0.00019867577152860605 -0.025290719843887324 0 0.00010200971133955772 -0.025407257415465432 0 0.00021835821908362807 -0.026770929068850171 0 0.0011695527420930937 -0.0272729614200924 0 0.00019056803339513939 -0.026649125538252987 0 6.7016199689012664e-05 -0.025063359253681146 0 0.00019867577152860605 -0.025290719843887324 0 0.00010200971133955772 -0.025407257415465432 0 0.00010200971133955772 -0.025407257415465432 0 0.00023180842254427966 -0.02526988937208002 0 0.00010839305069323469 -0.02476502775703078 0 0.00010200971133955772 -0.025407257415465432 0 0.00023180842254427966 -0.02526988937208002 0 0.00021835821908362807 -0.026770929068850171 0 -0.00093176847286897328 -0.024315615583344392 0 -0.001649388981335122 -0.025018252740214613 0 -0.00093176847286897328 -0.024315615583344392 0 -0.00037761198268823425 -0.023611535416613649 0 -0.002133057037456317 -0.023386905525688305 0 -0.00097772763711386954 -0.02303814975622737 0 -0.0018236704266504596 -0.02257765251070076 0 0.00023180842254427966 -0.02526988937208002 0 9.0034327019491102e-05 -0.024230642560785418 0 0.00010839305069323469 -0.02476502775703078 0 8.414321490561156e-05 -0.024792307645357184 0 0.00010839305069323469 -0.02476502775703078 0 0.00022480561889526404 -0.024168350643779334 0 9.0034327019491102e-05 -0.024230642560785418 0 0.00010839305069323469 -0.02476502775703078 0 0.00022480561889526404 -0.024168350643779334 0 -0.00037761198268823425 -0.023611535416613649 0 0.00054056059583269605 -0.022956136138997298 0 9.0034327019491102e-05 -0.024230642560785418 0 0.00022480561889526404 -0.024168350643779334 0 0.00052428686177377257 -0.022852610458660466 0 0.00052428686177377257 -0.022852610458660466 0 0.0012594017919668203 -0.022584764937006698 0 0.00082945175079238566 -0.023769952704707938 0 0.00022480561889526404 -0.024168350643779334 0 0.00052428686177377257 -0.022852610458660466 0 0.00082945175079238566 -0.023769952704707938 0 0.0017055586468123793 -0.021714336951089395 0 0.0012594017919668203 -0.022584764937006698 0 0.0017506011973553769 -0.023269792075108719 0 0.0012594017919668203 -0.022584764937006698 0 0.0017506011973553769 -0.023269792075108719 0 0.00082945175079238566 -0.023769952704707938 0 0.0017055586468123793 -0.021714336951089395 0 0.0017506011973553769 -0.023269792075108719 0 0.0026365362923759504 -0.022204881799027965 0 0.0017506011973553769 -0.023269792075108719 0 0.0019294072227913804 -0.02425175876648324 0 0.0023830034921498836 -0.023712230873195 0 0.0017506011973553769 -0.023269792075108719 0 0.0011530737476035308 -0.024246258302980633 0 0.00082945175079238566 -0.023769952704707938 0 0.0017506011973553769 -0.023269792075108719 0 0.0011530737476035308 -0.024246258302980633 0 0.0019294072227913804 -0.02425175876648324 0 0.0011530737476035308 -0.024246258302980633 0 0.0019294072227913804 -0.02425175876648324 0 0.0018521744189725156 -0.024935854369309594 0 0.0011530737476035308 -0.024246258302980633 0 0.00034071686734970006 -0.024524076980930631 0 0.00075766443658199637 -0.024839211282364108 0 0.0011530737476035308 -0.024246258302980633 0 0.00082945175079238566 -0.023769952704707938 0 0.00034071686734970006 -0.024524076980930631 0 0.00022480561889526404 -0.024168350643779334 0 0.00082945175079238566 -0.023769952704707938 0 0.00034071686734970006 -0.024524076980930631 0 0.00075766443658199637 -0.024839211282364108 0 -0.0002717904295439784 -0.025551423113949007 0 -0.00069258120438609925 -0.024826437608442307 0 0.00034071686734970006 -0.024524076980930631 0 0.00075766443658199637 -0.024839211282364108 0 0.00020188006575467019 -0.024942068629193813 0 0.00084437204328963883 -0.024961274500502277 0 -0.00054845268695732528 -0.024484006124929923 0 0.00075766443658199637 -0.024839211282364108 0 0.0012305034480832046 -0.025693693267409605 0 0.00035836193563807588 -0.026070120435159504 0 0.00075766443658199637 -0.024839211282364108 0 -0.0002717904295439784 -0.025551423113949007 0 0.00035836193563807588 -0.026070120435159504 0 0.0019294072227913804 -0.02425175876648324 0 0.0018521744189725156 -0.024935854369309594 0 0.0024494882823635146 -0.024687990266377042 0 0.0018521744189725156 -0.024935854369309594 0 0.0023320569479578102 -0.025156816196587391 0 0.0024494882823635146 -0.024687990266377042 0 0.0011530737476035308 -0.024246258302980633 0 0.00075766443658199637 -0.024839211282364108 0 0.0018521744189725156 -0.024935854369309594 0 0.00075766443658199637 -0.024839211282364108 0 0.0018521744189725156 -0.024935854369309594 0 0.0012305034480832046 -0.025693693267409605 0 0.0018521744189725156 -0.024935854369309594 0 0.0023320569479578102 -0.025156816196587391 0 0.0019783520943967708 -0.025620670762592737 0 0.0018521744189725156 -0.024935854369309594 0 0.0019783520943967708 -0.025620670762592737 0 0.0012305034480832046 -0.025693693267409605 0 0.0023320569479578102 -0.025156816196587391 0 0.0019783520943967708 -0.025620670762592737 0 0.0025775163398601658 -0.02548710592857955 0 0.0019783520943967708 -0.025620670762592737 0 0.0018386079299191208 -0.026225651327270359 0 0.0024310787998595902 -0.025986402646321551 0 0.0019783520943967708 -0.025620670762592737 0 0.0024310787998595902 -0.025986402646321551 0 0.0025775163398601658 -0.02548710592857955 0 0.0019783520943967708 -0.025620670762592737 0 0.0015822251400932213 -0.025949756793132224 0 0.0018386079299191208 -0.026225651327270359 0 0.0012305034480832046 -0.025693693267409605 0 0.0015822251400932213 -0.025949756793132224 0 0.0013196506583907353 -0.026437817046233627 0 0.0019783520943967708 -0.025620670762592737 0 0.0012305034480832046 -0.025693693267409605 0 0.0015822251400932213 -0.025949756793132224 0 0.0012305034480832046 -0.025693693267409605 0 0.0013196506583907353 -0.026437817046233627 0 0.00074198449595130455 -0.0266146246106021 0 0.0015822251400932213 -0.025949756793132224 0 0.0013196506583907353 -0.026437817046233627 0 0.0018386079299191208 -0.026225651327270359 0 0.001105687464526962 -0.026882215346419953 0 0.0013196506583907353 -0.026437817046233627 0 0.00074198449595130455 -0.0266146246106021 0 0.001105687464526962 -0.026882215346419953 0 0.0015544246562569767 -0.026785061127582006 0 0.0012361261921296158 -0.027253450971153878 0 0.001105687464526962 -0.026882215346419953 0 0.0015544246562569767 -0.026785061127582006 0 0.0013196506583907353 -0.026437817046233627 0 0.0015544246562569767 -0.026785061127582006 0 0.0013196506583907353 -0.026437817046233627 0 0.0018386079299191208 -0.026225651327270359 0 0.0018386079299191208 -0.026225651327270359 0 0.0021902204302123446 -0.026726677289578629 0 0.0024310787998595902 -0.025986402646321551 0 0.0015544246562569767 -0.026785061127582006 0 0.0018386079299191208 -0.026225651327270359 0 0.0021902204302123446 -0.026726677289578629 0 -0.0002717904295439784 -0.025551423113949007 0 0.00035836193563807588 -0.026070120435159504 0 -0.0006832934801464138 -0.026403638498010262 0 0.0012305034480832046 -0.025693693267409605 0 0.00035836193563807588 -0.026070120435159504 0 0.00074198449595130455 -0.0266146246106021 0 0.001105687464526962 -0.026882215346419953 0 0.00074198449595130455 -0.0266146246106021 0 0.00067562419069209796 -0.027342864805679046 0 0.00035836193563807588 -0.026070120435159504 0 0.00074198449595130455 -0.0266146246106021 0 -3.1253494694988052e-05 -0.027507056117880482 0 0.00074198449595130455 -0.0266146246106021 0 -3.1253494694988052e-05 -0.027507056117880482 0 0.00067562419069209796 -0.027342864805679046 0 -6.9369709278529904e-05 -0.027619456638829115 0 -0.00035415325091125126 -0.02775927105411333 0 -3.1253494694988052e-05 -0.027507056117880482 0 3.1244527687894982e-05 -0.028102562880217816 0 -0.00020883716083433811 -0.029035454020299802 0 0.00035836193563807588 -0.026070120435159504 0 -3.1253494694988052e-05 -0.027507056117880482 0 -0.0006832934801464138 -0.026403638498010262 0 3.1244527687894982e-05 -0.028102562880217816 0 0.0003656084144622646 -0.028618323852805036 0 0.00030785459605434231 -0.027953382586087743 0 3.1244527687894982e-05 -0.028102562880217816 0 0.0003656084144622646 -0.028618323852805036 0 -0.00020883716083433811 -0.029035454020299802 0 0.0003656084144622646 -0.028618323852805036 0 0.00081809163233622782 -0.02900691037305193 0 0.00068618826224470968 -0.028280514531117813 0 0.00081809163233622782 -0.02900691037305193 0 0.0011174635984211839 -0.028401623296792196 0 0.00068618826224470968 -0.028280514531117813 0 0.0003656084144622646 -0.028618323852805036 0 0.00081809163233622782 -0.02900691037305193 0 0.00044272512615299201 -0.029421772683174356 0 0.00044272512615299201 -0.029421772683174356 0 0.00039358755539848126 -0.030403897477031493 0 0.00085549159257733648 -0.030038282065363509 0 0.00081809163233622782 -0.02900691037305193 0 0.00044272512615299201 -0.029421772683174356 0 0.00085549159257733648 -0.030038282065363509 0 0.00044272512615299201 -0.029421772683174356 0 -0.00020883716083433811 -0.029035454020299802 0 0.00039358755539848126 -0.030403897477031493 0 0.0003656084144622646 -0.028618323852805036 0 0.00044272512615299201 -0.029421772683174356 0 -0.00020883716083433811 -0.029035454020299802 0 -0.00035415325091125126 -0.02775927105411333 0 -0.00054516483608773453 -0.02794841567971959 0 -0.0002717904295439784 -0.025551423113949007 0 -0.0006832934801464138 -0.026403638498010262 0 -0.0012796512543605428 -0.025581957695936471 0 -0.0002717904295439784 -0.025551423113949007 0 -0.0012796512543605428 -0.025581957695936471 0 -0.00069258120438609925 -0.024826437608442307 0 -0.00054516483608773453 -0.02794841567971959 0 0.00037693039564947888 -0.027662966176393008 0 0.00039358755539848126 -0.030403897477031493 0 0.00093753130332099432 -0.030817827729679975 0 0.00097630805203305295 -0.030686993223698257 0 0.00039358755539848126 -0.030403897477031493 0 0.00097630805203305295 -0.030686993223698257 0 0.00085549159257733648 -0.030038282065363509 0 -0.00054845268695732528 -0.024484006124929923 0 0.00037693039564947888 -0.027662966176393008 0 -0.0012796512543605428 -0.025581957695936471 0 -0.00069258120438609925 -0.024826437608442307 0 -0.0018948616387069973 -0.024865243083666187 0 0.00010014749145084663 -0.024885552974678659 0 0.00020188006575467019 -0.024942068629193813 0 6.3902512292333906e-05 -0.024983284853777168 0 0.00086561987220480641 -0.03067176691818151 0 0.00052125294343576694 -0.030893862654689366 0 0.0002633895361795992 -0.030610791526483532 0 0.0015614056970241822 -0.030579108910902215 0 0.00033869809816358166 -0.030617891516074497 0 0.0018119931851134322 -0.030679192734411012 0 0.0002633895361795992 -0.030610791526483532 0 0.00042884655194506331 -0.029556505902717113 0 0.0018585344863422967 -0.02905863985472263 0 0.0018119931851134322 -0.030679192734411012 0 0.0031622931043430585 -0.030696702713081812 0 0.0015614056970241822 -0.030579108910902215 0 0.00037693039564947888 -0.027662966176393008 0 0.00086561987220480641 -0.03067176691818151 0 0.00093753130332099432 -0.030817827729679975 0 0.00097630805203305295 -0.030686993223698257 0 0.00086561987220480641 -0.03067176691818151 0 0.00097630805203305295 -0.030686993223698257 0 0.0011854170343345021 -0.030848939315502356 0 0.00097630805203305295 -0.030686993223698257 0 0.0011854170343345021 -0.030848939315502356 0 0.00085549159257733648 -0.030038282065363509 0 0.00086561987220480641 -0.03067176691818151 0 0.0011854170343345021 -0.030848939315502356 0 0.00052125294343576694 -0.030893862654689366 0 0.0011854170343345021 -0.030848939315502356 0 0.00052125294343576694 -0.030893862654689366 0 0.00017471661920625555 -0.031366865112208847 0 0.0011854170343345021 -0.030848939315502356 0 0.00027367423294025032 -0.032029455618058138 0 0.0012741152582967179 -0.032362121088193488 0 0.0011854170343345021 -0.030848939315502356 0 0.00027367423294025032 -0.032029455618058138 0 0.00017471661920625555 -0.031366865112208847 0 0.0011854170343345021 -0.030848939315502356 0 0.00085549159257733648 -0.030038282065363509 0 0.001539998585815843 -0.029301333046512862 0 0.0012416738947282691 -0.030720321422969141 0 0.0014149834462143375 -0.031041550331104818 0 0.00081809163233622782 -0.02900691037305193 0 0.00085549159257733648 -0.030038282065363509 0 0.001539998585815843 -0.029301333046512862 0 0.001539998585815843 -0.029301333046512862 0 0.0011174635984211839 -0.028401623296792196 0 0.0014591999472480096 -0.028163401677711836 0 0.0014149834462143375 -0.031041550331104818 0 1.735026760545486e-05 -0.029656849375211746 0 0.00081809163233622782 -0.02900691037305193 0 0.001539998585815843 -0.029301333046512862 0 0.0011174635984211839 -0.028401623296792196 0 0.00027367423294025032 -0.032029455618058138 0 0.0012741152582967179 -0.032362121088193488 0 0.00035781816270632805 -0.032999083340717189 0 0.0012741152582967179 -0.032362121088193488 0 0.00035781816270632805 -0.032999083340717189 0 0.0012772665133910441 -0.03340666903997104 0 0.00035781816270632805 -0.032999083340717189 0 -0.00041309880360001675 -0.032612975235408716 0 -0.00051779467527484193 -0.033353007866499036 0 0.00027367423294025032 -0.032029455618058138 0 0.00035781816270632805 -0.032999083340717189 0 -0.00041309880360001675 -0.032612975235408716 0 0.00027367423294025032 -0.032029455618058138 0 -0.00041309880360001675 -0.032612975235408716 0 -0.00073939145344575701 -0.031916934590558575 0 0.00027367423294025032 -0.032029455618058138 0 -0.00073939145344575701 -0.031916934590558575 0 0.00017471661920625555 -0.031366865112208847 0 -0.00041309880360001675 -0.032612975235408716 0 -0.00073939145344575701 -0.031916934590558575 0 -0.0013313547321445803 -0.032806530928885393 0 -0.00073939145344575701 -0.031916934590558575 0 -0.0013313547321445803 -0.032806530928885393 0 -0.0019309198782138319 -0.031899972388444185 0 -0.00041309880360001675 -0.032612975235408716 0 -0.0013313547321445803 -0.032806530928885393 0 -0.00051779467527484193 -0.033353007866499036 0 -0.0013313547321445803 -0.032806530928885393 0 -0.0012687928629239534 -0.0336525460021731 0 -0.00051779467527484193 -0.033353007866499036 0 -0.0013313547321445803 -0.032806530928885393 0 -0.0024413030709126335 -0.032541140180958668 0 -0.0020505902319096184 -0.033573243784996029 0 -0.0032432111662507868 -0.034614296660221658 0 -0.0030631341048986509 -0.034430027887464298 0 -0.0033866228656476076 -0.034539174671663786 0 -0.0027549068040668809 -0.033452445399836862 0 -0.0026088744330547082 -0.034228771448511074 0 -0.0032432111662507868 -0.034614296660221658 0 -0.0030631341048986509 -0.034430027887464298 0 -0.003132428470334419 -0.034642313904474066 0 -0.0030631341048986509 -0.034430027887464298 0 -0.0030348424772488739 -0.033963883624275354 0 -0.0033866228656476076 -0.034539174671663786 0 -0.0024413030709126335 -0.032541140180958668 0 -0.0019309198782138319 -0.031899972388444185 0 -0.0028472099641585515 -0.031736594055815776 0 -0.0027549068040668809 -0.033452445399836862 0 -0.0029921036287766834 -0.032820516233908845 0 -0.0013313547321445803 -0.032806530928885393 0 -0.0024413030709126335 -0.032541140180958668 0 -0.0019309198782138319 -0.031899972388444185 0 -0.0019309198782138319 -0.031899972388444185 0 -0.0025506537867999767 -0.031325197471419118 0 -0.0014472975803706599 -0.03132318319933345 0 -0.0019309198782138319 -0.031899972388444185 0 -0.0028472099641585515 -0.031736594055815776 0 -0.0025506537867999767 -0.031325197471419118 0 -0.0028472099641585515 -0.031736594055815776 0 -0.0025506537867999767 -0.031325197471419118 0 -0.0035148492432303721 -0.032076371235004397 0 -0.0025506537867999767 -0.031325197471419118 0 -0.0014472975803706599 -0.03132318319933345 0 -0.0018439073491033217 -0.030023304963815264 0 -0.00066266291719667024 -0.030346421056553448 0 -0.00033366048957271554 -0.031127840612172188 0 -0.0014472975803706599 -0.03132318319933345 0 -0.00066266291719667024 -0.030346421056553448 0 -0.0014472975803706599 -0.03132318319933345 0 -0.0018439073491033217 -0.030023304963815264 0 -0.00066266291719667024 -0.030346421056553448 0 0.0002633895361795992 -0.030610791526483532 0 0.00042884655194506331 -0.029556505902717113 0 0.00052125294343576694 -0.030893862654689366 0 0.0002633895361795992 -0.030610791526483532 0 -0.00033366048957271554 -0.031127840612172188 0 -0.00066266291719667024 -0.030346421056553448 0 0.0002633895361795992 -0.030610791526483532 0 -0.00033366048957271554 -0.031127840612172188 0 -0.00073939145344575701 -0.031916934590558575 0 -0.00033366048957271554 -0.031127840612172188 0 0.00017471661920625555 -0.031366865112208847 0 0.00052125294343576694 -0.030893862654689366 0 -0.00033366048957271554 -0.031127840612172188 0 0.00017471661920625555 -0.031366865112208847 0 -0.00073939145344575701 -0.031916934590558575 0 -0.00033366048957271554 -0.031127840612172188 0 -0.0014472975803706599 -0.03132318319933345 0 -0.00073939145344575701 -0.031916934590558575 0 -0.0019309198782138319 -0.031899972388444185 0 -0.0014472975803706599 -0.03132318319933345 0 -0.0033883130615283241 -0.035071092542145146 0 -0.0035828955720827202 -0.034874203955765209 0 -0.0036961158909268178 -0.034639646882029029 0 -0.0033883130615283241 -0.035071092542145146 0 -0.0035828955720827202 -0.034874203955765209 0 -0.0033970005993055365 -0.034913550009286483 0 -0.003573752865503091 -0.034714865256721544 0 -0.0033797089581918058 -0.034785373718992679 0 -0.0035828955720827202 -0.034874203955765209 0 -0.0036456747179548815 -0.034349285335676272 0 -0.0036961158909268178 -0.034639646882029029 0 -0.0035457097957539516 -0.034586149211659922 0 -0.0033866228656476076 -0.034539174671663786 0 -0.0036456747179548815 -0.034349285335676272 0 -0.003573752865503091 -0.034714865256721544 0 -0.0036157282457414397 -0.03440540922725796 0 -0.0035457097957539516 -0.034586149211659922 0 -0.0033866228656476076 -0.034539174671663786 0 -0.0034163051082668175 -0.034644543918963586 0 -0.0032432111662507868 -0.034614296660221658 0 -0.0033866228656476076 -0.034539174671663786 0 -0.0034163051082668175 -0.034644543918963586 0 -0.0030348424772488739 -0.033963883624275354 0 -0.0033866228656476076 -0.034539174671663786 0 -0.0036456747179548815 -0.034349285335676272 0 -0.0030348424772488739 -0.033963883624275354 0 -0.0039550987247900741 -0.033534192893107988 0 -0.0036456747179548815 -0.034349285335676272 0 -0.0030348424772488739 -0.033963883624275354 0 -0.0039550987247900741 -0.033534192893107988 0 -0.0035148492432303721 -0.032076371235004397 0 -0.0029921036287766834 -0.032820516233908845 0 -0.0034450181714415491 -0.032065029063927268 0 -0.0039550987247900741 -0.033534192893107988 0 -0.0036456747179548815 -0.034349285335676272 0 -0.0038711613613388388 -0.034179784654508522 0 -0.0033883130615283241 -0.035071092542145146 0 -0.0036961158909268178 -0.034639646882029029 0 -0.0036053710676167065 -0.034817156710497121 0 -0.0036456747179548815 -0.034349285335676272 0 -0.0036961158909268178 -0.034639646882029029 0 -0.0038711613613388388 -0.034179784654508522 0 -0.0039550987247900741 -0.033534192893107988 0 -0.0038711613613388388 -0.034179784654508522 0 -0.0040511333210077848 -0.033773354174247795 0 -0.0038711613613388388 -0.034179784654508522 0 -0.0036053710676167065 -0.034817156710497121 0 -0.0040511333210077848 -0.033773354174247795 0 -0.0036961158909268178 -0.034639646882029029 0 -0.0038711613613388388 -0.034179784654508522 0 -0.0036053710676167065 -0.034817156710497121 0 -0.003813558009705521 -0.035059389138164462 0 -0.0038291131993315243 -0.034529323697430739 0 -0.0040776084184423571 -0.033386826370879176 0 -0.0035247384318002179 -0.035321433545975132 0 -0.003813558009705521 -0.035059389138164462 0 -0.0038291131993315243 -0.034529323697430739 0 -0.0034132355583224526 -0.035204521988431874 0 -0.0035247384318002179 -0.035321433545975132 0 -0.0038291131993315243 -0.034529323697430739 0 -0.0036053710676167065 -0.034817156710497121 0 -0.0038291131993315243 -0.034529323697430739 0 -0.0040511333210077848 -0.033773354174247795 0 -0.0034132355583224526 -0.035204521988431874 0 -0.0036053710676167065 -0.034817156710497121 0 -0.0038291131993315243 -0.034529323697430739 0 -0.0038291131993315243 -0.034529323697430739 0 -0.0040511333210077848 -0.033773354174247795 0 -0.0040776084184423571 -0.033386826370879176 0 -0.003813558009705521 -0.035059389138164462 0 -0.0040776084184423571 -0.033386826370879176 0 -0.0039411571921087515 -0.03360724233241958 0 -0.0040776084184423571 -0.033386826370879176 0 -0.0048209265579951359 -0.031528034834869982 0 -0.0043125446267610352 -0.033077332591599645 0 -0.0040776084184423571 -0.033386826370879176 0 -0.0042556702407220088 -0.032736175241493096 0 -0.0048209265579951359 -0.031528034834869982 0 -0.0039550987247900741 -0.033534192893107988 0 -0.0040511333210077848 -0.033773354174247795 0 -0.0042556702407220088 -0.032736175241493096 0 -0.0040511333210077848 -0.033773354174247795 0 -0.0040776084184423571 -0.033386826370879176 0 -0.0042556702407220088 -0.032736175241493096 0 -0.0042556702407220088 -0.032736175241493096 0 -0.0035148492432303721 -0.032076371235004397 0 -0.0048209265579951359 -0.031528034834869982 0 -0.0035148492432303721 -0.032076371235004397 0 -0.0048209265579951359 -0.031528034834869982 0 -0.0030190963592987043 -0.030726111191442022 0 -0.0039550987247900741 -0.033534192893107988 0 -0.0042556702407220088 -0.032736175241493096 0 -0.0035148492432303721 -0.032076371235004397 0 -0.0048209265579951359 -0.031528034834869982 0 -0.0052454561014197588 -0.033431365494559322 0 -0.0043125446267610352 -0.033077332591599645 0 -0.0049510214464215524 -0.031228892975924665 0 -0.005246276689932973 -0.030609539267204208 0 -0.0048209265579951359 -0.031528034834869982 0 -0.0053068530578858917 -0.027525374068016424 0 -0.0032072333507068966 -0.028735167885981305 0 -0.0040726085951285785 -0.034879023267851125 0 -0.0044591511940967714 -0.029133141517999235 0 -0.005246276689932973 -0.030609539267204208 0 -0.0044591511940967714 -0.029133141517999235 0 -0.0052454561014197588 -0.033431365494559322 0 -0.004502307544269989 -0.033822490848095563 0 -0.0054527920213545047 -0.034377504850835121 0 -0.0031559233923167994 -0.035010862097987462 0 -0.0030813508898899344 -0.034328577318145828 0 -0.0022123415577071479 -0.034509353451164598 0 -0.0053068530578858917 -0.027525374068016424 0 -0.0041569933471537176 -0.026299563348427417 0 -0.005017238296990429 -0.02512778910838423 0 -0.0031559233923167994 -0.035010862097987462 0 -0.0038046966453163578 -0.035224966753667264 0 -0.0036707357671601709 -0.034918278682829637 0 -0.0031559233923167994 -0.035010862097987462 0 -0.0036707357671601709 -0.034918278682829637 0 -0.0030813508898899344 -0.034328577318145828 0 -0.0040726085951285785 -0.034879023267851125 0 -0.0037244524808712786 -0.034406099516995491 0 -0.004502307544269989 -0.033822490848095563 0 -0.0043125446267610352 -0.033077332591599645 0 -0.0039411571921087515 -0.03360724233241958 0 -0.0052454561014197588 -0.033431365494559322 0 -0.004502307544269989 -0.033822490848095563 0 -0.0043125446267610352 -0.033077332591599645 0 -0.0038196421415124587 -0.034875861559783047 0 -0.0037244524808712786 -0.034406099516995491 0 -0.0040776084184423571 -0.033386826370879176 0 -0.0043125446267610352 -0.033077332591599645 0 -0.0039411571921087515 -0.03360724233241958 0 -0.0039698724252328656 -0.03633268874779419 0 -0.0039522837233162593 -0.036187420776517321 0 -0.0038046966453163578 -0.035224966753667264 0 -0.0036707357671601709 -0.034918278682829637 0 -0.0039442030708772263 -0.035206496513157146 0 -0.0036707357671601709 -0.034918278682829637 0 -0.0039442030708772263 -0.035206496513157146 0 -0.0037381550037711023 -0.03435288707555257 0 -0.0041229197194782193 -0.037523576635369267 0 -0.0039232176697891943 -0.038062171034375265 0 -0.0043112735738946072 -0.038250933276534768 0 -0.0035098695643965261 -0.038319974221515375 0 -0.0033887318030147743 -0.037683072334436317 0 -0.0039232176697891943 -0.038062171034375265 0 -0.0033887318030147743 -0.037683072334436317 0 -0.0041229197194782193 -0.037523576635369267 0 -0.0039232176697891943 -0.038062171034375265 0 -0.003813558009705521 -0.035059389138164462 0 -0.0038046966453163578 -0.035224966753667264 0 -0.0039442030708772263 -0.035206496513157146 0 -0.0034082401962398012 -0.03600836479109442 0 -0.003813558009705521 -0.035059389138164462 0 -0.0039442030708772263 -0.035206496513157146 0 -0.0034114196181863213 -0.035950999368216045 0 -0.0039698724252328656 -0.03633268874779419 0 0.00021835821908362807 -0.026770929068850171 0 -0.00066066205452996649 -0.029022108201107184 0 -0.0013815516810371893 -0.027664180708411226 0 -0.00066066205452996649 -0.029022108201107184 0 -0.0018439073491033217 -0.030023304963815264 0 -0.0013815516810371893 -0.027664180708411226 0 0.00021835821908362807 -0.026770929068850171 0 0.00042884655194506331 -0.029556505902717113 0 -0.00066066205452996649 -0.029022108201107184 0 -0.00066266291719667024 -0.030346421056553448 0 0.00042884655194506331 -0.029556505902717113 0 -0.00066066205452996649 -0.029022108201107184 0 -0.00066266291719667024 -0.030346421056553448 0 -0.00066066205452996649 -0.029022108201107184 0 -0.0018439073491033217 -0.030023304963815264 0 -0.0025506537867999767 -0.031325197471419118 0 -0.0018439073491033217 -0.030023304963815264 0 -0.0030190963592987043 -0.030726111191442022 0 -0.0025506537867999767 -0.031325197471419118 0 -0.0035148492432303721 -0.032076371235004397 0 -0.0030190963592987043 -0.030726111191442022 0 -0.0048209265579951359 -0.031528034834869982 0 -0.0030190963592987043 -0.030726111191442022 0 -0.0032072333507068966 -0.028735167885981305 0 -0.0018439073491033217 -0.030023304963815264 0 -0.0030190963592987043 -0.030726111191442022 0 -0.0032072333507068966 -0.028735167885981305 0 -0.0018439073491033217 -0.030023304963815264 0 -0.0032072333507068966 -0.028735167885981305 0 -0.0013815516810371893 -0.027664180708411226 0 -0.0032072333507068966 -0.028735167885981305 0 -0.0029872842282411289 -0.026073790669889109 0 -0.0013815516810371893 -0.027664180708411226 0 -0.0032072333507068966 -0.028735167885981305 0 -0.0041569933471537176 -0.026299563348427417 0 -0.0029872842282411289 -0.026073790669889109 0 -0.0053068530578858917 -0.027525374068016424 0 -0.0032072333507068966 -0.028735167885981305 0 -0.0041569933471537176 -0.026299563348427417 0 -0.0041569933471537176 -0.026299563348427417 0 -0.0029872842282411289 -0.026073790669889109 0 -0.0035508705882140398 -0.023514244392541388 0 -0.0030218024834473625 -0.025918940118999773 0 -0.001649388981335122 -0.025018252740214613 0 -0.0029872842282411289 -0.026073790669889109 0 -0.0028041806409138631 -0.024111468884512998 0 -0.0030304720468462801 -0.02386385648783906 0 -0.0029872842282411289 -0.026073790669889109 0 -0.0013815516810371893 -0.027664180708411226 0 -0.00034266082901168715 -0.025802426510498695 0 0.00021835821908362807 -0.026770929068850171 0 -0.0013815516810371893 -0.027664180708411226 0 -0.00034266082901168715 -0.025802426510498695 0 0.00023180842254427966 -0.02526988937208002 0 0.00021835821908362807 -0.026770929068850171 0 -0.00034266082901168715 -0.025802426510498695 0 -0.002133057037456317 -0.023386905525688305 0 -0.0028041806409138631 -0.024111468884512998 0 -0.0028078039157632679 -0.023248155656993723 0 -0.0028078039157632679 -0.023248155656993723 0 -0.0028447934085639582 -0.022536299494581427 0 -0.0024051740093390672 -0.022391048811947718 0 -0.0028078039157632679 -0.023248155656993723 0 -0.0028447934085639582 -0.022536299494581427 0 -0.0033104769306329111 -0.022631320504834754 0 -0.0028447934085639582 -0.022536299494581427 0 -0.0028459879994253436 -0.021837071670204121 0 -0.0033104769306329111 -0.022631320504834754 0 -0.0028459879994253436 -0.021837071670204121 0 -0.0033104769306329111 -0.022631320504834754 0 -0.0033481426868343447 -0.021151022303505827 0 -0.0033806148437017076 -0.02247853593863175 0 -0.0033104769306329111 -0.022631320504834754 0 -0.0035508705882140398 -0.023514244392541388 0 -0.0033104769306329111 -0.022631320504834754 0 -0.0030304720468462801 -0.02386385648783906 0 -0.0035508705882140398 -0.023514244392541388 0 -0.0028041806409138631 -0.024111468884512998 0 -0.0028078039157632679 -0.023248155656993723 0 -0.0030304720468462801 -0.02386385648783906 0 -0.0028078039157632679 -0.023248155656993723 0 -0.0033104769306329111 -0.022631320504834754 0 -0.0030304720468462801 -0.02386385648783906 0 -0.0029872842282411289 -0.026073790669889109 0 -0.0030304720468462801 -0.02386385648783906 0 -0.0035508705882140398 -0.023514244392541388 0 -0.0041251562530527208 -0.023308076336234506 0 -0.0048486358897763373 -0.022912871551921531 0 -0.0051636749921048107 -0.024117449788683167 0 -0.0041569933471537176 -0.026299563348427417 0 -0.0035508705882140398 -0.023514244392541388 0 -0.005017238296990429 -0.02512778910838423 0 -0.0037504261009030813 -0.022683940675498129 0 -0.0044591511940967714 -0.029133141517999235 0 -0.0041251562530527208 -0.023308076336234506 0 -0.0043487111792651269 -0.022729344535824172 0 -0.0048486358897763373 -0.022912871551921531 0 -0.0041251562530527208 -0.023308076336234506 0 -0.0043487111792651269 -0.022729344535824172 0 -0.0039696627841190376 -0.022505803233142805 0 -0.0034334770596175291 -0.022786444289376716 0 -0.0037504261009030813 -0.022683940675498129 0 -0.0033806148437017076 -0.02247853593863175 0 -0.0041251562530527208 -0.023308076336234506 0 -0.0039696627841190376 -0.022505803233142805 0 -0.0043487111792651269 -0.022729344535824172 0 -0.0039696627841190376 -0.022505803233142805 0 -0.0043313074770801154 -0.022297179780837256 0 -0.0039696627841190376 -0.022505803233142805 0 -0.0040141048783033538 -0.022079346864972482 0 -0.0043313074770801154 -0.022297179780837256 0 -0.0040141048783033538 -0.022079346864972482 0 -0.0043313074770801154 -0.022297179780837256 0 -0.0045276556814983545 -0.021933431607564977 0 -0.0039696627841190376 -0.022505803233142805 0 -0.0040141048783033538 -0.022079346864972482 0 -0.0036973328060371587 -0.022289800444788163 0 -0.0017553451151512717 -0.033007229396945933 0 -0.0017807823953213428 -0.031918185857452284 0 -0.001269193322238729 -0.031151076976155212 0 -0.0048486358897763373 -0.022912871551921531 0 -0.0043313074770801154 -0.022297179780837256 0 -0.0045276556814983545 -0.021933431607564977 0 -0.0017553451151512717 -0.033007229396945933 0 -0.0017807823953213428 -0.031918185857452284 0 -0.0019176328058403767 -0.031850337080132206 0 -0.0033093414597986396 -0.028471320885496944 0 -0.0025899645100966695 -0.024143796436790012 0 -0.0043487111792651269 -0.022729344535824172 0 -0.0048486358897763373 -0.022912871551921531 0 -0.0043313074770801154 -0.022297179780837256 0 -0.0033369263518452249 -0.032298878623083727 0 -0.0025899645100966695 -0.024143796436790012 0 -0.0017807823953213428 -0.031918185857452284 0 -0.0019228208268068096 -0.031833141327067237 0 -0.001269193322238729 -0.031151076976155212 0 -0.0031520683786967693 -0.03234904139592 0 -0.0033369263518452249 -0.032298878623083727 0 -0.0025899645100966695 -0.024143796436790012 0 -0.0031137972639957898 -0.019826919763774885 0 -0.0037174258416359613 -0.021902088488175809 0 -0.0027236795479222975 -0.02085524353798681 0 -0.0033228965435379678 -0.020353128844402976 0 -0.0033413803010787775 -0.021042332481066722 0 -0.003647216379779153 -0.020564315090077549 0 -0.0031015283538749949 -0.020175457769586996 0 -0.0036888340916843374 -0.020964898998596382 0 -0.0033413803010787775 -0.021042332481066722 0 -0.003647216379779153 -0.020564315090077549 0 -0.0037713916308311198 -0.021478129048904459 0 -0.0036888340916843374 -0.020964898998596382 0 -0.0033413803010787775 -0.021042332481066722 0 -0.0025899645100966695 -0.024143796436790012 0 -0.0033938150198111138 -0.021222704384897054 0 -0.0036888340916843374 -0.020964898998596382 0 -0.003647216379779153 -0.020564315090077549 0 -0.003992320867115655 -0.020781237159080701 0 -0.0040141048783033538 -0.022079346864972482 0 -0.0041214022832714589 -0.021529803896614564 0 -0.0034778128665483876 -0.022060206360957083 0 -0.0041214022832714589 -0.021529803896614564 0 -0.0034778128665483876 -0.022060206360957083 0 -0.0037050242199249653 -0.021093272661624168 0 -0.0040141048783033538 -0.022079346864972482 0 -0.0045276556814983545 -0.021933431607564977 0 -0.0041214022832714589 -0.021529803896614564 0 -0.0040445368159758984 -0.021275333662978745 0 -0.0032495846503681068 -0.019279351711350194 0 -0.0044786879959991741 -0.02028167635456736 0 -0.0037125624678846377 -0.018985381363924806 0 -0.0048105280103372299 -0.01860373022795862 0 -0.0044786879959991741 -0.02028167635456736 0 -0.0033554033727871174 -0.020009243047227298 0 -0.0037125624678846377 -0.018985381363924806 0 -0.0033554033727871174 -0.020009243047227298 0 -0.0037125624678846377 -0.018985381363924806 0 -0.0028436989509322088 -0.018834377403014073 0 -0.0044786879959991741 -0.02028167635456736 0 -0.0033554033727871174 -0.020009243047227298 0 -0.0033481426868343447 -0.021151022303505827 0 -0.0033554033727871174 -0.020009243047227298 0 -0.0033481426868343447 -0.021151022303505827 0 -0.0028742635612873015 -0.020766283523527367 0 -0.0028459879994253436 -0.021837071670204121 0 -0.0033481426868343447 -0.021151022303505827 0 -0.0028742635612873015 -0.020766283523527367 0 -0.0033806148437017076 -0.02247853593863175 0 -0.0039696627841190376 -0.022505803233142805 0 -0.0036973328060371587 -0.022289800444788163 0 -0.0033806148437017076 -0.02247853593863175 0 -0.0034778128665483876 -0.022060206360957083 0 -0.0036973328060371587 -0.022289800444788163 0 -0.0033104769306329111 -0.022631320504834754 0 -0.0044786879959991741 -0.02028167635456736 0 -0.0033481426868343447 -0.021151022303505827 0 -0.0033806148437017076 -0.02247853593863175 0 -0.0033104769306329111 -0.022631320504834754 0 -0.0034778128665483876 -0.022060206360957083 0 -0.0033754774324628893 -0.022491417816933864 0 -0.0040445368159758984 -0.021275333662978745 0 -0.0040141048783033538 -0.022079346864972482 0 -0.0034778128665483876 -0.022060206360957083 0 -0.0036973328060371587 -0.022289800444788163 0 -0.0036069634367091896 -0.038664559780797546 0 -0.003972242245195887 -0.038747844879937106 0 -0.0035725019770082153 -0.038922981411413628 0 -0.0036069634367091896 -0.038664559780797546 0 -0.0039757571121234198 -0.038431073082869652 0 -0.003972242245195887 -0.038747844879937106 0 -0.0035098695643965261 -0.038319974221515375 0 -0.0039232176697891943 -0.038062171034375265 0 -0.0039757571121234198 -0.038431073082869652 0 -0.0035098695643965261 -0.038319974221515375 0 -0.0036069634367091896 -0.038664559780797546 0 -0.0039757571121234198 -0.038431073082869652 0 -0.0039232176697891943 -0.038062171034375265 0 -0.0039757571121234198 -0.038431073082869652 0 -0.0043112735738946072 -0.038250933276534768 0 -0.0039757571121234198 -0.038431073082869652 0 -0.0043112735738946072 -0.038250933276534768 0 -0.0042260782342300081 -0.038568339933745067 0 -0.0039757571121234198 -0.038431073082869652 0 -0.0042260782342300081 -0.038568339933745067 0 -0.003972242245195887 -0.038747844879937106 0 -0.0042260782342300081 -0.038568339933745067 0 -0.003972242245195887 -0.038747844879937106 0 -0.0042833352490450104 -0.038779800597094717 0 -0.0042260782342300081 -0.038568339933745067 0 -0.0044689081642385218 -0.038618939860866501 0 -0.0042833352490450104 -0.038779800597094717 0 -0.0043112735738946072 -0.038250933276534768 0 -0.0042260782342300081 -0.038568339933745067 0 -0.0044689081642385218 -0.038618939860866501 0 -0.0037381550037711023 -0.03435288707555257 0 -0.0029961387396824513 -0.033213464171992835 0 -0.0030813508898899344 -0.034328577318145828 0 -0.0039522837233162593 -0.036187420776517321 0 -0.0038753037241579724 -0.03638635979177321 0 -0.0036707357671601709 -0.034918278682829637 0 -0.0037381550037711023 -0.03435288707555257 0 -0.0030813508898899344 -0.034328577318145828 0 -0.0029961387396824513 -0.033213464171992835 0 -0.0030813508898899344 -0.034328577318145828 0 -0.0022123415577071479 -0.034509353451164598 0 -0.0033093414597986396 -0.028471320885496944 0 -0.0044591511940967714 -0.029133141517999235 0 -0.0017553451151512717 -0.033007229396945933 0 -0.0029961387396824513 -0.033213464171992835 0 -0.0022123415577071479 -0.034509353451164598 0 -0.0017553451151512717 -0.033007229396945933 0 -0.0019176328058403767 -0.031850337080132206 0 -0.0029961387396824513 -0.033213464171992835 0 -0.0033369263518452249 -0.032298878623083727 0 -0.0047926765610952953 -0.029735118323228237 0 -0.0033369263518452249 -0.032298878623083727 0 -0.0038753037241579724 -0.03638635979177321 0 -0.0046217718944363186 -0.038787776883573009 0 -0.0043951287769489911 -0.03894524946298817 0 -0.0044401617652678506 -0.038803937003657099 0 -0.0046217718944363186 -0.038787776883573009 0 -0.0044689081642385218 -0.038618939860866501 0 -0.0044401617652678506 -0.038803937003657099 0 -0.0037713916308311198 -0.021478129048904459 0 -0.003992320867115655 -0.020781237159080701 0 -0.0045866599130964074 -0.02086887265108572 0 -0.0037713916308311198 -0.021478129048904459 0 -0.0036888340916843374 -0.020964898998596382 0 -0.003992320867115655 -0.020781237159080701 0 -0.003992320867115655 -0.020781237159080701 0 -0.0045866599130964074 -0.02086887265108572 0 -0.0044263863039807529 -0.020135155118646952 0 -0.003647216379779153 -0.020564315090077549 0 -0.003992320867115655 -0.020781237159080701 0 -0.003947701421493117 -0.020235504332698544 0 -0.0043951287769489911 -0.03894524946298817 0 -0.0042178174964092796 -0.039001008999972102 0 -0.0042383602626955945 -0.038967428707978424 0 -0.0043951287769489911 -0.03894524946298817 0 -0.0042383602626955945 -0.038967428707978424 0 -0.0042269762277769808 -0.038963835589614408 0 -0.0047926765610952953 -0.029735118323228237 0 -0.0040455189091479788 -0.028340290215568675 0 -0.0043951287769489911 -0.03894524946298817 0 -0.0043425795143929519 -0.038884405872766099 0 -0.0042178174964092796 -0.039001008999972102 0 -0.0043425795143929519 -0.038884405872766099 0 -0.0042833352490450104 -0.038779800597094717 0 -0.0042178174964092796 -0.039001008999972102 0 -0.0043951287769489911 -0.03894524946298817 0 -0.0043425795143929519 -0.038884405872766099 0 -0.0044401617652678506 -0.038803937003657099 0 -0.0044689081642385218 -0.038618939860866501 0 -0.0044401617652678506 -0.038803937003657099 0 -0.0042833352490450104 -0.038779800597094717 0 -0.0043425795143929519 -0.038884405872766099 0 -0.0044401617652678506 -0.038803937003657099 0 -0.0042833352490450104 -0.038779800597094717 0 -0.003972242245195887 -0.038747844879937106 0 -0.0042833352490450104 -0.038779800597094717 0 -0.0040086166289270073 -0.038979573520937019 0 -0.0040086166289270073 -0.038979573520937019 0 -0.0042178174964092796 -0.039001008999972102 0 -0.0038981755391736777 -0.039311844119581892 0 -0.0042833352490450104 -0.038779800597094717 0 -0.0040086166289270073 -0.038979573520937019 0 -0.0042178174964092796 -0.039001008999972102 0 -0.003213305116449901 -0.030892246876676802 0 -0.0032212593120604536 -0.030838496959496392 0 -0.0031887938650728503 -0.030833393942810396 0 -0.0038953801523205181 -0.037507494380056933 0 -0.0040455189091479788 -0.028340290215568675 0 -0.0042383602626955945 -0.038967428707978424 0 -0.0042407749948682192 -0.038956434354632516 0 -0.0042269762277769808 -0.038963835589614408 0 -0.0042178174964092796 -0.039001008999972102 0 -0.0042383602626955945 -0.038967428707978424 0 -0.0042407749948682192 -0.038956434354632516 0 -0.0039218316296155704 -0.038872611593576162 0 -0.0038953801523205181 -0.037507494380056933 0 -0.0040086166289270073 -0.038979573520937019 0 -0.003752530238415628 -0.039208300528585358 0 -0.0038981755391736777 -0.039311844119581892 0 -0.0032402771200419982 -0.030834480908815094 0 -0.003213305116449901 -0.030892246876676802 0 -0.0032212593120604536 -0.030838496959496392 0 -0.0032514089014876175 -0.039611149621364347 0 -0.003752530238415628 -0.039208300528585358 0 -0.0038757978104945316 -0.039341776475923983 0 -0.0033504934290820693 -0.034859777365601342 0 -0.0038953801523205181 -0.037507494380056933 0 -0.0042503023749507493 -0.038609554691592766 0 -0.0038953801523205181 -0.037507494380056933 0 -0.0033022148261287253 -0.039195591874948137 0 -0.003752530238415628 -0.039208300528585358 0 -0.0037205870304766317 -0.03900787563966155 0 -0.0040086166289270073 -0.038979573520937019 0 -0.003752530238415628 -0.039208300528585358 0 -0.0037205870304766317 -0.03900787563966155 0 -0.003972242245195887 -0.038747844879937106 0 -0.0037205870304766317 -0.03900787563966155 0 -0.0035725019770082153 -0.038922981411413628 0 -0.003972242245195887 -0.038747844879937106 0 -0.0040086166289270073 -0.038979573520937019 0 -0.0037205870304766317 -0.03900787563966155 0 -0.0033022148261287253 -0.039195591874948137 0 -0.0037205870304766317 -0.03900787563966155 0 -0.0035725019770082153 -0.038922981411413628 0 -0.0032188991860940858 -0.019755030600109622 0 -0.0034794632060810102 -0.019717033009447053 0 -0.0032916138681273301 -0.020004088425676556 0 -0.0030388003360533778 -0.019678303327982961 0 -0.0029850484825769256 -0.019892216673421635 0 -0.0032188991860940858 -0.019755030600109622 0 -0.0032188991860940858 -0.019755030600109622 0 -0.0031101188283641831 -0.019631961178606702 0 -0.0033604106993408637 -0.019574104398893989 0 -0.0030388003360533778 -0.019678303327982961 0 -0.0032188991860940858 -0.019755030600109622 0 -0.0031101188283641831 -0.019631961178606702 0 -0.0032342824923997345 -0.030795476647778663 0 -0.0032212593120604536 -0.030838496959496392 0 -0.0031887938650728503 -0.030833393942810396 0 -0.0029762678839118841 -0.024433319918449173 0 -0.0040455189091479788 -0.028340290215568675 0 -0.0033912392713472098 -0.024334384344307659 0 -0.0035095410755304804 -0.024313237480534124 0 -0.003573079051774519 -0.024239189273426987 0 -0.0032402771200419982 -0.030834480908815094 0 -0.0032342824923997345 -0.030795476647778663 0 -0.0032212593120604536 -0.030838496959496392 0 -0.0029762678839118841 -0.024433319918449173 0 -0.0035885448323496249 -0.022006737054333179 0 -0.0040455189091479788 -0.028340290215568675 0 -0.0032788231322847228 -0.021618261169330567 0 -0.0035095410755304804 -0.024313237480534124 0 -0.003573079051774519 -0.024239189273426987 0 -0.0036222047672634277 -0.024284083156033899 0 -0.0035885448323496249 -0.022006737054333179 0 -0.0032788231322847228 -0.021618261169330567 0 -0.0033604106993408637 -0.019574104398893989 0 -0.0034794632060810102 -0.019717033009447053 0 -0.0035424003677998646 -0.019544578051063341 0 -0.0032188991860940858 -0.019755030600109622 0 -0.0033604106993408637 -0.019574104398893989 0 -0.0034794632060810102 -0.019717033009447053 0 -0.0032788231322847228 -0.021618261169330567 0 -0.0040509306273831692 -0.019342201953882442 0 -0.0034794632060810102 -0.019717033009447053 0 -0.0037067860942773235 -0.019685349924335273 0 -0.0036183723046622038 -0.019745228588473947 0 -0.0034794632060810102 -0.019717033009447053 0 -0.0035424003677998646 -0.019544578051063341 0 -0.0037067860942773235 -0.019685349924335273 0 -0.0045866599130964074 -0.02086887265108572 0 -0.0050169163774655403 -0.020044292153349026 0 -0.0044263863039807529 -0.020135155118646952 0 -0.0045866599130964074 -0.02086887265108572 0 -0.0052989875205536364 -0.020403964182988742 0 -0.0050169163774655403 -0.020044292153349026 0 -0.0050169163774655403 -0.020044292153349026 0 -0.0044263863039807529 -0.020135155118646952 0 -0.0043018323148239657 -0.019438171792339875 0 -0.003992320867115655 -0.020781237159080701 0 -0.0044263863039807529 -0.020135155118646952 0 -0.003947701421493117 -0.020235504332698544 0 -0.0044263863039807529 -0.020135155118646952 0 -0.003947701421493117 -0.020235504332698544 0 -0.0039932088965723986 -0.019663098619050041 0 -0.0044263863039807529 -0.020135155118646952 0 -0.0039932088965723986 -0.019663098619050041 0 -0.0043018323148239657 -0.019438171792339875 0 -0.0039932088965723986 -0.019663098619050041 0 -0.0043018323148239657 -0.019438171792339875 0 -0.0039434271749930585 -0.019479203968460784 0 -0.0037067860942773235 -0.019685349924335273 0 -0.0037374632360704049 -0.019642558169312232 0 -0.0038179998852669226 -0.019426236809812737 0 -0.0043018323148239657 -0.019438171792339875 0 -0.0039434271749930585 -0.019479203968460784 0 -0.0038179998852669226 -0.019426236809812737 0 -0.0040509306273831692 -0.019342201953882442 0 -0.0038768038411735942 -0.019526595933137322 0 -0.0037374632360704049 -0.019642558169312232 0 -0.0038052895315068957 -0.019476777707464647 0 -0.0037037648270744996 -0.019764933206221871 0 -0.0037374632360704049 -0.019642558169312232 0 -0.0038179998852669226 -0.019426236809812737 0 -0.0038052895315068957 -0.019476777707464647 0 -0.0038052895315068957 -0.019476777707464647 0 -0.003771867625580399 -0.019357943292423595 0 -0.0037431557253610952 -0.019289391567712186 0 -0.0038052895315068957 -0.019476777707464647 0 -0.0037431557253610952 -0.019289391567712186 0 -0.0035393536996092367 -0.019046450784628837 0 -0.0038179998852669226 -0.019426236809812737 0 -0.0038052895315068957 -0.019476777707464647 0 -0.003771867625580399 -0.019357943292423595 0 -0.0037060872069096364 -0.019216167212272334 0 -0.0037431557253610952 -0.019289391567712186 0 -0.0035393536996092367 -0.019046450784628837 0 -0.0037060872069096364 -0.019216167212272334 0 -0.0037431557253610952 -0.019289391567712186 0 -0.0037619917291147275 -0.019272277586798257 0 -0.003771867625580399 -0.019357943292423595 0 -0.0037431557253610952 -0.019289391567712186 0 -0.0037619917291147275 -0.019272277586798257 0 -0.0037037648270744996 -0.019764933206221871 0 -0.00361398680024349 -0.020177875585370084 0 -0.0036421794868733838 -0.019847309469577891 0 -0.0037418706422345611 -0.019514522174525074 0 -0.0035262479503043159 -0.01963469837181302 0 -0.00361398680024349 -0.020177875585370084 0 -0.0036421794868733838 -0.019847309469577891 0 -0.0033078366057455789 -0.02021748593644538 0 -0.0038052895315068957 -0.019476777707464647 0 -0.0037037648270744996 -0.019764933206221871 0 -0.00361398680024349 -0.020177875585370084 0 -0.0037060872069096364 -0.019216167212272334 0 -0.0035393536996092367 -0.019046450784628837 0 -0.0035866475555941971 -0.019158831636891971 0 -0.0037374632360704049 -0.019642558169312232 0 -0.0037037648270744996 -0.019764933206221871 0 -0.0036421794868733838 -0.019847309469577891 0 -0.0037374632360704049 -0.019642558169312232 0 -0.0036421794868733838 -0.019847309469577891 0 -0.0036183723046622038 -0.019745228588473947 0 -0.0037067860942773235 -0.019685349924335273 0 -0.0037374632360704049 -0.019642558169312232 0 -0.0036183723046622038 -0.019745228588473947 0 -0.0034794632060810102 -0.019717033009447053 0 -0.0036183723046622038 -0.019745228588473947 0 -0.0032916138681273301 -0.020004088425676556 0 -0.0036219167644471742 -0.019890908559924949 0 -0.0032108390632083279 -0.020036451319872257 0 -0.0036421794868733838 -0.019847309469577891 0 -0.0036183723046622038 -0.019745228588473947 0 -0.0032916138681273301 -0.020004088425676556 0 -0.0036421794868733838 -0.019847309469577891 0 -0.0033078366057455789 -0.02021748593644538 0 -0.0031156633131276647 -0.020093081007443097 0 -0.00361398680024349 -0.020177875585370084 0 -0.0033078366057455789 -0.02021748593644538 0 -0.003192603978329777 -0.020586270841715982 0 -0.0028130712879140024 -0.020357524239932385 0 -0.0030363973716791681 -0.020373814839940194 0 -0.0031156633131276647 -0.020093081007443097 0 -0.0033078366057455789 -0.02021748593644538 0 -0.0030363973716791681 -0.020373814839940194 0 -0.0031156633131276647 -0.020093081007443097 0 -0.0033078366057455789 -0.02021748593644538 0 -0.0030363973716791681 -0.020373814839940194 0 -0.003192603978329777 -0.020586270841715982 0 -0.0029850484825769256 -0.019892216673421635 0 -0.0032188991860940858 -0.019755030600109622 0 -0.0032916138681273301 -0.020004088425676556 0 -0.0026197376335461943 -0.017553586385178416 0 -0.0026442044951952878 -0.017622854452667005 0 -0.0026737883031433284 -0.017709274251227741 0 -0.0031778658280599676 -0.017518903659545511 0 -0.0032495846503681068 -0.019279351711350194 0 -0.0037524463153348511 -0.017712752926237963 0 -0.002964526926895669 -0.017937036412617829 0 -0.0037125624678846377 -0.018985381363924806 0 -0.0037524463153348511 -0.017712752926237963 0 -0.002964526926895669 -0.017937036412617829 0 -0.0026594838349851407 -0.017209510452980904 0 -0.002964526926895669 -0.017937036412617829 0 -0.0037125624678846377 -0.018985381363924806 0 -0.0028436989509322088 -0.018834377403014073 0 -0.0037524463153348511 -0.017712752926237963 0 -0.0037125624678846377 -0.018985381363924806 0 -0.0048105280103372299 -0.01860373022795862 0 -0.0027236795479222975 -0.02085524353798681 0 -0.001782571432072759 -0.01984234540271285 0 -0.0025647987078956849 -0.020036398051311806 0 -0.0025647987078956849 -0.020036398051311806 0 -0.0033228965435379678 -0.020353128844402976 0 -0.0029240610670532132 -0.018904784825603375 0 -0.0031137972639957898 -0.019826919763774885 0 -0.0029841212533332218 -0.019218668442933271 0 -0.0033938150198111138 -0.021222704384897054 0 -0.0032495846503681068 -0.019279351711350194 0 -0.0027236795479222975 -0.02085524353798681 0 -0.0025647987078956849 -0.020036398051311806 0 -0.0033228965435379678 -0.020353128844402976 0 -0.001782571432072759 -0.01984234540271285 0 -0.0025647987078956849 -0.020036398051311806 0 -0.0029240610670532132 -0.018904784825603375 0 -0.0031015283538749949 -0.020175457769586996 0 -0.0033830261899511038 -0.019504609468484087 0 -0.0029240610670532132 -0.018904784825603375 0 -0.003647216379779153 -0.020564315090077549 0 -0.003947701421493117 -0.020235504332698544 0 -0.0036112003155588167 -0.020040580259945429 0 -0.003647216379779153 -0.020564315090077549 0 -0.0036112003155588167 -0.020040580259945429 0 -0.0031015283538749949 -0.020175457769586996 0 -0.0036112003155588167 -0.020040580259945429 0 -0.0031015283538749949 -0.020175457769586996 0 -0.0033830261899511038 -0.019504609468484087 0 -0.003947701421493117 -0.020235504332698544 0 -0.0039932088965723986 -0.019663098619050041 0 -0.0036112003155588167 -0.020040580259945429 0 -0.0039932088965723986 -0.019663098619050041 0 -0.0036112003155588167 -0.020040580259945429 0 -0.0033830261899511038 -0.019504609468484087 0 -0.0039932088965723986 -0.019663098619050041 0 -0.0039434271749930585 -0.019479203968460784 0 -0.0037502956677910966 -0.019427335158642534 0 -0.0039665335665090094 -0.019561445373342791 0 -0.0034748576330916885 -0.018581162661812197 0 -0.0033830261899511038 -0.019504609468484087 0 -0.0029240610670532132 -0.018904784825603375 0 -0.0032085803143987635 -0.017667144023824719 0 -0.0039932088965723986 -0.019663098619050041 0 -0.0033830261899511038 -0.019504609468484087 0 -0.0032085803143987635 -0.017667144023824719 0 -0.0029240610670532132 -0.018904784825603375 0 -0.0026737883031433284 -0.017709274251227741 0 -0.0032085803143987635 -0.017667144023824719 0 -0.001782571432072759 -0.01984234540271285 0 -0.0029240610670532132 -0.018904784825603375 0 -0.0026737883031433284 -0.017709274251227741 0 -0.0032495846503681068 -0.019279351711350194 0 -0.002401889017886447 -0.017602088947957884 0 -0.0026737883031433284 -0.017709274251227741 0 -0.0032085803143987635 -0.017667144023824719 0 -0.0027449359019362202 -0.017088848063331181 0 -0.0039434271749930585 -0.019479203968460784 0 -0.0038179998852669226 -0.019426236809812737 0 -0.003832513745463448 -0.019434150973961662 0 -0.0039434271749930585 -0.019479203968460784 0 -0.003832513745463448 -0.019434150973961662 0 -0.0037502956677910966 -0.019427335158642534 0 -0.0037502956677910966 -0.019427335158642534 0 -0.0037884048773517394 -0.019398311949915831 0 -0.0037446995420845337 -0.01935295700428415 0 -0.003832513745463448 -0.019434150973961662 0 -0.0037502956677910966 -0.019427335158642534 0 -0.0037884048773517394 -0.019398311949915831 0 -0.0038179998852669226 -0.019426236809812737 0 -0.003832513745463448 -0.019434150973961662 0 -0.0037884048773517394 -0.019398311949915831 0 -0.003771867625580399 -0.019357943292423595 0 -0.0037884048773517394 -0.019398311949915831 0 -0.0037446995420845337 -0.01935295700428415 0 -0.0038179998852669226 -0.019426236809812737 0 -0.003771867625580399 -0.019357943292423595 0 -0.0037884048773517394 -0.019398311949915831 0 -0.0037446995420845337 -0.01935295700428415 0 -0.0037619917291147275 -0.019272277586798257 0 -0.0037353438571979566 -0.019272165367709367 0 -0.003771867625580399 -0.019357943292423595 0 -0.0037446995420845337 -0.01935295700428415 0 -0.0037619917291147275 -0.019272277586798257 0 -0.0037502956677910966 -0.019427335158642534 0 -0.0037446995420845337 -0.01935295700428415 0 -0.003625685290010399 -0.019325549933042453 0 -0.0034748576330916885 -0.018581162661812197 0 -0.0031790714337342537 -0.018208502971053069 0 -0.0037446995420845337 -0.01935295700428415 0 -0.003625685290010399 -0.019325549933042453 0 -0.0037353438571979566 -0.019272165367709367 0 -0.0026737883031433284 -0.017709274251227741 0 -0.0027449359019362202 -0.017088848063331181 0 -0.0025877492943228229 -0.017280777933677376 0 -0.0027449359019362202 -0.017088848063331181 0 -0.0025877492943228229 -0.017280777933677376 0 -0.0025645730483651085 -0.017029696192277968 0 -0.0026197376335461943 -0.017553586385178416 0 -0.0026737883031433284 -0.017709274251227741 0 -0.0025877492943228229 -0.017280777933677376 0 -0.0026197376335461943 -0.017553586385178416 0 -0.0025877492943228229 -0.017280777933677376 0 -0.0026594838349851407 -0.017209510452980904 0 -0.0031778658280599676 -0.017518903659545511 0 -0.0027637734844138547 -0.01730275256939208 0 -0.0025877492943228229 -0.017280777933677376 0 -0.0025645730483651085 -0.017029696192277968 0 -0.0024930544513482506 -0.017012730054488733 0 -0.0025877492943228229 -0.017280777933677376 0 -0.0026594838349851407 -0.017209510452980904 0 -0.0024930544513482506 -0.017012730054488733 0 -0.0026594838349851407 -0.017209510452980904 0 -0.0023494874050853411 -0.016956390204196089 0 -0.0024930544513482506 -0.017012730054488733 0 -0.0023494874050853411 -0.016956390204196089 0 -0.0021113069065284607 -0.017009294010171462 0 -0.0020569020882702659 -0.016788593343828994 0 -0.0026594838349851407 -0.017209510452980904 0 -0.0023494874050853411 -0.016956390204196089 0 -0.0021113069065284607 -0.017009294010171462 0 -0.0026594838349851407 -0.017209510452980904 0 -0.0021113069065284607 -0.017009294010171462 0 -0.0023583825553406112 -0.017700676454874893 0 -0.0019317887641660523 -0.016383739088839642 0 -0.0018312172713885527 -0.016687492886699008 0 -0.0019299163465792322 -0.016664351037405614 0 -0.0020569020882702659 -0.016788593343828994 0 -0.0018312172713885527 -0.016687492886699008 0 -0.0019299163465792322 -0.016664351037405614 0 -0.0021113069065284607 -0.017009294010171462 0 -0.0020569020882702659 -0.016788593343828994 0 -0.0018312172713885527 -0.016687492886699008 0 -0.0018312172713885527 -0.016687492886699008 0 -0.0015117531065832947 -0.016565431909742988 0 -0.0018298305590815195 -0.017155980784949117 0 -0.0021113069065284607 -0.017009294010171462 0 -0.0018312172713885527 -0.016687492886699008 0 -0.0018298305590815195 -0.017155980784949117 0 -0.0019317887641660523 -0.016383739088839642 0 -0.0018312172713885527 -0.016687492886699008 0 -0.0015117531065832947 -0.016565431909742988 0 -0.0015117531065832947 -0.016565431909742988 0 -0.0018298305590815195 -0.017155980784949117 0 -0.0013593400421323288 -0.017668005119801596 0 -0.0015117531065832947 -0.016565431909742988 0 -0.0013593400421323288 -0.017668005119801596 0 -0.00042724530524551287 -0.01756907342241773 0 -0.0018298305590815195 -0.017155980784949117 0 -0.0018192896622887616 -0.01802791726331741 0 -0.0013593400421323288 -0.017668005119801596 0 -0.0018192896622887616 -0.01802791726331741 0 -0.0021585772220735528 -0.018867471600406267 0 -0.0013303740081258789 -0.01901171209090944 0 -0.0018192896622887616 -0.01802791726331741 0 -0.0013593400421323288 -0.017668005119801596 0 -0.0013303740081258789 -0.01901171209090944 0 -0.0013593400421323288 -0.017668005119801596 0 -0.0013303740081258789 -0.01901171209090944 0 -0.00042724530524551287 -0.01756907342241773 0 -0.002964526926895669 -0.017937036412617829 0 -0.0023583825553406112 -0.017700676454874893 0 -0.0028436989509322088 -0.018834377403014073 0 -0.002964526926895669 -0.017937036412617829 0 -0.0026594838349851407 -0.017209510452980904 0 -0.0023583825553406112 -0.017700676454874893 0 -0.0021113069065284607 -0.017009294010171462 0 -0.0018298305590815195 -0.017155980784949117 0 -0.0023583825553406112 -0.017700676454874893 0 -0.0018298305590815195 -0.017155980784949117 0 -0.0018192896622887616 -0.01802791726331741 0 -0.0023583825553406112 -0.017700676454874893 0 -0.0018192896622887616 -0.01802791726331741 0 -0.0023583825553406112 -0.017700676454874893 0 -0.0021585772220735528 -0.018867471600406267 0 -0.0023583825553406112 -0.017700676454874893 0 -0.0021585772220735528 -0.018867471600406267 0 -0.0028436989509322088 -0.018834377403014073 0 -0.0033554033727871174 -0.020009243047227298 0 -0.0025657972130284294 -0.019824871337831375 0 -0.0028742635612873015 -0.020766283523527367 0 -0.0033554033727871174 -0.020009243047227298 0 -0.0028436989509322088 -0.018834377403014073 0 -0.0025657972130284294 -0.019824871337831375 0 -0.0021585772220735528 -0.018867471600406267 0 -0.0028436989509322088 -0.018834377403014073 0 -0.0025657972130284294 -0.019824871337831375 0 -0.0025657972130284294 -0.019824871337831375 0 -0.0023030106294532273 -0.02110091766660294 0 -0.0028742635612873015 -0.020766283523527367 0 -0.0028459879994253436 -0.021837071670204121 0 -0.0023030106294532273 -0.02110091766660294 0 -0.0028742635612873015 -0.020766283523527367 0 -0.0023030106294532273 -0.02110091766660294 0 -0.0019331292136130006 -0.02004977650572734 0 -0.0016466054677130241 -0.021506430979366324 0 -0.0025657972130284294 -0.019824871337831375 0 -0.0023030106294532273 -0.02110091766660294 0 -0.0019331292136130006 -0.02004977650572734 0 -0.0021585772220735528 -0.018867471600406267 0 -0.0019331292136130006 -0.02004977650572734 0 -0.0013303740081258789 -0.01901171209090944 0 -0.0021585772220735528 -0.018867471600406267 0 -0.0025657972130284294 -0.019824871337831375 0 -0.0019331292136130006 -0.02004977650572734 0 -0.0019331292136130006 -0.02004977650572734 0 -0.0013303740081258789 -0.01901171209090944 0 -0.0011757425109248808 -0.020382948471061962 0 -0.0013303740081258789 -0.01901171209090944 0 -0.00035015355284407067 -0.020067777334040634 0 -0.00042724530524551287 -0.01756907342241773 0 -0.0013303740081258789 -0.01901171209090944 0 -0.00035015355284407067 -0.020067777334040634 0 -0.0011757425109248808 -0.020382948471061962 0 -0.00035015355284407067 -0.020067777334040634 0 -0.0011757425109248808 -0.020382948471061962 0 -0.00059002537363420104 -0.021424337167422806 0 -0.0019331292136130006 -0.02004977650572734 0 -0.0011757425109248808 -0.020382948471061962 0 -0.0016466054677130241 -0.021506430979366324 0 -0.0011757425109248808 -0.020382948471061962 0 -0.00059002537363420104 -0.021424337167422806 0 -0.0016466054677130241 -0.021506430979366324 0 -0.00097772763711386954 -0.02303814975622737 0 0.00052428686177377257 -0.022852610458660466 0 -0.00059002537363420104 -0.021424337167422806 0 -0.00097772763711386954 -0.02303814975622737 0 -0.0018236704266504596 -0.02257765251070076 0 -0.0016466054677130241 -0.021506430979366324 0 -0.00097772763711386954 -0.02303814975622737 0 -0.00059002537363420104 -0.021424337167422806 0 -0.0016466054677130241 -0.021506430979366324 0 -0.002133057037456317 -0.023386905525688305 0 -0.0018236704266504596 -0.02257765251070076 0 -0.0024051740093390672 -0.022391048811947718 0 -0.002133057037456317 -0.023386905525688305 0 -0.0028078039157632679 -0.023248155656993723 0 -0.0024051740093390672 -0.022391048811947718 0 -0.0028459879994253436 -0.021837071670204121 0 -0.0023030106294532273 -0.02110091766660294 0 -0.0024051740093390672 -0.022391048811947718 0 -0.0028447934085639582 -0.022536299494581427 0 -0.0028459879994253436 -0.021837071670204121 0 -0.0024051740093390672 -0.022391048811947718 0 -0.0018236704266504596 -0.02257765251070076 0 -0.0024051740093390672 -0.022391048811947718 0 -0.0016466054677130241 -0.021506430979366324 0 -0.0023030106294532273 -0.02110091766660294 0 -0.0024051740093390672 -0.022391048811947718 0 -0.0016466054677130241 -0.021506430979366324 0 0.0017055586468123793 -0.021714336951089395 0 0.0012594017919668203 -0.022584764937006698 0 0.0016585362476354737 -0.021474721431163621 0 0.00013923583442724744 -0.019169867223445061 0 0.0016568101706525011 -0.019208100756322153 0 0.001072006957235961 -0.017385953189313789 0 0.0017055586468123793 -0.021714336951089395 0 0.00013923583442724744 -0.019169867223445061 0 0.0016568101706525011 -0.019208100756322153 0 0.0016803378762898754 -0.021647055427465738 0 0.00093359999961486952 -0.020327866454458453 0 0.00052428686177377257 -0.022852610458660466 0 0.0016585362476354737 -0.021474721431163621 0 0.00058940519315183262 -0.02139528695509486 0 0.00052428686177377257 -0.022852610458660466 0 0.0012594017919668203 -0.022584764937006698 0 0.0016585362476354737 -0.021474721431163621 0 0.00052428686177377257 -0.022852610458660466 0 -0.00059002537363420104 -0.021424337167422806 0 0.00058940519315183262 -0.02139528695509486 0 -0.00035015355284407067 -0.020067777334040634 0 -0.00059002537363420104 -0.021424337167422806 0 0.00058940519315183262 -0.02139528695509486 0 0.0016585362476354737 -0.021474721431163621 0 0.00058940519315183262 -0.02139528695509486 0 0.0011582022189749507 -0.019962707500452141 0 0.00093359999961486952 -0.020327866454458453 0 0.00033615504095329206 -0.018800343530718525 0 -0.00035015355284407067 -0.020067777334040634 0 0.00058940519315183262 -0.02139528695509486 0 0.0011582022189749507 -0.019962707500452141 0 -0.00035015355284407067 -0.020067777334040634 0 0.0011582022189749507 -0.019962707500452141 0 -0.00042724530524551287 -0.01756907342241773 0 0.00033615504095329206 -0.018800343530718525 0 -0.00039217630960108733 -0.017622503674216708 0 0.00013923583442724744 -0.019169867223445061 0 -0.00040661599477943492 -0.017635272543468465 0 0.001072006957235961 -0.017385953189313789 0 -0.00040661599477943492 -0.017635272543468465 0 0.001072006957235961 -0.017385953189313789 0 0.00058759125040690424 -0.0162776666858289 0 0.001072006957235961 -0.017385953189313789 0 0.00058759125040690424 -0.0162776666858289 0 0.0014400203288280101 -0.015679514834435773 0 0.00058759125040690424 -0.0162776666858289 0 0.00048877792355354009 -0.015610534795922107 0 -7.9732561941602993e-05 -0.016651323289055813 0 0.00058759125040690424 -0.0162776666858289 0 0.00048877792355354009 -0.015610534795922107 0 0.0013805649159017816 -0.014720702334718868 0 0.00058759125040690424 -0.0162776666858289 0 0.0013805649159017816 -0.014720702334718868 0 0.0014400203288280101 -0.015679514834435773 0 -0.00040661599477943492 -0.017635272543468465 0 -0.00042724530524551287 -0.01756907342241773 0 -7.9732561941602993e-05 -0.016651323289055813 0 -0.00040661599477943492 -0.017635272543468465 0 0.00058759125040690424 -0.0162776666858289 0 -7.9732561941602993e-05 -0.016651323289055813 0 -0.00042724530524551287 -0.01756907342241773 0 -7.9732561941602993e-05 -0.016651323289055813 0 -0.0005036497852055629 -0.016627782935284385 0 -7.9732561941602993e-05 -0.016651323289055813 0 -0.0005036497852055629 -0.016627782935284385 0 -0.00010766505247994802 -0.015560885253457479 0 0.00048877792355354009 -0.015610534795922107 0 -7.9732561941602993e-05 -0.016651323289055813 0 -0.00010766505247994802 -0.015560885253457479 0 -0.0015117531065832947 -0.016565431909742988 0 -0.0005036497852055629 -0.016627782935284385 0 -0.00010766505247994802 -0.015560885253457479 0 -0.0015117531065832947 -0.016565431909742988 0 -0.00042724530524551287 -0.01756907342241773 0 -0.0005036497852055629 -0.016627782935284385 0 -0.0015117531065832947 -0.016565431909742988 0 -0.002530359026686275 -0.015774830572802191 0 -0.0022747085213606706 -0.016027870446377733 0 -0.0019317887641660523 -0.016383739088839642 0 -0.0015117531065832947 -0.016565431909742988 0 -0.002530359026686275 -0.015774830572802191 0 -0.0015351274625894987 -0.016461885503430869 0 -0.0011562281611319598 -0.015772915900322815 0 -0.002530359026686275 -0.015774830572802191 0 -0.0022747085213606706 -0.016027870446377733 0 -0.00089594207553722594 -0.014147357496056138 0 -0.002530359026686275 -0.015774830572802191 0 -0.00089594207553722594 -0.014147357496056138 0 -0.003484165818916279 -0.010946955780661146 0 -0.0019317887641660523 -0.016383739088839642 0 -0.0021704213378478804 -0.016722068488883204 0 -0.0019299163465792322 -0.016664351037405614 0 -0.0025928953505599405 -0.015593713590061344 0 -0.0027825298908984229 -0.013823954723295636 0 -0.0019317887641660523 -0.016383739088839642 0 -0.002530359026686275 -0.015774830572802191 0 -0.0021704213378478804 -0.016722068488883204 0 0.00048877792355354009 -0.015610534795922107 0 0.0013805649159017816 -0.014720702334718868 0 0.00095130553556479992 -0.014665968948524528 0 0.0013805649159017816 -0.014720702334718868 0 0.00095130553556479992 -0.014665968948524528 0 0.0015834323275584665 -0.014365735956183527 0 0.0012957069597141749 -0.015244179175855467 0 0.0022974758708799816 -0.01132454188388533 0 -0.0011562281611319598 -0.015772915900322815 0 0.0012957069597141749 -0.015244179175855467 0 0.00048877792355354009 -0.015610534795922107 0 -0.00010766505247994802 -0.015560885253457479 0 0.00095130553556479992 -0.014665968948524528 0 -0.0022747085213606706 -0.016027870446377733 0 0.0012568077025358402 -0.01507474022294529 0 -0.00089594207553722594 -0.014147357496056138 0 0.0012568077025358402 -0.01507474022294529 0 -0.00089594207553722594 -0.014147357496056138 0 0.0025327777603754023 -0.012536759764350525 0 0.0012568077025358402 -0.01507474022294529 0 0.0025327777603754023 -0.012536759764350525 0 0.0052529298062349537 -0.013985396147940317 0 0.0025327777603754023 -0.012536759764350525 0 0.00013059364220528694 -0.0090964352969794098 0 0.0042314966610835416 -0.009951529673415031 0 -0.00089594207553722594 -0.014147357496056138 0 0.0025327777603754023 -0.012536759764350525 0 0.00013059364220528694 -0.0090964352969794098 0 0.00013059364220528694 -0.0090964352969794098 0 0.0042314966610835416 -0.009951529673415031 0 0.0025393621519307864 -0.0054907928573346802 0 0.00013059364220528694 -0.0090964352969794098 0 -0.00036086679068658044 -0.004751184672154074 0 0.0025393621519307864 -0.0054907928573346802 0 -0.00036086679068658044 -0.004751184672154074 0 0.0016854823656979583 -0.0029647044092094548 0 0.0025393621519307864 -0.0054907928573346802 0 0.00013059364220528694 -0.0090964352969794098 0 -0.00036086679068658044 -0.004751184672154074 0 -0.0033949213176808009 -0.0068614562121261163 0 -0.0018269434474474221 -0.016405096670671217 0 -0.0019346259047314696 -0.016642473171750816 0 -0.0019987342357784686 -0.016575946152366433 0 -0.0026586168395118189 -0.01010613159130944 0 -0.002640380004440908 -0.011736369034421601 0 -0.0018269434474474221 -0.016405096670671217 0 -0.0019987342357784686 -0.016575946152366433 0 -0.0019789870612093121 -0.016365296091210568 0 -0.00036086679068658044 -0.004751184672154074 0 -0.0030691114691816703 -0.0035423944697125275 0 -0.00064108716331046122 -0.0017944440403868998 0 -0.00036086679068658044 -0.004751184672154074 0 -0.0030691114691816703 -0.0035423944697125275 0 -0.0033949213176808009 -0.0068614562121261163 0 -0.0019346259047314696 -0.016642473171750816 0 -0.0020140757293027815 -0.016721540002575891 0 -0.0019987342357784686 -0.016575946152366433 0 -0.0019346259047314696 -0.016642473171750816 0 -0.0021704213378478804 -0.016722068488883204 0 -0.0020140757293027815 -0.016721540002575891 0 -0.002640380004440908 -0.011736369034421601 0 -0.0027825298908984229 -0.013823954723295636 0 0.00013059364220528694 -0.0090964352969794098 0 -0.0033949213176808009 -0.0068614562121261163 0 -0.003484165818916279 -0.010946955780661146 0 -0.00089594207553722594 -0.014147357496056138 0 0.00013059364220528694 -0.0090964352969794098 0 -0.003484165818916279 -0.010946955780661146 0 -0.0021704213378478804 -0.016722068488883204 0 -0.0019299163465792322 -0.016664351037405614 0 -0.0020140757293027815 -0.016721540002575891 0 -0.0019299163465792322 -0.016664351037405614 0 -0.0020820881400774633 -0.016750847049091577 0 -0.0020140757293027815 -0.016721540002575891 0 -0.0020569020882702659 -0.016788593343828994 0 -0.0019299163465792322 -0.016664351037405614 0 -0.0020820881400774633 -0.016750847049091577 0 -0.0020820881400774633 -0.016750847049091577 0 -0.0020140757293027815 -0.016721540002575891 0 -0.0019987342357784686 -0.016575946152366433 0 -0.0023494874050853411 -0.016956390204196089 0 -0.0022737180790431419 -0.016850806797972653 0 -0.0024930544513482506 -0.017012730054488733 0 -0.0022737180790431419 -0.016850806797972653 0 -0.0024930544513482506 -0.017012730054488733 0 -0.0024401692418973783 -0.016902471528413923 0 -0.0023494874050853411 -0.016956390204196089 0 -0.0020569020882702659 -0.016788593343828994 0 -0.0022737180790431419 -0.016850806797972653 0 -0.0020569020882702659 -0.016788593343828994 0 -0.0020820881400774633 -0.016750847049091577 0 -0.0022737180790431419 -0.016850806797972653 0 -0.0020820881400774633 -0.016750847049091577 0 -0.0022737180790431419 -0.016850806797972653 0 -0.0023000340339104936 -0.016820415805513918 0 -0.0022737180790431419 -0.016850806797972653 0 -0.0023000340339104936 -0.016820415805513918 0 -0.0024401692418973783 -0.016902471528413923 0 -0.0023000340339104936 -0.016820415805513918 0 -0.0024401692418973783 -0.016902471528413923 0 -0.0024906900545143425 -0.017083306366303553 0 -0.0023000340339104936 -0.016820415805513918 0 -0.0022835175830268474 -0.016688090433771566 0 -0.0024906900545143425 -0.017083306366303553 0 -0.0023000340339104936 -0.016820415805513918 0 -0.0022835175830268474 -0.016688090433771566 0 -0.0021305668440792678 -0.016636944009021198 0 -0.0020820881400774633 -0.016750847049091577 0 -0.0023000340339104936 -0.016820415805513918 0 -0.0021305668440792678 -0.016636944009021198 0 -0.0022835175830268474 -0.016688090433771566 0 -0.0021305668440792678 -0.016636944009021198 0 -0.0021607466880544913 -0.016493723754723508 0 -0.0022835175830268474 -0.016688090433771566 0 -0.002273279722113017 -0.016462785202942667 0 -0.0021607466880544913 -0.016493723754723508 0 -0.0022835175830268474 -0.016688090433771566 0 -0.0024334910843540154 -0.01655699406172979 0 -0.0024906900545143425 -0.017083306366303553 0 -0.0022835175830268474 -0.016688090433771566 0 -0.0024334910843540154 -0.01655699406172979 0 -0.002273279722113017 -0.016462785202942667 0 -0.0020820881400774633 -0.016750847049091577 0 -0.0021305668440792678 -0.016636944009021198 0 -0.0019987342357784686 -0.016575946152366433 0 -0.0021305668440792678 -0.016636944009021198 0 -0.0020666556960140816 -0.016487312483251648 0 -0.0021607466880544913 -0.016493723754723508 0 -0.0021305668440792678 -0.016636944009021198 0 -0.0020666556960140816 -0.016487312483251648 0 -0.0019987342357784686 -0.016575946152366433 0 -0.0020666556960140816 -0.016487312483251648 0 -0.0019987342357784686 -0.016575946152366433 0 -0.0019789870612093121 -0.016365296091210568 0 -0.0020666556960140816 -0.016487312483251648 0 -0.0019789870612093121 -0.016365296091210568 0 -0.0020976165937646816 -0.016383366642957677 0 -0.0019789870612093121 -0.016365296091210568 0 -0.0020976165937646816 -0.016383366642957677 0 -0.0020837341819686548 -0.016238267959368474 0 -0.0020666556960140816 -0.016487312483251648 0 -0.0020976165937646816 -0.016383366642957677 0 -0.0021607466880544913 -0.016493723754723508 0 -0.0020976165937646816 -0.016383366642957677 0 -0.0020837341819686548 -0.016238267959368474 0 -0.0021753345849369618 -0.016358904011341137 0 -0.0015703761142876005 -0.016158513397378706 0 -0.00033701480705894892 -0.013772848055530917 0 -0.00079313884185816769 -0.015551457721849344 0 -0.00026169464813245908 -0.014953082368954901 0 0.00035113951576290828 -0.015239224800451973 0 -0.0020837341819686548 -0.016238267959368474 0 -0.0019135990500127615 -0.01625376639993056 0 -0.0018802521143680806 -0.016120197452792823 0 -0.0019789870612093121 -0.016365296091210568 0 -0.0020837341819686548 -0.016238267959368474 0 -0.0019135990500127615 -0.01625376639993056 0 -0.0024334910843540154 -0.01655699406172979 0 -0.0023019955650555768 -0.016241868477265265 0 -0.0026970674974866405 -0.016489554228726739 0 -0.0024334910843540154 -0.01655699406172979 0 -0.002273279722113017 -0.016462785202942667 0 -0.0023019955650555768 -0.016241868477265265 0 -0.002273279722113017 -0.016462785202942667 0 -0.0021753345849369618 -0.016358904011341137 0 -0.0023019955650555768 -0.016241868477265265 0 -0.0020976165937646816 -0.016383366642957677 0 -0.0021607466880544913 -0.016493723754723508 0 -0.0021753345849369618 -0.016358904011341137 0 -0.002273279722113017 -0.016462785202942667 0 -0.0021607466880544913 -0.016493723754723508 0 -0.0021753345849369618 -0.016358904011341137 0 -0.0020837341819686548 -0.016238267959368474 0 -0.0021753345849369618 -0.016358904011341137 0 -0.0023019955650555768 -0.016241868477265265 0 -0.00079313884185816769 -0.015551457721849344 0 -0.0017236281090594813 -0.015420756316985685 0 -0.00082440155379892046 -0.014916139341379971 0 -0.00079313884185816769 -0.015551457721849344 0 -0.0017236281090594813 -0.015420756316985685 0 -0.0018723542501338235 -0.01587519431150455 0 -0.0015703761142876005 -0.016158513397378706 0 -0.0020769494689474154 -0.016013549147650286 0 -0.00030800125558102945 -0.01915720132128567 0 -0.00039451711493632071 -0.018996562358608186 0 -0.00065831549176708986 -0.019338483216811884 0 -0.0017236281090594813 -0.015420756316985685 0 -0.0018723542501338235 -0.01587519431150455 0 -0.0026054585710581103 -0.015909663125557132 0 -0.0010266214420980341 -0.017331065472652441 0 -0.0016390533586818691 -0.017630144539007353 0 -0.00030800125558102945 -0.01915720132128567 0 -0.00039451711493632071 -0.018996562358608186 0 3.2488097957069395e-05 -0.018958432965267644 0 -0.0010266214420980341 -0.017331065472652441 0 -0.000395168934064545 -0.016561122372018483 0 0.00058816303289087129 -0.020880989660151408 0 -0.000395168934064545 -0.016561122372018483 0 0.0012684661637714807 -0.021746418076788884 0 0.00098605261505241965 -0.021885442091598518 0 0.00075658325357925798 -0.02160042062317663 0 0.00098605261505241965 -0.021885442091598518 0 0.0012937624280198587 -0.022118500847078486 0 0.0010172078669267546 -0.022178510295179202 0 0.00098605261505241965 -0.021885442091598518 0 0.00086638032232733099 -0.021986305449210614 0 0.0010172078669267546 -0.022178510295179202 0 0.0012684661637714807 -0.021746418076788884 0 0.00098605261505241965 -0.021885442091598518 0 0.0012937624280198587 -0.022118500847078486 0 0.0012684661637714807 -0.021746418076788884 0 0.0012937624280198587 -0.022118500847078486 0 0.0016575345174385915 -0.022125359370937837 0 -1.3085999451690826e-05 -0.014851257923619928 0 -0.00026169464813245908 -0.014953082368954901 0 -0.00082440155379892046 -0.014916139341379971 0 -0.00037165003540061555 -0.010753619511429224 0 -0.0018552649337005075 -0.010815942265877237 0 -0.00026988056519346778 -0.0099657117490020014 0 -0.000395168934064545 -0.016561122372018483 0 7.9709480101867474e-05 -0.01584921967779122 0 -0.00043427983751016157 -0.012730935460388847 0 -0.000395168934064545 -0.016561122372018483 0 0.00075658325357925798 -0.02160042062317663 0 0.0006053810131788328 -0.021819878994741582 0 0.00035936259951479242 -0.021850205475402222 0 -0.00037165003540061555 -0.010753619511429224 0 -0.00026988056519346778 -0.0099657117490020014 0 0.00025675433585452913 -0.010377489284423216 0 -1.3085999451690826e-05 -0.014851257923619928 0 -0.00026169464813245908 -0.014953082368954901 0 0.00032523566257066234 -0.015150684653626598 0 0.00017706389217903606 -0.015095074926099581 0 -0.00033701480705894892 -0.013772848055530917 0 -0.00079313884185816769 -0.015551457721849344 0 -0.00026169464813245908 -0.014953082368954901 0 -0.00082440155379892046 -0.014916139341379971 0 0.0006053810131788328 -0.021819878994741582 0 0.00078433805054953459 -0.021851771698194602 0 0.00069663567824847813 -0.021908121274716186 0 0.00075658325357925798 -0.02160042062317663 0 0.0006053810131788328 -0.021819878994741582 0 0.00078433805054953459 -0.021851771698194602 0 0.00098605261505241965 -0.021885442091598518 0 0.00078433805054953459 -0.021851771698194602 0 0.00086638032232733099 -0.021986305449210614 0 0.00098605261505241965 -0.021885442091598518 0 0.00075658325357925798 -0.02160042062317663 0 0.00078433805054953459 -0.021851771698194602 0 0.00086638032232733099 -0.021986305449210614 0 0.00069663567824847813 -0.021908121274716186 0 0.00081047214910973098 -0.02208040328440462 0 0.00078433805054953459 -0.021851771698194602 0 0.00086638032232733099 -0.021986305449210614 0 0.00069663567824847813 -0.021908121274716186 0 0.00069663567824847813 -0.021908121274716186 0 0.00055858584486106002 -0.021776917941116837 0 0.00065809033751566088 -0.02202318726813287 0 0.0006053810131788328 -0.021819878994741582 0 0.00069663567824847813 -0.021908121274716186 0 0.00055858584486106002 -0.021776917941116837 0 0.0006053810131788328 -0.021819878994741582 0 0.00055858584486106002 -0.021776917941116837 0 0.00035936259951479242 -0.021850205475402222 0 0.00055858584486106002 -0.021776917941116837 0 0.00035936259951479242 -0.021850205475402222 0 0.00074449717059739873 -0.021443839306461834 0 0.0010759323540439065 -0.0093207202915221027 0 0.00056501364451299631 -0.01005468714877459 0 0.0011191779456028836 -0.010752886613281451 0 0.00035936259951479242 -0.021850205475402222 0 0.00074449717059739873 -0.021443839306461834 0 0.0022433295683752632 -0.020886837627819135 0 7.9709480101867474e-05 -0.01584921967779122 0 0.0017081125633167174 -0.015013997142120278 0 -0.00026988056519346778 -0.0099657117490020014 0 0.0010759323540439065 -0.0093207202915221027 0 0.0012425148417123466 -0.0091462654186926732 0 -0.00026988056519346778 -0.0099657117490020014 0 0.0010759323540439065 -0.0093207202915221027 0 0.00056501364451299631 -0.01005468714877459 0 0.0011040516908891551 -0.0090977948431318605 0 0.0012954958577600666 -0.010926176781941885 0 0.00074449717059739873 -0.021443839306461834 0 0.0022433295683752632 -0.020886837627819135 0 0.0013582617920576119 -0.019572119029101945 0 -0.00043427983751016157 -0.012730935460388847 0 0.0012954958577600666 -0.010926176781941885 0 -0.00037165003540061555 -0.010753619511429224 0 0.00025675433585452913 -0.010377489284423216 0 0.0011191779456028836 -0.010752886613281451 0 -0.00026988056519346778 -0.0099657117490020014 0 0.00056501364451299631 -0.01005468714877459 0 0.00025675433585452913 -0.010377489284423216 0 -1.3085999451690826e-05 -0.014851257923619928 0 0.00076602039154657193 -0.014784922946811278 0 0.00032523566257066234 -0.015150684653626598 0 0.00056501364451299631 -0.01005468714877459 0 0.00025675433585452913 -0.010377489284423216 0 0.0011191779456028836 -0.010752886613281451 0 0.001006696410468771 -0.0091562053949795948 0 -0.00033701480705894892 -0.013772848055530917 0 0.00076602039154657193 -0.014784922946811278 0 0.00076778164976283201 -0.015020368733468532 0 0.00032523566257066234 -0.015150684653626598 0 0.0012954958577600666 -0.010926176781941885 0 0.001006696410468771 -0.0091562053949795948 0 0.001176012185742381 -0.0094895003976075386 0 0.0012569845106540751 -0.0094020311421885681 0 0.0015443640163221673 -0.0093316422539353547 0 0.0012569845106540751 -0.0094020311421885681 0 0.0013039013728470695 -0.0092805501303311871 0 0.0015443640163221673 -0.0093316422539353547 0 0.0010759323540439065 -0.0093207202915221027 0 0.001224427009170047 -0.0093889160484920565 0 0.0012126885071164053 -0.00934792296621593 0 0.001006696410468771 -0.0091562053949795948 0 0.0019784379197536326 -0.0056664823517732941 0 0.0012954958577600666 -0.010926176781941885 0 0.0012400132621914856 -0.010460688304635054 0 0.0011729846670926922 -0.0094060493771771538 0 0.001176012185742381 -0.0094895003976075386 0 0.0012569845106540751 -0.0094020311421885681 0 0.0012569845106540751 -0.0094020311421885681 0 0.0012126885071164053 -0.00934792296621593 0 0.0013039013728470695 -0.0092805501303311871 0 0.001224427009170047 -0.0093889160484920565 0 0.0012569845106540751 -0.0094020311421885681 0 0.0012126885071164053 -0.00934792296621593 0 0.0013039013728470695 -0.0092805501303311871 0 0.0012425148417123466 -0.0091462654186926732 0 0.001488879859149904 -0.0089731473685641001 0 0.0010759323540439065 -0.0093207202915221027 0 0.0012126885071164053 -0.00934792296621593 0 0.0013039013728470695 -0.0092805501303311871 0 0.0010759323540439065 -0.0093207202915221027 0 0.0013039013728470695 -0.0092805501303311871 0 0.0012425148417123466 -0.0091462654186926732 0 0.0013039013728470695 -0.0092805501303311871 0 0.0015928181288944823 -0.0091245851147357237 0 0.0015443640163221673 -0.0093316422539353547 0 0.0013039013728470695 -0.0092805501303311871 0 0.0015928181288944823 -0.0091245851147357237 0 0.001488879859149904 -0.0089731473685641001 0 0.0017595774932844029 -0.0090012085586274951 0 0.0015928181288944823 -0.0091245851147357237 0 0.0018627116497901019 -0.0091706862012659544 0 0.0017595774932844029 -0.0090012085586274951 0 0.0015928181288944823 -0.0091245851147357237 0 0.0016542997393529776 -0.0089630475973962245 0 0.0015928181288944823 -0.0091245851147357237 0 0.0015443640163221673 -0.0093316422539353547 0 0.0018627116497901019 -0.0091706862012659544 0 0.0021956569082083612 -0.0029423716171800545 0 0.0025272683879463873 -0.0032600067679982429 0 0.0028970761987784132 -0.0027840286720291515 0 0.0019784379197536326 -0.0056664823517732941 0 0.0024403672066532029 -0.0064722189150711882 0 0.0021956569082083612 -0.0029423716171800545 0 0.0025272683879463873 -0.0032600067679982429 0 0.0020104214484560723 -0.0035329963839869586 0 0.0025272683879463873 -0.0032600067679982429 0 0.0025501414748891494 -0.0037310653390620393 0 0.0029573288592801869 -0.0033312909144457719 0 0.0025272683879463873 -0.0032600067679982429 0 0.0025501414748891494 -0.0037310653390620393 0 0.0020104214484560723 -0.0035329963839869586 0 -0.00036086679068658044 -0.004751184672154074 0 0.0016854823656979583 -0.0029647044092094548 0 -0.00064108716331046122 -0.0017944440403868998 0 0.0021919206609831371 -0.0034472979898996616 0 0.00039923961732344585 -0.0019998814868997 0 -0.0030691114691816703 -0.0035423944697125275 0 -0.00064108716331046122 -0.0017944440403868998 0 -0.0029560812781917519 -0.00075705925833764363 0 -0.0018269434474474221 -0.016405096670671217 0 -0.0019789870612093121 -0.016365296091210568 0 -0.0019135990500127615 -0.01625376639993056 0 -0.0018269434474474221 -0.016405096670671217 0 -0.0019135990500127615 -0.01625376639993056 0 -0.0017843368393719358 -0.016137672125581429 0 -0.0026586168395118189 -0.01010613159130944 0 -0.0007209569874857578 -0.0079146374728146819 0 -0.0019135990500127615 -0.01625376639993056 0 -0.0018802521143680806 -0.016120197452792823 0 -0.0017843368393719358 -0.016137672125581429 0 -0.00018874669592905641 -0.010777712086560368 0 0.00019093077476378545 -0.010707602301161264 0 -0.0001916248697999063 -0.010502907194033621 0 -0.00033701480705894892 -0.013772848055530917 0 -0.0007209569874857578 -0.0079146374728146819 0 0.001006696410468771 -0.0091562053949795948 0 -0.0007209569874857578 -0.0079146374728146819 0 0.0014722682634764873 -0.0031497826788477708 0 0.0020104214484560723 -0.0035329963839869586 0 0.0014714871737710879 -0.0033382284612645738 0 0.0014722682634764873 -0.0031497826788477708 0 0.0021956569082083612 -0.0029423716171800545 0 0.0020104214484560723 -0.0035329963839869586 0 0.00039923961732344585 -0.0019998814868997 0 -0.0007209569874857578 -0.0079146374728146819 0 -0.0028103192872371888 -0.020045814705770097 0 -0.0025118832889933166 -0.019786514515423893 0 -0.0024628944906602132 -0.020423389416086419 0 -0.002417442002381321 -0.020528848318547736 0 -0.0024647180425757388 -0.020943290561857706 0 -0.0023738267251170076 -0.021411036377720669 0 -0.0024049949417553344 -0.021366661455472582 0 -0.0024228765309631584 -0.02138910063107621 0 -0.0030171349765202014 -0.020329324063314527 0 -0.0028103192872371888 -0.020045814705770097 0 -0.0024628944906602132 -0.020423389416086419 0 -0.0030171349765202014 -0.020329324063314527 0 -0.0031461355816289355 -0.019984232892164836 0 -0.0028103192872371888 -0.020045814705770097 0 -0.0031461355816289355 -0.019984232892164836 0 -0.0028103192872371888 -0.020045814705770097 0 -0.0030184155433066904 -0.019710794265930594 0 -0.0030184155433066904 -0.019710794265930594 0 -0.0025118832889933166 -0.019786514515423893 0 -0.0029259838513896971 -0.019427794884889937 0 -0.0028103192872371888 -0.020045814705770097 0 -0.0030184155433066904 -0.019710794265930594 0 -0.0025118832889933166 -0.019786514515423893 0 -0.002446979780501336 -0.019284366620478572 0 -0.0025118832889933166 -0.019786514515423893 0 -0.0029259838513896971 -0.019427794884889937 0 -0.002446979780501336 -0.019284366620478572 0 -0.002961695925495212 -0.019069308613179473 0 -0.0029259838513896971 -0.019427794884889937 0 -0.0026847668502373114 -0.020507297975974653 0 -0.0030890113592186314 -0.019788351917567056 0 -0.0027780652183103769 -0.020626045886312078 0 -0.0030363973716791681 -0.020373814839940194 0 -0.003192603978329777 -0.020586270841715982 0 -0.0027780652183103769 -0.020626045886312078 0 -0.0028503168851248019 -0.020836201110997214 0 -0.003192603978329777 -0.020586270841715982 0 -0.002961695925495212 -0.019069308613179473 0 -0.0032285557616448628 -0.019269337400456398 0 -0.0033835249752998324 -0.019153479512691442 0 -0.0035262479503043159 -0.01963469837181302 0 -0.0030890113592186314 -0.019788351917567056 0 -0.0035393536996092367 -0.019046450784628837 0 -0.002961695925495212 -0.019069308613179473 0 -0.0033835249752998324 -0.019153479512691442 0 -0.002961695925495212 -0.019069308613179473 0 -0.0032285557616448628 -0.019269337400456398 0 -0.0029259838513896971 -0.019427794884889937 0 -0.0030184155433066904 -0.019710794265930594 0 -0.0029259838513896971 -0.019427794884889937 0 -0.0033576219490384137 -0.019430712166897252 0 -0.0032285557616448628 -0.019269337400456398 0 -0.0029259838513896971 -0.019427794884889937 0 -0.0033576219490384137 -0.019430712166897252 0 -0.0033576219490384137 -0.019430712166897252 0 -0.0036521339802309998 -0.019255526443634333 0 -0.0036899236737683422 -0.019437112753330682 0 -0.0033576219490384137 -0.019430712166897252 0 -0.0035150187208656367 -0.019217896355613277 0 -0.0036521339802309998 -0.019255526443634333 0 -0.0032285557616448628 -0.019269337400456398 0 -0.0033576219490384137 -0.019430712166897252 0 -0.0035150187208656367 -0.019217896355613277 0 -0.0032285557616448628 -0.019269337400456398 0 -0.0035150187208656367 -0.019217896355613277 0 -0.0033835249752998324 -0.019153479512691442 0 -0.0035150187208656367 -0.019217896355613277 0 -0.0036536934753390008 -0.019202115534341008 0 -0.0036521339802309998 -0.019255526443634333 0 -0.0035150187208656367 -0.019217896355613277 0 -0.0035866475555941971 -0.019158831636891971 0 -0.0036536934753390008 -0.019202115534341008 0 -0.0035393536996092367 -0.019046450784628837 0 -0.0035866475555941971 -0.019158831636891971 0 -0.0033835249752998324 -0.019153479512691442 0 -0.0035150187208656367 -0.019217896355613277 0 -0.0035866475555941971 -0.019158831636891971 0 -0.0033835249752998324 -0.019153479512691442 0 -0.0037060872069096364 -0.019216167212272334 0 -0.0037619917291147275 -0.019272277586798257 0 -0.0037572250979459711 -0.019205274603831812 0 -0.0037060872069096364 -0.019216167212272334 0 -0.0035866475555941971 -0.019158831636891971 0 -0.0036536934753390008 -0.019202115534341008 0 -0.0037060872069096364 -0.019216167212272334 0 -0.0036536934753390008 -0.019202115534341008 0 -0.0037572250979459711 -0.019205274603831812 0 -0.0036536934753390008 -0.019202115534341008 0 -0.0037572250979459711 -0.019205274603831812 0 -0.0036521339802309998 -0.019255526443634333 0 -0.0037572250979459711 -0.019205274603831812 0 -0.0038023812882706474 -0.019201140382104784 0 -0.0036521339802309998 -0.019255526443634333 0 -0.0038023812882706474 -0.019201140382104784 0 -0.0036899236737683422 -0.019437112753330682 0 -0.0039202764942913 -0.019137669004291261 0 -0.0038023812882706474 -0.019201140382104784 0 -0.0036521339802309998 -0.019255526443634333 0 -0.0036899236737683422 -0.019437112753330682 0 -0.0036899236737683422 -0.019437112753330682 0 -0.0038621714634591879 -0.019640149654079547 0 -0.0039202764942913 -0.019137669004291261 0 -0.0036899236737683422 -0.019437112753330682 0 -0.003734797394858244 -0.019867976438246334 0 -0.0038621714634591879 -0.019640149654079547 0 -0.0036899236737683422 -0.019437112753330682 0 -0.0034303269374523384 -0.019723234409627956 0 -0.003734797394858244 -0.019867976438246334 0 -0.0031461355816289355 -0.019984232892164836 0 -0.0030184155433066904 -0.019710794265930594 0 -0.0034303269374523384 -0.019723234409627956 0 -0.0030184155433066904 -0.019710794265930594 0 -0.0033576219490384137 -0.019430712166897252 0 -0.0034303269374523384 -0.019723234409627956 0 -0.0033576219490384137 -0.019430712166897252 0 -0.0036899236737683422 -0.019437112753330682 0 -0.0034303269374523384 -0.019723234409627956 0 -0.0034303269374523384 -0.019723234409627956 0 -0.0033959561245987605 -0.020120347048551687 0 -0.003734797394858244 -0.019867976438246334 0 -0.0033959561245987605 -0.020120347048551687 0 -0.003734797394858244 -0.019867976438246334 0 -0.0035235293684549923 -0.020651553344460918 0 -0.0031461355816289355 -0.019984232892164836 0 -0.0034303269374523384 -0.019723234409627956 0 -0.0033959561245987605 -0.020120347048551687 0 -0.0030171349765202014 -0.020329324063314527 0 -0.0031461355816289355 -0.019984232892164836 0 -0.0033959561245987605 -0.020120347048551687 0 -0.003734797394858244 -0.019867976438246334 0 -0.0040955997371449641 -0.020039637807053295 0 -0.0035235293684549923 -0.020651553344460918 0 -0.0038518660322032204 -0.020021234092807722 0 -0.0033469026237492225 -0.020074842834660656 0 -0.003734797394858244 -0.019867976438246334 0 -0.0039322302153461525 -0.019944478788564722 0 -0.0038621714634591879 -0.019640149654079547 0 -0.0047843056782363187 -0.017200198025857545 0 -0.0047268267290148155 -0.016734027221129193 0 -0.0044091569640908237 -0.017072981436004053 0 -0.0041380396880965689 -0.019801566119930652 0 -0.0039322302153461525 -0.019944478788564722 0 -0.0038621714634591879 -0.019640149654079547 0 -0.0039168258588035392 -0.018677236377563196 0 -0.0033469026237492225 -0.020074842834660656 0 -0.0033904427923265711 -0.019421824669914121 0 -0.0032564170736302548 -0.019527212249743756 0 -0.0034072537595397911 -0.019597208142233456 0 -0.0033469026237492225 -0.020074842834660656 0 -0.0028261946080736771 -0.019510878802816375 0 -0.0039168258588035392 -0.018677236377563196 0 -0.0028261946080736771 -0.019510878802816375 0 -0.0047268267290148155 -0.016734027221129193 0 -0.0039516112561207633 -0.016903273733024582 0 -0.0035581181136559955 -0.016267021251856997 0 -0.0047268267290148155 -0.016734027221129193 0 -0.0039516112561207633 -0.016903273733024582 0 -0.0044091569640908237 -0.017072981436004053 0 -0.0039516112561207633 -0.016903273733024582 0 -0.0042169201389317687 -0.017715382523163452 0 -0.0034302395367391725 -0.017338600504133724 0 -0.0039516112561207633 -0.016903273733024582 0 -0.0044091569640908237 -0.017072981436004053 0 -0.0042169201389317687 -0.017715382523163452 0 -0.0047843056782363187 -0.017200198025857545 0 -0.0044091569640908237 -0.017072981436004053 0 -0.0042169201389317687 -0.017715382523163452 0 -0.0039168258588035392 -0.018677236377563196 0 -0.0040201873185053407 -0.018191304843326792 0 -0.0040201873185053407 -0.018191304843326792 0 -0.0035079792514218161 -0.018532713653013684 0 -0.0036740776908486456 -0.018809898671283548 0 -0.0037201756457996443 -0.018933895844259828 0 -0.0035106133355205433 -0.018493387526500683 0 -0.0036740776908486456 -0.018809898671283548 0 -0.0039202764942913 -0.019137669004291261 0 -0.0037201756457996443 -0.018933895844259828 0 -0.0041380396880965689 -0.019801566119930652 0 -0.0038621714634591879 -0.019640149654079547 0 -0.0039202764942913 -0.019137669004291261 0 -0.0039266490326799195 -0.018645075995518814 0 -0.0036740776908486456 -0.018809898671283548 0 -0.0039202764942913 -0.019137669004291261 0 -0.0039168258588035392 -0.018677236377563196 0 -0.0039769361134136608 -0.019344702863246056 0 -0.0038023812882706474 -0.019201140382104784 0 -0.0039202764942913 -0.019137669004291261 0 -0.0037771418647125532 -0.019154203270346743 0 -0.0039202764942913 -0.019137669004291261 0 -0.0037771418647125532 -0.019154203270346743 0 -0.0037201756457996443 -0.018933895844259828 0 -0.0037619917291147275 -0.019272277586798257 0 -0.0037572250979459711 -0.019205274603831812 0 -0.0037771418647125532 -0.019154203270346743 0 -0.0037572250979459711 -0.019205274603831812 0 -0.0038023812882706474 -0.019201140382104784 0 -0.0037771418647125532 -0.019154203270346743 0 -0.0037619917291147275 -0.019272277586798257 0 -0.0037771418647125532 -0.019154203270346743 0 -0.0037353438571979566 -0.019272165367709367 0 -0.003625685290010399 -0.019325549933042453 0 -0.0037771418647125532 -0.019154203270346743 0 -0.0036110836960255273 -0.019025753307458641 0 -0.003625685290010399 -0.019325549933042453 0 -0.0037771418647125532 -0.019154203270346743 0 -0.0037353438571979566 -0.019272165367709367 0 -0.0037771418647125532 -0.019154203270346743 0 -0.0036110836960255273 -0.019025753307458641 0 -0.0037201756457996443 -0.018933895844259828 0 -0.0036110836960255273 -0.019025753307458641 0 -0.0037201756457996443 -0.018933895844259828 0 -0.0035106133355205433 -0.018493387526500683 0 -0.0036110836960255273 -0.019025753307458641 0 -0.0035106133355205433 -0.018493387526500683 0 -0.0032011885715494274 -0.01895747715535228 0 -0.003625685290010399 -0.019325549933042453 0 -0.0036110836960255273 -0.019025753307458641 0 -0.0032011885715494274 -0.01895747715535228 0 -0.0027449359019362202 -0.017088848063331181 0 -0.0025189293442214405 -0.016917246103985099 0 -0.0025645730483651085 -0.017029696192277968 0 -0.0025189293442214405 -0.016917246103985099 0 -0.0025645730483651085 -0.017029696192277968 0 -0.0024967903577001239 -0.01695548880597994 0 -0.0031790714337342537 -0.018208502971053069 0 -0.0028748346326030886 -0.017909707420185456 0 -0.0024930544513482506 -0.017012730054488733 0 -0.0024967903577001239 -0.01695548880597994 0 -0.0024401692418973783 -0.016902471528413923 0 -0.0025645730483651085 -0.017029696192277968 0 -0.0024930544513482506 -0.017012730054488733 0 -0.0024967903577001239 -0.01695548880597994 0 -0.0025189293442214405 -0.016917246103985099 0 -0.0024967903577001239 -0.01695548880597994 0 -0.0024401692418973783 -0.016902471528413923 0 -0.0025189293442214405 -0.016917246103985099 0 -0.0024401692418973783 -0.016902471528413923 0 -0.0024906900545143425 -0.017083306366303553 0 -0.0028748346326030886 -0.017909707420185456 0 -0.0025094530756270147 -0.01716981394408762 0 -0.0035106133355205433 -0.018493387526500683 0 -0.0024906900545143425 -0.017083306366303553 0 -0.0034302395367391725 -0.017338600504133724 0 -0.0035106133355205433 -0.018493387526500683 0 -0.0032011885715494274 -0.01895747715535228 0 -0.0024906900545143425 -0.017083306366303553 0 -0.0042169201389317687 -0.017715382523163452 0 -0.0035106133355205433 -0.018493387526500683 0 -0.0034302395367391725 -0.017338600504133724 0 -0.0039516112561207633 -0.016903273733024582 0 -0.0031596408913205647 -0.016693251185334112 0 -0.0035581181136559955 -0.016267021251856997 0 -0.0024906900545143425 -0.017083306366303553 0 -0.0034302395367391725 -0.017338600504133724 0 -0.0031596408913205647 -0.016693251185334112 0 -0.0039516112561207633 -0.016903273733024582 0 -0.0034302395367391725 -0.017338600504133724 0 -0.0031596408913205647 -0.016693251185334112 0 -0.0024334910843540154 -0.01655699406172979 0 -0.0024906900545143425 -0.017083306366303553 0 -0.0026970674974866405 -0.016489554228726739 0 -0.0024906900545143425 -0.017083306366303553 0 -0.0031596408913205647 -0.016693251185334112 0 -0.0026970674974866405 -0.016489554228726739 0 -0.0023019955650555768 -0.016241868477265265 0 -0.0029558962114731124 -0.01615698990823632 0 -0.0026970674974866405 -0.016489554228726739 0 -0.0020769494689474154 -0.016013549147650286 0 -0.0029360461425999547 -0.016178896943006581 0 -0.0031596408913205647 -0.016693251185334112 0 -0.0029558962114731124 -0.01615698990823632 0 -0.0026970674974866405 -0.016489554228726739 0 -0.0031596408913205647 -0.016693251185334112 0 -0.0029558962114731124 -0.01615698990823632 0 -0.0035581181136559955 -0.016267021251856997 0 -0.0029558962114731124 -0.01615698990823632 0 -0.0035581181136559955 -0.016267021251856997 0 -0.0026054585710581103 -0.015909663125557132 0 -0.0022827945797004993 -0.017743565103547524 0 -0.0016390533586818691 -0.017630144539007353 0 -0.00065831549176708986 -0.019338483216811884 0 -0.0008311250861696278 -0.019013517636101516 0 -0.0010424316294472501 -0.019227319141957508 0 -0.0010131099106822814 -0.019513634991077701 0 -0.00065831549176708986 -0.019338483216811884 0 -0.0010424316294472501 -0.019227319141957508 0 -0.0018723542501338235 -0.01587519431150455 0 -0.0029558962114731124 -0.01615698990823632 0 -0.0026054585710581103 -0.015909663125557132 0 0.0012684661637714807 -0.021746418076788884 0 0.0016575345174385915 -0.022125359370937837 0 0.0017514307388122906 -0.021891242852215675 0 -0.00039451711493632071 -0.018996562358608186 0 -0.00065831549176708986 -0.019338483216811884 0 -0.0008311250861696278 -0.019013517636101516 0 0.00058816303289087129 -0.020880989660151408 0 0.00055244308741436937 -0.02031676253933172 0 0.0012937624280198587 -0.022118500847078486 0 0.0016575345174385915 -0.022125359370937837 0 0.0014636691250728467 -0.022360237042190211 0 0.0016575345174385915 -0.022125359370937837 0 0.0018450011428988791 -0.022002104098840288 0 0.0017514307388122906 -0.021891242852215675 0 0.0016575345174385915 -0.022125359370937837 0 0.0019013251042391409 -0.022197973493306253 0 0.0018990608168632892 -0.022534211809468213 0 0.001621717601632128 -0.022139831756668817 0 0.001993485055305597 -0.022070995350082081 0 0.0018450011428988791 -0.022002104098840288 0 0.0017514307388122906 -0.021891242852215675 0 0.0019681969623097741 -0.021922487496943102 0 0.00055244308741436937 -0.02031676253933172 0 -0.00026436866039838779 -0.020962153013992155 0 0.0018450011428988791 -0.022002104098840288 0 0.0019633551925947392 -0.021965702875985454 0 0.0019681969623097741 -0.021922487496943102 0 -0.0008311250861696278 -0.019013517636101516 0 -0.0012659347794386194 -0.019025224352602961 0 -0.0010424316294472501 -0.019227319141957508 0 0.0013642425539427618 -0.022320367268745946 0 -0.00026436866039838779 -0.020962153013992155 0 0.0022038637080583306 -0.022154663719831567 0 0.0020724687634373737 -0.022308477280739997 0 0.002151234835594421 -0.022507132772602152 0 0.001993485055305597 -0.022070995350082081 0 0.0013642425539427618 -0.022320367268745946 0 0.0019013251042391409 -0.022197973493306253 0 0.0020724687634373737 -0.022308477280739997 0 0.0018990608168632892 -0.022534211809468213 0 0.0019013251042391409 -0.022197973493306253 0 0.0022038637080583306 -0.022154663719831567 0 0.0020724687634373737 -0.022308477280739997 0 0.0013642425539427618 -0.022320367268745946 0 0.0019784290561643248 -0.023036425959794788 0 0.0020724687634373737 -0.022308477280739997 0 0.002151234835594421 -0.022507132772602152 0 0.0018990608168632892 -0.022534211809468213 0 0.0017555298256948077 -0.023576056027933574 0 0.001605925657364973 -0.023458718775273859 0 0.0018246557859627425 -0.023415410869250274 0 0.0017555298256948077 -0.023576056027933574 0 0.001605925657364973 -0.023458718775273859 0 0.0015271224532417975 -0.023579612308868715 0 -0.00026436866039838779 -0.020962153013992155 0 -0.00071273339916446202 -0.022169472861607909 0 0.0013642425539427618 -0.022320367268745946 0 -0.00071273339916446202 -0.022169472861607909 0 0.00067119372680839303 -0.021763729319524982 0 0.00063441849848916117 -0.022080457525688862 0 -0.00068855812607970497 -0.022057625199757708 0 -0.0025543796311982715 -0.021309860682003773 0 -0.0026121510655669096 -0.021349239259048466 0 -0.0026355442001072811 -0.021319806363321283 0 -0.0025543796311982715 -0.021309860682003773 0 -0.0025868330645794284 -0.021364558286214298 0 -0.0026121510655669096 -0.021349239259048466 0 -0.0025868330645794284 -0.021364558286214298 0 -0.0026121510655669096 -0.021349239259048466 0 -0.0026266294382615708 -0.021385214253590763 0 -0.00026436866039838779 -0.020962153013992155 0 -0.0020163084753212573 -0.020412507928813946 0 -0.0010131099106822814 -0.019513634991077701 0 -0.0013193938184551249 -0.019347940545817177 0 -0.0010424316294472501 -0.019227319141957508 0 -0.0012659347794386194 -0.019025224352602961 0 -0.0013193938184551249 -0.019347940545817177 0 -0.0010424316294472501 -0.019227319141957508 0 -0.0013745057884318036 -0.019683216246853642 0 -0.0010131099106822814 -0.019513634991077701 0 -0.0013193938184551249 -0.019347940545817177 0 -0.0028261946080736771 -0.019510878802816375 0 -0.0022827945797004993 -0.017743565103547524 0 -0.0026075851416504352 -0.021397338293084753 0 -0.0025868330645794284 -0.021364558286214298 0 -0.0026266294382615708 -0.021385214253590763 0 -0.0028261946080736771 -0.019510878802816375 0 -0.0020163084753212573 -0.020412507928813946 0 -0.0026235817352741981 -0.021405638556769621 0 -0.0026075851416504352 -0.021397338293084753 0 -0.0026266294382615708 -0.021385214253590763 0 -0.0033469026237492225 -0.020074842834660656 0 -0.0030551801088199069 -0.021135263106035029 0 -0.0026266294382615708 -0.021385214253590763 0 -0.0026779917920053738 -0.021392188341253386 0 -0.0026745295528268183 -0.021366915502063738 0 -0.0026235817352741981 -0.021405638556769621 0 -0.0026266294382615708 -0.021385214253590763 0 -0.0026779917920053738 -0.021392188341253386 0 -0.0030171349765202014 -0.020329324063314527 0 -0.0033959561245987605 -0.020120347048551687 0 -0.0035235293684549923 -0.020651553344460918 0 -0.0030551801088199069 -0.021135263106035029 0 -0.0027548163151048721 -0.021313607422925436 0 -0.0026779917920053738 -0.021392188341253386 0 -0.0027078187423771145 -0.021372835963520725 0 -0.0026745295528268183 -0.021366915502063738 0 -0.0026779917920053738 -0.021392188341253386 0 -0.0027078187423771145 -0.021372835963520725 0 -0.0027160980755893014 -0.021371395307505807 0 -0.0027078187423771145 -0.021372835963520725 0 -0.0026745295528268183 -0.021366915502063738 0 -0.0027187382930060899 -0.021388144481681616 0 -0.0026121510655669096 -0.021349239259048466 0 -0.0026266294382615708 -0.021385214253590763 0 -0.0026745295528268183 -0.021366915502063738 0 -0.0026121510655669096 -0.021349239259048466 0 -0.0026745295528268183 -0.021366915502063738 0 -0.0026355442001072811 -0.021319806363321283 0 0.001605925657364973 -0.023458718775273859 0 0.0015271224532417975 -0.023579612308868715 0 0.0014696906251711061 -0.023483361118551382 0 0.0014696906251711061 -0.023483361118551382 0 0.0014543304624966662 -0.023495288576637869 0 0.0014874309189814934 -0.023450253296445081 0 0.0015271224532417975 -0.023579612308868715 0 0.0014696906251711061 -0.023483361118551382 0 0.0014434828930477235 -0.023549617933485069 0 0.0014696906251711061 -0.023483361118551382 0 0.0014434828930477235 -0.023549617933485069 0 0.0014543304624966662 -0.023495288576637869 0 -0.00071273339916446202 -0.022169472861607909 0 -0.0022015005458649066 -0.021511647880102212 0 -0.0026745295528268183 -0.021366915502063738 0 -0.0026355442001072811 -0.021319806363321283 0 -0.0027187382930060899 -0.021388144481681616 0 -0.00076013341576698721 -0.021611005424249586 0 -0.0013398306308141734 -0.021718489989651684 0 -0.0013490812125244557 -0.021587339331485458 0 -0.00071273339916446202 -0.022169472861607909 0 0.00031067293166362744 -0.022622028719327388 0 -0.0022015005458649066 -0.021511647880102212 0 -0.0021016324373631531 -0.021668433068907124 0 0.00031067293166362744 -0.022622028719327388 0 -0.0004781862224683942 -0.022517420806127012 0 -0.0013398306308141734 -0.021718489989651684 0 -0.0016154841614137258 -0.021667759470408415 0 -0.0018551603250209882 -0.021783003865562336 0 -0.0027187382930060899 -0.021388144481681616 0 -0.0024612086545446753 -0.021574345033302942 0 -0.0026333541916229897 -0.021422424346805389 0 0.0014434828930477235 -0.023549617933485069 0 0.0014008779436087367 -0.023507732140478139 0 0.0012989198908278587 -0.02358052915797014 0 -0.0016154841614137258 -0.021667759470408415 0 -0.0013490812125244557 -0.021587339331485458 0 -0.0018713620891830614 -0.02158448581135446 0 -0.0013398306308141734 -0.021718489989651684 0 -0.0016154841614137258 -0.021667759470408415 0 -0.0013490812125244557 -0.021587339331485458 0 0.0014008779436087367 -0.023507732140478139 0 0.0012813208197327978 -0.023470623262848482 0 0.0014874309189814934 -0.023450253296445081 0 0.0014434828930477235 -0.023549617933485069 0 0.0014008779436087367 -0.023507732140478139 0 0.0014543304624966662 -0.023495288576637869 0 0.0014008779436087367 -0.023507732140478139 0 0.0014543304624966662 -0.023495288576637869 0 0.0014874309189814934 -0.023450253296445081 0 0.0017864011447821736 -0.023567952116509954 0 0.0014108028971829725 -0.023488998256412832 0 0.0018878298316820884 -0.023613203866628792 0 0.0019065061862291348 -0.023578253477145091 0 0.0018345557202476101 -0.023549278798976364 0 0.0014008779436087367 -0.023507732140478139 0 0.0012813208197327978 -0.023470623262848482 0 0.0012989198908278587 -0.02358052915797014 0 -0.0016154841614137258 -0.021667759470408415 0 -0.0018713620891830614 -0.02158448581135446 0 -0.0018551603250209882 -0.021783003865562336 0 -0.0020401760194782279 -0.021697196034954132 0 -0.0018713620891830614 -0.02158448581135446 0 -0.0018551603250209882 -0.021783003865562336 0 -0.0023378681024983994 -0.021596747516574727 0 -0.0024612086545446753 -0.021574345033302942 0 -0.0026333541916229897 -0.021422424346805389 0 -0.0023981371250021669 -0.021413690953124488 0 -0.0026333541916229897 -0.021422424346805389 0 -0.0025579966483295887 -0.021388394502423639 0 -0.0023849669253784914 -0.021500922183508738 0 -0.0026130848906156111 -0.021455543971135298 0 -0.0023981371250021669 -0.021413690953124488 0 -0.0025579966483295887 -0.021388394502423639 0 -0.0024228765309631584 -0.02138910063107621 0 -0.0035235293684549923 -0.020651553344460918 0 -0.0027160980755893014 -0.021371395307505807 0 -0.0028087684341911922 -0.02083412887811904 0 -0.0026333541916229897 -0.021422424346805389 0 -0.0027160980755893014 -0.021371395307505807 0 -0.0025579966483295887 -0.021388394502423639 0 -0.0027078187423771145 -0.021372835963520725 0 -0.0027187382930060899 -0.021388144481681616 0 -0.0026333541916229897 -0.021422424346805389 0 -0.0027078187423771145 -0.021372835963520725 0 -0.0026333541916229897 -0.021422424346805389 0 -0.0027160980755893014 -0.021371395307505807 0 -0.0027160980755893014 -0.021371395307505807 0 -0.0025579966483295887 -0.021388394502423639 0 -0.0028087684341911922 -0.02083412887811904 0 -0.0025579966483295887 -0.021388394502423639 0 -0.0028087684341911922 -0.02083412887811904 0 -0.0024628944906602132 -0.020423389416086419 0 -0.0030171349765202014 -0.020329324063314527 0 -0.0028087684341911922 -0.02083412887811904 0 -0.0024628944906602132 -0.020423389416086419 0 -0.0030171349765202014 -0.020329324063314527 0 -0.0035235293684549923 -0.020651553344460918 0 -0.0028087684341911922 -0.02083412887811904 0 -0.0025534226358196414 -0.021364204940364409 0 -0.0024647180425757388 -0.020943290561857706 0 0.0026672551987957514 -0.025508131000155816 0 0.0010194270342173592 -0.024127031403750745 0 0.0024198528164394969 -0.025915462130093599 0 0.0018581747728698189 -0.024373845695716746 0 0.0026672551987957514 -0.025508131000155816 0 0.0010194270342173592 -0.024127031403750745 0 0.0018581747728698189 -0.024373845695716746 0 0.0010194270342173592 -0.024127031403750745 0 0.0015005291599104746 -0.023939845180251839 0 0.0022464460289829871 -0.024413093879251058 0 0.0018581747728698189 -0.024373845695716746 0 0.0026672551987957514 -0.025508131000155816 0 0.0028635432989930019 -0.025923589258321868 0 0.0026672551987957514 -0.025508131000155816 0 0.0024198528164394969 -0.025915462130093599 0 0.0010194270342173592 -0.024127031403750745 0 0.001277142392231625 -0.023661857640112839 0 0.00138787031953167 -0.023158185586300183 0 0.001277142392231625 -0.023661857640112839 0 0.0015005291599104746 -0.023939845180251839 0 0.0016502098029360513 -0.023666574785757653 0 0.0010194270342173592 -0.024127031403750745 0 0.001277142392231625 -0.023661857640112839 0 0.0015005291599104746 -0.023939845180251839 0 0.0015005291599104746 -0.023939845180251839 0 0.0020595590868554073 -0.024109312546630252 0 0.0016502098029360513 -0.023666574785757653 0 0.0022464460289829871 -0.024413093879251058 0 0.0018581747728698189 -0.024373845695716746 0 0.0020595590868554073 -0.024109312546630252 0 0.0018581747728698189 -0.024373845695716746 0 0.0015005291599104746 -0.023939845180251839 0 0.0020595590868554073 -0.024109312546630252 0 0.0020849671798980479 -0.023762745341837845 0 0.0020595590868554073 -0.024109312546630252 0 0.0016502098029360513 -0.023666574785757653 0 0.0019954154289689454 -0.023603563272537032 0 0.0020849671798980479 -0.023762745341837845 0 0.0016502098029360513 -0.023666574785757653 0 0.0019954154289689454 -0.023603563272537032 0 0.0016502098029360513 -0.023666574785757653 0 0.0018302546278105495 -0.023559099972039706 0 0.0016502098029360513 -0.023666574785757653 0 0.0018302546278105495 -0.023559099972039706 0 0.001574694491197101 -0.023538935979836223 0 0.0019065061862291348 -0.023578253477145091 0 0.0018345557202476101 -0.023549278798976364 0 0.0014874309189814934 -0.023450253296445081 0 0.0019422271533714732 -0.023566104344796508 0 0.0018302546278105495 -0.023559099972039706 0 0.0018345557202476101 -0.023549278798976364 0 0.0018302546278105495 -0.023559099972039706 0 0.0018345557202476101 -0.023549278798976364 0 0.001574694491197101 -0.023538935979836223 0 0.0014874309189814934 -0.023450253296445081 0 0.001574694491197101 -0.023538935979836223 0 0.0014037255769455274 -0.023469066678833025 0 0.0018345557202476101 -0.023549278798976364 0 0.0014874309189814934 -0.023450253296445081 0 0.001574694491197101 -0.023538935979836223 0 0.001277142392231625 -0.023661857640112839 0 0.001574694491197101 -0.023538935979836223 0 0.0014037255769455274 -0.023469066678833025 0 0.001277142392231625 -0.023661857640112839 0 0.0016502098029360513 -0.023666574785757653 0 0.001574694491197101 -0.023538935979836223 0 0.001277142392231625 -0.023661857640112839 0 0.0014037255769455274 -0.023469066678833025 0 0.0014877378078501542 -0.02332305574926111 0 0.0014696906251711061 -0.023483361118551382 0 0.0014037255769455274 -0.023469066678833025 0 0.001524439404515656 -0.023372188083162181 0 0.0014696906251711061 -0.023483361118551382 0 0.0014874309189814934 -0.023450253296445081 0 0.0014037255769455274 -0.023469066678833025 0 0.001605925657364973 -0.023458718775273859 0 0.0014696906251711061 -0.023483361118551382 0 0.001524439404515656 -0.023372188083162181 0 0.0014037255769455274 -0.023469066678833025 0 0.001524439404515656 -0.023372188083162181 0 0.0014877378078501542 -0.02332305574926111 0 0.001524439404515656 -0.023372188083162181 0 0.0014877378078501542 -0.02332305574926111 0 0.0016970059337912831 -0.023138258180465127 0 0.0014877378078501542 -0.02332305574926111 0 0.00138787031953167 -0.023158185586300183 0 0.0017522614274545574 -0.022971002194685664 0 0.001277142392231625 -0.023661857640112839 0 0.0014877378078501542 -0.02332305574926111 0 0.00138787031953167 -0.023158185586300183 0 0.0010194270342173592 -0.024127031403750745 0 0.00138787031953167 -0.023158185586300183 0 0.0010200981001192322 -0.022692946996841382 0 0.0014105380750736535 -0.023088269012471067 0 0.0018875122972669635 -0.022842609752439708 0 0.00138787031953167 -0.023158185586300183 0 0.0020778788394217405 -0.022683257313083849 0 0.0019657935690586071 -0.022380869903942929 0 0.0020778788394217405 -0.022683257313083849 0 0.0023173852829685721 -0.022344709976007751 0 0.0019657935690586071 -0.022380869903942929 0 0.0020778788394217405 -0.022683257313083849 0 0.0023173852829685721 -0.022344709976007751 0 0.0024580111504068905 -0.022429083345561623 0 0.0018875122972669635 -0.022842609752439708 0 0.0021772135659628108 -0.022595275874179158 0 0.0017522614274545574 -0.022971002194685664 0 0.001850567268343371 -0.022943908133625235 0 0.0018712467160263146 -0.022748140500663219 0 0.0014877378078501542 -0.02332305574926111 0 0.0017522614274545574 -0.022971002194685664 0 0.0016970059337912831 -0.023138258180465127 0 0.0017522614274545574 -0.022971002194685664 0 0.001850567268343371 -0.022943908133625235 0 0.0016970059337912831 -0.023138258180465127 0 0.0016970059337912831 -0.023138258180465127 0 0.0016863519968417459 -0.023279791889577177 0 0.0019242943453406272 -0.023002910521327215 0 0.001524439404515656 -0.023372188083162181 0 0.0016970059337912831 -0.023138258180465127 0 0.0016863519968417459 -0.023279791889577177 0 0.001605925657364973 -0.023458718775273859 0 0.0016863519968417459 -0.023279791889577177 0 0.0018246557859627425 -0.023415410869250274 0 0.001605925657364973 -0.023458718775273859 0 0.001524439404515656 -0.023372188083162181 0 0.0016863519968417459 -0.023279791889577177 0 0.0016863519968417459 -0.023279791889577177 0 0.0018246557859627425 -0.023415410869250274 0 0.0019242943453406272 -0.023002910521327215 0 0.0019784290561643248 -0.023036425959794788 0 0.0019482149305450047 -0.022953264928122091 0 0.002151234835594421 -0.022507132772602152 0 0.0019242943453406272 -0.023002910521327215 0 0.0018990608168632892 -0.022534211809468213 0 0.001850567268343371 -0.022943908133625235 0 0.0019242943453406272 -0.023002910521327215 0 0.001878589187027917 -0.022840211345108902 0 0.0019242943453406272 -0.023002910521327215 0 0.001878589187027917 -0.022840211345108902 0 0.0018990608168632892 -0.022534211809468213 0 0.001850567268343371 -0.022943908133625235 0 0.0016970059337912831 -0.023138258180465127 0 0.0019242943453406272 -0.023002910521327215 0 0.001878589187027917 -0.022840211345108902 0 0.0017545460556347735 -0.022646361619573036 0 0.0019913663697971339 -0.022729549364535941 0 0.0016575345174385915 -0.022125359370937837 0 0.0018990608168632892 -0.022534211809468213 0 0.0017545460556347735 -0.022646361619573036 0 0.001878589187027917 -0.022840211345108902 0 0.0018990608168632892 -0.022534211809468213 0 0.0017545460556347735 -0.022646361619573036 0 0.0016575345174385915 -0.022125359370937837 0 0.0017545460556347735 -0.022646361619573036 0 0.0014636691250728467 -0.022360237042190211 0 0.0017545460556347735 -0.022646361619573036 0 0.0014636691250728467 -0.022360237042190211 0 0.0014027380452638712 -0.022532520390313546 0 0.0017545460556347735 -0.022646361619573036 0 0.0013672285921357602 -0.022656532750652696 0 0.0014027380452638712 -0.022532520390313546 0 0.0017783260534611953 -0.022657072542979648 0 0.0019159205951171118 -0.022549915344960484 0 0.0017545460556347735 -0.022646361619573036 0 0.0019913663697971339 -0.022729549364535941 0 0.0023155029520887842 -0.022694907180406634 0 0.0021772135659628108 -0.022595275874179158 0 0.0023986054981555097 -0.022498229101734511 0 0.0019913663697971339 -0.022729549364535941 0 0.0023155029520887842 -0.022694907180406634 0 0.0023913268468475361 -0.022472600427148787 0 0.0019913663697971339 -0.022729549364535941 0 0.0018712467160263146 -0.022748140500663219 0 0.0023913268468475361 -0.022472600427148787 0 0.001850567268343371 -0.022943908133625235 0 0.001878589187027917 -0.022840211345108902 0 0.0018712467160263146 -0.022748140500663219 0 0.001878589187027917 -0.022840211345108902 0 0.0019913663697971339 -0.022729549364535941 0 0.0018712467160263146 -0.022748140500663219 0 0.0023173852829685721 -0.022344709976007751 0 0.0024580111504068905 -0.022429083345561623 0 0.0025341597967439926 -0.022110676945286244 0 0.0024580111504068905 -0.022429083345561623 0 0.0025303718419229719 -0.022248948686353125 0 0.0023913268468475361 -0.022472600427148787 0 0.0024580111504068905 -0.022429083345561623 0 0.0025303718419229719 -0.022248948686353125 0 0.0025341597967439926 -0.022110676945286244 0 0.0025303718419229719 -0.022248948686353125 0 0.0025341597967439926 -0.022110676945286244 0 0.0026490714363849965 -0.022000781207298526 0 0.0025341597967439926 -0.022110676945286244 0 0.0025056457516440108 -0.02174264564904763 0 0.0023150986919676874 -0.022012836323573721 0 0.0025341597967439926 -0.022110676945286244 0 0.0026502233649996778 -0.021703867932741913 0 0.0025056457516440108 -0.02174264564904763 0 0.0026502233649996778 -0.021703867932741913 0 0.0024630966837378989 -0.021324783037193765 0 0.0025056457516440108 -0.02174264564904763 0 -0.00025811682557683191 -0.0084557481767144026 0 -0.00032491126037167826 -0.0084318506185898836 0 -0.00034603931293737602 -0.0085113364520844371 0 0.0012165914660685932 -0.01509997187325242 0 0.0011889935894158444 -0.014898906393289425 0 0.0025341597967439926 -0.022110676945286244 0 0.0026502233649996778 -0.021703867932741913 0 0.0026490714363849965 -0.022000781207298526 0 -0.00047741479884619211 -0.010253752166123406 0 -0.00021862966618610546 -0.0094060899616774662 0 -0.00032491126037167826 -0.0084318506185898836 0 -0.00027208899975553902 -0.008562213197088428 0 -0.000334844789130967 -0.0083144898059119669 0 -0.00025811682557683191 -0.0084557481767144026 0 -0.00032491126037167826 -0.0084318506185898836 0 -0.00027208899975553902 -0.008562213197088428 0 -5.7485699027076331e-08 -0.012084433226668958 0 -6.2209409201423384e-05 -0.012781068705429064 0 -1.4678773170526399e-06 -0.01046943202494564 0 -5.7485699027076331e-08 -0.012084433226668958 0 -7.5390054269209062e-05 -0.013753627162912545 0 -6.2209409201423384e-05 -0.012781068705429064 0 -5.7485699027076331e-08 -0.012084433226668958 0 -7.5390054269209062e-05 -0.013753627162912545 0 -7.3327376713855125e-07 -0.014627503103956467 0 0.0012165914660685932 -0.01509997187325242 0 0.0010398940539642519 -0.01490052075234157 0 -7.5390054269209062e-05 -0.013753627162912545 0 -6.2209409201423384e-05 -0.012781068705429064 0 -3.1638472760123859e-05 -0.014455889353066497 0 -0.00025811682557683191 -0.0084557481767144026 0 -0.00027208899975553902 -0.008562213197088428 0 2.6440024949159838e-05 -0.0086775516157902854 0 -0.00047741479884619211 -0.010253752166123406 0 0.0010398940539642519 -0.01490052075234157 0 0.0026502233649996778 -0.021703867932741913 0 0.0024630966837378989 -0.021324783037193765 0 0.0024532561158343261 -0.020868826891332862 0 0.00237687410258403 -0.021193323152398153 0 0.0022438290688109389 -0.021034706433272595 0 0.0023086485338133164 -0.021480249031217494 0 0.0024630966837378989 -0.021324783037193765 0 0.0024063275800453115 -0.02103861626180676 0 0.0024532561158343261 -0.020868826891332862 0 0.0024630966837378989 -0.021324783037193765 0 0.00237687410258403 -0.021193323152398153 0 0.0023086485338133164 -0.021480249031217494 0 0.0024630966837378989 -0.021324783037193765 0 0.00237687410258403 -0.021193323152398153 0 0.0024063275800453115 -0.02103861626180676 0 0.0024063275800453115 -0.02103861626180676 0 0.0024184483812797965 -0.020733147761992619 0 0.0022438290688109389 -0.021034706433272595 0 0.00237687410258403 -0.021193323152398153 0 0.0024063275800453115 -0.02103861626180676 0 0.0022438290688109389 -0.021034706433272595 0 0.0024063275800453115 -0.02103861626180676 0 0.0024184483812797965 -0.020733147761992619 0 0.0024532561158343261 -0.020868826891332862 0 0.0014327155411301483 -0.015486984938477147 0 0.0010398940539642519 -0.01490052075234157 0 -7.5390054269209062e-05 -0.013753627162912545 0 -3.1638472760123859e-05 -0.014455889353066497 0 -3.0080546235062566e-05 -0.01451229312806482 0 -3.1638472760123859e-05 -0.014455889353066497 0 -3.0080546235062566e-05 -0.01451229312806482 0 -2.0002421889748444e-05 -0.015190820064229005 0 -3.0080546235062566e-05 -0.01451229312806482 0 -7.3327376713855125e-07 -0.014627503103956467 0 -2.0002421889748444e-05 -0.015190820064229005 0 -7.5390054269209062e-05 -0.013753627162912545 0 -3.0080546235062566e-05 -0.01451229312806482 0 -7.3327376713855125e-07 -0.014627503103956467 0 -2.0002421889748444e-05 -0.015190820064229005 0 0.00011829250029030468 -0.015622746462546354 0 1.8012549962226657e-06 -0.017172300993751378 0 -7.3327376713855125e-07 -0.014627503103956467 0 -2.0002421889748444e-05 -0.015190820064229005 0 1.8012549962226657e-06 -0.017172300993751378 0 0.0010398940539642519 -0.01490052075234157 0 0.0010492028151952888 -0.017773985300970203 0 -3.1638472760123859e-05 -0.014455889353066497 0 -2.0002421889748444e-05 -0.015190820064229005 0 0.00011829250029030468 -0.015622746462546354 0 0.0019639574436555829 -0.019682627464033785 0 0.001917039418911175 -0.020541755122288438 0 0.00089030358647721668 -0.019662405926194608 0 0.0024184483812797965 -0.020733147761992619 0 0.0019639574436555829 -0.019682627464033785 0 0.001917039418911175 -0.020541755122288438 0 0.0024184483812797965 -0.020733147761992619 0 0.001917039418911175 -0.020541755122288438 0 0.0022438290688109389 -0.021034706433272595 0 0.0024184483812797965 -0.020733147761992619 0 0.0025854959032446663 -0.020793464108457706 0 0.0019639574436555829 -0.019682627464033785 0 0.0022438290688109389 -0.021034706433272595 0 0.0018815393142176517 -0.021165318913694942 0 0.0023086485338133164 -0.021480249031217494 0 0.001917039418911175 -0.020541755122288438 0 0.0022438290688109389 -0.021034706433272595 0 0.0018815393142176517 -0.021165318913694942 0 0.001917039418911175 -0.020541755122288438 0 0.0018815393142176517 -0.021165318913694942 0 0.0010210254710533761 -0.020745416398151736 0 0.0018815393142176517 -0.021165318913694942 0 0.0019922138895993352 -0.021855761226160585 0 0.0013847079063080804 -0.022051733511125222 0 0.0018815393142176517 -0.021165318913694942 0 0.0019922138895993352 -0.021855761226160585 0 0.0023086485338133164 -0.021480249031217494 0 0.0024630966837378989 -0.021324783037193765 0 0.0023086485338133164 -0.021480249031217494 0 0.0025056457516440108 -0.02174264564904763 0 0.0023086485338133164 -0.021480249031217494 0 0.0025056457516440108 -0.02174264564904763 0 0.0023150986919676874 -0.022012836323573721 0 0.0019922138895993352 -0.021855761226160585 0 0.0023086485338133164 -0.021480249031217494 0 0.0023150986919676874 -0.022012836323573721 0 0.0023173852829685721 -0.022344709976007751 0 0.0023150986919676874 -0.022012836323573721 0 0.0019657935690586071 -0.022380869903942929 0 0.0023173852829685721 -0.022344709976007751 0 0.0025341597967439926 -0.022110676945286244 0 0.0023150986919676874 -0.022012836323573721 0 0.0019922138895993352 -0.021855761226160585 0 0.0019657935690586071 -0.022380869903942929 0 0.0013847079063080804 -0.022051733511125222 0 0.0019922138895993352 -0.021855761226160585 0 0.0023150986919676874 -0.022012836323573721 0 0.0019657935690586071 -0.022380869903942929 0 0.00138787031953167 -0.023158185586300183 0 0.0019657935690586071 -0.022380869903942929 0 0.0013847079063080804 -0.022051733511125222 0 0.00138787031953167 -0.023158185586300183 0 0.0010200981001192322 -0.022692946996841382 0 0.0013847079063080804 -0.022051733511125222 0 0.0010200981001192322 -0.022692946996841382 0 0.00081688432323497029 -0.021721966943445116 0 0.0013847079063080804 -0.022051733511125222 0 0.0018815393142176517 -0.021165318913694942 0 0.0013847079063080804 -0.022051733511125222 0 0.0010210254710533761 -0.020745416398151736 0 0.00081688432323497029 -0.021721966943445116 0 0.0013847079063080804 -0.022051733511125222 0 0.0010210254710533761 -0.020745416398151736 0 0.0010210254710533761 -0.020745416398151736 0 0.00089030358647721668 -0.019662405926194608 0 -1.8705419490055988e-05 -0.019879253091439692 0 0.001917039418911175 -0.020541755122288438 0 0.0010210254710533761 -0.020745416398151736 0 0.00089030358647721668 -0.019662405926194608 0 0.0019639574436555829 -0.019682627464033785 0 0.00089030358647721668 -0.019662405926194608 0 0.00013635599778327715 -0.018042072642904108 0 0.00013635599778327715 -0.018042072642904108 0 1.8012549962226657e-06 -0.017172300993751378 0 -1.2360608395706226e-06 -0.019717650564532632 0 0.00089030358647721668 -0.019662405926194608 0 0.00013635599778327715 -0.018042072642904108 0 -1.8705419490055988e-05 -0.019879253091439692 0 0.0010492028151952888 -0.017773985300970203 0 8.9514082635852693e-05 -0.017708180427918514 0 0.00011829250029030468 -0.015622746462546354 0 0.00013635599778327715 -0.018042072642904108 0 1.8012549962226657e-06 -0.017172300993751378 0 0.00013635599778327715 -0.018042072642904108 0 -1.8705419490055988e-05 -0.019879253091439692 0 -1.2360608395706226e-06 -0.019717650564532632 0 -1.8705419490055988e-05 -0.019879253091439692 0 -1.2360608395706226e-06 -0.019717650564532632 0 -0.00025236487597614826 -0.020432325438731955 0 -0.00023435283296570231 -0.020625529965267158 0 -1.8705419490055988e-05 -0.019879253091439692 0 -0.00025236487597614826 -0.020432325438731955 0 0.00031645700742321436 -0.020899109264407582 0 0.0010437298521675735 -0.020799669771592519 0 -0.00023435283296570231 -0.020625529965267158 0 0.0010210254710533761 -0.020745416398151736 0 -1.8705419490055988e-05 -0.019879253091439692 0 -0.00023435283296570231 -0.020625529965267158 0 -0.00025236487597614826 -0.020432325438731955 0 -7.8072747363936404e-06 -0.020519380730873251 0 -1.2360608395706226e-06 -0.019717650564532632 0 -0.00025236487597614826 -0.020432325438731955 0 7.9025871138020029e-07 -0.022256202887309669 0 2.605645434984788e-07 -0.02226028350779229 0 0.00039522257738236163 -0.022386388678256455 0 -0.00025236487597614826 -0.020432325438731955 0 7.9025871138020029e-07 -0.022256202887309669 0 -7.8072747363936404e-06 -0.020519380730873251 0 0.00039522257738236163 -0.022386388678256455 0 0.0008133993126295103 -0.02387691618041362 0 0.00022792349164795352 -0.02538375602060813 0 0.00096711272490304341 -0.024530783068118314 0 0.0012359287017352284 -0.025610376047264922 0 0.00031645700742321436 -0.020899109264407582 0 0.0008133993126295103 -0.02387691618041362 0 -0.00023435283296570231 -0.020625529965267158 0 -7.8072747363936404e-06 -0.020519380730873251 0 -7.435097752334465e-05 -0.020517027196457486 0 0.0010200981001192322 -0.022692946996841382 0 0.00081688432323497029 -0.021721966943445116 0 4.9193532159669827e-05 -0.022285910284518692 0 0.0010194270342173592 -0.024127031403750745 0 0.0010200981001192322 -0.022692946996841382 0 4.9193532159669827e-05 -0.022285910284518692 0 0.0013717294354254124 -0.026384221094339126 0 0.0008133993126295103 -0.02387691618041362 0 0.001083629335509542 -0.024426290916768699 0 0.0008133993126295103 -0.02387691618041362 0 0.0010194270342173592 -0.024127031403750745 0 0.0020018311093202346 -0.026965169348530767 0 0.0024198528164394969 -0.025915462130093599 0 0.0026403858052160651 -0.025670443323001398 0 0.0020018311093202346 -0.026965169348530767 0 0.0024198528164394969 -0.025915462130093599 0 0.0021970069311436826 -0.01502178803063163 0 0.0030939998657594711 -0.015850666909630818 0 0.0019672243527818689 -0.01706541144534977 0 0.0030939998657594711 -0.015850666909630818 0 0.0043872071705406187 -0.015435884933302035 0 0.003948389952610174 -0.01743094038121341 0 0.0021970069311436826 -0.01502178803063163 0 0.0030939998657594711 -0.015850666909630818 0 0.0029543708913669295 -0.014245795411394894 0 0.0030241995123345996 -0.014250952070464389 0 0.0046319865499842277 -0.015348838274417187 0 0.0030939998657594711 -0.015850666909630818 0 0.0029543708913669295 -0.014245795411394894 0 0.0043872071705406187 -0.015435884933302035 0 0.0021970069311436826 -0.01502178803063163 0 0.0010793740591543656 -0.015219084642888389 0 0.0019672243527818689 -0.01706541144534977 0 0.00030477293975586441 -0.016602513263025611 0 0.0010793740591543656 -0.015219084642888389 0 -0.00014904640475445178 -0.015640743077959096 0 0.00030477293975586441 -0.016602513263025611 0 0.0010793740591543656 -0.015219084642888389 0 0.0019672243527818689 -0.01706541144534977 0 0.0010793740591543656 -0.015219084642888389 0 0.0012457878644883422 -0.013855334941903306 0 -0.00072884989715534139 -0.014497173504617973 0 0.0021970069311436826 -0.01502178803063163 0 0.0012457878644883422 -0.013855334941903306 0 0.0029543708913669295 -0.014245795411394894 0 0.0021970069311436826 -0.01502178803063163 0 0.0010793740591543656 -0.015219084642888389 0 0.0012457878644883422 -0.013855334941903306 0 0.0012457878644883422 -0.013855334941903306 0 0.0029543708913669295 -0.014245795411394894 0 0.0019770170236095568 -0.011630791599764854 0 0.0029543708913669295 -0.014245795411394894 0 0.0037050014412125872 -0.01403838235586506 0 0.0019770170236095568 -0.011630791599764854 0 0.0029543708913669295 -0.014245795411394894 0 0.0037050014412125872 -0.01403838235586506 0 0.0040220606724123377 -0.014862140928728975 0 0.001954193793495965 -0.0049346963848550893 0 0.0020735019560246541 -0.004975531556865866 0 0.0020064897316954362 -0.004828165642933026 0 0.00097498758325724661 0.00040549733713735487 0 0.0014300614924020833 -0.00073701937825529341 0 0.00024199455604111041 0.0046913101834723282 0 -7.8433830752343828e-05 0.0035353552946573354 0 0.00079332312287363484 0.0036462332473457142 0 0.00024199455604111041 0.0046913101834723282 0 -0.00025205398143829453 0.0048462690691762084 0 -0.00010892475969889379 0.0051574501811594425 0 0.001954193793495965 -0.0049346963848550893 0 0.0020735019560246541 -0.004975531556865866 0 0.0020610944469612665 -0.0050238323501777095 0 0.0037050014412125872 -0.01403838235586506 0 0.0040220606724123377 -0.014862140928728975 0 0.0048726730637667541 -0.015528102513305386 0 0.0025887434102089069 -0.0091494228318436503 0 0.0044364576133770423 -0.011760352296621562 0 0.0043872071705406187 -0.015435884933302035 0 0.0057506884372609405 -0.016554346068760693 0 0.003948389952610174 -0.01743094038121341 0 0.0046319865499842277 -0.015348838274417187 0 0.0044364576133770423 -0.011760352296621562 0 0.0051831170128609052 -0.017704384643195188 0 0.0063952696167053928 -0.017941893253278506 0 0.0047802570082500443 -0.019577614777704776 0 0.0051831170128609052 -0.017704384643195188 0 0.0047802570082500443 -0.019577614777704776 0 0.003948389952610174 -0.01743094038121341 0 0.0057506884372609405 -0.016554346068760693 0 0.0051831170128609052 -0.017704384643195188 0 0.0063952696167053928 -0.017941893253278506 0 0.0057506884372609405 -0.016554346068760693 0 0.0051831170128609052 -0.017704384643195188 0 0.003948389952610174 -0.01743094038121341 0 0.00097498758325724661 0.00040549733713735487 0 0.0013861604976465947 -0.0026565688100208939 0 0.0057289210710657415 -0.010488305079426226 0 0.0033827238442621275 -0.0074569207904812591 0 0.0017382743217445879 -0.0075701002166102711 0 0.0044364576133770423 -0.011760352296621562 0 0.0013861604976465947 -0.0026565688100208939 0 0.0020735019560246541 -0.004975531556865866 0 0.0020610944469612665 -0.0050238323501777095 0 0.0020694984183703192 -0.0050212065257094355 0 0.0044364576133770423 -0.011760352296621562 0 0.0046597323898686259 -0.012095889254645498 0 0.0057506884372609405 -0.016554346068760693 0 0.0063952696167053928 -0.017941893253278506 0 0.0069336094922287875 -0.018102606217132999 0 0.0064157077110184443 -0.013803549477061944 0 0.0046597323898686259 -0.012095889254645498 0 0.0063952696167053928 -0.017941893253278506 0 0.0069429507533520611 -0.018093694157553377 0 0.0071335329295058644 -0.018332165020488296 0 0.0046597323898686259 -0.012095889254645498 0 0.0030265767973005247 -0.010967780238079558 0 0.0033827238442621275 -0.0074569207904812591 0 0.0025533638249194929 -0.0071966106947905549 0 0.0017382743217445879 -0.0075701002166102711 0 0.0046597323898686259 -0.012095889254645498 0 0.0024100870152882082 -0.0083786649381914699 0 0.0037239614216622412 -0.0098464084539012457 0 0.003363491895992591 -0.0093831623419939666 0 0.0029181402198977732 -0.0095931117548520798 0 0.0030265767973005247 -0.010967780238079558 0 0.0024100870152882082 -0.0083786649381914699 0 0.0063952696167053928 -0.017941893253278506 0 0.0071335329295058644 -0.018332165020488296 0 0.0047802570082500443 -0.019577614777704776 0 0.0017386479639374583 -0.0088036906244397199 0 0.0016542997393529776 -0.0089630475973962245 0 0.001488879859149904 -0.0089731473685641001 0 0.0030265767973005247 -0.010967780238079558 0 0.0032702404672987667 -0.014487659048580006 0 0.0017386479639374583 -0.0088036906244397199 0 0.0016542997393529776 -0.0089630475973962245 0 0.001772311418139477 -0.0088904571381780081 0 0.0017386479639374583 -0.0088036906244397199 0 0.0017720376173854858 -0.008834663848507127 0 0.001772311418139477 -0.0088904571381780081 0 0.0017386479639374583 -0.0088036906244397199 0 0.0017579777849708862 -0.0087932964005412815 0 0.0017720376173854858 -0.008834663848507127 0 0.0017595774932844029 -0.0090012085586274951 0 0.0016542997393529776 -0.0089630475973962245 0 0.001772311418139477 -0.0088904571381780081 0 0.0015928181288944823 -0.0091245851147357237 0 0.0016542997393529776 -0.0089630475973962245 0 0.001488879859149904 -0.0089731473685641001 0 0.0022433295683752632 -0.020886837627819135 0 0.0047802570082500443 -0.019577614777704776 0 0.0027962177379854494 -0.018956738664503973 0 0.0047802570082500443 -0.019577614777704776 0 0.0027962177379854494 -0.018956738664503973 0 0.003948389952610174 -0.01743094038121341 0 0.0017081125633167174 -0.015013997142120278 0 0.0032702404672987667 -0.014487659048580006 0 0.0022433295683752632 -0.020886837627819135 0 0.0027962177379854494 -0.018956738664503973 0 0.0013582617920576119 -0.019572119029101945 0 0.0027962177379854494 -0.018956738664503973 0 0.003948389952610174 -0.01743094038121341 0 0.0019672243527818689 -0.01706541144534977 0 0.0030939998657594711 -0.015850666909630818 0 0.003948389952610174 -0.01743094038121341 0 0.0019672243527818689 -0.01706541144534977 0 0.0019672243527818689 -0.01706541144534977 0 0.0013582617920576119 -0.019572119029101945 0 -0.00036557708501350601 -0.018861833734207207 0 0.00030477293975586441 -0.016602513263025611 0 0.0019672243527818689 -0.01706541144534977 0 -0.00036557708501350601 -0.018861833734207207 0 0.00074449717059739873 -0.021443839306461834 0 0.0013582617920576119 -0.019572119029101945 0 -0.00036557708501350601 -0.018861833734207207 0 0.0027962177379854494 -0.018956738664503973 0 0.0019672243527818689 -0.01706541144534977 0 0.0013582617920576119 -0.019572119029101945 0 0.00055858584486106002 -0.021776917941116837 0 0.00045126438364891959 -0.022138655207495531 0 0.00065809033751566088 -0.02202318726813287 0 0.00045126438364891959 -0.022138655207495531 0 0.00065809033751566088 -0.02202318726813287 0 0.0008028177829554451 -0.0223070290652078 0 0.00064620996752107066 -0.021434026719139885 0 8.4578042378761554e-05 -0.020452007272437171 0 0.00055858584486106002 -0.021776917941116837 0 0.00074449717059739873 -0.021443839306461834 0 0.00045126438364891959 -0.022138655207495531 0 0.00069663567824847813 -0.021908121274716186 0 0.00065809033751566088 -0.02202318726813287 0 0.00081047214910973098 -0.02208040328440462 0 0.00086638032232733099 -0.021986305449210614 0 0.00081047214910973098 -0.02208040328440462 0 0.0010172078669267546 -0.022178510295179202 0 0.00081047214910973098 -0.02208040328440462 0 0.0008028177829554451 -0.0223070290652078 0 0.0010172078669267546 -0.022178510295179202 0 0.00065809033751566088 -0.02202318726813287 0 0.00081047214910973098 -0.02208040328440462 0 0.0008028177829554451 -0.0223070290652078 0 0.0008028177829554451 -0.0223070290652078 0 0.00087292200668080992 -0.02254488377942054 0 0.00062559358339950115 -0.022582007023634526 0 0.0008028177829554451 -0.0223070290652078 0 0.00087292200668080992 -0.02254488377942054 0 0.0010424990596065804 -0.022522405721384333 0 0.00030477293975586441 -0.016602513263025611 0 -0.00036557708501350601 -0.018861833734207207 0 -0.0012503525648478414 -0.016252247120965482 0 0.00045126438364891959 -0.022138655207495531 0 0.0008028177829554451 -0.0223070290652078 0 0.00062559358339950115 -0.022582007023634526 0 8.4578042378761554e-05 -0.020452007272437171 0 -0.00029705968725395428 -0.019680487071647847 0 0.0012937624280198587 -0.022118500847078486 0 0.0012535264789813318 -0.022379082193703173 0 0.0010172078669267546 -0.022178510295179202 0 0.0014636691250728467 -0.022360237042190211 0 0.0012535264789813318 -0.022379082193703173 0 0.0014027380452638712 -0.022532520390313546 0 0.0012937624280198587 -0.022118500847078486 0 0.0014636691250728467 -0.022360237042190211 0 0.0012535264789813318 -0.022379082193703173 0 0.0008028177829554451 -0.0223070290652078 0 0.0010172078669267546 -0.022178510295179202 0 0.0010884808301497646 -0.022380312474793565 0 0.0012535264789813318 -0.022379082193703173 0 0.0010172078669267546 -0.022178510295179202 0 0.0010884808301497646 -0.022380312474793565 0 0.0008028177829554451 -0.0223070290652078 0 0.0010424990596065804 -0.022522405721384333 0 0.0010884808301497646 -0.022380312474793565 0 0.0010424990596065804 -0.022522405721384333 0 0.0012248251486669855 -0.02253251281412336 0 0.0011653584882269558 -0.022636757504241413 0 0.0010424990596065804 -0.022522405721384333 0 0.0010884808301497646 -0.022380312474793565 0 0.0012248251486669855 -0.02253251281412336 0 0.0012535264789813318 -0.022379082193703173 0 0.0010884808301497646 -0.022380312474793565 0 0.0012248251486669855 -0.02253251281412336 0 0.0012535264789813318 -0.022379082193703173 0 0.0012248251486669855 -0.02253251281412336 0 0.0014027380452638712 -0.022532520390313546 0 0.0012248251486669855 -0.02253251281412336 0 0.0013672285921357602 -0.022656532750652696 0 0.0011653584882269558 -0.022636757504241413 0 0.0012248251486669855 -0.02253251281412336 0 0.0013672285921357602 -0.022656532750652696 0 0.0014027380452638712 -0.022532520390313546 0 0.0013672285921357602 -0.022656532750652696 0 0.0011238412792335189 -0.022772341387547131 0 0.0011653584882269558 -0.022636757504241413 0 0.0019159205951171118 -0.022549915344960484 0 0.0017265448615021871 -0.023118628405218753 0 0.0023913268468475361 -0.022472600427148787 0 0.0027119780753415298 -0.022340133631890875 0 0.0025677623790135197 -0.022300035456716074 0 0.0023155029520887842 -0.022694907180406634 0 0.0023913268468475361 -0.022472600427148787 0 0.0027119780753415298 -0.022340133631890875 0 0.0011238412792335189 -0.022772341387547131 0 0.0011653584882269558 -0.022636757504241413 0 0.001000990996760399 -0.022661572886067041 0 0.0010424990596065804 -0.022522405721384333 0 0.0011653584882269558 -0.022636757504241413 0 0.001000990996760399 -0.022661572886067041 0 0.00087292200668080992 -0.02254488377942054 0 0.0010424990596065804 -0.022522405721384333 0 0.001000990996760399 -0.022661572886067041 0 0.001000990996760399 -0.022661572886067041 0 0.00093807193975419629 -0.022777477128091146 0 0.00084278251018469628 -0.022687210908993945 0 0.0011238412792335189 -0.022772341387547131 0 0.001000990996760399 -0.022661572886067041 0 0.00093807193975419629 -0.022777477128091146 0 0.0027119780753415298 -0.022340133631890875 0 0.0026660035844318494 -0.022188860425629797 0 0.0028164221736853242 -0.022129088275860801 0 0.0011238412792335189 -0.022772341387547131 0 0.00093807193975419629 -0.022777477128091146 0 0.00091633096937119185 -0.022915120529950612 0 0.0017265448615021871 -0.023118628405218753 0 0.00071925712571833055 -0.017826495992725296 0 0.0025303718419229719 -0.022248948686353125 0 0.0023913268468475361 -0.022472600427148787 0 0.0025677623790135197 -0.022300035456716074 0 0.0027119780753415298 -0.022340133631890875 0 0.0025677623790135197 -0.022300035456716074 0 0.0026660035844318494 -0.022188860425629797 0 0.0025303718419229719 -0.022248948686353125 0 0.0025677623790135197 -0.022300035456716074 0 0.0026660035844318494 -0.022188860425629797 0 -0.0012503525648478414 -0.016252247120965482 0 -0.0020742132522229414 -0.013731738782754035 0 -0.00072884989715534139 -0.014497173504617973 0 -0.00014904640475445178 -0.015640743077959096 0 -0.0012503525648478414 -0.016252247120965482 0 -0.00072884989715534139 -0.014497173504617973 0 0.0010793740591543656 -0.015219084642888389 0 -0.00014904640475445178 -0.015640743077959096 0 -0.00072884989715534139 -0.014497173504617973 0 0.00030477293975586441 -0.016602513263025611 0 -0.00014904640475445178 -0.015640743077959096 0 -0.0012503525648478414 -0.016252247120965482 0 -0.00029705968725395428 -0.019680487071647847 0 -0.0002265101768012907 -0.016814402427678739 0 0.00087292200668080992 -0.02254488377942054 0 0.00062559358339950115 -0.022582007023634526 0 0.00084278251018469628 -0.022687210908993945 0 0.00062559358339950115 -0.022582007023634526 0 0.00084278251018469628 -0.022687210908993945 0 0.00077535633834564354 -0.02284649320175695 0 0.00087292200668080992 -0.02254488377942054 0 0.001000990996760399 -0.022661572886067041 0 0.00084278251018469628 -0.022687210908993945 0 0.00093807193975419629 -0.022777477128091146 0 0.00084278251018469628 -0.022687210908993945 0 0.00077535633834564354 -0.02284649320175695 0 0.00071925712571833055 -0.017826495992725296 0 -0.0002265101768012907 -0.016814402427678739 0 0.00093807193975419629 -0.022777477128091146 0 0.00091633096937119185 -0.022915120529950612 0 0.00077535633834564354 -0.02284649320175695 0 -0.00066781583063586596 -0.015553383023154482 0 0.00058282846274467415 -0.016279815766996386 0 6.2060825121820125e-05 -0.014735208665002261 0 -0.0002265101768012907 -0.016814402427678739 0 -5.3863516086148218e-05 -0.011254874250800772 0 0.0012457878644883422 -0.013855334941903306 0 -0.00072884989715534139 -0.014497173504617973 0 -3.988587431746397e-05 -0.012552657157096175 0 -0.00072884989715534139 -0.014497173504617973 0 -3.988587431746397e-05 -0.012552657157096175 0 -0.0014282147184675185 -0.012687063914665052 0 -0.0020958878495416968 -0.013694454072616076 0 -0.00072884989715534139 -0.014497173504617973 0 -0.0014282147184675185 -0.012687063914665052 0 -0.0002265101768012907 -0.016814402427678739 0 -0.001780631971406622 -0.014258111756708115 0 -3.988587431746397e-05 -0.012552657157096175 0 -0.0012825340715136022 -0.010631944025926186 0 0.0019770170236095568 -0.011630791599764854 0 -3.988587431746397e-05 -0.012552657157096175 0 -0.0014282147184675185 -0.012687063914665052 0 -0.0012825340715136022 -0.010631944025926186 0 -0.0020958878495416968 -0.013694454072616076 0 -0.0014282147184675185 -0.012687063914665052 0 -0.0026220620428017822 -0.012132509217374745 0 -0.0001398430644849066 -0.0087624153163523028 0 -6.3146492502267777e-05 -0.0086700524949918749 0 -0.00012706001210250942 -0.0084942857230368707 0 -0.0014282147184675185 -0.012687063914665052 0 -0.0026220620428017822 -0.012132509217374745 0 -0.0012825340715136022 -0.010631944025926186 0 0.00071925712571833055 -0.017826495992725296 0 -5.3863516086148218e-05 -0.011254874250800772 0 -5.3863516086148218e-05 -0.011254874250800772 0 -0.0004557590899983391 -0.00810934271101626 0 -4.1689623012540774e-05 -0.0087818010826681472 0 -0.00012706001210250942 -0.0084942857230368707 0 0.00019664524151751512 -0.0085289934536330776 0 -5.3863516086148218e-05 -0.011254874250800772 0 -0.0006890475910861448 -0.0097573491395415452 0 -0.00011728564837845134 -0.0082888233754443742 0 0.00019664524151751512 -0.0085289934536330776 0 -2.1129825672294252e-05 -0.0080356935574029086 0 -0.00012706001210250942 -0.0084942857230368707 0 -0.00011728564837845134 -0.0082888233754443742 0 0.00019664524151751512 -0.0085289934536330776 0 -0.0006890475910861448 -0.0097573491395415452 0 0.00044523344313531979 -0.0070709971731378659 0 -0.0012825340715136022 -0.010631944025926186 0 6.5828119939051076e-05 -0.0091231102086043042 0 0.0019770170236095568 -0.011630791599764854 0 0.00019664524151751512 -0.0085289934536330776 0 0.00065114635679015289 -0.0081484591771060922 0 -2.1129825672294252e-05 -0.0080356935574029086 0 0.0025303718419229719 -0.022248948686353125 0 0.0026660035844318494 -0.022188860425629797 0 0.0026490714363849965 -0.022000781207298526 0 0.00071925712571833055 -0.017826495992725296 0 0.0011889935894158444 -0.014898906393289425 0 -0.0001398430644849066 -0.0087624153163523028 0 -0.00012706001210250942 -0.0084942857230368707 0 -0.00025172863769500975 -0.0084580215192820458 0 0.0026660035844318494 -0.022188860425629797 0 0.0028164221736853242 -0.022129088275860801 0 0.0026490714363849965 -0.022000781207298526 0 -0.0001398430644849066 -0.0087624153163523028 0 -0.00034603931293737602 -0.0085113364520844371 0 -0.00025172863769500975 -0.0084580215192820458 0 -0.00012706001210250942 -0.0084942857230368707 0 -0.00011728564837845134 -0.0082888233754443742 0 -0.00025172863769500975 -0.0084580215192820458 0 -0.00011728564837845134 -0.0082888233754443742 0 -0.00025172863769500975 -0.0084580215192820458 0 -0.00022682047665976372 -0.0082586009050769054 0 -0.00025172863769500975 -0.0084580215192820458 0 -0.00031154610708660028 -0.0083891381528940281 0 -0.00022682047665976372 -0.0082586009050769054 0 -0.00032491126037167826 -0.0084318506185898836 0 -0.00034603931293737602 -0.0085113364520844371 0 -0.00031154610708660028 -0.0083891381528940281 0 -0.00034603931293737602 -0.0085113364520844371 0 -0.00025172863769500975 -0.0084580215192820458 0 -0.00031154610708660028 -0.0083891381528940281 0 -0.00032491126037167826 -0.0084318506185898836 0 -0.00031154610708660028 -0.0083891381528940281 0 -0.000334844789130967 -0.0083144898059119669 0 -0.00031154610708660028 -0.0083891381528940281 0 -0.000334844789130967 -0.0083144898059119669 0 -0.00022682047665976372 -0.0082586009050769054 0 -0.00021862966618610546 -0.0094060899616774662 0 -0.00021687186629346146 -0.008232179339134657 0 -0.000334844789130967 -0.0083144898059119669 0 -0.00022682047665976372 -0.0082586009050769054 0 -9.9256574979245829e-05 -0.0079809729348871185 0 1.2588411190313734e-07 -0.0095403935151726904 0 -9.9256574979245829e-05 -0.0079809729348871185 0 -6.0783398944626565e-05 -0.0078322875064078794 0 -1.4678773170526399e-06 -0.01046943202494564 0 1.2588411190313734e-07 -0.0095403935151726904 0 -9.9256574979245829e-05 -0.0079809729348871185 0 -5.7485699027076331e-08 -0.012084433226668958 0 -1.4678773170526399e-06 -0.01046943202494564 0 1.2588411190313734e-07 -0.0095403935151726904 0 0.00065114635679015289 -0.0081484591771060922 0 -2.1129825672294252e-05 -0.0080356935574029086 0 -6.0212230731661694e-06 -0.0072769070002217306 0 6.7983180490283068e-05 -0.0066143341258982228 0 4.5018983909507811e-05 -0.0069335929482736286 0 -6.0212230731661694e-06 -0.0072769070002217306 0 0.00044523344313531979 -0.0070709971731378659 0 6.0684065643330795e-05 -0.0073906096778276441 0 -0.00011728564837845134 -0.0082888233754443742 0 -2.1129825672294252e-05 -0.0080356935574029086 0 -0.00011761541566444097 -0.0081332918398414038 0 -0.00011728564837845134 -0.0082888233754443742 0 -0.00022682047665976372 -0.0082586009050769054 0 -0.00011761541566444097 -0.0081332918398414038 0 -2.1129825672294252e-05 -0.0080356935574029086 0 -0.00011761541566444097 -0.0081332918398414038 0 -9.9256574979245829e-05 -0.0079809729348871185 0 -0.00022682047665976372 -0.0082586009050769054 0 -0.00011761541566444097 -0.0081332918398414038 0 -9.9256574979245829e-05 -0.0079809729348871185 0 -2.1129825672294252e-05 -0.0080356935574029086 0 -9.9256574979245829e-05 -0.0079809729348871185 0 -6.0212230731661694e-06 -0.0072769070002217306 0 -9.9256574979245829e-05 -0.0079809729348871185 0 -6.0783398944626565e-05 -0.0078322875064078794 0 -6.0212230731661694e-06 -0.0072769070002217306 0 1.2588411190313734e-07 -0.0095403935151726904 0 -6.0783398944626565e-05 -0.0078322875064078794 0 -7.6309823563439994e-07 -0.0069968830041502979 0 -6.0783398944626565e-05 -0.0078322875064078794 0 -7.6309823563439994e-07 -0.0069968830041502979 0 -6.0212230731661694e-06 -0.0072769070002217306 0 -7.6309823563439994e-07 -0.0069968830041502979 0 5.0850350734340398e-05 -0.0061740472065039366 0 2.5617810052255803e-06 -0.0044518940732460148 0 -7.6309823563439994e-07 -0.0069968830041502979 0 -6.0212230731661694e-06 -0.0072769070002217306 0 5.0850350734340398e-05 -0.0061740472065039366 0 6.7983180490283068e-05 -0.0066143341258982228 0 -6.0212230731661694e-06 -0.0072769070002217306 0 5.0850350734340398e-05 -0.0061740472065039366 0 5.0850350734340398e-05 -0.0061740472065039366 0 0.00017991367098970124 -0.0051836927830087995 0 2.5617810052255803e-06 -0.0044518940732460148 0 0.00017991367098970124 -0.0051836927830087995 0 2.5617810052255803e-06 -0.0044518940732460148 0 0.00056981285395606087 -0.0032985753928045508 0 0.00017991367098970124 -0.0051836927830087995 0 0.00056981285395606087 -0.0032985753928045508 0 0.00038207443591867067 -0.0042395110877312845 0 0.00070502662058389263 -0.0049915144080835512 0 0.0011979360081485297 -0.0039324553217681933 0 0.0010425741164922808 -0.0033680342409195137 0 0.0011979360081485297 -0.0039324553217681933 0 6.7983180490283068e-05 -0.0066143341258982228 0 0.00017991367098970124 -0.0051836927830087995 0 0.00072415887668038684 -0.0064244890007015562 0 6.7983180490283068e-05 -0.0066143341258982228 0 5.0850350734340398e-05 -0.0061740472065039366 0 0.00017991367098970124 -0.0051836927830087995 0 2.5617810052255803e-06 -0.0044518940732460148 0 0.00056981285395606087 -0.0032985753928045508 0 -5.0536379121785004e-09 -0.0019071919660912811 0 0.00056981285395606087 -0.0032985753928045508 0 0.0010169682623090647 -0.00086908172949383834 0 0.0023385795969565965 -0.0015619349333538491 0 0.0010169682623090647 -0.00086908172949383834 0 0.0014183703935348637 0.0016677296799738435 0 0.00035834050309538741 -0.00021567390590778869 0 0.0011979360081485297 -0.0039324553217681933 0 0.001690773373048174 -0.0012912470532611155 0 0.00056981285395606087 -0.0032985753928045508 0 0.0010169682623090647 -0.00086908172949383834 0 0.00035834050309538741 -0.00021567390590778869 0 0.0010169682623090647 -0.00086908172949383834 0 0.0023385795969565965 -0.0015619349333538491 0 0.0014183703935348637 0.0016677296799738435 0 0.0016063657567492518 -0.0045718892027706336 0 0.0017421560663660456 -0.0044028674503401918 0 0.0018841519561832634 -0.0046235075371050061 0 0.00044523344313531979 -0.0070709971731378659 0 0.0011979360081485297 -0.0039324553217681933 0 6.7983180490283068e-05 -0.0066143341258982228 0 4.5018983909507811e-05 -0.0069335929482736286 0 0.00072415887668038684 -0.0064244890007015562 0 0.00044523344313531979 -0.0070709971731378659 0 0.0019749969321567057 -0.0082435491689303864 0 0.0016063657567492518 -0.0045718892027706336 0 0.0018841519561832634 -0.0046235075371050061 0 0.0017864438863453166 -0.0047695214174494531 0 0.001954193793495965 -0.0049346963848550893 0 0.0017864438863453166 -0.0047695214174494531 0 0.0020064897316954362 -0.004828165642933026 0 0.0025887434102089069 -0.0091494228318436503 0 0.0019749969321567057 -0.0082435491689303864 0 0.0018841519561832634 -0.0046235075371050061 0 0.0017864438863453166 -0.0047695214174494531 0 0.0020064897316954362 -0.004828165642933026 0 0.0012457878644883422 -0.013855334941903306 0 -3.988587431746397e-05 -0.012552657157096175 0 0.0019770170236095568 -0.011630791599764854 0 -7.8433830752343828e-05 0.0035353552946573354 0 0.00079332312287363484 0.0036462332473457142 0 0.00039330306039703781 0.0023125724309462415 0 0.0014183703935348637 0.0016677296799738435 0 0.00079332312287363484 0.0036462332473457142 0 0.00039330306039703781 0.0023125724309462415 0 0.001690773373048174 -0.0012912470532611155 0 0.0014300614924020833 -0.00073701937825529341 0 0.0014183703935348637 0.0016677296799738435 0 0.00039330306039703781 0.0023125724309462415 0 0.00035834050309538741 -0.00021567390590778869 0 -7.8433830752343828e-05 0.0035353552946573354 0 0.00039330306039703781 0.0023125724309462415 0 -0.0001604344540621798 0.0016819419570480707 0 0.00039330306039703781 0.0023125724309462415 0 -0.0001604344540621798 0.0016819419570480707 0 0.00035834050309538741 -0.00021567390590778869 0 -0.0001604344540621798 0.0016819419570480707 0 0.00035834050309538741 -0.00021567390590778869 0 -5.0536379121785004e-09 -0.0019071919660912811 0 0.00056981285395606087 -0.0032985753928045508 0 0.00035834050309538741 -0.00021567390590778869 0 -5.0536379121785004e-09 -0.0019071919660912811 0 -0.0001604344540621798 0.0016819419570480707 0 -5.0536379121785004e-09 -0.0019071919660912811 0 -5.2530814543449315e-07 0.0006360549484195684 0 -5.2530814543449315e-07 0.0006360549484195684 0 -0.00032574829079673999 0.0031487481333632326 0 -5.5677563421721062e-07 0.0031798098753039348 0 -0.0001604344540621798 0.0016819419570480707 0 -5.2530814543449315e-07 0.0006360549484195684 0 -0.00032574829079673999 0.0031487481333632326 0 -0.0001604344540621798 0.0016819419570480707 0 -0.00032574829079673999 0.0031487481333632326 0 -0.00049121573530958214 0.003991637590763401 0 -5.5677563421721062e-07 0.0031798098753039348 0 -0.00025966270193747144 0.0050908779445776034 0 -4.4623006312205486e-07 0.0057234288555613093 0 -0.00032574829079673999 0.0031487481333632326 0 -5.5677563421721062e-07 0.0031798098753039348 0 -0.00025966270193747144 0.0050908779445776034 0 -0.00032574829079673999 0.0031487481333632326 0 -0.00025966270193747144 0.0050908779445776034 0 -0.00045799609894182902 0.0051901791538600849 0 -0.00025966270193747144 0.0050908779445776034 0 -0.00045799609894182902 0.0051901791538600849 0 -0.00030154577312943933 0.0065453630403164856 0 -0.00045799609894182902 0.0051901791538600849 0 -0.0003524795488712559 0.0060210446989945243 0 -0.00030154577312943933 0.0065453630403164856 0 -0.00045799609894182902 0.0051901791538600849 0 -0.00049121573530958214 0.003991637590763401 0 -0.00061144183228975784 0.0051453092796287306 0 -0.00045799609894182902 0.0051901791538600849 0 -0.0003524795488712559 0.0060210446989945243 0 -0.00061144183228975784 0.0051453092796287306 0 -0.0003524795488712559 0.0060210446989945243 0 -0.00061144183228975784 0.0051453092796287306 0 -0.00040601488797408359 0.0056508204786420574 0 -0.0003524795488712559 0.0060210446989945243 0 -0.00040601488797408359 0.0056508204786420574 0 -0.00011639437969095034 0.0063459050409634208 0 -7.8433830752343828e-05 0.0035353552946573354 0 -0.0001604344540621798 0.0016819419570480707 0 -0.00049121573530958214 0.003991637590763401 0 -0.00032574829079673999 0.0031487481333632326 0 -0.00045799609894182902 0.0051901791538600849 0 -0.00049121573530958214 0.003991637590763401 0 -0.00049121573530958214 0.003991637590763401 0 -0.00044244950542371897 0.0044611551168122106 0 -0.00061144183228975784 0.0051453092796287306 0 -7.8433830752343828e-05 0.0035353552946573354 0 -0.00049121573530958214 0.003991637590763401 0 -0.00044244950542371897 0.0044611551168122106 0 0.00024199455604111041 0.0046913101834723282 0 -7.8433830752343828e-05 0.0035353552946573354 0 -0.00044244950542371897 0.0044611551168122106 0 0.00024199455604111041 0.0046913101834723282 0 -0.00044244950542371897 0.0044611551168122106 0 -0.00025205398143829453 0.0048462690691762084 0 -0.00025205398143829453 0.0048462690691762084 0 -0.00059013245026354221 0.004866870901058769 0 -0.00051183901487706132 0.004992233325414353 0 -0.00044244950542371897 0.0044611551168122106 0 -0.00025205398143829453 0.0048462690691762084 0 -0.00059013245026354221 0.004866870901058769 0 -0.00044244950542371897 0.0044611551168122106 0 -0.00059013245026354221 0.004866870901058769 0 -0.00061144183228975784 0.0051453092796287306 0 -0.00059013245026354221 0.004866870901058769 0 -0.00061144183228975784 0.0051453092796287306 0 -0.0006078629812481302 0.0050079498427449765 0 -0.00040601488797408359 0.0056508204786420574 0 -0.0006078629812481302 0.0050079498427449765 0 1.932203237508272e-05 0.0055368242032926059 0 -0.00061144183228975784 0.0051453092796287306 0 -0.00040601488797408359 0.0056508204786420574 0 -0.0006078629812481302 0.0050079498427449765 0 -0.00036578851439120674 0.0050818609734195946 0 2.7811634808940418e-05 0.0055120965623483321 0 7.4918919533303481e-05 0.0052886173208912196 0 -4.7757289166970293e-05 0.0053257155102403577 0 1.932203237508272e-05 0.0055368242032926059 0 -0.00059013245026354221 0.004866870901058769 0 -0.0006078629812481302 0.0050079498427449765 0 -0.00051183901487706132 0.004992233325414353 0 -0.00036578851439120674 0.0050818609734195946 0 -0.00030315974406701395 0.0059418855413315907 0 -4.7757289166970293e-05 0.0053257155102403577 0 -9.3750415507064995e-05 0.0051282689093668805 0 1.6988314414072754e-05 0.0051732343298553788 0 -4.7757289166970293e-05 0.0053257155102403577 0 -9.3750415507064995e-05 0.0051282689093668805 0 -0.00017824527440212458 0.005166954136154288 0 7.4918919533303481e-05 0.0052886173208912196 0 -4.7757289166970293e-05 0.0053257155102403577 0 1.6988314414072754e-05 0.0051732343298553788 0 7.4918919533303481e-05 0.0052886173208912196 0 1.6988314414072754e-05 0.0051732343298553788 0 0.00014327722750722579 0.0051212094849733816 0 -2.1022519431624977e-05 0.0049967235136393739 0 0.00014327722750722579 0.0051212094849733816 0 0.00017636105516224924 0.0049533855352351516 0 1.6988314414072754e-05 0.0051732343298553788 0 -2.1022519431624977e-05 0.0049967235136393739 0 0.00014327722750722579 0.0051212094849733816 0 -9.3750415507064995e-05 0.0051282689093668805 0 -2.1022519431624977e-05 0.0049967235136393739 0 -0.00016184237171928257 0.005021351503403119 0 -9.3750415507064995e-05 0.0051282689093668805 0 1.6988314414072754e-05 0.0051732343298553788 0 -2.1022519431624977e-05 0.0049967235136393739 0 0.0012653789476415988 -0.0004500761688940603 0 0.0014323376742459155 -0.00045511603084866529 0 0.0015120809692362044 -0.00056429866458042506 0 0.00060012015674095474 0.0022254543103417176 0 0.00049623854798873227 0.0026309637470546625 0 0.0014323376742459155 -0.00045511603084866529 0 0.0015120809692362044 -0.00056429866458042506 0 0.0015722623703058318 -0.00049192424556708406 0 -9.3750415507064995e-05 0.0051282689093668805 0 -0.00016184237171928257 0.005021351503403119 0 -0.00020792584848029587 0.0050600861209465428 0 0.0015120809692362044 -0.00056429866458042506 0 0.0015722623703058318 -0.00049192424556708406 0 0.0017635868417048093 -0.00068587696721536409 0 -0.00016184237171928257 0.005021351503403119 0 -0.00026623609508284269 0.0049950713125913081 0 -0.00020792584848029587 0.0050600861209465428 0 0.0021715275794861508 -0.0084229662471260302 0 0.0013834248377121354 -0.0077600295791006553 0 0.0020933492987041027 -0.0089751453997661684 0 0.001772311418139477 -0.0088904571381780081 0 0.0017975864305024678 -0.0087956354189226201 0 0.0018638193399602063 -0.0089532934137208139 0 0.0017975864305024678 -0.0087956354189226201 0 0.0020933492987041027 -0.0089751453997661684 0 0.0018638193399602063 -0.0089532934137208139 0 0.0013834248377121354 -0.0077600295791006553 0 0.001304778473403642 -0.0076988466357054454 0 0.0020933492987041027 -0.0089751453997661684 0 0.0021265270795492257 -0.0048180228259465056 0 0.0007318424705186102 -0.0030135207823562362 0 0.00049623854798873227 0.0026309637470546625 0 0.0007318424705186102 -0.0030135207823562362 0 0.0015891692930100228 -0.0051669646467630516 0 0.0022590575617327659 -0.010194236964165868 0 0.0017595774932844029 -0.0090012085586274951 0 0.001772311418139477 -0.0088904571381780081 0 0.0018638193399602063 -0.0089532934137208139 0 0.0017720376173854858 -0.008834663848507127 0 0.001772311418139477 -0.0088904571381780081 0 0.0017975864305024678 -0.0087956354189226201 0 0.0007318424705186102 -0.0030135207823562362 0 0.0015891692930100228 -0.0051669646467630516 0 0.0017579777849708862 -0.0087932964005412815 0 0.0017720376173854858 -0.008834663848507127 0 0.0017975864305024678 -0.0087956354189226201 0 0.0013861604976465947 -0.0026565688100208939 0 -0.00030315974406701395 0.0059418855413315907 0 -0.0002821712668822851 0.0050043407038177926 0 -0.00017824527440212458 0.005166954136154288 0 -0.00020792584848029587 0.0050600861209465428 0 -0.00026623609508284269 0.0049950713125913081 0 -0.0002821712668822851 0.0050043407038177926 0 -0.00020792584848029587 0.0050600861209465428 0 -0.00025205398143829453 0.0048462690691762084 0 -0.00010892475969889379 0.0051574501811594425 0 -0.00051183901487706132 0.004992233325414353 0 0.0024100870152882082 -0.0083786649381914699 0 0.0015891692930100228 -0.0051669646467630516 0 0.0025090473114763897 -0.0066255653234538331 0 0.00046627622356839422 -0.0062928643883514148 0 0.0010559579084292701 -0.0072999726196062579 0 0.0024100870152882082 -0.0083786649381914699 0 0.0013861604976465947 -0.0026565688100208939 0 0.0015891692930100228 -0.0051669646467630516 0 0.0013861604976465947 -0.0026565688100208939 0 -0.00026623609508284269 0.0049950713125913081 0 -0.00027342798331052688 0.0049961256099299561 0 -0.0002821712668822851 0.0050043407038177926 0 -9.3750415507064995e-05 0.0051282689093668805 0 -0.00017824527440212458 0.005166954136154288 0 -0.00020792584848029587 0.0050600861209465428 0 0.00048860885550286199 0.0052103517894154612 0 0.00040078253827567346 0.005211726882232837 0 0.0004723998949845798 0.0053491041836238092 0 0.00058176201325669998 0.0052576198005926545 0 0.00048860885550286199 0.0052103517894154612 0 0.0004723998949845798 0.0053491041836238092 0 0.00098021793186027582 0.0096676053102347816 0 0.00019063941224225825 0.0064543440024519413 0 -9.8339742986497367e-05 0.0080069130532665622 0 -0.00032786756708328687 0.00826041623685401 0 -0.00013707739335095846 0.0082743858559326776 0 5.8208712400503608e-05 0.0081707658220793872 0 -9.8339742986497367e-05 0.0080069130532665622 0 -0.00013707739335095846 0.0082743858559326776 0 5.8208712400503608e-05 0.0081707658220793872 0 2.8583526943650088e-05 0.0079409787698740894 0 0.00043844448444534009 0.0082469767643941413 0 0.00034242409797421118 0.017179233172222644 0 0.0023984594290046442 0.013974149647734342 0 -0.00019177868429236781 0.0078672788635025491 0 0.00098021793186027582 0.0096676053102347816 0 0.0027676327459223824 0.020831105136276541 0 0.0022212383816029072 0.02091738939754453 0 0.0035242999963768077 0.020929807955906373 0 5.8208712400503608e-05 0.0081707658220793872 0 -5.7903563048819839e-05 0.0080328591676563071 0 2.8583526943650088e-05 0.0079409787698740894 0 0.00098021793186027582 0.0096676053102347816 0 0.00034242409797421118 0.017179233172222644 0 0.00078350182733482286 0.021336871848652812 0 0.0014076465662565157 0.020736229574428694 0 0.001006368577783665 0.020148809327437629 0 0.00034242409797421118 0.017179233172222644 0 0.0015091634312654073 0.019662240502645967 0 0.0027676327459223824 0.020831105136276541 0 0.0022434665973202154 0.020570681753831067 0 0.0030474406325796065 0.020749806583230081 0 0.0027676327459223824 0.020831105136276541 0 0.0022212383816029072 0.02091738939754453 0 0.0022434665973202154 0.020570681753831067 0 0.001693475533308937 0.021100172968169226 0 0.0022434665973202154 0.020570681753831067 0 0.001006368577783665 0.020148809327437629 0 0.00034242409797421118 0.017179233172222644 0 0.0003974636179601612 0.01805358711239391 0 0.0022434665973202154 0.020570681753831067 0 0.0016763293808362209 0.019636936135941984 0 0.0026019316117882087 0.019983462351839624 0 0.0022434665973202154 0.020570681753831067 0 0.0016763293808362209 0.019636936135941984 0 0.001006368577783665 0.020148809327437629 0 0.0016763293808362209 0.019636936135941984 0 0.001006368577783665 0.020148809327437629 0 0.00072500240943099473 0.019016313273352643 0 0.001006368577783665 0.020148809327437629 0 -0.00041501679734149398 0.019716727018005892 0 0.00072500240943099473 0.019016313273352643 0 0.00058176201325669998 0.0052576198005926545 0 0.00048860885550286199 0.0052103517894154612 0 0.00048092883513246984 0.0051267034362719611 0 0.00078350182733482286 0.021336871848652812 0 0.001006368577783665 0.020148809327437629 0 -0.00041501679734149398 0.019716727018005892 0 0.00098021793186027582 0.0096676053102347816 0 0.00037838579170979675 0.01308412101610589 0 0.00048860885550286199 0.0052103517894154612 0 0.00042882559549042138 0.0051520801325268799 0 0.00040078253827567346 0.005211726882232837 0 0.00048860885550286199 0.0052103517894154612 0 0.00048092883513246984 0.0051267034362719611 0 0.00042882559549042138 0.0051520801325268799 0 0.00048092883513246984 0.0051267034362719611 0 0.00043320398556607049 0.0050959005228475704 0 0.00042882559549042138 0.0051520801325268799 0 0.00043320398556607049 0.0050959005228475704 0 0.00031181681912196066 0.0051298711886672115 0 0.00042882559549042138 0.0051520801325268799 0 0.00043320398556607049 0.0050959005228475704 0 0.00031181681912196066 0.0051298711886672115 0 0.00017636105516224924 0.0049533855352351516 0 0.00031181681912196066 0.0051298711886672115 0 0.00042882559549042138 0.0051520801325268799 0 0.00040078253827567346 0.005211726882232837 0 0.00031181681912196066 0.0051298711886672115 0 0.00014327722750722579 0.0051212094849733816 0 0.00017636105516224924 0.0049533855352351516 0 0.00031181681912196066 0.0051298711886672115 0 0.00014327722750722579 0.0051212094849733816 0 0.00027415226076041689 0.0052397900840311477 0 7.4918919533303481e-05 0.0052886173208912196 0 0.00014327722750722579 0.0051212094849733816 0 0.00027415226076041689 0.0052397900840311477 0 7.4918919533303481e-05 0.0052886173208912196 0 0.00027415226076041689 0.0052397900840311477 0 0.0002202112606213214 0.005356545158053015 0 0.00027415226076041689 0.0052397900840311477 0 0.00040078253827567346 0.005211726882232837 0 0.0004723998949845798 0.0053491041836238092 0 0.00031181681912196066 0.0051298711886672115 0 0.00027415226076041689 0.0052397900840311477 0 0.00040078253827567346 0.005211726882232837 0 -0.00024588579573199754 0.0080347766383793585 0 -0.0003694785211724211 0.0082022714044212176 0 -0.00032786756708328687 0.00826041623685401 0 0.00027415226076041689 0.0052397900840311477 0 0.0002202112606213214 0.005356545158053015 0 0.0004723998949845798 0.0053491041836238092 0 0.0002202112606213214 0.005356545158053015 0 0.00038546969403874167 0.0055014684488651541 0 0.0004723998949845798 0.0053491041836238092 0 -3.8054936417297143e-05 0.006806701235637736 0 0.00019063941224225825 0.0064543440024519413 0 7.4918919533303481e-05 0.0052886173208912196 0 0.0002202112606213214 0.005356545158053015 0 1.932203237508272e-05 0.0055368242032926059 0 0.0002202112606213214 0.005356545158053015 0 1.932203237508272e-05 0.0055368242032926059 0 0.00038546969403874167 0.0055014684488651541 0 1.932203237508272e-05 0.0055368242032926059 0 0.00038546969403874167 0.0055014684488651541 0 -0.00011639437969095034 0.0063459050409634208 0 -3.8054936417297143e-05 0.006806701235637736 0 -9.8291808870220096e-05 0.0064871072796398605 0 -0.00024588579573199754 0.0080347766383793585 0 -0.00026605733511369725 0.0073095660923744596 0 -0.00011639437969095034 0.0063459050409634208 0 -0.00040601488797408359 0.0056508204786420574 0 1.932203237508272e-05 0.0055368242032926059 0 -0.00011639437969095034 0.0063459050409634208 0 -0.00024588579573199754 0.0080347766383793585 0 -0.00033699700242558617 0.0078014038889044459 0 -0.0003694785211724211 0.0082022714044212176 0 -0.00024588579573199754 0.0080347766383793585 0 -0.00026605733511369725 0.0073095660923744596 0 -0.00033699700242558617 0.0078014038889044459 0 -0.00033699700242558617 0.0078014038889044459 0 -0.0003694785211724211 0.0082022714044212176 0 -0.00032930771367223755 0.0078363363933372839 0 -0.0003694785211724211 0.0082022714044212176 0 -0.00011798676910563253 0.0087961641479872652 0 -0.00027326032824439325 0.008611602067919449 0 -0.00024665055718481191 0.008393742848256884 0 -0.0003694785211724211 0.0082022714044212176 0 -0.00011798676910563253 0.0087961641479872652 0 -0.00024665055718481191 0.008393742848256884 0 -0.0003694785211724211 0.0082022714044212176 0 -0.00032786756708328687 0.00826041623685401 0 -0.00024665055718481191 0.008393742848256884 0 -0.00032786756708328687 0.00826041623685401 0 -0.00013707739335095846 0.0082743858559326776 0 5.8208712400503608e-05 0.0081707658220793872 0 3.0156772268396307e-05 0.0085130884507830223 0 0.00043844448444534009 0.0082469767643941413 0 5.8208712400503608e-05 0.0081707658220793872 0 -0.00013707739335095846 0.0082743858559326776 0 3.0156772268396307e-05 0.0085130884507830223 0 -0.00024665055718481191 0.008393742848256884 0 -0.00013707739335095846 0.0082743858559326776 0 3.0156772268396307e-05 0.0085130884507830223 0 3.0156772268396307e-05 0.0085130884507830223 0 -0.00011798676910563253 0.0087961641479872652 0 0.00029742506707373234 0.0091782741639580695 0 -0.00024665055718481191 0.008393742848256884 0 3.0156772268396307e-05 0.0085130884507830223 0 -0.00011798676910563253 0.0087961641479872652 0 -0.00011798676910563253 0.0087961641479872652 0 -2.6587240146188442e-05 0.0095096836796507416 0 -0.00027326032824439325 0.008611602067919449 0 -0.00011798676910563253 0.0087961641479872652 0 -2.6587240146188442e-05 0.0095096836796507416 0 0.00029742506707373234 0.0091782741639580695 0 -2.6587240146188442e-05 0.0095096836796507416 0 -0.00027326032824439325 0.008611602067919449 0 -0.00024993581670643296 0.0086902507537805051 0 -0.0003694785211724211 0.0082022714044212176 0 -0.00027326032824439325 0.008611602067919449 0 -0.00032930771367223755 0.0078363363933372839 0 -0.00027326032824439325 0.008611602067919449 0 -0.00024993581670643296 0.0086902507537805051 0 -0.00032930771367223755 0.0078363363933372839 0 -2.6587240146188442e-05 0.0095096836796507416 0 -0.00024993581670643296 0.0086902507537805051 0 -6.5082469258426412e-05 0.010014008368344722 0 -2.6587240146188442e-05 0.0095096836796507416 0 -6.5082469258426412e-05 0.010014008368344722 0 0.00064417557371501894 0.011066712301784569 0 -0.0003524795488712559 0.0060210446989945243 0 -0.00011639437969095034 0.0063459050409634208 0 -0.00024717793282808876 0.0069351136534603255 0 -0.00026605733511369725 0.0073095660923744596 0 -0.00011639437969095034 0.0063459050409634208 0 -0.00024717793282808876 0.0069351136534603255 0 -0.00024717793282808876 0.0069351136534603255 0 -0.00032930771367223755 0.0078363363933372839 0 -0.00027157848003196613 0.0076214937159552213 0 -0.00026605733511369725 0.0073095660923744596 0 -0.00024717793282808876 0.0069351136534603255 0 -0.00032930771367223755 0.0078363363933372839 0 -0.00026605733511369725 0.0073095660923744596 0 -0.00033699700242558617 0.0078014038889044459 0 -0.00032930771367223755 0.0078363363933372839 0 -0.00024993581670643296 0.0086902507537805051 0 -0.00032930771367223755 0.0078363363933372839 0 -0.00027157848003196613 0.0076214937159552213 0 -0.00024993581670643296 0.0086902507537805051 0 -0.00027157848003196613 0.0076214937159552213 0 -0.00019720123728686327 0.0080298558583719159 0 -0.00027157848003196613 0.0076214937159552213 0 -0.00030154577312943933 0.0065453630403164856 0 -0.00019720123728686327 0.0080298558583719159 0 -0.0003524795488712559 0.0060210446989945243 0 -0.00024717793282808876 0.0069351136534603255 0 -0.00030154577312943933 0.0065453630403164856 0 -0.00024717793282808876 0.0069351136534603255 0 -0.00027157848003196613 0.0076214937159552213 0 -0.00030154577312943933 0.0065453630403164856 0 -0.00030154577312943933 0.0065453630403164856 0 -0.00019720123728686327 0.0080298558583719159 0 -0.00017485903986293281 0.0067194425485681657 0 -0.00025966270193747144 0.0050908779445776034 0 -0.00030154577312943933 0.0065453630403164856 0 -0.00017485903986293281 0.0067194425485681657 0 -0.00019720123728686327 0.0080298558583719159 0 -2.2329990864895528e-07 0.0082669740089687718 0 -0.00017485903986293281 0.0067194425485681657 0 -0.00025966270193747144 0.0050908779445776034 0 -0.00017485903986293281 0.0067194425485681657 0 -4.4623006312205486e-07 0.0057234288555613093 0 -2.2329990864895528e-07 0.0082669740089687718 0 -0.00017485903986293281 0.0067194425485681657 0 -4.4623006312205486e-07 0.0057234288555613093 0 -0.00019720123728686327 0.0080298558583719159 0 -2.2329990864895528e-07 0.0082669740089687718 0 -6.5082469258426412e-05 0.010014008368344722 0 -0.00024993581670643296 0.0086902507537805051 0 -0.00019720123728686327 0.0080298558583719159 0 -6.5082469258426412e-05 0.010014008368344722 0 -2.2329990864895528e-07 0.0082669740089687718 0 -6.5082469258426412e-05 0.010014008368344722 0 -7.5044144162878689e-07 0.010811714773228233 0 -6.5082469258426412e-05 0.010014008368344722 0 -7.5044144162878689e-07 0.010811714773228233 0 0.00014993248879862178 0.011596441884675577 0 -7.5044144162878689e-07 0.010811714773228233 0 0.00014993248879862178 0.011596441884675577 0 3.0973507789651374e-06 0.013350409016149499 0 -6.5082469258426412e-05 0.010014008368344722 0 0.00014993248879862178 0.011596441884675577 0 0.00064417557371501894 0.011066712301784569 0 0.00014993248879862178 0.011596441884675577 0 0.00098903488362396303 0.012068235309462865 0 0.00064417557371501894 0.011066712301784569 0 0.00014993248879862178 0.011596441884675577 0 0.00098903488362396303 0.012068235309462865 0 3.0973507789651374e-06 0.013350409016149499 0 1.0405088779061412e-06 0.013356431059944201 0 5.7684718376862979e-05 0.016387098239077809 0 -6.5074229537558889e-07 0.015866714306786229 0 -1.1354162963358644e-07 0.013355625537174192 0 0.00048117499463935022 0.014417145545316597 0 0.00098903488362396303 0.012068235309462865 0 3.0973507789651374e-06 0.013350409016149499 0 0.0012444116803839857 0.012431058624174172 0 5.7684718376862979e-05 0.016387098239077809 0 -6.5074229537558889e-07 0.015866714306786229 0 -0.00024572649139513708 0.01700137814423781 0 0.00048117499463935022 0.014417145545316597 0 -0.00030642742800603481 0.015628962692290131 0 0.0012444116803839857 0.012431058624174172 0 0.00086156625663919874 0.013401532660702074 0 -0.00053091676157105685 0.013806101654517093 0 5.7684718376862979e-05 0.016387098239077809 0 -0.00024572649139513708 0.01700137814423781 0 -0.00030496979312230756 0.017319436959509361 0 0.0012444116803839857 0.012431058624174172 0 0.0013020745645679042 0.012677799667049079 0 0.00086156625663919874 0.013401532660702074 0 0.00098903488362396303 0.012068235309462865 0 0.0012444116803839857 0.012431058624174172 0 0.0013020745645679042 0.012677799667049079 0 0.0013020745645679042 0.012677799667049079 0 0.00086156625663919874 0.013401532660702074 0 0.0021747098380234075 0.012962174425931838 0 0.00098903488362396303 0.012068235309462865 0 0.0013020745645679042 0.012677799667049079 0 0.0021747098380234075 0.012962174425931838 0 0.00086156625663919874 0.013401532660702074 0 0.0005201721676024308 0.016064885473761691 0 -0.00071563187311461185 0.016076043784462979 0 0.0005201721676024308 0.016064885473761691 0 0.0021747098380234075 0.012962174425931838 0 0.0023770539216568659 0.018180620173780429 0 0.00086156625663919874 0.013401532660702074 0 0.0005201721676024308 0.016064885473761691 0 0.0021747098380234075 0.012962174425931838 0 0.0022449734879850373 0.012863442225121726 0 0.0029346724720380793 0.013692086961851464 0 0.0021747098380234075 0.012962174425931838 0 0.00064417557371501894 0.011066712301784569 0 0.0012375172827045892 0.0094557655264011879 0 -2.6587240146188442e-05 0.0095096836796507416 0 0.00064417557371501894 0.011066712301784569 0 0.00029742506707373234 0.0091782741639580695 0 0.00064417557371501894 0.011066712301784569 0 0.00029742506707373234 0.0091782741639580695 0 0.0012375172827045892 0.0094557655264011879 0 0.00098903488362396303 0.012068235309462865 0 0.0021747098380234075 0.012962174425931838 0 0.00064417557371501894 0.011066712301784569 0 -0.00022812141586148744 0.0212632138219307 0 -0.00050381153360729654 0.020336404409062429 0 -0.00041373710635330774 0.019507141648461217 0 -0.00022812141586148744 0.0212632138219307 0 -1.6844198893632786e-06 0.020554642245914113 0 1.2442579343285572e-07 0.022733998392272164 0 -1.6844198893632786e-06 0.020554642245914113 0 -0.00050381153360729654 0.020336404409062429 0 -0.0006952356428169622 0.020314492117004705 0 -0.00050381153360729654 0.020336404409062429 0 -0.0006952356428169622 0.020314492117004705 0 -0.0011821950466571697 0.018157989398119349 0 -0.00022812141586148744 0.0212632138219307 0 -1.6844198893632786e-06 0.020554642245914113 0 -0.00050381153360729654 0.020336404409062429 0 -0.00057237943552627512 0.017241020935656135 0 -0.00030496979312230756 0.017319436959509361 0 -0.0012223788178129253 0.017591589503528082 0 -1.6844198893632786e-06 0.020554642245914113 0 -0.0006952356428169622 0.020314492117004705 0 9.1693098188644158e-07 0.018379311215605831 0 -0.00067605085922003982 0.018739062332294339 0 -3.3405208708520808e-07 0.018376093215777604 0 -0.00057237943552627512 0.017241020935656135 0 -4.5775756053137419e-07 0.018371491887539834 0 -0.00024572649139513708 0.01700137814423781 0 -6.5074229537558889e-07 0.015866714306786229 0 -4.5775756053137419e-07 0.018371491887539834 0 -0.00024572649139513708 0.01700137814423781 0 -0.00057237943552627512 0.017241020935656135 0 -0.00024572649139513708 0.01700137814423781 0 -0.00030496979312230756 0.017319436959509361 0 0.00086156625663919874 0.013401532660702074 0 -0.00053091676157105685 0.013806101654517093 0 -0.00071563187311461185 0.016076043784462979 0 -0.00053091676157105685 0.013806101654517093 0 -0.00071563187311461185 0.016076043784462979 0 -0.0010288680918454254 0.016118542096726259 0 -0.001284410892979642 0.016843660116041416 0 -0.0012461893598704255 0.017344755040199323 0 -0.0015572784370103214 0.017173682406799073 0 -0.00071563187311461185 0.016076043784462979 0 -0.001284410892979642 0.016843660116041416 0 -0.0010288680918454254 0.016118542096726259 0 -0.00071563187311461185 0.016076043784462979 0 -0.001284410892979642 0.016843660116041416 0 -0.0015572784370103214 0.017173682406799073 0 -0.001284410892979642 0.016843660116041416 0 -0.0012223788178129253 0.017591589503528082 0 -0.0012461893598704255 0.017344755040199323 0 -0.001284410892979642 0.016843660116041416 0 -0.0010288680918454254 0.016118542096726259 0 -0.0012223788178129253 0.017591589503528082 0 -0.00030642742800603481 0.015628962692290131 0 -0.0011293902135356716 0.01724682588970583 0 -0.00053091676157105685 0.013806101654517093 0 -0.0010288680918454254 0.016118542096726259 0 -0.0012223788178129253 0.017591589503528082 0 -0.00057237943552627512 0.017241020935656135 0 -0.0012223788178129253 0.017591589503528082 0 -0.0011821950466571697 0.018157989398119349 0 -0.00067605085922003982 0.018739062332294339 0 -0.0010013431112297084 0.018173366902947855 0 -0.00050381153360729654 0.020336404409062429 0 -0.0011821950466571697 0.018157989398119349 0 -0.00041373710635330774 0.019507141648461217 0 -0.0011821950466571697 0.018157989398119349 0 -0.0006971511745945346 0.017598615316134703 0 -0.00041373710635330774 0.019507141648461217 0 -0.0012223788178129253 0.017591589503528082 0 -0.0011821950466571697 0.018157989398119349 0 -0.0012461893598704255 0.017344755040199323 0 0.00058942210804880095 0.022091310696114391 0 0.00040959541386556997 0.021195853832715088 0 -0.0012461893598704255 0.017344755040199323 0 -0.0006971511745945346 0.017598615316134703 0 -0.0015572784370103214 0.017173682406799073 0 -0.0011821950466571697 0.018157989398119349 0 -0.0012461893598704255 0.017344755040199323 0 -0.0006971511745945346 0.017598615316134703 0 0.0018898117654276428 0.026439263293796596 0 0.0016289780622611419 0.027508956525235915 0 0.001905343185556791 0.026807353957198243 0 0.00058942210804880095 0.022091310696114391 0 0.00095343326829558405 0.023876507180169499 0 -0.00022812141586148744 0.0212632138219307 0 -0.00041373710635330774 0.019507141648461217 0 0.00042020620452917453 0.020301792697571271 0 -0.0006971511745945346 0.017598615316134703 0 -0.00041373710635330774 0.019507141648461217 0 0.00042020620452917453 0.020301792697571271 0 0.0021245256079905003 0.025636649307551898 0 0.002084739796916227 0.025698159476863002 0 0.001905343185556791 0.026807353957198243 0 0.0018898117654276428 0.026439263293796596 0 0.002084739796916227 0.025698159476863002 0 0.001905343185556791 0.026807353957198243 0 0.0018898117654276428 0.026439263293796596 0 0.002084739796916227 0.025698159476863002 0 0.0021878636788889177 0.025082811306019068 0 0.0021245256079905003 0.025636649307551898 0 0.002084739796916227 0.025698159476863002 0 0.0023766463478320224 0.024644736275615742 0 0.0023766463478320224 0.024644736275615742 0 0.0021878636788889177 0.025082811306019068 0 0.0027980105399317149 0.023579106101088144 0 0.002084739796916227 0.025698159476863002 0 0.0023766463478320224 0.024644736275615742 0 0.0021878636788889177 0.025082811306019068 0 0.00040959541386556997 0.021195853832715088 0 0.0013072635814646116 0.021144445218487809 0 -0.00071563187311461185 0.016076043784462979 0 -0.0015572784370103214 0.017173682406799073 0 -0.00050361312129111613 0.018590512800180623 0 0.0023766463478320224 0.024644736275615742 0 0.0027980105399317149 0.023579106101088144 0 0.0028129905619160636 0.023653337108018303 0 0.0027980105399317149 0.023579106101088144 0 0.0028129905619160636 0.023653337108018303 0 0.0036201838543695455 0.02217022933207104 0 0.0028129905619160636 0.023653337108018303 0 0.002996984743928126 0.023450175030312562 0 0.0036201838543695455 0.02217022933207104 0 0.002996984743928126 0.023450175030312562 0 0.003530415420419754 0.023014760670005657 0 0.0026496404433364955 0.024279219394782597 0 0.002996984743928126 0.023450175030312562 0 0.0024302256053506041 0.024489794805348634 0 0.0026496404433364955 0.024279219394782597 0 0.0023766463478320224 0.024644736275615742 0 0.0028129905619160636 0.023653337108018303 0 0.0024302256053506041 0.024489794805348634 0 0.0028129905619160636 0.023653337108018303 0 0.002996984743928126 0.023450175030312562 0 0.0024302256053506041 0.024489794805348634 0 0.0021245256079905003 0.025636649307551898 0 0.0024302256053506041 0.024489794805348634 0 0.0022518168974074459 0.025262921882132961 0 0.0021245256079905003 0.025636649307551898 0 0.0023766463478320224 0.024644736275615742 0 0.0024302256053506041 0.024489794805348634 0 0.0024302256053506041 0.024489794805348634 0 0.0022518168974074459 0.025262921882132961 0 0.0023238046532277471 0.025166939995123282 0 0.0021245256079905003 0.025636649307551898 0 0.0022518168974074459 0.025262921882132961 0 0.0021831958441419375 0.025895939517926684 0 0.0040764288369224541 0.020583883874548903 0 0.0049434659743688271 0.017766453967822084 0 0.0023770539216568659 0.018180620173780429 0 0.0040764288369224541 0.020583883874548903 0 0.0045657076968658675 0.020896065647419318 0 0.0049434659743688271 0.017766453967822084 0 3.0156772268396307e-05 0.0085130884507830223 0 0.00043844448444534009 0.0082469767643941413 0 0.00029742506707373234 0.0091782741639580695 0 0.0023984594290046442 0.013974149647734342 0 0.0029346724720380793 0.013692086961851464 0 0.00043844448444534009 0.0082469767643941413 0 0.00029742506707373234 0.0091782741639580695 0 0.0012375172827045892 0.0094557655264011879 0 0.0021747098380234075 0.012962174425931838 0 0.0049434659743688271 0.017766453967822084 0 0.0023770539216568659 0.018180620173780429 0 0.0005201721676024308 0.016064885473761691 0 -0.00071563187311461185 0.016076043784462979 0 -0.00050361312129111613 0.018590512800180623 0 0.0005201721676024308 0.016064885473761691 0 -0.00050361312129111613 0.018590512800180623 0 0.0023770539216568659 0.018180620173780429 0 0.0013072635814646116 0.021144445218487809 0 0.0030704373652309792 0.021626932455144875 0 -0.00050361312129111613 0.018590512800180623 0 0.0023770539216568659 0.018180620173780429 0 0.003130120886823318 0.021520902759372473 0 0.0040764288369224541 0.020583883874548903 0 0.0023770539216568659 0.018180620173780429 0 0.003130120886823318 0.021520902759372473 0 0.0040764288369224541 0.020583883874548903 0 0.003130120886823318 0.021520902759372473 0 0.0040485920531284757 0.021476997467205095 0 0.003130120886823318 0.021520902759372473 0 0.0040485920531284757 0.021476997467205095 0 0.0036201838543695455 0.02217022933207104 0 0.0027980105399317149 0.023579106101088144 0 0.003130120886823318 0.021520902759372473 0 0.0036201838543695455 0.02217022933207104 0 0.002996984743928126 0.023450175030312562 0 0.0036201838543695455 0.02217022933207104 0 0.003530415420419754 0.023014760670005657 0 0.0036201838543695455 0.02217022933207104 0 0.003530415420419754 0.023014760670005657 0 0.0049974595881447717 0.021704511211521425 0 0.0040485920531284757 0.021476997467205095 0 0.0036201838543695455 0.02217022933207104 0 0.0047685531836139383 0.021284375900353668 0 0.0036201838543695455 0.02217022933207104 0 0.0049974595881447717 0.021704511211521425 0 0.0047685531836139383 0.021284375900353668 0 0.0047685531836139383 0.021284375900353668 0 0.0041183819961655857 0.021056834707265139 0 0.0044725754434784765 0.020097431361238142 0 0.0038097117108183377 0.020304785837006265 0 0.0041183819961655857 0.021056834707265139 0 0.0044725754434784765 0.020097431361238142 0 0.0040485920531284757 0.021476997467205095 0 0.0047685531836139383 0.021284375900353668 0 0.0041183819961655857 0.021056834707265139 0 0.0040764288369224541 0.020583883874548903 0 0.0045657076968658675 0.020896065647419318 0 0.0041524216812675032 0.021115648221137238 0 0.0040485920531284757 0.021476997467205095 0 0.0041183819961655857 0.021056834707265139 0 0.0041524216812675032 0.021115648221137238 0 0.0040764288369224541 0.020583883874548903 0 0.0040485920531284757 0.021476997467205095 0 0.0041524216812675032 0.021115648221137238 0 0.0022212383816029072 0.02091738939754453 0 0.0045657076968658675 0.020896065647419318 0 0.0035242999963768077 0.020929807955906373 0 0.0045657076968658675 0.020896065647419318 0 0.0041524216812675032 0.021115648221137238 0 0.0035242999963768077 0.020929807955906373 0 0.0041183819961655857 0.021056834707265139 0 0.0041524216812675032 0.021115648221137238 0 0.003644784460728565 0.020926036374045227 0 0.0041524216812675032 0.021115648221137238 0 0.003644784460728565 0.020926036374045227 0 0.0035242999963768077 0.020929807955906373 0 0.0027676327459223824 0.020831105136276541 0 0.0035242999963768077 0.020929807955906373 0 0.0030474406325796065 0.020749806583230081 0 0.003644784460728565 0.020926036374045227 0 0.0035242999963768077 0.020929807955906373 0 0.0030474406325796065 0.020749806583230081 0 0.0030474406325796065 0.020749806583230081 0 0.0033997929106479572 0.020581574893034166 0 0.0026019316117882087 0.019983462351839624 0 0.0022434665973202154 0.020570681753831067 0 0.0030474406325796065 0.020749806583230081 0 0.0026019316117882087 0.019983462351839624 0 0.003644784460728565 0.020926036374045227 0 0.0030474406325796065 0.020749806583230081 0 0.0033997929106479572 0.020581574893034166 0 0.0041183819961655857 0.021056834707265139 0 0.003644784460728565 0.020926036374045227 0 0.0033997929106479572 0.020581574893034166 0 0.0038097117108183377 0.020304785837006265 0 0.0033997929106479572 0.020581574893034166 0 0.0031999303883963196 0.019290054864361823 0 0.0038097117108183377 0.020304785837006265 0 0.0041183819961655857 0.021056834707265139 0 0.0033997929106479572 0.020581574893034166 0 0.0033997929106479572 0.020581574893034166 0 0.0026019316117882087 0.019983462351839624 0 0.0031999303883963196 0.019290054864361823 0 0.0031999303883963196 0.019290054864361823 0 0.0024202893404543621 0.01603948414061419 0 0.0048647133811225247 0.017696138967563071 0 0.0026019316117882087 0.019983462351839624 0 0.0031999303883963196 0.019290054864361823 0 0.0018101412045213739 0.018620848529878897 0 0.0031999303883963196 0.019290054864361823 0 0.0024202893404543621 0.01603948414061419 0 0.0018101412045213739 0.018620848529878897 0 0.0039934795242612389 0.013009939838824093 0 0.0073015641943144438 0.012113093513321129 0 0.0024202893404543621 0.01603948414061419 0 0.0048647133811225247 0.017696138967563071 0 0.0073733405024017078 0.012102368676316231 0 0.0047685531836139383 0.021284375900353668 0 0.0044725754434784765 0.020097431361238142 0 0.0061642938326575102 0.019563249353176295 0 0.0048647133811225247 0.017696138967563071 0 0.0044725754434784765 0.020097431361238142 0 0.0061642938326575102 0.019563249353176295 0 0.0031999303883963196 0.019290054864361823 0 0.0048647133811225247 0.017696138967563071 0 0.0044725754434784765 0.020097431361238142 0 0.0038097117108183377 0.020304785837006265 0 0.0031999303883963196 0.019290054864361823 0 0.0044725754434784765 0.020097431361238142 0 0.0061642938326575102 0.019563249353176295 0 0.011866472734283462 0.017419849422224937 0 0.012627235911124177 0.01950127930725146 0 0.0049974595881447717 0.021704511211521425 0 0.0047685531836139383 0.021284375900353668 0 0.0061642938326575102 0.019563249353176295 0 0.0061684985447043872 0.019692451010210728 0 0.009792463768399054 0.024459707929376864 0 0.0049974595881447717 0.021704511211521425 0 0.0061642938326575102 0.019563249353176295 0 0.0058959879710462383 0.02065590953907057 0 0.0061642938326575102 0.019563249353176295 0 0.011866472734283462 0.017419849422224937 0 0.0088647627955345098 0.01580223581680398 0 0.0048647133811225247 0.017696138967563071 0 0.0061642938326575102 0.019563249353176295 0 0.0088647627955345098 0.01580223581680398 0 0.0057278789629821364 0.022346849398628535 0 0.009792463768399054 0.024459707929376864 0 0.003530415420419754 0.023014760670005657 0 0.0049974595881447717 0.021704511211521425 0 0.0041739372712481845 0.023641361639797548 0 0.011866472734283462 0.017419849422224937 0 0.012627235911124177 0.01950127930725146 0 0.0150086148435617 0.015472928272632287 0 0.009792463768399054 0.024459707929376864 0 0.01520677819157277 0.024030848561861735 0 0.013419577956500041 0.015402483890017894 0 0.013082230565270761 0.013527485621983859 0 0.013852596301184027 0.012837482899895253 0 0.015767383727175534 0.031659798374585421 0 0.015297978674560826 0.032534041990787833 0 0.014267231415082546 0.032571784741230278 0 0.011866472734283462 0.017419849422224937 0 0.013419577956500041 0.015402483890017894 0 0.012091965329948546 0.015084042329042738 0 0.014223390831917957 0.019113258215602693 0 0.01520677819157277 0.024030848561861735 0 0.012091965329948546 0.015084042329042738 0 0.011272418517666007 0.013440902374607501 0 0.013082230565270761 0.013527485621983859 0 0.013419577956500041 0.015402483890017894 0 0.012091965329948546 0.015084042329042738 0 0.013082230565270761 0.013527485621983859 0 0.0048647133811225247 0.017696138967563071 0 0.0088647627955345098 0.01580223581680398 0 0.0073733405024017078 0.012102368676316231 0 0.011866472734283462 0.017419849422224937 0 0.012091965329948546 0.015084042329042738 0 0.0088647627955345098 0.01580223581680398 0 0.0088647627955345098 0.01580223581680398 0 0.011272418517666007 0.013440902374607501 0 0.0073733405024017078 0.012102368676316231 0 0.012091965329948546 0.015084042329042738 0 0.0088647627955345098 0.01580223581680398 0 0.011272418517666007 0.013440902374607501 0 0.011272418517666007 0.013440902374607501 0 0.0073733405024017078 0.012102368676316231 0 0.0098975870949251782 0.0084038873338550396 0 0.011272418517666007 0.013440902374607501 0 0.013082230565270761 0.013527485621983859 0 0.013308757518862431 0.012500124586572837 0 0.011573499713898575 0.013286855930438216 0 0.013836703433419547 0.010704265164459759 0 0.011272418517666007 0.013440902374607501 0 0.014538705033494586 0.0085497722690742357 0 0.0098975870949251782 0.0084038873338550396 0 0.013082230565270761 0.013527485621983859 0 0.013308757518862431 0.012500124586572837 0 0.013852596301184027 0.012837482899895253 0 0.014538705033494586 0.0085497722690742357 0 0.013876324761407875 0.0054159744377322303 0 0.017291598686128076 0.0041456052997244633 0 0.014538705033494586 0.0085497722690742357 0 0.012422298030458941 0.0068536998130163482 0 0.0098975870949251782 0.0084038873338550396 0 0.014538705033494586 0.0085497722690742357 0 0.012422298030458941 0.0068536998130163482 0 0.013876324761407875 0.0054159744377322303 0 0.012422298030458941 0.0068536998130163482 0 0.013876324761407875 0.0054159744377322303 0 0.011573114118136099 0.0048573596690686446 0 0.0098975870949251782 0.0084038873338550396 0 0.0089242775928025844 0.0045548034905455431 0 0.011573114118136099 0.0048573596690686446 0 0.012422298030458941 0.0068536998130163482 0 0.0098975870949251782 0.0084038873338550396 0 0.011573114118136099 0.0048573596690686446 0 0.0057618738244218492 0.0081604840551628127 0 0.0051698805416931651 0.00422408414807898 0 0.0089242775928025844 0.0045548034905455431 0 0.0098975870949251782 0.0084038873338550396 0 0.0057618738244218492 0.0081604840551628127 0 0.0089242775928025844 0.0045548034905455431 0 0.0057618738244218492 0.0081604840551628127 0 0.0043928439802856604 0.0086659696626952692 0 0.0033995542102922757 0.0076458519704066374 0 0.0057618738244218492 0.0081604840551628127 0 0.0051698805416931651 0.00422408414807898 0 0.0033995542102922757 0.0076458519704066374 0 0.0074126265499399914 0.0017898480762665247 0 0.0057091002317149059 0.0046155960117621993 0 0.0047534142003168847 0.010321210302970384 0 0.0057618738244218492 0.0081604840551628127 0 0.0043928439802856604 0.0086659696626952692 0 0.0047534142003168847 0.010321210302970384 0 0.0043928439802856604 0.0086659696626952692 0 0.0038731668831985581 0.0086405474349911405 0 0.0047534142003168847 0.010321210302970384 0 0.0073733405024017078 0.012102368676316231 0 0.0057618738244218492 0.0081604840551628127 0 0.0073733405024017078 0.012102368676316231 0 0.0098975870949251782 0.0084038873338550396 0 0.0057618738244218492 0.0081604840551628127 0 0.010393728969953961 0.033345283730452355 0 0.011470469388403695 0.031669033633536271 0 0.0091585082065881538 0.031594935248828913 0 0.0068477159512956394 0.028351950988493347 0 0.0057030962873088403 0.028771111222211196 0 0.0022518168974074459 0.025262921882132961 0 0.0023238046532277471 0.025166939995123282 0 0.0023074375680420525 0.025927866542164175 0 0.0068477159512956394 0.028351950988493347 0 0.0081790804204043468 0.028423202595051555 0 0.011470469388403695 0.031669033633536271 0 0.01241771778281092 0.033023086385880841 0 0.013666205830408796 0.031701030422567666 0 0.010393728969953961 0.033345283730452355 0 0.011470469388403695 0.031669033633536271 0 0.01241771778281092 0.033023086385880841 0 0.01241771778281092 0.033023086385880841 0 0.013453248402201041 0.032752927667113435 0 0.013873136062560238 0.033602791750003275 0 0.01241771778281092 0.033023086385880841 0 0.013453248402201041 0.032752927667113435 0 0.013666205830408796 0.031701030422567666 0 0.013453248402201041 0.032752927667113435 0 0.013666205830408796 0.031701030422567666 0 0.014267231415082546 0.032571784741230278 0 0.0024302256053506041 0.024489794805348634 0 0.0023238046532277471 0.025166939995123282 0 0.0026496404433364955 0.024279219394782597 0 0.009792463768399054 0.024459707929376864 0 0.0081790804204043468 0.028423202595051555 0 0.015767383727175534 0.031659798374585421 0 0.013666205830408796 0.031701030422567666 0 0.014267231415082546 0.032571784741230278 0 0.003530415420419754 0.023014760670005657 0 0.0041739372712481845 0.023641361639797548 0 0.0026496404433364955 0.024279219394782597 0 0.01520677819157277 0.024030848561861735 0 0.014790146693745846 0.033507254599757098 0 0.018849833030972925 0.02979599395358937 0 0.015829377784805601 0.031886700923070832 0 0.017107850836160909 0.032870963684367406 0 0.015297978674560826 0.032534041990787833 0 0.014267231415082546 0.032571784741230278 0 0.013873136062560238 0.033602791750003275 0 0.01520677819157277 0.024030848561861735 0 0.015597565058302676 0.022703709129826694 0 0.013453248402201041 0.032752927667113435 0 0.014267231415082546 0.032571784741230278 0 0.013873136062560238 0.033602791750003275 0 0.015829377784805601 0.031886700923070832 0 0.017107850836160909 0.032870963684367406 0 0.015024092933063581 0.033965649734275981 0 0.013308757518862431 0.012500124586572837 0 0.013852596301184027 0.012837482899895253 0 0.013592467967835005 0.012707407631303107 0 0.017107850836160909 0.032870963684367406 0 0.015388789803498039 0.035655575013495561 0 0.015024092933063581 0.033965649734275981 0 0.013308757518862431 0.012500124586572837 0 0.013592467967835005 0.012707407631303107 0 0.013719320514290517 0.012955199303176351 0 0.015597565058302676 0.022703709129826694 0 0.01449561685903082 0.024025428381118041 0 0.013852596301184027 0.012837482899895253 0 0.013592467967835005 0.012707407631303107 0 0.01334139658986655 0.012777045916682632 0 0.013836703433419547 0.010704265164459759 0 0.014407506883256269 0.0077311509785811293 0 0.013592467967835005 0.012707407631303107 0 0.01334139658986655 0.012777045916682632 0 0.013719320514290517 0.012955199303176351 0 0.015388789803498039 0.035655575013495561 0 0.013809994362302715 0.035361395907629906 0 0.015024092933063581 0.033965649734275981 0 0.013809994362302715 0.035361395907629906 0 0.015024092933063581 0.033965649734275981 0 0.013092695564313792 0.033963804076604563 0 0.014790146693745846 0.033507254599757098 0 0.012800687688253466 0.03426840308172336 0 0.01241771778281092 0.033023086385880841 0 0.013873136062560238 0.033602791750003275 0 0.012400613452533083 0.034726206277128829 0 0.015829377784805601 0.031886700923070832 0 0.015024092933063581 0.033965649734275981 0 0.013092695564313792 0.033963804076604563 0 0.01241771778281092 0.033023086385880841 0 0.012400613452533083 0.034726206277128829 0 0.011214869247973436 0.034629157992563726 0 0.013092695564313792 0.033963804076604563 0 0.01089736305887886 0.035900587617871439 0 0.012657875301440217 0.036455551826022586 0 0.012400613452533083 0.034726206277128829 0 0.01089736305887886 0.035900587617871439 0 0.011214869247973436 0.034629157992563726 0 0.013809994362302715 0.035361395907629906 0 0.013092695564313792 0.033963804076604563 0 0.012657875301440217 0.036455551826022586 0 0.012800687688253466 0.03426840308172336 0 0.01098368793240794 0.035769143243774934 0 0.01089736305887886 0.035900587617871439 0 0.011214869247973436 0.034629157992563726 0 0.0094076524917640018 0.03570274346278858 0 0.010393728969953961 0.033345283730452355 0 0.01241771778281092 0.033023086385880841 0 0.011214869247973436 0.034629157992563726 0 0.010393728969953961 0.033345283730452355 0 0.011214869247973436 0.034629157992563726 0 0.0094076524917640018 0.03570274346278858 0 0.011369966153210089 0.038830840577416599 0 0.0095029465226156261 0.039815071496622938 0 0.011506869439806756 0.038753607812826475 0 0.010975429737927702 0.037673914666624869 0 0.010019143027705332 0.038492874140707546 0 0.011506869439806756 0.038753607812826475 0 0.010019143027705332 0.038492874140707546 0 0.0093164184944156351 0.04017833022083539 0 0.011506869439806756 0.038753607812826475 0 0.0119019989314597 0.039007740410370743 0 0.011077943198366681 0.03947217091172979 0 0.011506869439806756 0.038753607812826475 0 0.011640211786327315 0.037990005077588547 0 0.010975429737927702 0.037673914666624869 0 0.011506869439806756 0.038753607812826475 0 0.011640211786327315 0.037990005077588547 0 0.0119019989314597 0.039007740410370743 0 0.01089736305887886 0.035900587617871439 0 0.011588106169155291 0.03673010629725789 0 0.010975429737927702 0.037673914666624869 0 0.01089736305887886 0.035900587617871439 0 0.011588106169155291 0.03673010629725789 0 0.012657875301440217 0.036455551826022586 0 0.01089736305887886 0.035900587617871439 0 0.010975429737927702 0.037673914666624869 0 0.0097418547671172979 0.037322323979873485 0 0.010975429737927702 0.037673914666624869 0 0.0097418547671172979 0.037322323979873485 0 0.010019143027705332 0.038492874140707546 0 0.011640211786327315 0.037990005077588547 0 0.011588106169155291 0.03673010629725789 0 0.010975429737927702 0.037673914666624869 0 0.011640211786327315 0.037990005077588547 0 0.011588106169155291 0.03673010629725789 0 0.012299392138966242 0.037411630983135727 0 0.013809994362302715 0.035361395907629906 0 0.012657875301440217 0.036455551826022586 0 0.013824950538243581 0.038140984730882496 0 0.011588106169155291 0.03673010629725789 0 0.012299392138966242 0.037411630983135727 0 0.012657875301440217 0.036455551826022586 0 0.012299392138966242 0.037411630983135727 0 0.012657875301440217 0.036455551826022586 0 0.012916491349586324 0.037462526690234914 0 0.01449081958718674 0.038888013053531754 0 0.012557661544338676 0.02722250231175595 0 0.012503861122572122 0.037564811947985256 0 0.012460928449781816 0.037649079085969005 0 0.012916491349586324 0.037462526690234914 0 0.012213162904475753 0.028683336325074169 0 0.012557661544338676 0.02722250231175595 0 0.012299392138966242 0.037411630983135727 0 0.012503861122572122 0.037564811947985256 0 0.012916491349586324 0.037462526690234914 0 0.012330747093709639 0.037267835697289947 0 0.012070706971365159 0.039071449843670905 0 0.011640211786327315 0.037990005077588547 0 0.012299392138966242 0.037411630983135727 0 0.0119019989314597 0.039007740410370743 0 0.012299392138966242 0.037411630983135727 0 0.012503861122572122 0.037564811947985256 0 0.012509913992532481 0.037658060414387615 0 0.012503861122572122 0.037564811947985256 0 0.012509913992532481 0.037658060414387615 0 0.012460928449781816 0.037649079085969005 0 0.013127334777509398 0.014231350549572006 0 0.012712634018630476 0.013650106447471366 0 0.013224470206814578 0.013386081158601001 0 0.011503696164095668 0.020274212922191646 0 0.0097054914327724708 0.020454404127113402 0 0.010602558873183182 0.021865931703238049 0 0.011712461514664652 0.013467280907705078 0 0.012557661544338676 0.02722250231175595 0 0.01334139658986655 0.012777045916682632 0 0.012712634018630476 0.013650106447471366 0 0.013224470206814578 0.013386081158601001 0 0.01449561685903082 0.024025428381118041 0 0.012557661544338676 0.02722250231175595 0 0.015388789803498039 0.035655575013495561 0 0.013809994362302715 0.035361395907629906 0 0.013824950538243581 0.038140984730882496 0 0.011712461514664652 0.013467280907705078 0 0.014407506883256269 0.0077311509785811293 0 0.013127334777509398 0.014231350549572006 0 0.013224470206814578 0.013386081158601001 0 0.013719320514290517 0.012955199303176351 0 0.01334139658986655 0.012777045916682632 0 0.013224470206814578 0.013386081158601001 0 0.013719320514290517 0.012955199303176351 0 0.015783420319602139 0.0045975338984698758 0 0.012975050231334946 0.0055739314559105869 0 0.011848967157047967 0.0033232760884049639 0 0.015783420319602139 0.0045975338984698758 0 0.013301472813098389 0.008560752088560955 0 0.012975050231334946 0.0055739314559105869 0 0.015783420319602139 0.0045975338984698758 0 0.013823096693113348 0.0015264905479594325 0 0.011848967157047967 0.0033232760884049639 0 0.011712461514664652 0.013467280907705078 0 0.011629284116464951 0.010361647998394629 0 0.013823096693113348 0.0015264905479594325 0 0.011848967157047967 0.0033232760884049639 0 0.011506642653974247 0.0015339494545288654 0 0.0088456777230349892 0.018385110295840071 0 0.0097908057097984644 0.017580834993925615 0 0.0077352084822904094 0.016597339576577268 0 0.013823096693113348 0.0015264905479594325 0 0.011506642653974247 0.0015339494545288654 0 0.011834829731089722 -0.0015364549831217984 0 0.011629284116464951 0.010361647998394629 0 0.0092464691542120721 0.0043703189793082783 0 0.0097908057097984644 0.017580834993925615 0 0.0077352084822904094 0.016597339576577268 0 0.010182635033881639 0.016239813746718044 0 0.0088456777230349892 0.018385110295840071 0 0.0097908057097984644 0.017580834993925615 0 0.01078789072212335 0.018753422560265871 0 0.0097908057097984644 0.017580834993925615 0 0.011128272657893588 0.017388388349252916 0 0.010182635033881639 0.016239813746718044 0 0.0097908057097984644 0.017580834993925615 0 0.01078789072212335 0.018753422560265871 0 0.011128272657893588 0.017388388349252916 0 0.011503696164095668 0.020274212922191646 0 0.0097054914327724708 0.020454404127113402 0 0.01078789072212335 0.018753422560265871 0 0.0099357329444770357 0.020007531936325158 0 0.0088456777230349892 0.018385110295840071 0 0.01078789072212335 0.018753422560265871 0 0.011712461514664652 0.013467280907705078 0 0.009497378322358023 0.020911272001925916 0 0.011503696164095668 0.020274212922191646 0 0.01078789072212335 0.018753422560265871 0 0.012282448166777208 0.018800931049328218 0 0.012213162904475753 0.028683336325074169 0 0.012435530799040752 0.033390216036423073 0 0.012509913992532481 0.037658060414387615 0 0.012460928449781816 0.037649079085969005 0 0.012549368869339363 0.037310696205613836 0 0.012070706971365159 0.039071449843670905 0 0.012435530799040752 0.033390216036423073 0 0.01078789072212335 0.018753422560265871 0 0.012282448166777208 0.018800931049328218 0 0.011128272657893588 0.017388388349252916 0 0.012282448166777208 0.018800931049328218 0 0.011128272657893588 0.017388388349252916 0 0.012435137812094613 0.01731685542464655 0 0.011644377207992865 0.040010919102747539 0 0.011136017646221207 0.040799853486490061 0 0.010758125502548004 0.040496083373724658 0 0.011894350263980915 0.0395039689988161 0 0.011136017646221207 0.040799853486490061 0 0.01158091666316742 0.041155434549940716 0 0.012435530799040752 0.033390216036423073 0 0.011876727634692136 0.029805245842497271 0 0.012435530799040752 0.033390216036423073 0 0.010114396569596703 0.041583360716219854 0 0.011136017646221207 0.040799853486490061 0 0.01158091666316742 0.041155434549940716 0 0.010991102817580011 0.041415577796806706 0 0.010407379413202879 0.041028064694509148 0 0.010991102817580011 0.041415577796806706 0 0.010492387847392782 0.041681503950111075 0 0.011136017646221207 0.040799853486490061 0 0.010407379413202879 0.041028064694509148 0 0.010991102817580011 0.041415577796806706 0 0.010758125502548004 0.040496083373724658 0 0.010584346303119593 0.040002988946220105 0 0.010000780152185461 0.040573416973371509 0 0.011136017646221207 0.040799853486490061 0 0.010407379413202879 0.041028064694509148 0 0.010758125502548004 0.040496083373724658 0 0.011506869439806756 0.038753607812826475 0 0.011077943198366681 0.03947217091172979 0 0.0096648628885351046 0.039477206036952678 0 0.011644377207992865 0.040010919102747539 0 0.010758125502548004 0.040496083373724658 0 0.010584346303119593 0.040002988946220105 0 0.010584346303119593 0.040002988946220105 0 0.011077943198366681 0.03947217091172979 0 0.0096648628885351046 0.039477206036952678 0 0.011644377207992865 0.040010919102747539 0 0.010584346303119593 0.040002988946220105 0 0.011077943198366681 0.03947217091172979 0 0.0119019989314597 0.039007740410370743 0 0.011644377207992865 0.040010919102747539 0 0.011077943198366681 0.03947217091172979 0 0.0089230911768907982 -0.0021926018540521309 0 0.010208222740961068 -0.00087372374197901184 0 0.009668022710681139 -0.0021914855808642703 0 0.0089230911768907982 -0.0021926018540521309 0 0.0092917175077114264 -0.00060993683688685912 0 0.010208222740961068 -0.00087372374197901184 0 0.0089230911768907982 -0.0021926018540521309 0 0.0082048461064013669 -0.0019760620224491625 0 0.0076857873451289136 -0.0029477200786043839 0 0.0089230911768907982 -0.0021926018540521309 0 0.0082048461064013669 -0.0019760620224491625 0 0.0092917175077114264 -0.00060993683688685912 0 0.0082048461064013669 -0.0019760620224491625 0 0.0092917175077114264 -0.00060993683688685912 0 0.0072551343197726666 -0.0015737662938366571 0 0.0092917175077114264 -0.00060993683688685912 0 0.0072551343197726666 -0.0015737662938366571 0 0.0082842316723386149 0.0015295640337088902 0 0.0051698805416931651 0.00422408414807898 0 0.0089242775928025844 0.0045548034905455431 0 0.010208222740961068 -0.00087372374197901184 0 0.0074126265499399914 0.0017898480762665247 0 0.010068216799942704 -0.00074385921812287212 0 0.0089242775928025844 0.0045548034905455431 0 0.011401178545468061 0.0019475997042787832 0 0.010208222740961068 -0.00087372374197901184 0 0.0089242775928025844 0.0045548034905455431 0 0.011573114118136099 0.0048573596690686446 0 0.011401178545468061 0.0019475997042787832 0 0.017291598686128076 0.0041456052997244633 0 0.013281981816941377 0.0030526688955825956 0 0.012348966771645946 -0.00097776822929438508 0 0.011401178545468061 0.0019475997042787832 0 0.013281981816941377 0.0030526688955825956 0 0.012348966771645946 -0.00097776822929438508 0 0.014407506883256269 0.0077311509785811293 0 0.01133587730799469 0.0018486753032303468 0 0.013876324761407875 0.0054159744377322303 0 0.017291598686128076 0.0041456052997244633 0 0.013281981816941377 0.0030526688955825956 0 0.013876324761407875 0.0054159744377322303 0 0.011573114118136099 0.0048573596690686446 0 0.013281981816941377 0.0030526688955825956 0 0.011573114118136099 0.0048573596690686446 0 0.011401178545468061 0.0019475997042787832 0 0.013281981816941377 0.0030526688955825956 0 0.012975050231334946 0.0055739314559105869 0 0.010016799058070326 0.0050130170776241066 0 0.011848967157047967 0.0033232760884049639 0 0.013301472813098389 0.008560752088560955 0 0.012975050231334946 0.0055739314559105869 0 0.010016799058070326 0.0050130170776241066 0 0.010016799058070326 0.0050130170776241066 0 0.011848967157047967 0.0033232760884049639 0 0.010159134197149361 0.0031143594607995991 0 0.012348966771645946 -0.00097776822929438508 0 0.010208222740961068 -0.00087372374197901184 0 0.009668022710681139 -0.0021914855808642703 0 0.011401178545468061 0.0019475997042787832 0 0.012348966771645946 -0.00097776822929438508 0 0.010208222740961068 -0.00087372374197901184 0 0.0096510589629144779 0.0016361256815728338 0 0.0082462970323903748 0.00057112202581370032 0 0.0067371152153035616 0.0013308697384220836 0 0.010159134197149361 0.0031143594607995991 0 0.0096510589629144779 0.0016361256815728338 0 0.0067371152153035616 0.0013308697384220836 0 0.01133587730799469 0.0018486753032303468 0 0.0081645435040056131 -0.0011611969042682037 0 0.010016799058070326 0.0050130170776241066 0 0.010159134197149361 0.0031143594607995991 0 0.0067371152153035616 0.0013308697384220836 0 0.012348966771645946 -0.00097776822929438508 0 0.0097933326861199942 -0.0035756636931109373 0 0.009668022710681139 -0.0021914855808642703 0 0.011848967157047967 0.0033232760884049639 0 0.010159134197149361 0.0031143594607995991 0 0.011506642653974247 0.0015339494545288654 0 0.010159134197149361 0.0031143594607995991 0 0.0096510589629144779 0.0016361256815728338 0 0.011506642653974247 0.0015339494545288654 0 0.011506642653974247 0.0015339494545288654 0 0.010518243616034624 2.9200576783362854e-06 0 0.011834829731089722 -0.0015364549831217984 0 0.010518243616034624 2.9200576783362854e-06 0 0.0086939341218040447 -0.00098594822654425986 0 0.011834829731089722 -0.0015364549831217984 0 0.0081957204372769075 -0.0015796727415456689 0 0.0088313513450923326 -0.0021564571300001127 0 0.010187338867686222 -0.0021488099384550222 0 0.0088707149694977165 -0.0015635948801523015 0 0.0092464691542120721 0.0043703189793082783 0 0.0096510589629144779 0.0016361256815728338 0 0.010518243616034624 2.9200576783362854e-06 0 0.0092762301696187339 0.00030321336564666159 0 0.0096510589629144779 0.0016361256815728338 0 0.011506642653974247 0.0015339494545288654 0 0.010518243616034624 2.9200576783362854e-06 0 0.0082462970323903748 0.00057112202581370032 0 0.0086939341218040447 -0.00098594822654425986 0 0.0055465823715560711 -0.00054877665824461632 0 0.0088707149694977165 -0.0015635948801523015 0 0.0055789216832943271 -0.00058516313445931259 0 0.0082462970323903748 0.00057112202581370032 0 0.0092762301696187339 0.00030321336564666159 0 0.0086939341218040447 -0.00098594822654425986 0 0.0096510589629144779 0.0016361256815728338 0 0.0082462970323903748 0.00057112202581370032 0 0.0092762301696187339 0.00030321336564666159 0 0.010518243616034624 2.9200576783362854e-06 0 0.0092762301696187339 0.00030321336564666159 0 0.0086939341218040447 -0.00098594822654425986 0 0.0081645435040056131 -0.0011611969042682037 0 0.0064525242683178118 -0.0033957697344976774 0 0.0055465823715560711 -0.00054877665824461632 0 0.003474412311113494 -0.0024021247075039741 0 0.0064816668312414651 -0.0021031444365168547 0 0.0055465823715560711 -0.00054877665824461632 0 0.0067371152153035616 0.0013308697384220836 0 0.003474412311113494 -0.0024021247075039741 0 0.0097933326861199942 -0.0035756636931109373 0 0.008506826221921308 -0.0036467159212078691 0 0.0083892154030760866 -0.0050536493474720194 0 0.0081957204372769075 -0.0015796727415456689 0 0.0055465823715560711 -0.00054877665824461632 0 0.0064816668312414651 -0.0021031444365168547 0 0.0082462970323903748 0.00057112202581370032 0 0.0055465823715560711 -0.00054877665824461632 0 0.0067371152153035616 0.0013308697384220836 0 0.0089230911768907982 -0.0021926018540521309 0 0.0091938830653246779 -0.0028841016886463817 0 0.008506826221921308 -0.0036467159212078691 0 0.0097933326861199942 -0.0035756636931109373 0 0.0091938830653246779 -0.0028841016886463817 0 0.008506826221921308 -0.0036467159212078691 0 0.0089230911768907982 -0.0021926018540521309 0 0.0091938830653246779 -0.0028841016886463817 0 0.009668022710681139 -0.0021914855808642703 0 0.0097933326861199942 -0.0035756636931109373 0 0.0091938830653246779 -0.0028841016886463817 0 0.009668022710681139 -0.0021914855808642703 0 0.0089230911768907982 -0.0021926018540521309 0 0.008506826221921308 -0.0036467159212078691 0 0.0076857873451289136 -0.0029477200786043839 0 0.008506826221921308 -0.0036467159212078691 0 0.0076039936839417269 -0.0044193631088605377 0 0.0076857873451289136 -0.0029477200786043839 0 0.008506826221921308 -0.0036467159212078691 0 0.0076039936839417269 -0.0044193631088605377 0 0.0083892154030760866 -0.0050536493474720194 0 0.0076039936839417269 -0.0044193631088605377 0 0.0070417109703147917 -0.0038692102953341552 0 0.0069339719821134432 -0.0051187148726802665 0 0.0063687908055253357 -0.0046739334603996506 0 0.0070417109703147917 -0.0038692102953341552 0 0.0069339719821134432 -0.0051187148726802665 0 0.0063687908055253357 -0.0046739334603996506 0 0.0063197052282133815 -0.0041218279935436213 0 0.0070417109703147917 -0.0038692102953341552 0 0.0063687908055253357 -0.0046739334603996506 0 0.0063197052282133815 -0.0041218279935436213 0 0.0059575129742802206 -0.0048052603530854051 0 0.0063197052282133815 -0.0041218279935436213 0 0.0070417109703147917 -0.0038692102953341552 0 0.0066230249654659241 -0.0030058367944132002 0 0.0063197052282133815 -0.0041218279935436213 0 0.0066230249654659241 -0.0030058367944132002 0 0.0057271537986940133 -0.0031828912193949668 0 0.0076857873451289136 -0.0029477200786043839 0 0.0070417109703147917 -0.0038692102953341552 0 0.0066230249654659241 -0.0030058367944132002 0 0.0076039936839417269 -0.0044193631088605377 0 0.0076857873451289136 -0.0029477200786043839 0 0.0070417109703147917 -0.0038692102953341552 0 0.0082048461064013669 -0.0019760620224491625 0 0.0076857873451289136 -0.0029477200786043839 0 0.0072551343197726666 -0.0015737662938366571 0 0.0076857873451289136 -0.0029477200786043839 0 0.0066230249654659241 -0.0030058367944132002 0 0.0072551343197726666 -0.0015737662938366571 0 0.0066230249654659241 -0.0030058367944132002 0 0.0054095479196619957 -0.0016685397729828161 0 0.0072551343197726666 -0.0015737662938366571 0 0.0066230249654659241 -0.0030058367944132002 0 0.0054095479196619957 -0.0016685397729828161 0 0.0057271537986940133 -0.0031828912193949668 0 0.0054095479196619957 -0.0016685397729828161 0 0.0072551343197726666 -0.0015737662938366571 0 0.0051125884710846422 -0.00058395788376929035 0 0.0072551343197726666 -0.0015737662938366571 0 0.0082842316723386149 0.0015295640337088902 0 0.0051125884710846422 -0.00058395788376929035 0 0.0046849206845534369 -0.0030538356265819274 0 0.0042191042406247757 -0.0017387612495777746 0 0.004879594390119201 -0.0015155734315677543 0 0.0051963161959391645 -0.0021550676090216136 0 0.0046849206845534369 -0.0030538356265819274 0 0.004879594390119201 -0.0015155734315677543 0 0.0054095479196619957 -0.0016685397729828161 0 0.0051963161959391645 -0.0021550676090216136 0 0.0052261947006379695 -0.00098338972562302183 0 0.0054095479196619957 -0.0016685397729828161 0 0.0051963161959391645 -0.0021550676090216136 0 0.0057271537986940133 -0.0031828912193949668 0 0.0051963161959391645 -0.0021550676090216136 0 0.0057271537986940133 -0.0031828912193949668 0 0.0053666171188761925 -0.0037285565806500758 0 0.0046849206845534369 -0.0030538356265819274 0 0.0049603876500492325 -0.0041408795855177915 0 0.0053666171188761925 -0.0037285565806500758 0 0.0051963161959391645 -0.0021550676090216136 0 0.0046849206845534369 -0.0030538356265819274 0 0.0053666171188761925 -0.0037285565806500758 0 0.0053666171188761925 -0.0037285565806500758 0 0.0057893642755489343 -0.0041884200207339814 0 0.0056789941649742224 -0.0049300467446891701 0 0.0049603876500492325 -0.0041408795855177915 0 0.0056789941649742224 -0.0049300467446891701 0 0.0050597437337070927 -0.0050012978105289036 0 0.0049603876500492325 -0.0041408795855177915 0 0.0053666171188761925 -0.0037285565806500758 0 0.0056789941649742224 -0.0049300467446891701 0 0.0063197052282133815 -0.0041218279935436213 0 0.0057271537986940133 -0.0031828912193949668 0 0.0057893642755489343 -0.0041884200207339814 0 0.0057271537986940133 -0.0031828912193949668 0 0.0053666171188761925 -0.0037285565806500758 0 0.0057893642755489343 -0.0041884200207339814 0 0.0063197052282133815 -0.0041218279935436213 0 0.0057893642755489343 -0.0041884200207339814 0 0.0059575129742802206 -0.0048052603530854051 0 0.0057893642755489343 -0.0041884200207339814 0 0.0059575129742802206 -0.0048052603530854051 0 0.0056789941649742224 -0.0049300467446891701 0 0.0063687908055253357 -0.0046739334603996506 0 0.0059575129742802206 -0.0048052603530854051 0 0.0059362658424571236 -0.0049876153305773831 0 0.0056789941649742224 -0.0049300467446891701 0 0.005761301243583406 -0.0055675784434954358 0 0.0050597437337070927 -0.0050012978105289036 0 0.0059575129742802206 -0.0048052603530854051 0 0.0056789941649742224 -0.0049300467446891701 0 0.0058835044127642068 -0.0054394497311561632 0 0.0056789941649742224 -0.0049300467446891701 0 0.005761301243583406 -0.0055675784434954358 0 0.0058835044127642068 -0.0054394497311561632 0 0.0050597437337070927 -0.0050012978105289036 0 0.0052031180836345156 -0.0057488911098877707 0 0.0039500686599075454 -0.0053197416464626649 0 0.005761301243583406 -0.0055675784434954358 0 0.0052031180836345156 -0.0057488911098877707 0 0.0060418696757462108 -0.0063380433988635444 0 0.005761301243583406 -0.0055675784434954358 0 0.0050597437337070927 -0.0050012978105289036 0 0.0052031180836345156 -0.0057488911098877707 0 0.0052031180836345156 -0.0057488911098877707 0 0.0045894821521053585 -0.0063593347676607868 0 0.005264536261485024 -0.0064215921288575456 0 0.0045894821521053585 -0.0063593347676607868 0 0.0033370617713187568 -0.0064473198583798567 0 0.0039500686599075454 -0.0053197416464626649 0 0.0033370617713187568 -0.0064473198583798567 0 0.0039500686599075454 -0.0053197416464626649 0 0.0028786061421490921 -0.005606621972545296 0 0.0052031180836345156 -0.0057488911098877707 0 0.0045894821521053585 -0.0063593347676607868 0 0.0039500686599075454 -0.0053197416464626649 0 0.0039500686599075454 -0.0053197416464626649 0 0.0042038114091030865 -0.0043616153716322589 0 0.002979212367897627 -0.0048337545888538979 0 0.0050597437337070927 -0.0050012978105289036 0 0.0039500686599075454 -0.0053197416464626649 0 0.0042038114091030865 -0.0043616153716322589 0 0.0049603876500492325 -0.0041408795855177915 0 0.0050597437337070927 -0.0050012978105289036 0 0.0042038114091030865 -0.0043616153716322589 0 0.0019752348406233819 -0.0057986615530523948 0 0.002355579351743041 -0.0066374781186994379 0 0.0015850645903994819 -0.0079311650356024468 0 0.0019752348406233819 -0.0057986615530523948 0 0.002355579351743041 -0.0066374781186994379 0 0.0028786061421490921 -0.005606621972545296 0 0.0033370617713187568 -0.0064473198583798567 0 0.002355579351743041 -0.0066374781186994379 0 0.0028786061421490921 -0.005606621972545296 0 0.0019752348406233819 -0.0057986615530523948 0 0.0028786061421490921 -0.005606621972545296 0 0.002979212367897627 -0.0048337545888538979 0 0.0039500686599075454 -0.0053197416464626649 0 0.0028786061421490921 -0.005606621972545296 0 0.002979212367897627 -0.0048337545888538979 0 0.0032084379031380346 -0.0078782222379407234 0 0.0025632056522678919 -0.0056915177132251665 0 0.0019752348406233819 -0.0057986615530523948 0 0.0025393621519307864 -0.0054907928573346802 0 0.002979212367897627 -0.0048337545888538979 0 0.0025393621519307864 -0.0054907928573346802 0 0.002979212367897627 -0.0048337545888538979 0 0.0031074628470268732 -0.0039386991464628917 0 0.002979212367897627 -0.0048337545888538979 0 0.0031074628470268732 -0.0039386991464628917 0 0.0037334936172922629 -0.0037749012232677626 0 0.0031074628470268732 -0.0039386991464628917 0 0.0037334936172922629 -0.0037749012232677626 0 0.0035484146945496016 -0.0036655828940456484 0 0.0021919206609831371 -0.0034472979898996616 0 0.002994532954630025 -0.0038490200013621915 0 0.0016854823656979583 -0.0029647044092094548 0 0.0025393621519307864 -0.0054907928573346802 0 0.0031074628470268732 -0.0039386991464628917 0 0.0046849206845534369 -0.0030538356265819274 0 0.0042038114091030865 -0.0043616153716322589 0 0.0037334936172922629 -0.0037749012232677626 0 0.0046849206845534369 -0.0030538356265819274 0 0.0049603876500492325 -0.0041408795855177915 0 0.0042038114091030865 -0.0043616153716322589 0 0.0042038114091030865 -0.0043616153716322589 0 0.002979212367897627 -0.0048337545888538979 0 0.0037334936172922629 -0.0037749012232677626 0 0.0037334936172922629 -0.0037749012232677626 0 0.0035484146945496016 -0.0036655828940456484 0 0.0038560275761660105 -0.0035922002934673644 0 0.0037334385839809911 -0.0034790724051649053 0 0.0042117064610874035 -0.003175998657129914 0 0.0046849206845534369 -0.0030538356265819274 0 0.0037334936172922629 -0.0037749012232677626 0 0.0042191042406247757 -0.0017387612495777746 0 0.0038560275761660105 -0.0035922002934673644 0 0.0037851617513137399 -0.0033090058799734308 0 0.0041339937773304299 -0.0031697279818475354 0 0.0035484146945496016 -0.0036655828940456484 0 0.0038560275761660105 -0.0035922002934673644 0 0.0037851617513137399 -0.0033090058799734308 0 0.0035484146945496016 -0.0036655828940456484 0 0.0034300134555713723 -0.0033237179693511674 0 0.0037851617513137399 -0.0033090058799734308 0 0.0034300134555713723 -0.0033237179693511674 0 0.0037851617513137399 -0.0033090058799734308 0 0.0038252849929306127 -0.0029264479471887454 0 0.0034300134555713723 -0.0033237179693511674 0 0.0032715317776070675 -0.0029665274360480905 0 0.0038252849929306127 -0.0029264479471887454 0 0.0037851617513137399 -0.0033090058799734308 0 0.0038252849929306127 -0.0029264479471887454 0 0.0041339937773304299 -0.0031697279818475354 0 0.0025501414748891494 -0.0037310653390620393 0 0.0031074628470268732 -0.0039386991464628917 0 0.0029573288592801869 -0.0033312909144457719 0 0.0031074628470268732 -0.0039386991464628917 0 0.0035484146945496016 -0.0036655828940456484 0 0.0034300134555713723 -0.0033237179693511674 0 0.0031074628470268732 -0.0039386991464628917 0 0.0034300134555713723 -0.0033237179693511674 0 0.0029573288592801869 -0.0033312909144457719 0 0.0034300134555713723 -0.0033237179693511674 0 0.0029573288592801869 -0.0033312909144457719 0 0.0032715317776070675 -0.0029665274360480905 0 0.0025272683879463873 -0.0032600067679982429 0 0.0029573288592801869 -0.0033312909144457719 0 0.0028970761987784132 -0.0027840286720291515 0 0.0029573288592801869 -0.0033312909144457719 0 0.0028970761987784132 -0.0027840286720291515 0 0.0032715317776070675 -0.0029665274360480905 0 0.0028970761987784132 -0.0027840286720291515 0 0.0032715317776070675 -0.0029665274360480905 0 0.0034938194849850408 -0.0026594594871408184 0 0.0021715275794861508 -0.0084229662471260302 0 0.0020933492987041027 -0.0089751453997661684 0 0.0026256225599070857 -0.0089479005738471 0 0.0018627116497901019 -0.0091706862012659544 0 0.0020933492987041027 -0.0089751453997661684 0 0.0026256225599070857 -0.0089479005738471 0 0.0021265270795492257 -0.0048180228259465056 0 0.0023787304142647509 -0.0026958424886156409 0 0.0014323376742459155 -0.00045511603084866529 0 0.0015722623703058318 -0.00049192424556708406 0 0.0013812687706007329 -0.0003144723002774432 0 0.0024403672066532029 -0.0064722189150711882 0 0.0023787304142647509 -0.0026958424886156409 0 0.0018627116497901019 -0.0091706862012659544 0 0.0020933492987041027 -0.0089751453997661684 0 0.0018638193399602063 -0.0089532934137208139 0 0.0017595774932844029 -0.0090012085586274951 0 0.0018627116497901019 -0.0091706862012659544 0 0.0018638193399602063 -0.0089532934137208139 0 0.0021430132825002754 0.002665137893005693 0 0.0021955885472651833 0.0022531621958560215 0 0.0017868546819718365 0.0025470848056223846 0 0.0032715317776070675 -0.0029665274360480905 0 0.0038252849929306127 -0.0029264479471887454 0 0.0034938194849850408 -0.0026594594871408184 0 0.0030718369037209701 -4.3104070840108823e-05 0 0.0023787304142647509 -0.0026958424886156409 0 0.0023787304142647509 -0.0026958424886156409 0 0.0017746032458448348 0.0008920378759923888 0 0.0012653789476415988 -0.0004500761688940603 0 0.0014323376742459155 -0.00045511603084866529 0 0.0013812687706007329 -0.0003144723002774432 0 0.0012653789476415988 -0.0004500761688940603 0 0.0013812687706007329 -0.0003144723002774432 0 0.001200611245834845 -0.0003266604599345259 0 0.0012653789476415988 -0.0004500761688940603 0 0.001200611245834845 -0.0003266604599345259 0 0.0010255382917672498 -0.00033348398148975148 0 0.0021430132825002754 0.002665137893005693 0 0.0025584456658772278 0.002297766688985826 0 0.0021955885472651833 0.0022531621958560215 0 0.00060012015674095474 0.0022254543103417176 0 0.0010592257715857486 0.0026406249160328401 0 0.0017746032458448348 0.0008920378759923888 0 0.0010592257715857486 0.0026406249160328401 0 0.0021955885472651833 0.0022531621958560215 0 0.0018418290183712588 0.0022132180667500845 0 0.0017868546819718365 0.0025470848056223846 0 0.0018418290183712588 0.0022132180667500845 0 0.0017868546819718365 0.0025470848056223846 0 0.0013036928805078717 0.0024394179468048669 0 0.0021430132825002754 0.002665137893005693 0 0.0017868546819718365 0.0025470848056223846 0 0.0017411493811816819 0.0029944729755735267 0 0.0017868546819718365 0.0025470848056223846 0 0.0015236236428216006 0.0027085793357686763 0 0.0017411493811816819 0.0029944729755735267 0 0.0017868546819718365 0.0025470848056223846 0 0.0015236236428216006 0.0027085793357686763 0 0.0013036928805078717 0.0024394179468048669 0 0.002057022866738434 0.008912212276231719 0 -0.00028466635454776115 0.0088295654943415722 0 0.0004216875643306772 0.0067444480224039425 0 0.00056873882611807288 0.0056069542804695581 0 0.00045241069071412022 0.0092534137688829402 0 0.002057022866738434 0.008912212276231719 0 -0.00028466635454776115 0.0088295654943415722 0 0.0015768184573262515 0.010592145852338296 0 0.0010592257715857486 0.0026406249160328401 0 0.00045241069071412022 0.0092534137688829402 0 0.00024004796579486342 0.0055645614356043399 0 0.0010592257715857486 0.0026406249160328401 0 0.00043320398556607049 0.0050959005228475704 0 0.0005051352559932614 0.0050859609191562464 0 0.00043271141516388478 0.0051245985842580805 0 -0.00041501679734149398 0.019716727018005892 0 -0.0015017499578621068 0.01804706648950722 0 -0.00012175473443784325 0.018533213724457761 0 0.00048092883513246984 0.0051267034362719611 0 0.00043320398556607049 0.0050959005228475704 0 0.00043271141516388478 0.0051245985842580805 0 -0.0015017499578621068 0.01804706648950722 0 -0.00012175473443784325 0.018533213724457761 0 0.00071234776318858059 0.017388136326649387 0 0.00045241069071412022 0.0092534137688829402 0 0.0019773869396150496 0.014006281196249002 0 0.00037838579170979675 0.01308412101610589 0 0.00045241069071412022 0.0092534137688829402 0 -0.00041501679734149398 0.019716727018005892 0 -0.00012175473443784325 0.018533213724457761 0 0.00072500240943099473 0.019016313273352643 0 -0.00012175473443784325 0.018533213724457761 0 0.00072500240943099473 0.019016313273352643 0 0.00071234776318858059 0.017388136326649387 0 0.0016763293808362209 0.019636936135941984 0 0.0026019316117882087 0.019983462351839624 0 0.0018101412045213739 0.018620848529878897 0 0.0016763293808362209 0.019636936135941984 0 0.0018101412045213739 0.018620848529878897 0 0.00072500240943099473 0.019016313273352643 0 0.0018101412045213739 0.018620848529878897 0 0.00072500240943099473 0.019016313273352643 0 0.00071234776318858059 0.017388136326649387 0 0.0047534142003168847 0.010321210302970384 0 0.003836156573226451 0.0095048051780706848 0 0.0038731668831985581 0.0086405474349911405 0 0.0039934795242612389 0.013009939838824093 0 0.0019773869396150496 0.014006281196249002 0 0.003836156573226451 0.0095048051780706848 0 0.0033353008150921407 0.0073898784246030714 0 0.0038731668831985581 0.0086405474349911405 0 0.0024202893404543621 0.01603948414061419 0 0.0018101412045213739 0.018620848529878897 0 0.00071234776318858059 0.017388136326649387 0 0.002057022866738434 0.008912212276231719 0 0.0015768184573262515 0.010592145852338296 0 0.003836156573226451 0.0095048051780706848 0 0.002057022866738434 0.008912212276231719 0 0.003836156573226451 0.0095048051780706848 0 0.0033353008150921407 0.0073898784246030714 0 0.0043928439802856604 0.0086659696626952692 0 0.0038731668831985581 0.0086405474349911405 0 0.0033995542102922757 0.0076458519704066374 0 0.0033353008150921407 0.0073898784246030714 0 0.0038731668831985581 0.0086405474349911405 0 0.0033995542102922757 0.0076458519704066374 0 0.0033772371248361938 0.0072386890399971336 0 0.0057091002317149059 0.0046155960117621993 0 0.0033353008150921407 0.0073898784246030714 0 0.0051125884710846422 -0.00058395788376929035 0 0.00043199243954287288 0.0032010725840183676 0 0.0033353008150921407 0.0073898784246030714 0 0.0082842316723386149 0.0015295640337088902 0 0.0051125884710846422 -0.00058395788376929035 0 0.0051963161959391645 -0.0021550676090216136 0 0.0052261947006379695 -0.00098338972562302183 0 0.004879594390119201 -0.0015155734315677543 0 0.0054095479196619957 -0.0016685397729828161 0 0.0051125884710846422 -0.00058395788376929035 0 0.0052261947006379695 -0.00098338972562302183 0 0.0049691310390465341 -0.00051293093086276023 0 0.0026447679020619032 0.0013271052849369359 0 0.0042117064610874035 -0.003175998657129914 0 0.0024769211920816466 0.0011643726505688645 0 0.0052261947006379695 -0.00098338972562302183 0 0.004879594390119201 -0.0015155734315677543 0 0.0047796375730693764 -0.00063881123286227426 0 0.0042191042406247757 -0.0017387612495777746 0 0.004879594390119201 -0.0015155734315677543 0 0.0047796375730693764 -0.00063881123286227426 0 0.0030718369037209701 -4.3104070840108823e-05 0 0.0024769211920816466 0.0011643726505688645 0 0.00056873882611807288 0.0056069542804695581 0 0.0024769211920816466 0.0011643726505688645 0 -0.00028466635454776115 0.0088295654943415722 0 -0.0025723406187489945 0.0061300587361683102 0 0.0004216875643306772 0.0067444480224039425 0 0.002057022866738434 0.008912212276231719 0 0.0033353008150921407 0.0073898784246030714 0 0.0004216875643306772 0.0067444480224039425 0 0.0033353008150921407 0.0073898784246030714 0 0.00043199243954287288 0.0032010725840183676 0 0.0004216875643306772 0.0067444480224039425 0 0.00043199243954287288 0.0032010725840183676 0 -0.0025723406187489945 0.0061300587361683102 0 0.0004216875643306772 0.0067444480224039425 0 0.0026447679020619032 0.0013271052849369359 0 0.0024769211920816466 0.0011643726505688645 0 -0.0019441348776890661 0.03780938820728233 0 -0.0021327897715524863 0.038054039127683237 0 -0.0023856003629528773 0.037675047509000123 0 1.7383406581536508e-07 0.044947493312345259 0 4.8453193824636957e-06 0.044967150978400171 0 3.8949344935433541e-06 0.044963796817322925 0 -0.00038903547407887959 0.040655081862938917 0 -0.00051947730013017165 0.041004819870334608 0 -7.6694826015932989e-05 0.04098805527933768 0 -0.00040627769565554974 0.040465807565762284 0 0.00015914194671929333 0.043649907770599329 0 -0.00077478244241685392 0.041979879700672122 0 -0.0022139824397464604 0.036193378239435671 0 -0.0056396273872169186 0.028109784892071759 0 -0.0055217973730662135 0.027937751913107968 0 -0.005245713668076221 0.028239768528793709 0 -0.00038903547407887959 0.040655081862938917 0 -0.00057810168013478652 0.040912043383419375 0 -0.00051947730013017165 0.041004819870334608 0 -0.0022139824397464604 0.036193378239435671 0 -0.0023508097147379348 0.035985588355165417 0 -0.0024610073304954928 0.0383134022072016 0 -0.001804279643251211 0.037387612473251189 0 -0.0029838419048361293 0.037498272930337299 0 -0.0023508097147379348 0.035985588355165417 0 -0.00040627769565554974 0.040465807565762284 0 -0.0022139824397464604 0.036193378239435671 0 -0.00040627769565554974 0.040465807565762284 0 -8.1013839193397507e-07 0.044996479616108948 0 -6.9096955016692977e-09 0.044999977244348226 0 1.588238996327267e-09 0.044999990385525282 0 -1.2387025798468867e-06 0.044994387714196407 0 -8.1013839193397507e-07 0.044996479616108948 0 1.588238996327267e-09 0.044999990385525282 0 -2.596873555723181e-06 0.044993146931730274 0 -8.1013839193397507e-07 0.044996479616108948 0 -2.1088680819516855e-06 0.044993464058709978 0 0.00015914194671929333 0.043649907770599329 0 5.4280380872550155e-05 0.043845546717166888 0 -8.1013839193397507e-07 0.044996479616108948 0 -2.1088680819516855e-06 0.044993464058709978 0 -6.9096955016692977e-09 0.044999977244348226 0 -0.00077478244241685392 0.041979879700672122 0 0.00015914194671929333 0.043649907770599329 0 -5.7737819501227169e-06 0.044981839222476588 0 -2.596873555723181e-06 0.044993146931730274 0 -2.1088680819516855e-06 0.044993464058709978 0 -0.00077478244241685392 0.041979879700672122 0 -0.00021917243014249121 0.045230076979608257 0 -5.7737819501227169e-06 0.044981839222476588 0 -2.1088680819516855e-06 0.044993464058709978 0 -2.2913291241593487e-06 0.044996453296363419 0 -2.1088680819516855e-06 0.044993464058709978 0 -6.9096955016692977e-09 0.044999977244348226 0 -2.2913291241593487e-06 0.044996453296363419 0 -6.9096955016692977e-09 0.044999977244348226 0 -2.2913291241593487e-06 0.044996453296363419 0 1.3658920981536671e-09 0.045000005258644483 0 -6.1048509149695565e-05 0.044921906470306645 0 -4.3901646235387223e-05 0.044949070399313618 0 -6.031617807116885e-05 0.044938001039632983 0 -0.00077478244241685392 0.041979879700672122 0 -0.0017413812044157369 0.040744408946662175 0 -0.0023856003629528773 0.037675047509000123 0 -0.0024986963547450722 0.037242569881503929 0 -0.0026373598910957433 0.037298595022249512 0 -0.0019441348776890661 0.03780938820728233 0 -0.0023856003629528773 0.037675047509000123 0 -0.0024986963547450722 0.037242569881503929 0 -0.0042644435963691916 0.032534017185870255 0 -0.004053785802473924 0.035491270197654148 0 -0.0047812256801927884 0.029008630205618606 0 -0.0052325919991601261 0.028782230702274394 0 -0.0047776122321686789 0.02955824716274888 0 -0.0047812256801927884 0.029008630205618606 0 -0.0052325919991601261 0.028782230702274394 0 -0.0046274638640901762 0.028518262238014024 0 -0.0047812256801927884 0.029008630205618606 0 -0.0043824252791480967 0.029363351418777998 0 -0.0047776122321686789 0.02955824716274888 0 -0.0043824252791480967 0.029363351418777998 0 -0.0040607303421480029 0.028512087502969165 0 -0.0046274638640901762 0.028518262238014024 0 -0.0047812256801927884 0.029008630205618606 0 -0.0043824252791480967 0.029363351418777998 0 -0.0046274638640901762 0.028518262238014024 0 -0.0051754706497935555 0.030951894912927321 0 -0.0039790120697840801 0.027939993409408396 0 -0.0039790120697840801 0.027939993409408396 0 -0.0039546253174039094 0.02779001117153258 0 -0.0046274638640901762 0.028518262238014024 0 -0.0043088828127527748 0.028065912334483398 0 -0.0048121087156740225 0.028083281649713642 0 -0.0040607303421480029 0.028512087502969165 0 -0.0046274638640901762 0.028518262238014024 0 -0.0043088828127527748 0.028065912334483398 0 -0.0043088828127527748 0.028065912334483398 0 -0.0048121087156740225 0.028083281649713642 0 -0.0041451331768613655 0.027627776185362701 0 -0.0040607303421480029 0.028512087502969165 0 -0.0043088828127527748 0.028065912334483398 0 -0.0038864458486540993 0.027569225921579711 0 -0.0043088828127527748 0.028065912334483398 0 -0.0041451331768613655 0.027627776185362701 0 -0.0038864458486540993 0.027569225921579711 0 -0.0055217973730662135 0.027937751913107968 0 -0.0048121087156740225 0.028083281649713642 0 -0.0041451331768613655 0.027627776185362701 0 -0.0023508097147379348 0.035985588355165417 0 -0.0030042216023272103 0.028523614759015693 0 -0.0022139824397464604 0.036193378239435671 0 -0.0042644435963691916 0.032534017185870255 0 -0.0056396273872169186 0.028109784892071759 0 -0.0052325919991601261 0.028782230702274394 0 -0.005245713668076221 0.028239768528793709 0 -0.0052325919991601261 0.028782230702274394 0 -0.0046274638640901762 0.028518262238014024 0 -0.005245713668076221 0.028239768528793709 0 -0.0046274638640901762 0.028518262238014024 0 -0.005245713668076221 0.028239768528793709 0 -0.0048121087156740225 0.028083281649713642 0 -0.0055217973730662135 0.027937751913107968 0 -0.005245713668076221 0.028239768528793709 0 -0.0048121087156740225 0.028083281649713642 0 0.00025818800988043606 0.045021621889283915 0 0.00050984713813589174 0.044797490922460569 0 0.00021890892403224381 0.044913953569620149 0 -0.0023508097147379348 0.035985588355165417 0 -0.00062874693192165184 0.038207119001304621 0 -0.0019109440344613321 0.031351017455325259 0 -0.0013402935269731353 0.031191502946925166 0 -0.0016443387798801608 0.03096598837778829 0 -0.0013402935269731353 0.031191502946925166 0 -0.0016443387798801608 0.03096598837778829 0 -0.0012236119544277531 0.030871309291662676 0 -0.00062874693192165184 0.038207119001304621 0 0.00051762703952120174 0.037275435863960565 0 -0.0016443387798801608 0.03096598837778829 0 -0.0013866436700488501 0.030656371949011541 0 -0.0012236119544277531 0.030871309291662676 0 0.00050984713813589174 0.044797490922460569 0 0.00048730168753440147 0.044311499828937867 0 0.00082507557198892572 0.044367803809384057 0 0.00050984713813589174 0.044797490922460569 0 0.00015007739970315033 0.044722036662993479 0 0.00048730168753440147 0.044311499828937867 0 0.00050984713813589174 0.044797490922460569 0 0.00015007739970315033 0.044722036662993479 0 0.00021890892403224381 0.044913953569620149 0 0.00015007739970315033 0.044722036662993479 0 0.00021890892403224381 0.044913953569620149 0 8.4509051458016071e-05 0.044893117674622757 0 1.7383406581536508e-07 0.044947493312345259 0 6.6818713763733195e-06 0.044963410387812895 0 3.8949344935433541e-06 0.044963796817322925 0 0.00020059825948734304 0.045024153872135333 0 0.00021890892403224381 0.044913953569620149 0 8.4509051458016071e-05 0.044893117674622757 0 -0.00040627769565554974 0.040465807565762284 0 0.00043991674341600941 0.045465813242261746 0 0.00025818800988043606 0.045021621889283915 0 0.00020059825948734304 0.045024153872135333 0 0.00021890892403224381 0.044913953569620149 0 4.8453193824636957e-06 0.044967150978400171 0 3.8949344935433541e-06 0.044963796817322925 0 -1.3266567786388758e-07 0.044999656430612711 0 3.8949344935433541e-06 0.044963796817322925 0 -1.3266567786388758e-07 0.044999656430612711 0 -1.1656029718116998e-05 0.044958211617537477 0 0.00015914194671929333 0.043649907770599329 0 5.4940933885936562e-07 0.04499990520190391 0 6.6818713763733195e-06 0.044963410387812895 0 3.8949344935433541e-06 0.044963796817322925 0 -1.1656029718116998e-05 0.044958211617537477 0 0.00015007739970315033 0.044722036662993479 0 -1.569788879151929e-05 0.044907769336521873 0 -3.0013257420631261e-05 0.044641965569421627 0 0.00015007739970315033 0.044722036662993479 0 8.4509051458016071e-05 0.044893117674622757 0 -1.569788879151929e-05 0.044907769336521873 0 -1.3266567786388758e-07 0.044999656430612711 0 -1.1656029718116998e-05 0.044958211617537477 0 1.7294454755418966e-07 0.045000171740998914 0 -1.1656029718116998e-05 0.044958211617537477 0 -1.569788879151929e-05 0.044907769336521873 0 1.7294454755418966e-07 0.045000171740998914 0 0.00043991674341600941 0.045465813242261746 0 -0.00011609303563751791 0.044720301522635897 0 6.6818713763733195e-06 0.044963410387812895 0 -1.1656029718116998e-05 0.044958211617537477 0 -1.569788879151929e-05 0.044907769336521873 0 -1.569788879151929e-05 0.044907769336521873 0 1.7294454755418966e-07 0.045000171740998914 0 -3.0013257420631261e-05 0.044641965569421627 0 1.7294454755418966e-07 0.045000171740998914 0 -6.9481210372436317e-05 0.044535355716914221 0 -1.3324744595520274e-06 0.044995589298854978 0 1.7294454755418966e-07 0.045000171740998914 0 -3.0013257420631261e-05 0.044641965569421627 0 -6.9481210372436317e-05 0.044535355716914221 0 -3.0013257420631261e-05 0.044641965569421627 0 -6.9481210372436317e-05 0.044535355716914221 0 3.9131175445324137e-05 0.044124320421677993 0 -8.4803252116261578e-05 0.043967981366427301 0 0.0005170064573591798 0.043898404520964725 0 0.00015007739970315033 0.044722036662993479 0 3.9131175445324137e-05 0.044124320421677993 0 0.00048730168753440147 0.044311499828937867 0 0.00015007739970315033 0.044722036662993479 0 -3.0013257420631261e-05 0.044641965569421627 0 3.9131175445324137e-05 0.044124320421677993 0 3.9131175445324137e-05 0.044124320421677993 0 -2.5866446126575575e-05 0.043778826859438569 0 -2.0315270509913919e-05 0.04336005179639997 0 -2.5866446126575575e-05 0.043778826859438569 0 -5.8196869055629567e-05 0.04256137694789449 0 -2.0315270509913919e-05 0.04336005179639997 0 -6.9481210372436317e-05 0.044535355716914221 0 3.9131175445324137e-05 0.044124320421677993 0 -2.5866446126575575e-05 0.043778826859438569 0 -6.9481210372436317e-05 0.044535355716914221 0 -2.5866446126575575e-05 0.043778826859438569 0 -1.3324744595520274e-06 0.044995589298854978 0 -2.5866446126575575e-05 0.043778826859438569 0 -1.3324744595520274e-06 0.044995589298854978 0 -5.4943583842418136e-05 0.043464792309357722 0 -2.5866446126575575e-05 0.043778826859438569 0 -5.4943583842418136e-05 0.043464792309357722 0 -0.0001456704529953322 0.042974196252151708 0 1.6329881959962819e-07 0.045001027923165689 0 3.8879987647163542e-07 0.044978218563756105 0 -3.2828562861480018e-07 0.044997729259783216 0 -3.2929850948393135e-08 0.044999611031363289 0 8.9571177697189373e-08 0.044262540786841928 0 -2.5866446126575575e-05 0.043778826859438569 0 -0.0001456704529953322 0.042974196252151708 0 -5.8196869055629567e-05 0.04256137694789449 0 -0.0001456704529953322 0.042974196252151708 0 -2.7195082114955473e-08 0.044072911631658648 0 -5.4612327224336695e-07 0.041470483980604253 0 3.8879987647163542e-07 0.044978218563756105 0 4.9298698838556432e-07 0.044079710333642774 0 -3.2828562861480018e-07 0.044997729259783216 0 8.9571177697189373e-08 0.044262540786841928 0 -3.1620959020012906e-08 0.044076340392134372 0 -5.4943583842418136e-05 0.043464792309357722 0 -0.0001456704529953322 0.042974196252151708 0 -2.7195082114955473e-08 0.044072911631658648 0 -5.4612327224336695e-07 0.041470483980604253 0 1.954881459550859e-05 0.041139236534871955 0 -2.525064484494161e-07 0.038862684328668656 0 -5.4612327224336695e-07 0.041470483980604253 0 -5.8196869055629567e-05 0.04256137694789449 0 1.954881459550859e-05 0.041139236534871955 0 -0.0001456704529953322 0.042974196252151708 0 -5.4612327224336695e-07 0.041470483980604253 0 -5.8196869055629567e-05 0.04256137694789449 0 -5.8196869055629567e-05 0.04256137694789449 0 1.954881459550859e-05 0.041139236534871955 0 4.4003238896031631e-05 0.042752476847339342 0 1.954881459550859e-05 0.041139236534871955 0 4.4003238896031631e-05 0.042752476847339342 0 0.00063196058112219527 0.042279612692967386 0 4.4003238896031631e-05 0.042752476847339342 0 -2.0315270509913919e-05 0.04336005179639997 0 -5.2771434971532771e-05 0.043358471846230144 0 -5.8196869055629567e-05 0.04256137694789449 0 4.4003238896031631e-05 0.042752476847339342 0 -2.0315270509913919e-05 0.04336005179639997 0 3.9131175445324137e-05 0.044124320421677993 0 -2.0315270509913919e-05 0.04336005179639997 0 -5.2771434971532771e-05 0.043358471846230144 0 0.0005170064573591798 0.043898404520964725 0 0.00051762703952120174 0.037275435863960565 0 4.4003238896031631e-05 0.042752476847339342 0 0.00025936947612014452 0.043317036675215796 0 0.00063196058112219527 0.042279612692967386 0 0.00051762703952120174 0.037275435863960565 0 0.0017904982969700579 0.037270911732864412 0 4.4003238896031631e-05 0.042752476847339342 0 -5.2771434971532771e-05 0.043358471846230144 0 0.00025936947612014452 0.043317036675215796 0 0.0033869475252490872 0.031256973940988357 0 0.0017566516251138948 0.031710162870444827 0 0.0026589650610097707 0.032397123332971317 0 0.0033869475252490872 0.031256973940988357 0 0.0017566516251138948 0.031710162870444827 0 0.0018545823878420233 0.030764864206230397 0 0.0017566516251138948 0.031710162870444827 0 0.00098668382186130896 0.031153610761300798 0 0.0018545823878420233 0.030764864206230397 0 0.0017566516251138948 0.031710162870444827 0 0.0026589650610097707 0.032397123332971317 0 0.0019711440451367366 0.033746076387341256 0 0.0017566516251138948 0.031710162870444827 0 0.0019711440451367366 0.033746076387341256 0 0.00074844220975615341 0.032789735022472358 0 0.0017904982969700579 0.037270911732864412 0 0.0011775033767806096 0.03695627541926011 0 1.954881459550859e-05 0.041139236534871955 0 0.00063196058112219527 0.042279612692967386 0 0.00077486332056947655 0.039978159314793101 0 0.0019711440451367366 0.033746076387341256 0 3.4871121170639326e-06 0.036249777978791899 0 0.00074844220975615341 0.032789735022472358 0 0.0011775033767806096 0.03695627541926011 0 3.4279410174219628e-07 0.036255899046859712 0 0.00077486332056947655 0.039978159314793101 0 -2.525064484494161e-07 0.038862684328668656 0 2.8232237874289251e-06 0.036259084806339263 0 1.954881459550859e-05 0.041139236534871955 0 0.00077486332056947655 0.039978159314793101 0 -2.525064484494161e-07 0.038862684328668656 0 -9.4251214275648817e-07 0.033928240782132364 0 3.4871121170639326e-06 0.036249777978791899 0 2.8973939148421237e-05 0.033266933932310998 0 -9.4251214275648817e-07 0.033928240782132364 0 2.8973939148421237e-05 0.033266933932310998 0 -1.2683816206152609e-05 0.032153401052393803 0 3.4871121170639326e-06 0.036249777978791899 0 0.00074844220975615341 0.032789735022472358 0 2.8973939148421237e-05 0.033266933932310998 0 0.00074844220975615341 0.032789735022472358 0 2.8973939148421237e-05 0.033266933932310998 0 9.5627409403438625e-05 0.03193063242498078 0 6.9620364383493716e-05 0.032962484081173339 0 -0.00017965336592658181 0.031689585228244395 0 2.8973939148421237e-05 0.033266933932310998 0 9.5627409403438625e-05 0.03193063242498078 0 -0.00049341770026232687 0.032177579779783576 0 0.0017566516251138948 0.031710162870444827 0 0.00074844220975615341 0.032789735022472358 0 0.00074121170166384701 0.031701828522421115 0 0.00074844220975615341 0.032789735022472358 0 9.5627409403438625e-05 0.03193063242498078 0 0.00074121170166384701 0.031701828522421115 0 0.0017566516251138948 0.031710162870444827 0 0.00074121170166384701 0.031701828522421115 0 0.00098668382186130896 0.031153610761300798 0 0.00074121170166384701 0.031701828522421115 0 0.00098668382186130896 0.031153610761300798 0 0.00027162495473319982 0.031149351089041717 0 9.5627409403438625e-05 0.03193063242498078 0 0.00027162495473319982 0.031149351089041717 0 -0.00025000747845701989 0.031132207325247466 0 9.5627409403438625e-05 0.03193063242498078 0 0.00074121170166384701 0.031701828522421115 0 0.00027162495473319982 0.031149351089041717 0 -9.0057380551638834e-05 0.030756028442795361 0 0.00046407229699282448 0.030503941306868551 0 -0.00045915960641535928 0.030557092358798683 0 0.00027162495473319982 0.031149351089041717 0 -9.0057380551638834e-05 0.030756028442795361 0 0.00046407229699282448 0.030503941306868551 0 0.00027162495473319982 0.031149351089041717 0 -9.0057380551638834e-05 0.030756028442795361 0 -0.00025000747845701989 0.031132207325247466 0 -0.001715627032060734 0.026534060230372896 0 -0.0024860195427867378 0.027570386513206851 0 -0.0010874950822093992 0.026602371144738641 0 -0.00051431567330396228 0.030708559905431313 0 -0.00058018999037663774 0.030701549590449014 0 -0.00045915960641535928 0.030557092358798683 0 -5.0907852681487313e-06 0.030734143459017121 0 -0.00043629512259243036 0.030522382639408832 0 -0.0011177059638759806 0.028621748343126967 0 -0.0019254971715377506 0.029183552149260883 0 -0.001715627032060734 0.026534060230372896 0 -0.003139124245255304 0.027156948300762308 0 -0.0024860195427867378 0.027570386513206851 0 -0.00051431567330396228 0.030708559905431313 0 -0.00058018999037663774 0.030701549590449014 0 -0.00084728196314427632 0.030989099848549379 0 -5.0907852681487313e-06 0.030734143459017121 0 0.00039929686677253872 0.029887961607110294 0 0.00098668382186130896 0.031153610761300798 0 0.00046407229699282448 0.030503941306868551 0 0.0018545823878420233 0.030764864206230397 0 0.00098668382186130896 0.031153610761300798 0 0.00027162495473319982 0.031149351089041717 0 0.00046407229699282448 0.030503941306868551 0 -0.00058018999037663774 0.030701549590449014 0 -0.00094262246167669584 0.030707739924010966 0 -0.00084728196314427632 0.030989099848549379 0 -0.00094262246167669584 0.030707739924010966 0 -0.0012236119544277531 0.030871309291662676 0 -0.00084728196314427632 0.030989099848549379 0 -0.0013866436700488501 0.030656371949011541 0 -0.00094262246167669584 0.030707739924010966 0 -0.0012236119544277531 0.030871309291662676 0 0.00051762703952120174 0.037275435863960565 0 0.00039929686677253872 0.029887961607110294 0 -0.0041451331768613655 0.027627776185362701 0 -0.003139124245255304 0.027156948300762308 0 -0.0038864458486540993 0.027569225921579711 0 -0.0013402935269731353 0.031191502946925166 0 -0.0012236119544277531 0.030871309291662676 0 -0.00084728196314427632 0.030989099848549379 0 -0.0030042216023272103 0.028523614759015693 0 -0.0019254971715377506 0.029183552149260883 0 -0.0052829273685720008 0.02821140557518061 0 -0.0030139598514071584 0.027480114039894872 0 -0.003139124245255304 0.027156948300762308 0 -0.0034932157422043271 0.027627355086339678 0 -0.0024860195427867378 0.027570386513206851 0 -0.0034932157422043271 0.027627355086339678 0 -0.0035120073455719254 0.028175944905297311 0 -0.0024860195427867378 0.027570386513206851 0 -0.003139124245255304 0.027156948300762308 0 -0.0038864458486540993 0.027569225921579711 0 -0.0034932157422043271 0.027627355086339678 0 -0.0041614213530497069 0.028029652426732173 0 -0.0037741659771724535 0.027836160024210233 0 -0.0035120073455719254 0.028175944905297311 0 -0.0038864458486540993 0.027569225921579711 0 -0.0034932157422043271 0.027627355086339678 0 -0.0037741659771724535 0.027836160024210233 0 -0.0034932157422043271 0.027627355086339678 0 -0.0037741659771724535 0.027836160024210233 0 -0.0035120073455719254 0.028175944905297311 0 -0.0041614213530497069 0.028029652426732173 0 -0.0038864458486540993 0.027569225921579711 0 -0.0037741659771724535 0.027836160024210233 0 -0.0051754706497935555 0.030951894912927321 0 -0.0052829273685720008 0.02821140557518061 0 -0.0044134781358969441 0.028622350763961558 0 -0.0041614213530497069 0.028029652426732173 0 -0.0035120073455719254 0.028175944905297311 0 -0.0092273659235504353 0.029944429440338476 0 -0.0064981048708071107 0.028589562259192434 0 -0.0077790198503323981 0.030930172663775016 0 -0.0064981048708071107 0.028589562259192434 0 -0.0046519803203155918 0.029328021594463436 0 -0.0059107551539323722 0.030338723620469701 0 -0.0064981048708071107 0.028589562259192434 0 -0.0046519803203155918 0.029328021594463436 0 -0.0036617436043017504 0.027351310711727372 0 -0.0046519803203155918 0.029328021594463436 0 -0.0029095108123706648 0.02955604844759134 0 -0.0036617436043017504 0.027351310711727372 0 -0.0029095108123706648 0.02955604844759134 0 -0.0017437733421971345 0.028201145697306206 0 -0.0036617436043017504 0.027351310711727372 0 -0.0029095108123706648 0.02955604844759134 0 -0.0017437733421971345 0.028201145697306206 0 -0.0011595931057471131 0.030206453964633548 0 -0.0030139598514071584 0.027480114039894872 0 -0.0012513604340687692 0.026655804124161311 0 -0.0017437733421971345 0.028201145697306206 0 -0.0036617436043017504 0.027351310711727372 0 -0.0010874950822093992 0.026602371144738641 0 0.00042646377288825917 0.027091317819718672 0 -9.7447256063448484e-05 0.027970129360773279 0 0.0010568789224251252 0.027400986041728678 0 0.00042646377288825917 0.027091317819718672 0 -0.00027574634086391928 0.027045942337916799 0 -9.7447256063448484e-05 0.027970129360773279 0 0.00042646377288825917 0.027091317819718672 0 0.0010568789224251252 0.027400986041728678 0 0.0010886900881429754 0.026798155254955949 0 -0.0017437733421971345 0.028201145697306206 0 -0.00079416010087568099 0.027444659168035457 0 -0.0010874950822093992 0.026602371144738641 0 -0.0017437733421971345 0.028201145697306206 0 -0.00079416010087568099 0.027444659168035457 0 -9.7447256063448484e-05 0.027970129360773279 0 -0.00027574634086391928 0.027045942337916799 0 -0.00079416010087568099 0.027444659168035457 0 -0.0010874950822093992 0.026602371144738641 0 -0.00027574634086391928 0.027045942337916799 0 -0.00079416010087568099 0.027444659168035457 0 -9.7447256063448484e-05 0.027970129360773279 0 -9.7447256063448484e-05 0.027970129360773279 0 0.00090233947305944117 0.028924425282114797 0 -0.0011595931057471131 0.030206453964633548 0 -0.0017437733421971345 0.028201145697306206 0 -9.7447256063448484e-05 0.027970129360773279 0 -0.0011595931057471131 0.030206453964633548 0 -9.7447256063448484e-05 0.027970129360773279 0 0.0010568789224251252 0.027400986041728678 0 0.00090233947305944117 0.028924425282114797 0 0.0018314271760119598 0.027402528448108202 0 0.0020239128989206724 0.027788799633197813 0 0.00090233947305944117 0.028924425282114797 0 0.0018314271760119598 0.027402528448108202 0 0.0010568789224251252 0.027400986041728678 0 0.00090233947305944117 0.028924425282114797 0 0.0018314271760119598 0.027402528448108202 0 0.0022458094068931104 0.026990916605929619 0 0.0020239128989206724 0.027788799633197813 0 0.0017716821895525775 0.026962337140393807 0 0.0021613242540043827 0.026722598516487051 0 0.0022458094068931104 0.026990916605929619 0 0.0018314271760119598 0.027402528448108202 0 0.0017716821895525775 0.026962337140393807 0 0.0022458094068931104 0.026990916605929619 0 0.0018314271760119598 0.027402528448108202 0 0.0017716821895525775 0.026962337140393807 0 0.0010568789224251252 0.027400986041728678 0 0.0017716821895525775 0.026962337140393807 0 0.0010568789224251252 0.027400986041728678 0 0.0010886900881429754 0.026798155254955949 0 0.0017716821895525775 0.026962337140393807 0 0.0010886900881429754 0.026798155254955949 0 0.0017970722786498571 0.026383611812498303 0 0.00071025172804359184 0.028275444391365763 0 -0.00013429529973303772 0.028406541271206256 0 -0.00030333834933651122 0.030201624653190672 0 -0.00047637022065307068 0.030432934999039752 0 -0.00045637522394689951 0.030515884057939303 0 0.0010886900881429754 0.026798155254955949 0 0.0017970722786498571 0.026383611812498303 0 0.00021506568097420448 0.02627189975893586 0 0.0017716821895525775 0.026962337140393807 0 0.0017970722786498571 0.026383611812498303 0 0.0021613242540043827 0.026722598516487051 0 0.00023524576611227957 0.029722751788487226 0 -0.00014670476775228294 0.029914596079205651 0 0.00026231585652989486 0.029598944131054419 0 -0.00030333834933651122 0.030201624653190672 0 -0.00058545060163625161 0.030399114960955712 0 0.00026231585652989486 0.029598944131054419 0 0.00037744087925106539 0.029170045636265473 0 0.00018562057358135808 0.029346673013315745 0 -0.00030333834933651122 0.030201624653190672 0 -0.00047637022065307068 0.030432934999039752 0 -0.00058545060163625161 0.030399114960955712 0 -0.00047637022065307068 0.030432934999039752 0 -0.00058545060163625161 0.030399114960955712 0 -0.00057626074260405864 0.03064236010935863 0 -0.00057626074260405864 0.03064236010935863 0 -0.00046949159426220633 0.03072412539573121 0 -0.00048823728348136076 0.030554381234253501 0 -0.00046949159426220633 0.03072412539573121 0 -0.00048823728348136076 0.030554381234253501 0 -0.0004522989543354187 0.0305737002871058 0 -0.00047637022065307068 0.030432934999039752 0 -0.00057626074260405864 0.03064236010935863 0 -0.00048823728348136076 0.030554381234253501 0 -0.00047637022065307068 0.030432934999039752 0 -0.00048823728348136076 0.030554381234253501 0 -0.00045637522394689951 0.030515884057939303 0 -0.00048823728348136076 0.030554381234253501 0 -0.0004522989543354187 0.0305737002871058 0 -0.00045637522394689951 0.030515884057939303 0 0.00042646377288825917 0.027091317819718672 0 -0.00027574634086391928 0.027045942337916799 0 0.00021506568097420448 0.02627189975893586 0 0.00042646377288825917 0.027091317819718672 0 0.0010886900881429754 0.026798155254955949 0 0.00021506568097420448 0.02627189975893586 0 -0.00027574634086391928 0.027045942337916799 0 0.00021506568097420448 0.02627189975893586 0 -0.0010874950822093992 0.026602371144738641 0 -0.001715627032060734 0.026534060230372896 0 0.00021506568097420448 0.02627189975893586 0 -0.0010874950822093992 0.026602371144738641 0 -0.00051431567330396228 0.030708559905431313 0 -0.00045637522394689951 0.030515884057939303 0 -0.00045915960641535928 0.030557092358798683 0 -0.0011177059638759806 0.028621748343126967 0 -0.00013429529973303772 0.028406541271206256 0 -0.0004522989543354187 0.0305737002871058 0 -0.00045637522394689951 0.030515884057939303 0 -0.00045915960641535928 0.030557092358798683 0 -9.0057380551638834e-05 0.030756028442795361 0 -0.00045915960641535928 0.030557092358798683 0 -0.00034960013163074275 0.030694819806182168 0 -0.00046949159426220633 0.03072412539573121 0 -0.0004522989543354187 0.0305737002871058 0 -0.00034960013163074275 0.030694819806182168 0 -0.0004522989543354187 0.0305737002871058 0 -0.00045915960641535928 0.030557092358798683 0 -0.00034960013163074275 0.030694819806182168 0 -0.00046949159426220633 0.03072412539573121 0 -0.00034960013163074275 0.030694819806182168 0 -0.00025000747845701989 0.031132207325247466 0 -9.0057380551638834e-05 0.030756028442795361 0 -0.00034960013163074275 0.030694819806182168 0 -0.00025000747845701989 0.031132207325247466 0 -0.00046949159426220633 0.03072412539573121 0 -0.00025000747845701989 0.031132207325247466 0 -0.00073467561574464988 0.031231529016701558 0 -0.00025000747845701989 0.031132207325247466 0 -0.00073467561574464988 0.031231529016701558 0 -0.00049341770026232687 0.032177579779783576 0 -0.00057626074260405864 0.03064236010935863 0 -0.00046949159426220633 0.03072412539573121 0 -0.00073467561574464988 0.031231529016701558 0 0.00021275135713629437 0.029932048641055777 0 0.00024235463593517346 0.031121749709219281 0 -2.4824344053699079e-05 0.030689700049619 0 0.00021275135713629437 0.029932048641055777 0 -2.4824344053699079e-05 0.030689700049619 0 0.00012555862368417617 0.029792802221215935 0 -0.00026683870922505941 0.030590487349918195 0 -0.00017965336592658181 0.031689585228244395 0 9.5627409403438625e-05 0.03193063242498078 0 -0.00025000747845701989 0.031132207325247466 0 -0.00049341770026232687 0.032177579779783576 0 2.8973939148421237e-05 0.033266933932310998 0 0.00024235463593517346 0.031121749709219281 0 -1.2683816206152609e-05 0.032153401052393803 0 0.00024235463593517346 0.031121749709219281 0 -1.2683816206152609e-05 0.032153401052393803 0 -2.4824344053699079e-05 0.030689700049619 0 -2.4824344053699079e-05 0.030689700049619 0 -2.793457375864176e-07 0.031598804896772408 0 -4.2476407661997141e-05 0.030143967171302157 0 -1.2683816206152609e-05 0.032153401052393803 0 -2.4824344053699079e-05 0.030689700049619 0 -2.793457375864176e-07 0.031598804896772408 0 -9.4251214275648817e-07 0.033928240782132364 0 -1.2683816206152609e-05 0.032153401052393803 0 -2.793457375864176e-07 0.031598804896772408 0 5.6534127938758718e-07 0.029275526148444541 0 -4.2476407661997141e-05 0.030143967171302157 0 0.00027505396125678948 0.029622001090908536 0 -1.0854845279709641e-07 0.029271663554857726 0 0.00039702672484963255 0.02744010304414787 0 5.6534127938758718e-07 0.029275526148444541 0 0.00027505396125678948 0.029622001090908536 0 0.00067802102295462128 0.029152137720110837 0 -2.793457375864176e-07 0.031598804896772408 0 5.6534127938758718e-07 0.029275526148444541 0 -4.2476407661997141e-05 0.030143967171302157 0 -2.4824344053699079e-05 0.030689700049619 0 -4.2476407661997141e-05 0.030143967171302157 0 0.00014700978259395725 0.02981120055782345 0 0.00014700978259395725 0.02981120055782345 0 0.00027505396125678948 0.029622001090908536 0 0.00051875079823973072 0.029229147968168192 0 -4.2476407661997141e-05 0.030143967171302157 0 0.00014700978259395725 0.02981120055782345 0 0.00027505396125678948 0.029622001090908536 0 0.00014700978259395725 0.02981120055782345 0 0.00028660839375507313 0.029374101370205428 0 0.00051875079823973072 0.029229147968168192 0 0.00014700978259395725 0.02981120055782345 0 0.00012555862368417617 0.029792802221215935 0 0.00028660839375507313 0.029374101370205428 0 -2.4824344053699079e-05 0.030689700049619 0 0.00014700978259395725 0.02981120055782345 0 0.00012555862368417617 0.029792802221215935 0 0.00018562057358135808 0.029346673013315745 0 0.00021275135713629437 0.029932048641055777 0 0.00012555862368417617 0.029792802221215935 0 -0.00058545060163625161 0.030399114960955712 0 -0.00057626074260405864 0.03064236010935863 0 -0.00073467561574464988 0.031231529016701558 0 0.00018562057358135808 0.029346673013315745 0 0.00012555862368417617 0.029792802221215935 0 0.00028660839375507313 0.029374101370205428 0 -0.00014670476775228294 0.029914596079205651 0 -0.00026683870922505941 0.030590487349918195 0 0.00037744087925106539 0.029170045636265473 0 0.00018562057358135808 0.029346673013315745 0 0.00028660839375507313 0.029374101370205428 0 0.00037744087925106539 0.029170045636265473 0 0.00028660839375507313 0.029374101370205428 0 0.00072225716949809874 0.028850882365032228 0 0.00072225716949809874 0.028850882365032228 0 0.0014419759454362413 0.028044845358288991 0 0.00074031321496877633 0.028923688427817014 0 0.00037744087925106539 0.029170045636265473 0 0.00072225716949809874 0.028850882365032228 0 0.00074031321496877633 0.028923688427817014 0 0.00072225716949809874 0.028850882365032228 0 0.0014419759454362413 0.028044845358288991 0 0.00090378677196229623 0.028724206190467956 0 0.0014419759454362413 0.028044845358288991 0 0.00090378677196229623 0.028724206190467956 0 0.0011546828036012276 0.028379018221129922 0 0.00072225716949809874 0.028850882365032228 0 0.00090378677196229623 0.028724206190467956 0 0.00051875079823973072 0.029229147968168192 0 0.00028660839375507313 0.029374101370205428 0 0.00072225716949809874 0.028850882365032228 0 0.00051875079823973072 0.029229147968168192 0 0.00027505396125678948 0.029622001090908536 0 0.00051875079823973072 0.029229147968168192 0 0.00067802102295462128 0.029152137720110837 0 0.00090378677196229623 0.028724206190467956 0 0.00051875079823973072 0.029229147968168192 0 0.00067802102295462128 0.029152137720110837 0 0.00039702672484963255 0.02744010304414787 0 0.00077817515476124471 0.025664961326589492 0 0.00090378677196229623 0.028724206190467956 0 0.00067802102295462128 0.029152137720110837 0 0.0011546828036012276 0.028379018221129922 0 0.00015757817560463366 0.025262678933059508 0 0.00035430594680340799 0.025860649541672217 0 0.00050023477593425121 0.022996643227014838 0 0.00015757817560463366 0.025262678933059508 0 5.6939109301494292e-07 0.027092020669716107 0 1.5005691177406858e-07 0.024912990201241315 0 0.00015757817560463366 0.025262678933059508 0 1.5005691177406858e-07 0.024912990201241315 0 0.00050023477593425121 0.022996643227014838 0 0.00015757817560463366 0.025262678933059508 0 5.6939109301494292e-07 0.027092020669716107 0 0.00035430594680340799 0.025860649541672217 0 7.9615918674116269e-07 0.029271123413878948 0 5.6939109301494292e-07 0.027092020669716107 0 0.00035430594680340799 0.025860649541672217 0 1.2442579343285572e-07 0.022733998392272164 0 1.5005691177406858e-07 0.024912990201241315 0 0.00010490442108679409 0.022554393207518529 0 -0.00022812141586148744 0.0212632138219307 0 1.2442579343285572e-07 0.022733998392272164 0 0.00010490442108679409 0.022554393207518529 0 1.5005691177406858e-07 0.024912990201241315 0 0.00050023477593425121 0.022996643227014838 0 0.00010490442108679409 0.022554393207518529 0 0.00050023477593425121 0.022996643227014838 0 0.00010490442108679409 0.022554393207518529 0 0.00042020620452917453 0.020301792697571271 0 -0.00022812141586148744 0.0212632138219307 0 0.00010490442108679409 0.022554393207518529 0 0.00042020620452917453 0.020301792697571271 0 0.00077817515476124471 0.025664961326589492 0 0.00095343326829558405 0.023876507180169499 0 0.0014419759454362413 0.028044845358288991 0 0.0011546828036012276 0.028379018221129922 0 0.0016289780622611419 0.027508956525235915 0 0.0014419759454362413 0.028044845358288991 0 0.0016289780622611419 0.027508956525235915 0 0.001905343185556791 0.026807353957198243 0 0.0021245256079905003 0.025636649307551898 0 0.001905343185556791 0.026807353957198243 0 0.0019921463651316257 0.027037123167414662 0 0.0021245256079905003 0.025636649307551898 0 0.0019921463651316257 0.027037123167414662 0 0.0021831958441419375 0.025895939517926684 0 0.0014419759454362413 0.028044845358288991 0 0.001905343185556791 0.026807353957198243 0 0.0019921463651316257 0.027037123167414662 0 0.0014419759454362413 0.028044845358288991 0 0.00074031321496877633 0.028923688427817014 0 0.0010857820634300509 0.028973734260550579 0 0.0014419759454362413 0.028044845358288991 0 0.0019921463651316257 0.027037123167414662 0 0.0010857820634300509 0.028973734260550579 0 0.00026231585652989486 0.029598944131054419 0 0.00037744087925106539 0.029170045636265473 0 0.00074031321496877633 0.028923688427817014 0 0.00026231585652989486 0.029598944131054419 0 0.00074031321496877633 0.028923688427817014 0 0.0010857820634300509 0.028973734260550579 0 0.00026231585652989486 0.029598944131054419 0 -0.00030333834933651122 0.030201624653190672 0 0.0010857820634300509 0.028973734260550579 0 0.0024126074267223955 0.026713617807344683 0 0.0021613242540043827 0.026722598516487051 0 0.0023333105466363992 0.026697796499293405 0 0.0017970722786498571 0.026383611812498303 0 0.0024126074267223955 0.026713617807344683 0 0.0021613242540043827 0.026722598516487051 0 0.00071025172804359184 0.028275444391365763 0 0.0016482767880133694 0.027805387072371481 0 0.0019013133248412476 0.027176598027071754 0 0.0016482767880133694 0.027805387072371481 0 0.0019921463651316257 0.027037123167414662 0 0.0024126074267223955 0.026713617807344683 0 0.0023732735998397403 0.026429410670986076 0 0.0024126074267223955 0.026713617807344683 0 0.0023333105466363992 0.026697796499293405 0 0.0023732735998397403 0.026429410670986076 0 0.0022458094068931104 0.026990916605929619 0 0.0023333105466363992 0.026697796499293405 0 0.0023732735998397403 0.026429410670986076 0 0.0021613242540043827 0.026722598516487051 0 0.0022458094068931104 0.026990916605929619 0 0.0023333105466363992 0.026697796499293405 0 0.0022458094068931104 0.026990916605929619 0 0.0024001794458681706 0.02676977463593759 0 0.0020239128989206724 0.027788799633197813 0 0.0022458094068931104 0.026990916605929619 0 0.0023732735998397403 0.026429410670986076 0 0.0024001794458681706 0.02676977463593759 0 0.0021831958441419375 0.025895939517926684 0 0.0023732735998397403 0.026429410670986076 0 0.0023074375680420525 0.025927866542164175 0 0.0023732735998397403 0.026429410670986076 0 0.0023074375680420525 0.025927866542164175 0 0.0024001794458681706 0.02676977463593759 0 0.0022518168974074459 0.025262921882132961 0 0.0021831958441419375 0.025895939517926684 0 0.0023074375680420525 0.025927866542164175 0 0.0019921463651316257 0.027037123167414662 0 0.0021831958441419375 0.025895939517926684 0 0.0023732735998397403 0.026429410670986076 0 0.010393728969953961 0.033345283730452355 0 0.0081069293754559152 0.033487004852713532 0 0.0091585082065881538 0.031594935248828913 0 0.0081069293754559152 0.033487004852713532 0 0.0091585082065881538 0.031594935248828913 0 0.0068383871063500681 0.031492335214840177 0 0.0057030962873088403 0.028771111222211196 0 0.0045666123135902122 0.029131087135817562 0 0.0068383871063500681 0.031492335214840177 0 0.0058211264435534295 0.033401003625474976 0 0.0045063740941031685 0.031254377038500897 0 0.0045666123135902122 0.029131087135817562 0 0.0032045425447902098 0.029516712044720558 0 0.0081069293754559152 0.033487004852713532 0 0.0068383871063500681 0.031492335214840177 0 0.0058211264435534295 0.033401003625474976 0 0.0081069293754559152 0.033487004852713532 0 0.0058211264435534295 0.033401003625474976 0 0.007143495870354997 0.035495351435250073 0 0.0058211264435534295 0.033401003625474976 0 0.007143495870354997 0.035495351435250073 0 0.0049082786199691726 0.035465441365651162 0 0.0071635370563142156 0.035935079417872509 0 0.0049586634052980576 0.036107042834889087 0 0.0070592084723105726 0.036396027652203851 0 0.0060446149438676804 0.038027051233520959 0 0.0049991005424057395 0.036764502719649317 0 0.0070592084723105726 0.036396027652203851 0 0.0094076524917640018 0.03570274346278858 0 0.008272471574957382 0.037296923493210975 0 0.0071635370563142156 0.035935079417872509 0 0.009328490177380553 0.035753006119956972 0 0.0081069293754559152 0.033487004852713532 0 0.007143495870354997 0.035495351435250073 0 0.0094076524917640018 0.03570274346278858 0 0.010393728969953961 0.033345283730452355 0 0.0081069293754559152 0.033487004852713532 0 0.0094076524917640018 0.03570274346278858 0 0.01089736305887886 0.035900587617871439 0 0.0094076524917640018 0.03570274346278858 0 0.0097418547671172979 0.037322323979873485 0 0.0094076524917640018 0.03570274346278858 0 0.0097418547671172979 0.037322323979873485 0 0.008272471574957382 0.037296923493210975 0 0.0097418547671172979 0.037322323979873485 0 0.008272471574957382 0.037296923493210975 0 0.0086698782200326802 0.038584638152710467 0 0.0097418547671172979 0.037322323979873485 0 0.0086698782200326802 0.038584638152710467 0 0.010019143027705332 0.038492874140707546 0 0.008272471574957382 0.037296923493210975 0 0.0086698782200326802 0.038584638152710467 0 0.0073370058676676753 0.038799475477417238 0 0.0086698782200326802 0.038584638152710467 0 0.0093164184944156351 0.04017833022083539 0 0.007858908707023729 0.039800567700677254 0 0.0086698782200326802 0.038584638152710467 0 0.007858908707023729 0.039800567700677254 0 0.0073370058676676753 0.038799475477417238 0 0.0086698782200326802 0.038584638152710467 0 0.010019143027705332 0.038492874140707546 0 0.0093164184944156351 0.04017833022083539 0 0.0096648628885351046 0.039477206036952678 0 0.0088012742295518875 0.040937424710070287 0 0.010000780152185461 0.040573416973371509 0 0.010584346303119593 0.040002988946220105 0 0.0096648628885351046 0.039477206036952678 0 0.010000780152185461 0.040573416973371509 0 0.0093164184944156351 0.04017833022083539 0 0.007858908707023729 0.039800567700677254 0 0.0072113540196521277 0.041307904587659504 0 0.0096648628885351046 0.039477206036952678 0 0.0088012742295518875 0.040937424710070287 0 0.0075584266157583653 0.040504512319190472 0 0.0095029465226156261 0.039815071496622938 0 0.0073723270187169053 0.04092838375136873 0 0.0088012742295518875 0.040937424710070287 0 0.0075584266157583653 0.040504512319190472 0 0.0081806551552832639 0.042024952671998191 0 0.0088012742295518875 0.040937424710070287 0 0.0090468275524240131 0.042106000393970701 0 0.0081806551552832639 0.042024952671998191 0 0.0088012742295518875 0.040937424710070287 0 0.0097437724394579643 0.041421607669915567 0 0.0090468275524240131 0.042106000393970701 0 0.0088012742295518875 0.040937424710070287 0 0.0097437724394579643 0.041421607669915567 0 0.010000780152185461 0.040573416973371509 0 0.010407379413202879 0.041028064694509148 0 0.0097437724394579643 0.041421607669915567 0 0.010492387847392782 0.041681503950111075 0 0.010407379413202879 0.041028064694509148 0 0.0097437724394579643 0.041421607669915567 0 0.010000780152185461 0.040573416973371509 0 0.010407379413202879 0.041028064694509148 0 0.010758125502548004 0.040496083373724658 0 0.010000780152185461 0.040573416973371509 0 0.0053883179647560451 0.04206213002515815 0 0.0058415882703308324 0.0407252416608722 0 0.0044175568319184365 0.041251612001226338 0 0.0075584266157583653 0.040504512319190472 0 0.006843481389412656 0.042075918749541794 0 0.0081806551552832639 0.042024952671998191 0 0.0053883179647560451 0.04206213002515815 0 0.0075584266157583653 0.040504512319190472 0 0.006843481389412656 0.042075918749541794 0 0.0055257361870488823 0.041965939929222727 0 0.0073723270187169053 0.04092838375136873 0 0.0053883179647560451 0.04206213002515815 0 0.0072113540196521277 0.041307904587659504 0 0.0058415882703308324 0.0407252416608722 0 0.0072113540196521277 0.041307904587659504 0 0.0068457979144130564 0.040093437693132117 0 0.0058415882703308324 0.0407252416608722 0 0.007858908707023729 0.039800567700677254 0 0.0072113540196521277 0.041307904587659504 0 0.0068457979144130564 0.040093437693132117 0 0.0068457979144130564 0.040093437693132117 0 0.0058415882703308324 0.0407252416608722 0 0.0062427981810691986 0.039223537109275827 0 0.0058415882703308324 0.0407252416608722 0 0.0051847426082055215 0.039723212612602671 0 0.0044175568319184365 0.041251612001226338 0 0.0058415882703308324 0.0407252416608722 0 0.0051847426082055215 0.039723212612602671 0 0.0062427981810691986 0.039223537109275827 0 0.0051847426082055215 0.039723212612602671 0 0.0062427981810691986 0.039223537109275827 0 0.0060446149438676804 0.038027051233520959 0 0.0062427981810691986 0.039223537109275827 0 0.0073370058676676753 0.038799475477417238 0 0.0060446149438676804 0.038027051233520959 0 0.007858908707023729 0.039800567700677254 0 0.0068457979144130564 0.040093437693132117 0 0.0073370058676676753 0.038799475477417238 0 0.0068457979144130564 0.040093437693132117 0 0.0062427981810691986 0.039223537109275827 0 0.0073370058676676753 0.038799475477417238 0 0.0070592084723105726 0.036396027652203851 0 0.008272471574957382 0.037296923493210975 0 0.0060446149438676804 0.038027051233520959 0 0.008272471574957382 0.037296923493210975 0 0.0073370058676676753 0.038799475477417238 0 0.0060446149438676804 0.038027051233520959 0 0.0051847426082055215 0.039723212612602671 0 0.0060446149438676804 0.038027051233520959 0 0.004441203425346354 0.03851592684096164 0 0.0060446149438676804 0.038027051233520959 0 0.004441203425346354 0.03851592684096164 0 0.0049991005424057395 0.036764502719649317 0 0.004441203425346354 0.03851592684096164 0 0.0027735345507920632 0.039015107139289046 0 0.002763569831070701 0.036669211034351376 0 0.004441203425346354 0.03851592684096164 0 0.0027735345507920632 0.039015107139289046 0 0.0039112843552038352 0.039931758832202929 0 0.0039112843552038352 0.039931758832202929 0 0.0033405384343583584 0.040997481846348285 0 0.0024024911095043475 0.040500420236470464 0 0.0027735345507920632 0.039015107139289046 0 0.0039112843552038352 0.039931758832202929 0 0.0024024911095043475 0.040500420236470464 0 0.0051847426082055215 0.039723212612602671 0 0.004441203425346354 0.03851592684096164 0 0.0039112843552038352 0.039931758832202929 0 0.0039112843552038352 0.039931758832202929 0 0.0044175568319184365 0.041251612001226338 0 0.0033405384343583584 0.040997481846348285 0 0.0051847426082055215 0.039723212612602671 0 0.0039112843552038352 0.039931758832202929 0 0.0044175568319184365 0.041251612001226338 0 0.0033405384343583584 0.040997481846348285 0 0.0024348053391252335 0.04149929643641951 0 0.0024024911095043475 0.040500420236470464 0 0.0033405384343583584 0.040997481846348285 0 0.0033247386206710933 0.041824249127049025 0 0.0024348053391252335 0.04149929643641951 0 0.0044175568319184365 0.041251612001226338 0 0.0033405384343583584 0.040997481846348285 0 0.0033247386206710933 0.041824249127049025 0 0.0033247386206710933 0.041824249127049025 0 0.0023743439349331375 0.042224410379894391 0 0.0037951610548001462 0.042748177876299503 0 0.0044175568319184365 0.041251612001226338 0 0.0033247386206710933 0.041824249127049025 0 0.0037951610548001462 0.042748177876299503 0 0.0053883179647560451 0.04206213002515815 0 0.0044175568319184365 0.041251612001226338 0 0.0037951610548001462 0.042748177876299503 0 0.0017833886619890761 0.042110141148227531 0 0.0020419125899155044 0.042339388649539199 0 0.0017833886619890761 0.042110141148227531 0 0.002569452641969209 0.04117733130878308 0 0.0029992242912857039 0.040512653134939895 0 0.0026901843039147093 0.040346949446398078 0 0.0028046988340269339 0.040164586271134672 0 0.001429101338744688 0.041906679629483606 0 0.0023743439349331375 0.042224410379894391 0 0.0024348053391252335 0.04149929643641951 0 0.0033247386206710933 0.041824249127049025 0 0.0023743439349331375 0.042224410379894391 0 0.0024348053391252335 0.04149929643641951 0 0.0024348053391252335 0.04149929643641951 0 0.0024024911095043475 0.040500420236470464 0 0.0019550573813118619 0.041150868749274712 0 0.001429101338744688 0.041906679629483606 0 0.0014813393618569658 0.041586194057663103 0 0.0019550573813118619 0.041150868749274712 0 0.001429101338744688 0.041906679629483606 0 0.0024348053391252335 0.04149929643641951 0 0.0019550573813118619 0.041150868749274712 0 0.0016620716970058413 0.041013342637335075 0 0.001780348946839575 0.04028127119803912 0 0.0012896418800982144 0.041496236294344534 0 0.0014813393618569658 0.041586194057663103 0 0.0016620716970058413 0.041013342637335075 0 0.0019550573813118619 0.041150868749274712 0 0.0014813393618569658 0.041586194057663103 0 0.0016620716970058413 0.041013342637335075 0 0.0012896418800982144 0.041496236294344534 0 0.0016620716970058413 0.041013342637335075 0 0.0024024911095043475 0.040500420236470464 0 0.0019550573813118619 0.041150868749274712 0 0.0016620716970058413 0.041013342637335075 0 0.0024024911095043475 0.040500420236470464 0 0.001780348946839575 0.04028127119803912 0 0.0027735345507920632 0.039015107139289046 0 0.00044907336487281916 0.03842097231974971 0 0.002763569831070701 0.036669211034351376 0 0.002719658686746871 0.039144611649651107 0 0.0012544321075158196 0.039344474349525635 0 0.0027735345507920632 0.039015107139289046 0 0.0024024911095043475 0.040500420236470464 0 0.001780348946839575 0.04028127119803912 0 0.0012544321075158196 0.039344474349525635 0 -0.00038033880030778671 0.03954240872426406 0 0.00044907336487281916 0.03842097231974971 0 -0.0016278771027075924 0.036549008617829053 0 -0.0019559725026312832 0.037920338366344258 0 0.001780348946839575 0.04028127119803912 0 0.0011804632839789147 0.041243849783264605 0 0.0012896418800982144 0.041496236294344534 0 0.00044907336487281916 0.03842097231974971 0 -0.00035277449270738084 0.035976217039112461 0 -0.0016278771027075924 0.036549008617829053 0 -0.00035277449270738084 0.035976217039112461 0 -0.0012519744712464604 0.033965807783153529 0 -0.0016278771027075924 0.036549008617829053 0 -0.00035277449270738084 0.035976217039112461 0 0.0011773539654158964 0.033400201590583697 0 -0.0012519744712464604 0.033965807783153529 0 -0.00035277449270738084 0.035976217039112461 0 0.0024874474551382915 0.035615985183206321 0 0.0011773539654158964 0.033400201590583697 0 -0.00024297496391917188 0.036000213844533641 0 0.0025430313268100828 0.036124007711099679 0 0.00044907336487281916 0.03842097231974971 0 -0.00035277449270738084 0.035976217039112461 0 0.002763569831070701 0.036669211034351376 0 0.004441203425346354 0.03851592684096164 0 0.002763569831070701 0.036669211034351376 0 0.0049991005424057395 0.036764502719649317 0 0.0025430313268100828 0.036124007711099679 0 0.0049586634052980576 0.036107042834889087 0 0.0058211264435534295 0.033401003625474976 0 0.0049082786199691726 0.035465441365651162 0 0.0035443816986999908 0.033352424850573124 0 0.0024874474551382915 0.035615985183206321 0 0.0049082786199691726 0.035465441365651162 0 0.0035443816986999908 0.033352424850573124 0 0.0024874474551382915 0.035615985183206321 0 0.0035443816986999908 0.033352424850573124 0 0.0011773539654158964 0.033400201590583697 0 0.0035443816986999908 0.033352424850573124 0 0.0019253014336802249 0.030821107362944047 0 0.0011773539654158964 0.033400201590583697 0 0.0058211264435534295 0.033401003625474976 0 0.0035443816986999908 0.033352424850573124 0 0.0045063740941031685 0.031254377038500897 0 0.0035443816986999908 0.033352424850573124 0 0.0045063740941031685 0.031254377038500897 0 0.0019253014336802249 0.030821107362944047 0 0.0032045425447902098 0.029516712044720558 0 0.0012917229032719676 0.029878834956588499 0 0.0019253014336802249 0.030821107362944047 0 -0.0011595931057471131 0.030206453964633548 0 0.0011773539654158964 0.033400201590583697 0 0.0012917229032719676 0.029878834956588499 0 -0.001109034978912846 0.030143543714891766 0 -0.0011595931057471131 0.030206453964633548 0 0.0011773539654158964 0.033400201590583697 0 -0.0012519744712464604 0.033965807783153529 0 -0.0030788113183176434 0.032457887663942635 0 -0.0059046456146481562 0.032711178082383496 0 -0.0046510740681010706 0.035045361152062096 0 -0.0030788113183176434 0.032457887663942635 0 -0.0043178351575233788 0.030901103851793323 0 -0.0059046456146481562 0.032711178082383496 0 -0.0011595931057471131 0.030206453964633548 0 -0.0030788113183176434 0.032457887663942635 0 -0.0012519744712464604 0.033965807783153529 0 -0.0029095108123706648 0.02955604844759134 0 -0.0011595931057471131 0.030206453964633548 0 -0.0030788113183176434 0.032457887663942635 0 -0.0046519803203155918 0.029328021594463436 0 -0.0029095108123706648 0.02955604844759134 0 -0.0043178351575233788 0.030901103851793323 0 -0.0029095108123706648 0.02955604844759134 0 -0.0030788113183176434 0.032457887663942635 0 -0.0043178351575233788 0.030901103851793323 0 -0.0046519803203155918 0.029328021594463436 0 -0.0043178351575233788 0.030901103851793323 0 -0.0059107551539323722 0.030338723620469701 0 -0.0043178351575233788 0.030901103851793323 0 -0.0059107551539323722 0.030338723620469701 0 -0.0059046456146481562 0.032711178082383496 0 -0.0059107551539323722 0.030338723620469701 0 -0.0077790198503323981 0.030930172663775016 0 -0.0059046456146481562 0.032711178082383496 0 -0.0064981048708071107 0.028589562259192434 0 -0.0059107551539323722 0.030338723620469701 0 -0.0077790198503323981 0.030930172663775016 0 -0.0077790198503323981 0.030930172663775016 0 -0.00815769455318072 0.033213169719872815 0 -0.0059046456146481562 0.032711178082383496 0 -0.0059046456146481562 0.032711178082383496 0 -0.006493952859838498 0.035069862223774916 0 -0.0046510740681010706 0.035045361152062096 0 -0.00815769455318072 0.033213169719872815 0 -0.0059046456146481562 0.032711178082383496 0 -0.006493952859838498 0.035069862223774916 0 -0.0032764927965229845 0.039464657918256589 0 -0.0031913736810851327 0.039546476162570232 0 -0.0032493579645691403 0.039559793666992589 0 -0.0061550766582107539 0.035843740969747157 0 -0.0049249716910487818 0.037245023718747709 0 -0.0032493579645691403 0.039559793666992589 0 -0.0032069368704740215 0.039611280477941838 0 -0.003304128885748788 0.039600860733521023 0 0.00027714425404892778 0.043227699289598097 0 0.00026028102496757842 0.043327443836196897 0 0.0002307287495582227 0.043466238878152909 0 -0.0011025717661453452 0.041631825148568266 0 -0.0017782762323397126 0.041382765501114034 0 -0.0031913736810851327 0.039546476162570232 0 -0.0032493579645691403 0.039559793666992589 0 -0.0032069368704740215 0.039611280477941838 0 0.00027714425404892778 0.043227699289598097 0 0.00019251070726337979 0.042956026545198416 0 0.00026028102496757842 0.043327443836196897 0 -0.006493952859838498 0.035069862223774916 0 -0.0047969306403178574 0.036994118456679867 0 -0.0046510740681010706 0.035045361152062096 0 -0.0011025717661453452 0.041631825148568266 0 -0.0029902656954644987 0.039089911671078316 0 -0.0031913736810851327 0.039546476162570232 0 -0.0032069368704740215 0.039611280477941838 0 -0.0031069653760878728 0.039630872529168006 0 -0.0049249716910487818 0.037245023718747709 0 -0.0029902656954644987 0.039089911671078316 0 0.00027714425404892778 0.043227699289598097 0 -0.00020693964101419586 0.04299430213666957 0 0.00019251070726337979 0.042956026545198416 0 -0.0047969306403178574 0.036994118456679867 0 -0.0033601280830264169 0.036335094312407154 0 -0.0046510740681010706 0.035045361152062096 0 -0.0047969306403178574 0.036994118456679867 0 -0.0033601280830264169 0.036335094312407154 0 -0.0023684190400691716 0.037709562172170537 0 -0.0033601280830264169 0.036335094312407154 0 -0.0046510740681010706 0.035045361152062096 0 -0.0026873089680900706 0.035139251419991947 0 -0.0030788113183176434 0.032457887663942635 0 -0.0046510740681010706 0.035045361152062096 0 -0.0026873089680900706 0.035139251419991947 0 -0.0012519744712464604 0.033965807783153529 0 -0.0026873089680900706 0.035139251419991947 0 -0.0016278771027075924 0.036549008617829053 0 -0.0030788113183176434 0.032457887663942635 0 -0.0012519744712464604 0.033965807783153529 0 -0.0026873089680900706 0.035139251419991947 0 -0.0026873089680900706 0.035139251419991947 0 -0.0025079085353691558 0.036514709670538228 0 -0.0016278771027075924 0.036549008617829053 0 -0.0033601280830264169 0.036335094312407154 0 -0.0026873089680900706 0.035139251419991947 0 -0.0025079085353691558 0.036514709670538228 0 -0.0033601280830264169 0.036335094312407154 0 -0.0025079085353691558 0.036514709670538228 0 -0.0023684190400691716 0.037709562172170537 0 -0.0025079085353691558 0.036514709670538228 0 -0.0016278771027075924 0.036549008617829053 0 -0.0023684190400691716 0.037709562172170537 0 -0.0016278771027075924 0.036549008617829053 0 -0.0019559725026312832 0.037920338366344258 0 -0.0023684190400691716 0.037709562172170537 0 -0.0019559725026312832 0.037920338366344258 0 -0.0023684190400691716 0.037709562172170537 0 -0.0039069474001276897 0.037685574237944997 0 0.0011804632839789147 0.041243849783264605 0 0.0010086646669175095 0.041564895910828598 0 0.00088147180873630871 0.04169329430198368 0 0.0010489022859888643 0.041594147713629875 0 0.0008857916824907844 0.041934882350108074 0 0.0012896418800982144 0.041496236294344534 0 0.0011804632839789147 0.041243849783264605 0 0.0010489022859888643 0.041594147713629875 0 0.0010086646669175095 0.041564895910828598 0 0.00092781250015708196 0.041726819728869428 0 0.0010086646669175095 0.041564895910828598 0 0.00088147180873630871 0.04169329430198368 0 0.0010489022859888643 0.041594147713629875 0 0.00092781250015708196 0.041726819728869428 0 0.0010086646669175095 0.041564895910828598 0 0.0010489022859888643 0.041594147713629875 0 0.00092781250015708196 0.041726819728869428 0 0.0008857916824907844 0.041934882350108074 0 0.0011804632839789147 0.041243849783264605 0 0.0010489022859888643 0.041594147713629875 0 0.0012896418800982144 0.041496236294344534 0 -0.004351883975697508 0.037223098430004223 0 -0.0023684190400691716 0.037709562172170537 0 -0.0039069474001276897 0.037685574237944997 0 0.0011804632839789147 0.041243849783264605 0 0.00056257007878184311 0.042095080894747117 0 0.00088147180873630871 0.04169329430198368 0 -0.0029902656954644987 0.039089911671078316 0 -0.0032290063957897347 0.037271067059770603 0 -0.00038033880030778671 0.03954240872426406 0 -0.0013812531699622726 0.040842483196200041 0 0.00050340573034984284 0.042281505162907219 0 0.00056257007878184311 0.042095080894747117 0 0.00034626731822989083 0.042623176297250362 0 0.00050340573034984284 0.042281505162907219 0 0.00056012070993879514 0.042141729524451221 0 0.00057068577197222727 0.042211864918440034 0 0.00050340573034984284 0.042281505162907219 0 0.00056257007878184311 0.042095080894747117 0 0.00056012070993879514 0.042141729524451221 0 -0.0029902656954644987 0.039089911671078316 0 -0.0013812531699622726 0.040842483196200041 0 0.00056012070993879514 0.042141729524451221 0 0.00063963726637360501 0.042068993432133273 0 0.00057068577197222727 0.042211864918440034 0 0.00056257007878184311 0.042095080894747117 0 0.00065587245454729992 0.042000714433497614 0 0.00073061489253040395 0.041903418439265205 0 0.00056257007878184311 0.042095080894747117 0 0.00065587245454729992 0.042000714433497614 0 0.00056012070993879514 0.042141729524451221 0 0.00065587245454729992 0.042000714433497614 0 0.00056012070993879514 0.042141729524451221 0 0.00063963726637360501 0.042068993432133273 0 0.00056257007878184311 0.042095080894747117 0 0.00073061489253040395 0.041903418439265205 0 0.00088147180873630871 0.04169329430198368 0 0.00065587245454729992 0.042000714433497614 0 0.00063963726637360501 0.042068993432133273 0 0.00073061489253040395 0.041903418439265205 0 0.00073061489253040395 0.041903418439265205 0 0.00088147180873630871 0.04169329430198368 0 0.00080922844832674362 0.041864101603830681 0 0.00092781250015708196 0.041726819728869428 0 0.00080922844832674362 0.041864101603830681 0 0.0008857916824907844 0.041934882350108074 0 0.00092781250015708196 0.041726819728869428 0 0.00088147180873630871 0.04169329430198368 0 0.00080922844832674362 0.041864101603830681 0 0.00080922844832674362 0.041864101603830681 0 0.00069234097276565281 0.04206630504393661 0 0.0008857916824907844 0.041934882350108074 0 0.00069234097276565281 0.04206630504393661 0 0.00068899057920139995 0.042205269705243124 0 0.0008857916824907844 0.041934882350108074 0 0.00063963726637360501 0.042068993432133273 0 0.00073061489253040395 0.041903418439265205 0 0.00069234097276565281 0.04206630504393661 0 0.00073061489253040395 0.041903418439265205 0 0.00080922844832674362 0.041864101603830681 0 0.00069234097276565281 0.04206630504393661 0 0.00069234097276565281 0.04206630504393661 0 0.00057068577197222727 0.042211864918440034 0 0.00054831389601020422 0.0423348806081255 0 0.00063963726637360501 0.042068993432133273 0 0.00069234097276565281 0.04206630504393661 0 0.00057068577197222727 0.042211864918440034 0 0.00069234097276565281 0.04206630504393661 0 0.00054831389601020422 0.0423348806081255 0 0.00068899057920139995 0.042205269705243124 0 0.00057068577197222727 0.042211864918440034 0 0.00054831389601020422 0.0423348806081255 0 0.00046562341902884425 0.042410112249054145 0 0.00050340573034984284 0.042281505162907219 0 0.00057068577197222727 0.042211864918440034 0 0.00046562341902884425 0.042410112249054145 0 0.00052057601464310511 0.042518003152132916 0 0.00068899057920139995 0.042205269705243124 0 0.00077277057854956285 0.042322288753708748 0 0.00054831389601020422 0.0423348806081255 0 0.00052057601464310511 0.042518003152132916 0 0.00040043160204047197 0.04261012853778174 0 0.00054831389601020422 0.0423348806081255 0 0.00052057601464310511 0.042518003152132916 0 0.00068899057920139995 0.042205269705243124 0 0.00068899057920139995 0.042205269705243124 0 0.0008857916824907844 0.041934882350108074 0 0.00077277057854956285 0.042322288753708748 0 0.0008857916824907844 0.041934882350108074 0 0.00077277057854956285 0.042322288753708748 0 0.0011859800424708869 0.042128323809130667 0 0.00052057601464310511 0.042518003152132916 0 0.00077277057854956285 0.042322288753708748 0 0.00045475921068371879 0.042842242431316201 0 0.0008857916824907844 0.041934882350108074 0 0.0012896418800982144 0.041496236294344534 0 0.0011859800424708869 0.042128323809130667 0 0.0014813393618569658 0.041586194057663103 0 0.0012896418800982144 0.041496236294344534 0 0.0011859800424708869 0.042128323809130667 0 0.0021009418473164135 0.043516314178737144 0 0.0011859800424708869 0.042128323809130667 0 0.00053155046091558412 0.043044569160667304 0 0.0017833886619890761 0.042110141148227531 0 0.00049914958499934503 0.043391108852024775 0 0.001429101338744688 0.041906679629483606 0 0.0014813393618569658 0.041586194057663103 0 0.0011859800424708869 0.042128323809130667 0 0.0017833886619890761 0.042110141148227531 0 0.0012861279003942004 0.042333875528704462 0 0.00077277057854956285 0.042322288753708748 0 0.0011859800424708869 0.042128323809130667 0 0.00053155046091558412 0.043044569160667304 0 0.00077277057854956285 0.042322288753708748 0 0.00045475921068371879 0.042842242431316201 0 0.00053155046091558412 0.043044569160667304 0 0.00045475921068371879 0.042842242431316201 0 0.00053155046091558412 0.043044569160667304 0 0.00034760801854531026 0.043213512267722881 0 0.00059219567065048535 0.043399082690330507 0 0.00034931052292988031 0.043511555050113622 0 0.0005011512671517362 0.043558735250147189 0 0.00053155046091558412 0.043044569160667304 0 0.00059219567065048535 0.043399082690330507 0 0.00034931052292988031 0.043511555050113622 0 0.0007708081973636352 0.043329594137654116 0 0.00053155046091558412 0.043044569160667304 0 0.00059219567065048535 0.043399082690330507 0 0.0007708081973636352 0.043329594137654116 0 0.00059219567065048535 0.043399082690330507 0 0.00065715289705049545 0.043543057101448707 0 0.00022451431714428619 0.043637275850571276 0 0.00015144009975791742 0.043925935340578516 0 0.00024419971247912996 0.043745133766087366 0 0.00022451431714428619 0.043637275850571276 0 0.00034931052292988031 0.043511555050113622 0 0.00024419971247912996 0.043745133766087366 0 0.00022451431714428619 0.043637275850571276 0 0.00014236139297716516 0.043818033974203335 0 0.00015144009975791742 0.043925935340578516 0 0.00022451431714428619 0.043637275850571276 0 0.00034931052292988031 0.043511555050113622 0 0.00034760801854531026 0.043213512267722881 0 0.00022451431714428619 0.043637275850571276 0 0.00034760801854531026 0.043213512267722881 0 0.00024040561871426863 0.043366723934345375 0 0.00053155046091558412 0.043044569160667304 0 0.00034931052292988031 0.043511555050113622 0 0.00034760801854531026 0.043213512267722881 0 0.00045475921068371879 0.042842242431316201 0 0.00034760801854531026 0.043213512267722881 0 0.00032172624168424102 0.042949317043608402 0 0.00034760801854531026 0.043213512267722881 0 0.00024040561871426863 0.043366723934345375 0 0.00032172624168424102 0.042949317043608402 0 0.00022451431714428619 0.043637275850571276 0 0.00024040561871426863 0.043366723934345375 0 0.00018945745672094334 0.04360233225476879 0 0.00018945745672094334 0.04360233225476879 0 0.00016309670102779904 0.043596544926563771 0 0.00014236139297716516 0.043818033974203335 0 0.00022451431714428619 0.043637275850571276 0 0.00018945745672094334 0.04360233225476879 0 0.00014236139297716516 0.043818033974203335 0 0.00024040561871426863 0.043366723934345375 0 0.00018945745672094334 0.04360233225476879 0 0.00016309670102779904 0.043596544926563771 0 0.00016309670102779904 0.043596544926563771 0 0.00022216827613667759 0.04321330365559567 0 0.00018188382425502451 0.043470850299008566 0 0.00024040561871426863 0.043366723934345375 0 0.00016309670102779904 0.043596544926563771 0 0.00022216827613667759 0.04321330365559567 0 0.00022216827613667759 0.04321330365559567 0 0.00018188382425502451 0.043470850299008566 0 0.00023061775871513799 0.043172475388687001 0 0.00052057601464310511 0.042518003152132916 0 0.00045475921068371879 0.042842242431316201 0 0.00032172624168424102 0.042949317043608402 0 0.00024040561871426863 0.043366723934345375 0 0.00022216827613667759 0.04321330365559567 0 0.00032172624168424102 0.042949317043608402 0 0.00022216827613667759 0.04321330365559567 0 0.00032172624168424102 0.042949317043608402 0 0.0002582369241561081 0.042902470990118055 0 0.00032172624168424102 0.042949317043608402 0 0.00040043160204047197 0.04261012853778174 0 0.0002582369241561081 0.042902470990118055 0 0.00052057601464310511 0.042518003152132916 0 0.00032172624168424102 0.042949317043608402 0 0.00040043160204047197 0.04261012853778174 0 -0.0013812531699622726 0.040842483196200041 0 0.00084538748423439126 0.042961605624719915 0 0.00056257007878184311 0.042095080894747117 0 0.00019251070726337979 0.042956026545198416 0 0.00034626731822989083 0.042623176297250362 0 -0.00020693964101419586 0.04299430213666957 0 -0.0003460178499347529 0.042839717299537908 0 0.00019251070726337979 0.042956026545198416 0 0.00040043160204047197 0.04261012853778174 0 0.0002582369241561081 0.042902470990118055 0 0.00034626731822989083 0.042623176297250362 0 0.00050340573034984284 0.042281505162907219 0 0.00046562341902884425 0.042410112249054145 0 0.00034626731822989083 0.042623176297250362 0 0.00046562341902884425 0.042410112249054145 0 0.00040043160204047197 0.04261012853778174 0 0.00034626731822989083 0.042623176297250362 0 0.00054831389601020422 0.0423348806081255 0 0.00046562341902884425 0.042410112249054145 0 0.00040043160204047197 0.04261012853778174 0 0.0002582369241561081 0.042902470990118055 0 0.00019251070726337979 0.042956026545198416 0 0.00034626731822989083 0.042623176297250362 0 0.00018188382425502451 0.043470850299008566 0 0.00023061775871513799 0.043172475388687001 0 0.00021279108676647802 0.043423961420097079 0 0.0002582369241561081 0.042902470990118055 0 0.00019251070726337979 0.042956026545198416 0 0.00023061775871513799 0.043172475388687001 0 0.00022216827613667759 0.04321330365559567 0 0.0002582369241561081 0.042902470990118055 0 0.00023061775871513799 0.043172475388687001 0 0.00019251070726337979 0.042956026545198416 0 0.00023061775871513799 0.043172475388687001 0 0.00026028102496757842 0.043327443836196897 0 0.00023061775871513799 0.043172475388687001 0 0.00026028102496757842 0.043327443836196897 0 0.00021279108676647802 0.043423961420097079 0 0.00026028102496757842 0.043327443836196897 0 0.00017302117670230295 0.043611779456513775 0 0.00021279108676647802 0.043423961420097079 0 0.00017302117670230295 0.043611779456513775 0 0.0001358113165142763 0.043704332404315448 0 3.0750764262227284e-05 0.04400747982743089 0 0.00018188382425502451 0.043470850299008566 0 0.0001358113165142763 0.043704332404315448 0 0.00021279108676647802 0.043423961420097079 0 0.00017302117670230295 0.043611779456513775 0 0.0001358113165142763 0.043704332404315448 0 0.00021279108676647802 0.043423961420097079 0 3.0750764262227284e-05 0.04400747982743089 0 -0.00015300656152219559 0.044413294626030053 0 6.4315306187082982e-05 0.043782903693993659 0 0.00017302117670230295 0.043611779456513775 0 3.0750764262227284e-05 0.04400747982743089 0 6.4315306187082982e-05 0.043782903693993659 0 4.299928841210816e-05 0.044053210663243386 0 -2.1442093395078118e-05 0.044406703402507214 0 -7.2850487569098846e-05 0.044442422342119439 0 3.0750764262227284e-05 0.04400747982743089 0 4.299928841210816e-05 0.044053210663243386 0 -7.2850487569098846e-05 0.044442422342119439 0 0.0001358113165142763 0.043704332404315448 0 3.0750764262227284e-05 0.04400747982743089 0 4.299928841210816e-05 0.044053210663243386 0 0.00018188382425502451 0.043470850299008566 0 0.0001358113165142763 0.043704332404315448 0 0.00012158136227633506 0.043753657300748816 0 0.0001358113165142763 0.043704332404315448 0 4.299928841210816e-05 0.044053210663243386 0 0.00012158136227633506 0.043753657300748816 0 4.299928841210816e-05 0.044053210663243386 0 0.00012158136227633506 0.043753657300748816 0 9.9256573751033093e-05 0.04390220741130383 0 0.00016309670102779904 0.043596544926563771 0 0.00018188382425502451 0.043470850299008566 0 0.00012158136227633506 0.043753657300748816 0 0.00016309670102779904 0.043596544926563771 0 0.00014236139297716516 0.043818033974203335 0 9.9256573751033093e-05 0.04390220741130383 0 0.00016309670102779904 0.043596544926563771 0 0.00012158136227633506 0.043753657300748816 0 9.9256573751033093e-05 0.04390220741130383 0 9.9256573751033093e-05 0.04390220741130383 0 4.4468616142990966e-05 0.044170863975658246 0 0.00010586284776242279 0.044020886288734455 0 0.00014236139297716516 0.043818033974203335 0 9.9256573751033093e-05 0.04390220741130383 0 0.00010586284776242279 0.044020886288734455 0 4.299928841210816e-05 0.044053210663243386 0 9.9256573751033093e-05 0.04390220741130383 0 4.4468616142990966e-05 0.044170863975658246 0 4.299928841210816e-05 0.044053210663243386 0 4.4468616142990966e-05 0.044170863975658246 0 -2.1442093395078118e-05 0.044406703402507214 0 4.4468616142990966e-05 0.044170863975658246 0 1.5473727007640794e-05 0.044342237627700724 0 -2.1442093395078118e-05 0.044406703402507214 0 4.4468616142990966e-05 0.044170863975658246 0 6.8587340816298739e-05 0.044173799940930826 0 0.00010586284776242279 0.044020886288734455 0 4.4468616142990966e-05 0.044170863975658246 0 6.8587340816298739e-05 0.044173799940930826 0 1.5473727007640794e-05 0.044342237627700724 0 6.8587340816298739e-05 0.044173799940930826 0 1.5473727007640794e-05 0.044342237627700724 0 0.00010718432720966607 0.04416900906977652 0 1.5473727007640794e-05 0.044342237627700724 0 0.00010718432720966607 0.04416900906977652 0 9.8999884960263387e-05 0.044269825423608654 0 0.00010718432720966607 0.04416900906977652 0 0.00015144009975791742 0.043925935340578516 0 0.00010586284776242279 0.044020886288734455 0 0.00010718432720966607 0.04416900906977652 0 0.00015144009975791742 0.043925935340578516 0 9.9943348004169008e-05 0.044127879604622541 0 0.00014236139297716516 0.043818033974203335 0 0.00015144009975791742 0.043925935340578516 0 0.00010586284776242279 0.044020886288734455 0 6.8587340816298739e-05 0.044173799940930826 0 0.00010718432720966607 0.04416900906977652 0 0.00010586284776242279 0.044020886288734455 0 -3.0566983573926554e-05 0.044686598096528862 0 -1.3850244258578228e-08 0.044999540016889682 0 -5.3756096405407312e-08 0.044999619917813989 0 1.5473727007640794e-05 0.044342237627700724 0 -3.0566983573926554e-05 0.044686598096528862 0 -2.1442093395078118e-05 0.044406703402507214 0 1.5473727007640794e-05 0.044342237627700724 0 -3.0566983573926554e-05 0.044686598096528862 0 -2.6236680453006638e-05 0.0446131061426355 0 -3.0566983573926554e-05 0.044686598096528862 0 -2.1442093395078118e-05 0.044406703402507214 0 -3.7038748191621966e-05 0.044701087634125322 0 -2.1442093395078118e-05 0.044406703402507214 0 -3.7038748191621966e-05 0.044701087634125322 0 -7.2850487569098846e-05 0.044442422342119439 0 -3.0566983573926554e-05 0.044686598096528862 0 -3.7038748191621966e-05 0.044701087634125322 0 -1.3850244258578228e-08 0.044999540016889682 0 -3.7038748191621966e-05 0.044701087634125322 0 -1.3850244258578228e-08 0.044999540016889682 0 -1.1275257884734522e-07 0.044999367085284056 0 -3.7038748191621966e-05 0.044701087634125322 0 -1.1275257884734522e-07 0.044999367085284056 0 -7.2850487569098846e-05 0.044442422342119439 0 -1.1275257884734522e-07 0.044999367085284056 0 -7.2850487569098846e-05 0.044442422342119439 0 -0.00015300656152219559 0.044413294626030053 0 3.0750764262227284e-05 0.04400747982743089 0 -7.2850487569098846e-05 0.044442422342119439 0 -0.00015300656152219559 0.044413294626030053 0 -0.00015300656152219559 0.044413294626030053 0 6.3060167821723517e-08 0.04499956096275836 0 -6.5060865266821047e-05 0.044856817398287903 0 -1.1275257884734522e-07 0.044999367085284056 0 -0.00015300656152219559 0.044413294626030053 0 6.3060167821723517e-08 0.04499956096275836 0 6.3060167821723517e-08 0.04499956096275836 0 -6.5060865266821047e-05 0.044856817398287903 0 -1.0162224664492598e-08 0.045000248469832679 0 2.917520435349859e-08 0.044999856533641025 0 -4.2967843763267348e-05 0.044921788546916142 0 -3.1550100354233259e-05 0.044960914130088146 0 -2.0086398334442595e-07 0.044999943141473452 0 0.00010591786189628448 0.045003525224021838 0 -6.5060865266821047e-05 0.044856817398287903 0 -1.0162224664492598e-08 0.045000248469832679 0 -0.00011663258997654187 0.045012512886934704 0 0.00010591786189628448 0.045003525224021838 0 -0.0010364676687786727 0.042912978034988974 0 -4.2967843763267348e-05 0.044921788546916142 0 -8.340841173496959e-05 0.044887077347164982 0 -6.7382647720626036e-05 0.044924929202713709 0 -4.2967843763267348e-05 0.044921788546916142 0 -3.1550100354233259e-05 0.044960914130088146 0 -6.7382647720626036e-05 0.044924929202713709 0 -5.6328307499397222e-05 0.044830302306769362 0 -0.0010364676687786727 0.042912978034988974 0 -6.5060865266821047e-05 0.044856817398287903 0 -0.00011663258997654187 0.045012512886934704 0 -0.00041359984293911744 0.045002277636583411 0 -0.00015300656152219559 0.044413294626030053 0 -6.5060865266821047e-05 0.044856817398287903 0 -0.00041359984293911744 0.045002277636583411 0 6.4315306187082982e-05 0.043782903693993659 0 0.0002307287495582227 0.043466238878152909 0 -0.00011555068595873895 0.043413607665576691 0 -0.00015300656152219559 0.044413294626030053 0 6.4315306187082982e-05 0.043782903693993659 0 -0.00011555068595873895 0.043413607665576691 0 -0.0017782762323397126 0.041382765501114034 0 -0.0010364676687786727 0.042912978034988974 0 0.00026028102496757842 0.043327443836196897 0 0.00017302117670230295 0.043611779456513775 0 0.0002307287495582227 0.043466238878152909 0 0.00017302117670230295 0.043611779456513775 0 6.4315306187082982e-05 0.043782903693993659 0 0.0002307287495582227 0.043466238878152909 0 -0.0032764927965229845 0.039464657918256589 0 -0.003304128885748788 0.039600860733521023 0 -0.0033796614329206958 0.039493360978261186 0 -0.0032764927965229845 0.039464657918256589 0 -0.0032493579645691403 0.039559793666992589 0 -0.003304128885748788 0.039600860733521023 0 -8.340841173496959e-05 0.044887077347164982 0 -9.3680725032333254e-05 0.04490268172674939 0 -6.7382647720626036e-05 0.044924929202713709 0 -0.0010364676687786727 0.042912978034988974 0 -0.0018398245488911152 0.042573911537399332 0 -0.003304128885748788 0.039600860733521023 0 -0.0033980786030442011 0.039597453823186461 0 -0.0033796614329206958 0.039493360978261186 0 -9.3680725032333254e-05 0.04490268172674939 0 -8.9572270280989364e-05 0.044907021516229877 0 -6.7382647720626036e-05 0.044924929202713709 0 -9.3680725032333254e-05 0.04490268172674939 0 -8.9572270280989364e-05 0.044907021516229877 0 -0.00011121851026783049 0.044876747517695909 0 -0.0018398245488911152 0.042573911537399332 0 -0.00446513862703787 0.038176910714282988 0 -0.0061550766582107539 0.035843740969747157 0 -0.00446513862703787 0.038176910714282988 0 -0.00815769455318072 0.033213169719872815 0 -0.0098304569155830326 0.03142851176447118 0 -0.0096489942394280149 0.030981355713332423 0 -0.0032764927965229845 0.039464657918256589 0 -0.0033796614329206958 0.039493360978261186 0 -0.0033565014389534964 0.039383377970163176 0 -0.0077790198503323981 0.030930172663775016 0 -0.0096489942394280149 0.030981355713332423 0 -0.0090640641934601265 0.030728383302189573 0 -0.0077790198503323981 0.030930172663775016 0 -0.00815769455318072 0.033213169719872815 0 -0.0096489942394280149 0.030981355713332423 0 -0.00446513862703787 0.038176910714282988 0 -0.0050369309732312744 0.035364109627265695 0 -0.0051754706497935555 0.030951894912927321 0 -0.0050369309732312744 0.035364109627265695 0 -0.0045123131402596958 0.033110323262915783 0 -0.0051469249867105455 0.034616221640762106 0 -0.0057378632837812625 0.033690689940045843 0 -0.0092273659235504353 0.029944429440338476 0 -0.0096489942394280149 0.030981355713332423 0 -0.0090640641934601265 0.030728383302189573 0 -0.0050369309732312744 0.035364109627265695 0 -0.004053785802473924 0.035491270197654148 0 -0.0051754706497935555 0.030951894912927321 0 -0.004053785802473924 0.035491270197654148 0 -0.0092273659235504353 0.029944429440338476 0 -0.0077790198503323981 0.030930172663775016 0 -0.0090640641934601265 0.030728383302189573 0 -8.9572270280989364e-05 0.044907021516229877 0 -0.00010573651782345735 0.044888939163297011 0 -6.031617807116885e-05 0.044938001039632983 0 -0.0017413812044157369 0.040744408946662175 0 -6.1568818945638711e-05 0.045147820237196323 0 -0.0044256592719220701 0.037124437366781303 0 -0.0046669480550759783 0.037691589847444446 0 -0.003415719675730804 0.0381691421126472 0 -8.9572270280989364e-05 0.044907021516229877 0 -0.00011121851026783049 0.044876747517695909 0 -0.00010573651782345735 0.044888939163297011 0 -0.00446513862703787 0.038176910714282988 0 -0.0017413812044157369 0.040744408946662175 0 -0.0017413812044157369 0.040744408946662175 0 -0.004053785802473924 0.035491270197654148 0 -0.0046669480550759783 0.037691589847444446 0 -0.003415719675730804 0.0381691421126472 0 -0.0041444259154469129 0.038500993296494354 0 -6.1048509149695565e-05 0.044921906470306645 0 -7.7777966810198168e-05 0.044905371821067394 0 -6.031617807116885e-05 0.044938001039632983 0 -4.3901646235387223e-05 0.044949070399313618 0 -6.031617807116885e-05 0.044938001039632983 0 -1.3238703999828194e-07 0.044999902296348669 0 -0.00021917243014249121 0.045230076979608257 0 1.5064449819983253e-07 0.044999752175723377 0 -6.031617807116885e-05 0.044938001039632983 0 -1.3238703999828194e-07 0.044999902296348669 0 -3.1550100354233259e-05 0.044960914130088146 0 2.917520435349859e-08 0.044999856533641025 0 -1.3238703999828194e-07 0.044999902296348669 0 -3.1550100354233259e-05 0.044960914130088146 0 -6.031617807116885e-05 0.044938001039632983 0 -3.1550100354233259e-05 0.044960914130088146 0 -6.7382647720626036e-05 0.044924929202713709 0 -8.9572270280989364e-05 0.044907021516229877 0 -6.031617807116885e-05 0.044938001039632983 0 -6.7382647720626036e-05 0.044924929202713709 0 -0.00034971557575328745 0.044068037522924181 0 -0.00021380977070883944 0.043530870148639059 0 -4.927395847877928e-06 0.044992695447662955 0 -6.643515347604839e-06 0.044988608730674617 0 -1.6472129084489341e-05 0.044980321226381292 0 -4.927395847877928e-06 0.044992695447662955 0 -1.6472129084489341e-05 0.044980321226381292 0 -9.0101989536568669e-06 0.044990190799989345 0 -4.927395847877928e-06 0.044992695447662955 0 -2.4117438646386999e-09 0.044999980765459593 0 -4.6569977323784019e-09 0.044999988375006475 0 -3.0464934371967022e-09 0.044999998327269961 0 -3.8022446695927904e-06 0.04499727669876806 0 -2.6171695571524525e-06 0.044997586353118402 0 -2.4772243643344105e-08 0.044999999904459548 0 2.0093909089526343e-05 0.045004493840410428 0 -4.927395847877928e-06 0.044992695447662955 0 -2.4117438646386999e-09 0.044999980765459593 0 -6.643515347604839e-06 0.044988608730674617 0 2.0093909089526343e-05 0.045004493840410428 0 -0.00034971557575328745 0.044068037522924181 0 -3.8022446695927904e-06 0.04499727669876806 0 -8.9909343578770482e-06 0.044992775058368031 0 -2.6171695571524525e-06 0.044997586353118402 0 -3.8022446695927904e-06 0.04499727669876806 0 -8.9909343578770482e-06 0.044992775058368031 0 -8.8924790750912487e-06 0.044992899926569026 0 -0.00030246175872927598 0.044561985424217299 0 -3.0389643464574728e-05 0.045001738319732719 0 -0.0001807624148871175 0.044829161980994119 0 -0.00023263250873402293 0.044757360502739742 0 -0.00021047241314944371 0.044724325559338564 0 -0.0001807624148871175 0.044829161980994119 0 -0.00016663026389691969 0.044755517971609579 0 -0.00021047241314944371 0.044724325559338564 0 -0.0001807624148871175 0.044829161980994119 0 -0.0001739664907201247 0.04484208682875445 0 -0.00011422002116403197 0.044899726216313968 0 -0.00015915250725823598 0.044865942057091025 0 -0.00030246175872927598 0.044561985424217299 0 -0.00030246175872927598 0.044561985424217299 0 -0.00033244439332546919 0.043296447625473231 0 -0.00036725793301673073 0.043883569679017853 0 -0.00039067467203088784 0.043837955158208819 0 -0.0003146622273299969 0.043819528235556585 0 -0.00030246175872927598 0.044561985424217299 0 -0.00034971557575328745 0.044068037522924181 0 -0.00016663026389691969 0.044755517971609579 0 -0.00014891201041135194 0.044674702918700585 0 -0.0001419544332164055 0.044783393280178406 0 -0.00016663026389691969 0.044755517971609579 0 -0.0001419544332164055 0.044783393280178406 0 -0.00016548150851099171 0.044806715956844871 0 -0.0001807624148871175 0.044829161980994119 0 -0.00016663026389691969 0.044755517971609579 0 -0.00016548150851099171 0.044806715956844871 0 -0.00033244439332546919 0.043296447625473231 0 -0.00040907716035394409 0.04343830640560218 0 -0.00033244439332546919 0.043296447625473231 0 -0.00065925906514313008 0.042148400048906819 0 -0.00016663026389691969 0.044755517971609579 0 -0.00021047241314944371 0.044724325559338564 0 -0.00014891201041135194 0.044674702918700585 0 -0.000597260360587819 0.042222471735705397 0 -0.00064876047006855446 0.042269629284656995 0 -0.00066199681252276379 0.042221600760969417 0 -0.00054222650918660112 0.042229022152715547 0 -0.0005818864567234428 0.042360169036476839 0 -0.00069307803826662258 0.042424104185268527 0 -0.00047903931195392223 0.042216132387113713 0 -0.0005818864567234428 0.042360169036476839 0 -0.00033353064916345163 0.042436678233178031 0 -0.00047903931195392223 0.042216132387113713 0 -0.00054222650918660112 0.042229022152715547 0 -0.0005818864567234428 0.042360169036476839 0 -0.00034971557575328745 0.044068037522924181 0 -0.00033244439332546919 0.043296447625473231 0 -0.0005818864567234428 0.042360169036476839 0 -0.00052585496047231233 0.042495918274278753 0 -0.00033353064916345163 0.042436678233178031 0 -0.0005818864567234428 0.042360169036476839 0 -0.00052585496047231233 0.042495918274278753 0 -0.00063282374898106545 0.042421334923694057 0 -0.0005818864567234428 0.042360169036476839 0 -0.00069307803826662258 0.042424104185268527 0 -0.00063282374898106545 0.042421334923694057 0 -0.00069307803826662258 0.042424104185268527 0 -0.00063282374898106545 0.042421334923694057 0 -0.0006734797401912303 0.042452253023119189 0 -0.00052585496047231233 0.042495918274278753 0 -0.00063282374898106545 0.042421334923694057 0 -0.0006734797401912303 0.042452253023119189 0 -0.0006734797401912303 0.042452253023119189 0 -0.00069434660460981228 0.042414342650685222 0 -0.00069036922671087395 0.042415955116725447 0 -0.00076229913364156366 0.042070460127887732 0 -0.00035298437067151744 0.043541569141697878 0 -0.0006734797401912303 0.042452253023119189 0 -0.00057157328353802186 0.04263351089189385 0 -0.0006613480649406545 0.042820057088311561 0 -0.00069307803826662258 0.042424104185268527 0 -0.0006734797401912303 0.042452253023119189 0 -0.00069036922671087395 0.042415955116725447 0 -0.00052585496047231233 0.042495918274278753 0 -0.00057157328353802186 0.04263351089189385 0 -0.00040782410841970956 0.042759845683605087 0 -0.00052585496047231233 0.042495918274278753 0 -0.00033353064916345163 0.042436678233178031 0 -0.00040782410841970956 0.042759845683605087 0 -0.00052585496047231233 0.042495918274278753 0 -0.0006734797401912303 0.042452253023119189 0 -0.00057157328353802186 0.04263351089189385 0 -0.00033353064916345163 0.042436678233178031 0 -0.00017302069446588104 0.04272680236030766 0 -0.00040782410841970956 0.042759845683605087 0 -0.00021380977070883944 0.043530870148639059 0 6.2278130623601822e-05 0.044339880014889949 0 -4.927395847877928e-06 0.044992695447662955 0 -4.6569977323784019e-09 0.044999988375006475 0 -2.4434078318895874e-06 0.04499690088710466 0 -4.927395847877928e-06 0.044992695447662955 0 -9.0101989536568669e-06 0.044990190799989345 0 -2.4434078318895874e-06 0.04499690088710466 0 -9.0101989536568669e-06 0.044990190799989345 0 -2.4434078318895874e-06 0.04499690088710466 0 -2.3927148245871052e-06 0.044997059034393785 0 -4.6569977323784019e-09 0.044999988375006475 0 -2.4434078318895874e-06 0.04499690088710466 0 -2.3410557927404471e-09 0.044999993680190455 0 -1.2104466462120825e-07 0.044999688867908172 0 6.2278130623601822e-05 0.044339880014889949 0 -2.4434078318895874e-06 0.04499690088710466 0 -2.3410557927404471e-09 0.044999993680190455 0 -2.3927148245871052e-06 0.044997059034393785 0 4.729844024353677e-10 0.04499999214074045 0 1.9725526748916416e-07 0.044997571886537538 0 7.6063405196215928e-11 0.044999999930530173 0 6.2278130623601822e-05 0.044339880014889949 0 2.2082017375995603e-07 0.045000697876591118 0 -3.7452327320231942e-06 0.04494699035280008 0 -1.233264456423794e-05 0.044975071585130554 0 1.8758305788643068e-08 0.044999930150465273 0 6.2278130623601822e-05 0.044339880014889949 0 -0.00024306114474694759 0.043850178375817908 0 -2.934495374227653e-05 0.044948619580766888 0 -1.233264456423794e-05 0.044975071585130554 0 -3.2894286490598105e-05 0.044967925037491266 0 -3.7452327320231942e-06 0.04494699035280008 0 -2.934495374227653e-05 0.044948619580766888 0 -1.233264456423794e-05 0.044975071585130554 0 -1.233264456423794e-05 0.044975071585130554 0 -1.842005279706343e-05 0.044983774314616816 0 -3.2894286490598105e-05 0.044967925037491266 0 -1.233264456423794e-05 0.044975071585130554 0 -1.842005279706343e-05 0.044983774314616816 0 -6.5806785833972486e-06 0.044991756618451131 0 1.8758305788643068e-08 0.044999930150465273 0 -6.5806785833972486e-06 0.044991756618451131 0 -1.050409392559528e-08 0.045000004048415955 0 -1.233264456423794e-05 0.044975071585130554 0 1.8758305788643068e-08 0.044999930150465273 0 -6.5806785833972486e-06 0.044991756618451131 0 -1.050409392559528e-08 0.045000004048415955 0 -9.7841729564670108e-06 0.044995405763989263 0 1.4439096248207565e-09 0.0450000060582414 0 -6.5806785833972486e-06 0.044991756618451131 0 -1.050409392559528e-08 0.045000004048415955 0 -9.7841729564670108e-06 0.044995405763989263 0 -1.842005279706343e-05 0.044983774314616816 0 -9.7841729564670108e-06 0.044995405763989263 0 -2.8035302616063655e-05 0.044990374576656847 0 -1.842005279706343e-05 0.044983774314616816 0 -6.5806785833972486e-06 0.044991756618451131 0 -9.7841729564670108e-06 0.044995405763989263 0 -9.7841729564670108e-06 0.044995405763989263 0 -1.676854129306458e-05 0.045001839054019048 0 -2.8035302616063655e-05 0.044990374576656847 0 -3.0566983573926554e-05 0.044686598096528862 0 -2.6236680453006638e-05 0.0446131061426355 0 -5.3756096405407312e-08 0.044999619917813989 0 -7.3132041428079937e-05 0.044847524220308618 0 -3.1145294980838861e-08 0.044999905845034618 0 -9.7841729564670108e-06 0.044995405763989263 0 -1.676854129306458e-05 0.045001839054019048 0 1.4439096248207565e-09 0.0450000060582414 0 0.00029057022134853339 0.043741959291242943 0 0.0002705382143606034 0.043711364462761693 0 0.00024419971247912996 0.043745133766087366 0 0.00015581251290655264 0.044243426442947771 0 0.00023333756470343556 0.043731675781538561 0 0.00015144009975791742 0.043925935340578516 0 9.9943348004169008e-05 0.044127879604622541 0 0.00024419971247912996 0.043745133766087366 0 0.00013482660396976577 0.044186151803023467 0 0.00015581251290655264 0.044243426442947771 0 -1.676854129306458e-05 0.045001839054019048 0 -3.7107726438507169e-05 0.044997323276157727 0 -2.8035302616063655e-05 0.044990374576656847 0 -7.3132041428079937e-05 0.044847524220308618 0 0.00015581251290655264 0.044243426442947771 0 1.5473727007640794e-05 0.044342237627700724 0 -2.6236680453006638e-05 0.0446131061426355 0 9.8999884960263387e-05 0.044269825423608654 0 -1.842005279706343e-05 0.044983774314616816 0 -2.8035302616063655e-05 0.044990374576656847 0 -3.2894286490598105e-05 0.044967925037491266 0 -3.7107726438507169e-05 0.044997323276157727 0 -2.8035302616063655e-05 0.044990374576656847 0 -4.3435350240398858e-05 0.044977519760070098 0 -2.8035302616063655e-05 0.044990374576656847 0 -4.3435350240398858e-05 0.044977519760070098 0 -3.2894286490598105e-05 0.044967925037491266 0 0.00029057022134853339 0.043741959291242943 0 0.00028264890592695366 0.043721512111000047 0 0.0002705382143606034 0.043711364462761693 0 0.00015581251290655264 0.044243426442947771 0 0.00017184962134625257 0.044532572286113362 0 0.00028264890592695366 0.043721512111000047 0 0.00026332856814124256 0.043710820989757357 0 0.0002705382143606034 0.043711364462761693 0 0.00017184962134625257 0.044532572286113362 0 -0.00035298437067151744 0.043541569141697878 0 0.00028264890592695366 0.043721512111000047 0 0.00026332856814124256 0.043710820989757357 0 0.00028993473807603361 0.043653029474887403 0 -4.3435350240398858e-05 0.044977519760070098 0 -3.2894286490598105e-05 0.044967925037491266 0 -5.1573912911161084e-05 0.044944484019001835 0 -2.934495374227653e-05 0.044948619580766888 0 -3.2894286490598105e-05 0.044967925037491266 0 -5.1573912911161084e-05 0.044944484019001835 0 -0.00024306114474694759 0.043850178375817908 0 -0.00035298437067151744 0.043541569141697878 0 -0.00057157328353802186 0.04263351089189385 0 -0.00040782410841970956 0.042759845683605087 0 -0.0006613480649406545 0.042820057088311561 0 -0.00069434660460981228 0.042414342650685222 0 -0.00069312517612107796 0.042419048447309843 0 -0.00069036922671087395 0.042415955116725447 0 0.00026332856814124256 0.043710820989757357 0 0.00028993473807603361 0.043653029474887403 0 0.00021403889041526252 0.043646104470577277 0 -0.00035298437067151744 0.043541569141697878 0 -0.00027665667723107186 0.040481043833795458 0 -0.00069312517612107796 0.042419048447309843 0 -0.00072478556300069731 0.042373462542184957 0 -0.00069036922671087395 0.042415955116725447 0 -0.00069312517612107796 0.042419048447309843 0 -0.00072478556300069731 0.042373462542184957 0 -0.00077504662532208517 0.04233638303182917 0 -0.00027665667723107186 0.040481043833795458 0 -0.0012886971668502672 0.038048016023491525 0 -0.0014354255200361445 0.034737807666044514 0 -0.0010449652650118934 0.034562923962110172 0 -0.0011921059522808279 0.035003681622246714 0 -0.00027665667723107186 0.040481043833795458 0 -0.00030562024235612816 0.038985556815054126 0 0.00028856412662186972 0.043756708839618901 0 0.00033480925634258273 0.043715172002038061 0 0.00044764414501103614 0.043763936105433672 0 0.00026332856814124256 0.043710820989757357 0 0.00028856412662186972 0.043756708839618901 0 0.00033480925634258273 0.043715172002038061 0 0.00090066943148150004 0.04425866339973366 0 -0.00027665667723107186 0.040481043833795458 0 0.00033480925634258273 0.043715172002038061 0 0.0002705382143606034 0.043711364462761693 0 0.00033824045889744875 0.043666494668864402 0 0.00026332856814124256 0.043710820989757357 0 0.00033480925634258273 0.043715172002038061 0 0.0002705382143606034 0.043711364462761693 0 0.00033480925634258273 0.043715172002038061 0 0.00033824045889744875 0.043666494668864402 0 0.00053352391978289497 0.043666867874352082 0 0.00034931052292988031 0.043511555050113622 0 0.00033824045889744875 0.043666494668864402 0 0.00024419971247912996 0.043745133766087366 0 0.00034931052292988031 0.043511555050113622 0 0.00033824045889744875 0.043666494668864402 0 0.0005011512671517362 0.043558735250147189 0 0.0002705382143606034 0.043711364462761693 0 0.00033824045889744875 0.043666494668864402 0 0.00024419971247912996 0.043745133766087366 0 0.00065715289705049545 0.043543057101448707 0 0.0005011512671517362 0.043558735250147189 0 0.00053352391978289497 0.043666867874352082 0 0.00059219567065048535 0.043399082690330507 0 0.00065715289705049545 0.043543057101448707 0 0.0005011512671517362 0.043558735250147189 0 0.00033824045889744875 0.043666494668864402 0 0.0005011512671517362 0.043558735250147189 0 0.00053352391978289497 0.043666867874352082 0 0.00065715289705049545 0.043543057101448707 0 0.00053352391978289497 0.043666867874352082 0 0.00069422178718805993 0.043704674591908119 0 0.00053352391978289497 0.043666867874352082 0 0.00044764414501103614 0.043763936105433672 0 0.00069422178718805993 0.043704674591908119 0 -0.0010449652650118934 0.034562923962110172 0 -0.00064809687890836441 0.034630661916187397 0 -0.00057420830083460591 0.034321439571742107 0 -0.00030562024235612816 0.038985556815054126 0 -7.19243981785732e-05 0.039019560382033296 0 0.00033480925634258273 0.043715172002038061 0 0.00053352391978289497 0.043666867874352082 0 0.00044764414501103614 0.043763936105433672 0 -0.0010449652650118934 0.034562923962110172 0 -0.00082561312101393834 0.034864311132672091 0 -0.0011921059522808279 0.035003681622246714 0 -0.00064809687890836441 0.034630661916187397 0 -0.00082561312101393834 0.034864311132672091 0 -0.00038696611841293347 0.034836815573786872 0 -0.0010449652650118934 0.034562923962110172 0 -0.00064809687890836441 0.034630661916187397 0 -0.00082561312101393834 0.034864311132672091 0 -0.00082561312101393834 0.034864311132672091 0 -0.0008124277780661689 0.035113091487276586 0 -0.00038696611841293347 0.034836815573786872 0 -0.0008124277780661689 0.035113091487276586 0 -0.00065025665073197134 0.035318605896350788 0 -0.00038696611841293347 0.034836815573786872 0 -0.00052620454816161978 0.035501564269907145 0 -0.00064859544232657464 0.040085934426559854 0 -0.0008124277780661689 0.035113091487276586 0 -0.00065025665073197134 0.035318605896350788 0 -0.00090068224879237644 0.035380611186529257 0 -0.00064859544232657464 0.040085934426559854 0 -0.0012886971668502672 0.038048016023491525 0 -0.0008124277780661689 0.035113091487276586 0 -0.00090068224879237644 0.035380611186529257 0 -0.0011921059522808279 0.035003681622246714 0 -0.00087515296894881758 0.042205433900784517 0 -0.00077504662532208517 0.04233638303182917 0 -0.00078175189260705968 0.04225875716720584 0 -0.00087515296894881758 0.042205433900784517 0 -0.00078175189260705968 0.04225875716720584 0 -0.00075639287468832203 0.042212299789176809 0 -0.00082561312101393834 0.034864311132672091 0 -0.0008124277780661689 0.035113091487276586 0 -0.0011921059522808279 0.035003681622246714 0 -0.00072478556300069731 0.042373462542184957 0 -0.00077504662532208517 0.04233638303182917 0 -0.00072702971872047346 0.042282855990315817 0 -0.00065925906514313008 0.042148400048906819 0 -0.00074376996511100113 0.042449477755866383 0 -0.00069307803826662258 0.042424104185268527 0 -0.00072478556300069731 0.042373462542184957 0 -0.00069036922671087395 0.042415955116725447 0 -0.00064876047006855446 0.042269629284656995 0 -0.00072478556300069731 0.042373462542184957 0 -0.00072702971872047346 0.042282855990315817 0 -0.00064876047006855446 0.042269629284656995 0 -0.0006967145752256105 0.042246555699719864 0 -0.00072702971872047346 0.042282855990315817 0 -0.00077504662532208517 0.04233638303182917 0 -0.00072702971872047346 0.042282855990315817 0 -0.00078175189260705968 0.04225875716720584 0 -0.0006967145752256105 0.042246555699719864 0 -0.00072702971872047346 0.042282855990315817 0 -0.00075639287468832203 0.042212299789176809 0 -0.00072702971872047346 0.042282855990315817 0 -0.00078175189260705968 0.04225875716720584 0 -0.00075639287468832203 0.042212299789176809 0 -7.0901015295636425e-05 0.044587446474143901 0 -8.2708680192055209e-05 0.044704571830413098 0 3.594231741513925e-06 0.044614362852535616 0 -0.00064876047006855446 0.042269629284656995 0 -0.0006967145752256105 0.042246555699719864 0 -0.00066199681252276379 0.042221600760969417 0 -0.00044594498935060685 0.043668179395787855 0 -0.00040907716035394409 0.04343830640560218 0 -0.0006967145752256105 0.042246555699719864 0 -0.00075639287468832203 0.042212299789176809 0 -0.00066199681252276379 0.042221600760969417 0 -7.0901015295636425e-05 0.044587446474143901 0 -0.00014891201041135194 0.044674702918700585 0 -8.2708680192055209e-05 0.044704571830413098 0 -0.00014891201041135194 0.044674702918700585 0 -8.2708680192055209e-05 0.044704571830413098 0 -0.0001419544332164055 0.044783393280178406 0 1.0176535538573572e-05 0.044720958902112903 0 0.0001075968097827373 0.04454646269098074 0 3.594231741513925e-06 0.044614362852535616 0 -8.2708680192055209e-05 0.044704571830413098 0 1.0176535538573572e-05 0.044720958902112903 0 3.594231741513925e-06 0.044614362852535616 0 0.00023479024561335273 0.043434794580059381 0 -0.00055028230137693743 0.039726137710558003 0 0.00046636691985356551 0.041118264253668296 0 0.00069387960919022268 0.041091505926012954 0 0.0006554174064837458 0.040789904985955236 0 -0.00055028230137693743 0.039726137710558003 0 -0.00048962975454189944 0.037858742817281028 0 0.00069387960919022268 0.041091505926012954 0 0.0006554174064837458 0.040789904985955236 0 0.00090739832418208907 0.041095940301794455 0 -0.0019090795271280768 0.0344694923234753 0 -0.0020935702578338102 0.034794988455651099 0 -0.001633323747451442 0.034864924267579221 0 -0.00052620454816161978 0.035501564269907145 0 -0.00055028230137693743 0.039726137710558003 0 -0.00064859544232657464 0.040085934426559854 0 -0.00055028230137693743 0.039726137710558003 0 -4.8244560460840275e-05 0.037949370169247182 0 -0.0011741867933110293 0.038211579808314806 0 -0.00062031560556963662 0.038853417969837357 0 -0.00064859544232657464 0.040085934426559854 0 -0.00044594498935060685 0.043668179395787855 0 5.6263188601727992e-05 0.044495113028876307 0 -7.0901015295636425e-05 0.044587446474143901 0 3.594231741513925e-06 0.044614362852535616 0 5.6263188601727992e-05 0.044495113028876307 0 0.0001075968097827373 0.04454646269098074 0 3.594231741513925e-06 0.044614362852535616 0 -0.0016439588142633397 0.035357117119524675 0 -0.00087731468364557388 0.034987888413309916 0 -0.00083094149099308394 0.035508388359497392 0 -0.0011864403065373601 0.034725857825982566 0 -0.00075234726570425905 0.034598228604342363 0 -0.0011713928405666818 0.034257154471938341 0 -0.0011864403065373601 0.034725857825982566 0 -0.001633323747451442 0.034864924267579221 0 -0.0011713928405666818 0.034257154471938341 0 -0.0011864403065373601 0.034725857825982566 0 -0.001633323747451442 0.034864924267579221 0 -0.0016439588142633397 0.035357117119524675 0 -0.0020935702578338102 0.034794988455651099 0 -0.001633323747451442 0.034864924267579221 0 -0.0016439588142633397 0.035357117119524675 0 -0.0011864403065373601 0.034725857825982566 0 -0.0016439588142633397 0.035357117119524675 0 -0.00087731468364557388 0.034987888413309916 0 -0.00087731468364557388 0.034987888413309916 0 -0.00032849447827963137 0.034815108464547322 0 -0.00083094149099308394 0.035508388359497392 0 -0.00032849447827963137 0.034815108464547322 0 -4.7123937682964589e-05 0.03531386356306513 0 -0.00083094149099308394 0.035508388359497392 0 -0.00032849447827963137 0.034815108464547322 0 -0.00026988530533104114 0.034166210114712443 0 9.3648258911146492e-05 0.034563201823762317 0 -0.00087731468364557388 0.034987888413309916 0 -0.00032849447827963137 0.034815108464547322 0 -0.00075234726570425905 0.034598228604342363 0 -0.00032849447827963137 0.034815108464547322 0 -0.00075234726570425905 0.034598228604342363 0 -0.00026988530533104114 0.034166210114712443 0 -0.0011864403065373601 0.034725857825982566 0 -0.00087731468364557388 0.034987888413309916 0 -0.00075234726570425905 0.034598228604342363 0 -0.00026401949357513583 0.034191527758811645 0 -0.00080570843966448064 0.034080192505355253 0 -0.00075234726570425905 0.034598228604342363 0 -0.00026988530533104114 0.034166210114712443 0 -0.0011713928405666818 0.034257154471938341 0 -0.00026988530533104114 0.034166210114712443 0 -0.00014714099697673807 0.034065657125999148 0 8.8333035449853159e-05 0.034024350669375231 0 -0.00026988530533104114 0.034166210114712443 0 -0.00023043628095251132 0.034127991529915067 0 -0.00014714099697673807 0.034065657125999148 0 -0.00026988530533104114 0.034166210114712443 0 -0.00024302217068752338 0.034160617959812067 0 -0.00023043628095251132 0.034127991529915067 0 -0.00024302217068752338 0.034160617959812067 0 -0.00024984759293158641 0.034130911123476396 0 -0.00023043628095251132 0.034127991529915067 0 -0.0019090795271280768 0.0344694923234753 0 -0.001633323747451442 0.034864924267579221 0 -0.0011713928405666818 0.034257154471938341 0 -0.00052620454816161978 0.035501564269907145 0 -0.00080570843966448064 0.034080192505355253 0 -0.00029898284527280628 0.034193382778482426 0 -0.00024302217068752338 0.034160617959812067 0 -0.00024984759293158641 0.034130911123476396 0 -0.00052620454816161978 0.035501564269907145 0 -0.00028232880736969322 0.034323568915195023 0 -0.00064809687890836441 0.034630661916187397 0 -0.00045046468430125967 0.034488955209382444 0 -0.00057420830083460591 0.034321439571742107 0 -0.00064809687890836441 0.034630661916187397 0 -0.00038696611841293347 0.034836815573786872 0 -0.00045046468430125967 0.034488955209382444 0 -0.00038696611841293347 0.034836815573786872 0 -0.00045046468430125967 0.034488955209382444 0 -0.00020096075179399647 0.034169356934611164 0 -0.00024984759293158641 0.034130911123476396 0 -0.00023043628095251132 0.034127991529915067 0 -0.00020096075179399647 0.034169356934611164 0 -0.00028232880736969322 0.034323568915195023 0 -0.0002319422434070268 0.034265889297574605 0 -7.19243981785732e-05 0.039019560382033296 0 0.0010137736470323692 0.039001217572726239 0 -0.00020096075179399647 0.034169356934611164 0 -0.00057420830083460591 0.034321439571742107 0 -0.00016933473229748498 0.034046445267466495 0 -0.00020096075179399647 0.034169356934611164 0 -0.00017852941367166764 0.034067264516962598 0 -0.00016933473229748498 0.034046445267466495 0 -0.00045046468430125967 0.034488955209382444 0 -0.00020096075179399647 0.034169356934611164 0 -0.00057420830083460591 0.034321439571742107 0 0.00065715289705049545 0.043543057101448707 0 0.00069422178718805993 0.043704674591908119 0 0.00081581002947255529 0.043511026138615932 0 0.00069422178718805993 0.043704674591908119 0 0.00081581002947255529 0.043511026138615932 0 0.00089598542615784325 0.043615598770801241 0 0.0020419125899155044 0.042339388649539199 0 0.0010137736470323692 0.039001217572726239 0 0.0028046988340269339 0.040164586271134672 0 0.0025590510606917269 0.040035151584202754 0 0.0026086471752769704 0.03982729018405172 0 0.0026901843039147093 0.040346949446398078 0 0.0028046988340269339 0.040164586271134672 0 0.0025747268751685846 0.04016439395132565 0 0.0028046988340269339 0.040164586271134672 0 0.0025747268751685846 0.04016439395132565 0 0.0025590510606917269 0.040035151584202754 0 0.0007708081973636352 0.043329594137654116 0 0.00065715289705049545 0.043543057101448707 0 0.00081581002947255529 0.043511026138615932 0 0.0031917804978982178 0.041626289522460148 0 0.0038976832685595928 0.040513959908223478 0 0.0017840940581061412 0.03999145874947093 0 0.0038976832685595928 0.040513959908223478 0 0.0053883179647560451 0.04206213002515815 0 0.0037951610548001462 0.042748177876299503 0 0.0054949287287744657 0.043325022283314196 0 0.0024635574878879483 0.040156264310971676 0 0.0023854005195738108 0.039982115509776747 0 0.0020964560771826366 0.040008409703323228 0 0.0024527554710198044 0.040173794211230796 0 0.0024635574878879483 0.040156264310971676 0 0.0025139793669263777 0.040229343591065496 0 0.0026901843039147093 0.040346949446398078 0 0.0024527554710198044 0.040173794211230796 0 0.0025747268751685846 0.04016439395132565 0 0.002569452641969209 0.04117733130878308 0 0.0031917804978982178 0.041626289522460148 0 0.0025747268751685846 0.04016439395132565 0 0.0025157333490314696 0.040102295992406514 0 0.0025590510606917269 0.040035151584202754 0 0.0025747268751685846 0.04016439395132565 0 0.0025157333490314696 0.040102295992406514 0 0.0024635574878879483 0.040156264310971676 0 0.0025157333490314696 0.040102295992406514 0 0.0024808181826723062 0.040069255924783984 0 0.0025590510606917269 0.040035151584202754 0 0.0024635574878879483 0.040156264310971676 0 0.0024808181826723062 0.040069255924783984 0 0.0023854005195738108 0.039982115509776747 0 0.0024527554710198044 0.040173794211230796 0 0.0025747268751685846 0.04016439395132565 0 0.0024635574878879483 0.040156264310971676 0 0.0025157333490314696 0.040102295992406514 0 0.0024635574878879483 0.040156264310971676 0 0.0024808181826723062 0.040069255924783984 0 0.00093977373525069787 0.036776500181812624 0 0.0010137736470323692 0.039001217572726239 0 0.0024808181826723062 0.040069255924783984 0 0.0025590510606917269 0.040035151584202754 0 0.0023854005195738108 0.039982115509776747 0 0.0025590510606917269 0.040035151584202754 0 0.0023854005195738108 0.039982115509776747 0 0.0026086471752769704 0.03982729018405172 0 0.0022500322009812962 0.03986519453249799 0 0.0023854005195738108 0.039982115509776747 0 0.0026086471752769704 0.03982729018405172 0 0.0022500322009812962 0.03986519453249799 0 0.0023854005195738108 0.039982115509776747 0 0.0020964560771826366 0.040008409703323228 0 -2.6491455210404372e-05 0.03380484722197221 0 -1.2352524743023391e-05 0.033952500172249635 0 -0.00015872381024280009 0.034053990096702638 0 -2.6491455210404372e-05 0.03380484722197221 0 -0.00017852941367166764 0.034067264516962598 0 -0.00015872381024280009 0.034053990096702638 0 -2.6491455210404372e-05 0.03380484722197221 0 -0.00017852941367166764 0.034067264516962598 0 -0.00019261693629714152 0.034053644876394819 0 4.1857966283624956e-05 0.037067180532316071 0 0.0010137736470323692 0.039001217572726239 0 -0.00020096075179399647 0.034169356934611164 0 -0.00017852941367166764 0.034067264516962598 0 -0.00015872381024280009 0.034053990096702638 0 -0.00023043628095251132 0.034127991529915067 0 -0.00015872381024280009 0.034053990096702638 0 -0.00014714099697673807 0.034065657125999148 0 -0.00023043628095251132 0.034127991529915067 0 -0.00020096075179399647 0.034169356934611164 0 -0.00015872381024280009 0.034053990096702638 0 -1.2352524743023391e-05 0.033952500172249635 0 -0.00014714099697673807 0.034065657125999148 0 8.8333035449853159e-05 0.034024350669375231 0 -1.2352524743023391e-05 0.033952500172249635 0 -0.00015872381024280009 0.034053990096702638 0 -0.00014714099697673807 0.034065657125999148 0 -1.2352524743023391e-05 0.033952500172249635 0 8.8333035449853159e-05 0.034024350669375231 0 0.00024281480647454247 0.033813005064795822 0 8.8333035449853159e-05 0.034024350669375231 0 0.00024281480647454247 0.033813005064795822 0 0.00042972705272354306 0.033919276983495492 0 0.00024281480647454247 0.033813005064795822 0 0.00041556526231284892 0.033623320586570284 0 0.00042972705272354306 0.033919276983495492 0 -2.6491455210404372e-05 0.03380484722197221 0 -1.2352524743023391e-05 0.033952500172249635 0 0.00024281480647454247 0.033813005064795822 0 -2.6491455210404372e-05 0.03380484722197221 0 0.00024281480647454247 0.033813005064795822 0 0.00028120061028692186 0.033615088714262005 0 0.00093977373525069787 0.036776500181812624 0 0.0021845674412767887 0.035260468068908923 0 0.0022500322009812962 0.03986519453249799 0 0.0018852246844756335 0.039873052647120842 0 0.0020964560771826366 0.040008409703323228 0 0.0021845674412767887 0.035260468068908923 0 0.0038976832685595928 0.040513959908223478 0 0.00024281480647454247 0.033813005064795822 0 0.00028120061028692186 0.033615088714262005 0 0.00041556526231284892 0.033623320586570284 0 0.0052084908673355164 0.03397486757247152 0 0.0038976832685595928 0.040513959908223478 0 0.0073220939391552987 0.043663613745875809 0 0.0067449107626829253 0.043155011689016663 0 0.0054949287287744657 0.043325022283314196 0 0.0033666443437889875 0.036935161067175211 0 0.0036604726570477436 0.036902772140284278 0 0.0043798332977344184 0.037288460956535173 0 0.0021845674412767887 0.035260468068908923 0 0.0019872125276310304 0.025540382685611231 0 0.0073220939391552987 0.043663613745875809 0 0.0067449107626829253 0.043155011689016663 0 0.0078650522778523618 0.043186706939655185 0 0.0030675504334163875 0.030682074959669133 0 0.0041088122482979264 0.0304929828356942 0 0.0020357918670216371 0.029588706983850147 0 0.0052084908673355164 0.03397486757247152 0 0.0021845674412767887 0.035260468068908923 0 0.0067449107626829253 0.043155011689016663 0 0.0074586846031932767 0.042632062664075911 0 0.006843481389412656 0.042075918749541794 0 0.0072150137485703604 0.042599907333900212 0 0.0075689119501218668 0.039685458588693129 0 0.0067449107626829253 0.043155011689016663 0 0.0074586846031932767 0.042632062664075911 0 0.0081363542734680834 0.043311306297526858 0 0.0074586846031932767 0.042632062664075911 0 0.006843481389412656 0.042075918749541794 0 0.0081806551552832639 0.042024952671998191 0 0.0067449107626829253 0.043155011689016663 0 0.006843481389412656 0.042075918749541794 0 0.0060257540471218129 0.042606275072937468 0 0.0053883179647560451 0.04206213002515815 0 0.006843481389412656 0.042075918749541794 0 0.0060257540471218129 0.042606275072937468 0 0.0053883179647560451 0.04206213002515815 0 0.0060257540471218129 0.042606275072937468 0 0.0054949287287744657 0.043325022283314196 0 0.0067449107626829253 0.043155011689016663 0 0.0060257540471218129 0.042606275072937468 0 0.0054949287287744657 0.043325022283314196 0 0.0099672568387726649 0.042133243350516991 0 0.0093188834802926807 0.042895165797918862 0 0.011355839870824282 0.042348426200581185 0 0.0063269532387421109 0.030004618346274065 0 0.010530818354671985 0.020710254765235855 0 0.0099672568387726649 0.042133243350516991 0 0.0090468275524240131 0.042106000393970701 0 0.0093188834802926807 0.042895165797918862 0 0.0097437724394579643 0.041421607669915567 0 0.0099672568387726649 0.042133243350516991 0 0.010492387847392782 0.041681503950111075 0 0.0097437724394579643 0.041421607669915567 0 0.0099672568387726649 0.042133243350516991 0 0.0090468275524240131 0.042106000393970701 0 0.0074586846031932767 0.042632062664075911 0 0.0081806551552832639 0.042024952671998191 0 0.0081363542734680834 0.043311306297526858 0 0.0079762642104580159 0.042876078907950733 0 0.0075689119501218668 0.039685458588693129 0 0.0090468275524240131 0.042106000393970701 0 0.0081806551552832639 0.042024952671998191 0 0.0081891078320209792 0.042843111485375021 0 0.0090468275524240131 0.042106000393970701 0 0.0081891078320209792 0.042843111485375021 0 0.0093188834802926807 0.042895165797918862 0 0.0049086847615789084 0.032611282203253995 0 0.0048878113746200014 0.033204013374720745 0 0.0069103326860222624 0.032772827198854333 0 0.0075689119501218668 0.039685458588693129 0 0.0063269532387421109 0.030004618346274065 0 0.0028607032715048234 0.017845102615424456 0 0.0028521934097520195 0.018061826266957636 0 0.0039933961408115471 0.017523818046237313 0 0.0052514136487374014 0.031262802279950222 0 0.0063269532387421109 0.030004618346274065 0 0.0073220939391552987 0.043663613745875809 0 0.0078650522778523618 0.043186706939655185 0 0.0078534895692060087 0.043528514336197748 0 0.0075689119501218668 0.039685458588693129 0 0.0052514136487374014 0.031262802279950222 0 0.0052514136487374014 0.031262802279950222 0 0.003304385018927854 0.025965804870694508 0 0.0052084908673355164 0.03397486757247152 0 0.003304385018927854 0.025965804870694508 0 0.0052084908673355164 0.03397486757247152 0 0.0052514136487374014 0.031262802279950222 0 0.0042048647798792393 0.0315554778488868 0 0.0063006523649024055 0.031124725857860292 0 0.0062703188235338743 0.032027060747035749 0 0.0030675504334163875 0.030682074959669133 0 0.0020103031499183774 0.030412919994494376 0 0.0020357918670216371 0.029588706983850147 0 0.003304385018927854 0.025965804870694508 0 0.0019872125276310304 0.025540382685611231 0 0.0019872125276310304 0.025540382685611231 0 0.0016277201014785248 0.01968966736083164 0 0.0015949668736029807 0.017654661124347507 0 0.0015787222140394874 0.018262447316370493 0 0.0030777311935981152 0.018827033238072798 0 0.0028521934097520195 0.018061826266957636 0 0.0039933961408115471 0.017523818046237313 0 0.0050280410751400214 0.018387274493898598 0 0.0015949668736029807 0.017654661124347507 0 0.0030777311935981152 0.018827033238072798 0 0.0050280410751400214 0.018387274493898598 0 0.0063269532387421109 0.030004618346274065 0 0.0067815666112909616 0.01394389434434245 0 0.0039933961408115471 0.017523818046237313 0 0.0050280410751400214 0.018387274493898598 0 0.0060296609045868872 0.017497708622701336 0 0.003304385018927854 0.025965804870694508 0 0.0041222024292262458 0.016158023877767654 0 0.0042618367283947254 0.019425487307197377 0 0.0050280410751400214 0.018387274493898598 0 0.0052715462072937518 0.019896901887639873 0 0.0042618367283947254 0.019425487307197377 0 0.0030777311935981152 0.018827033238072798 0 0.0050280410751400214 0.018387274493898598 0 0.0042618367283947254 0.019425487307197377 0 0.0030777311935981152 0.018827033238072798 0 0.0037176489457962192 0.020634443172295295 0 0.0042618367283947254 0.019425487307197377 0 0.0037176489457962192 0.020634443172295295 0 0.0052715462072937518 0.019896901887639873 0 0.0015981982100080404 0.018260576547255093 0 0.0030777311935981152 0.018827033238072798 0 0.0013248018470323507 0.021716212252159712 0 0.0019872125276310304 0.025540382685611231 0 0.00073721386344992009 0.027931535099980323 0 0.0030777311935981152 0.018827033238072798 0 0.0013248018470323507 0.021716212252159712 0 0.0037176489457962192 0.020634443172295295 0 0.0013248018470323507 0.021716212252159712 0 0.0037176489457962192 0.020634443172295295 0 0.003172792162339903 0.022673841333748557 0 0.0037176489457962192 0.020634443172295295 0 0.003172792162339903 0.022673841333748557 0 0.0050169502125958082 0.021540563959733458 0 0.0037176489457962192 0.020634443172295295 0 0.0050169502125958082 0.021540563959733458 0 0.0052715462072937518 0.019896901887639873 0 0.00480522057352991 0.024156600828174432 0 0.003172792162339903 0.022673841333748557 0 0.0050169502125958082 0.021540563959733458 0 0.00480522057352991 0.024156600828174432 0 0.003172792162339903 0.022673841333748557 0 0.000885644303359238 0.025541379651869967 0 0.00480522057352991 0.024156600828174432 0 0.0036409455278986233 0.026626570120941783 0 0.000885644303359238 0.025541379651869967 0 0.00480522057352991 0.024156600828174432 0 0.0036409455278986233 0.026626570120941783 0 0.0057921751072456092 0.026855586756855301 0 0.0013248018470323507 0.021716212252159712 0 0.003172792162339903 0.022673841333748557 0 0.000885644303359238 0.025541379651869967 0 0.00073721386344992009 0.027931535099980323 0 0.00072593342318123192 0.029914062431246738 0 0.00042972705272354306 0.033919276983495492 0 0.00053059621216197293 0.034286902907877226 0 0.00022452528093754921 0.034226203499243602 0 8.8333035449853159e-05 0.034024350669375231 0 0.00042972705272354306 0.033919276983495492 0 0.00022452528093754921 0.034226203499243602 0 -0.00026988530533104114 0.034166210114712443 0 8.8333035449853159e-05 0.034024350669375231 0 0.00022452528093754921 0.034226203499243602 0 -0.00026988530533104114 0.034166210114712443 0 0.00022452528093754921 0.034226203499243602 0 9.3648258911146492e-05 0.034563201823762317 0 0.00022452528093754921 0.034226203499243602 0 0.00035439426703916352 0.03454593932447024 0 9.3648258911146492e-05 0.034563201823762317 0 0.00053059621216197293 0.034286902907877226 0 0.00022452528093754921 0.034226203499243602 0 0.00035439426703916352 0.03454593932447024 0 0.00053059621216197293 0.034286902907877226 0 0.00035439426703916352 0.03454593932447024 0 0.00067538475411344423 0.034864289094031387 0 0.00035439426703916352 0.03454593932447024 0 0.00025649730107016577 0.034856620146692004 0 0.00067538475411344423 0.034864289094031387 0 -0.00032849447827963137 0.034815108464547322 0 9.3648258911146492e-05 0.034563201823762317 0 0.00025649730107016577 0.034856620146692004 0 0.00035439426703916352 0.03454593932447024 0 9.3648258911146492e-05 0.034563201823762317 0 0.00025649730107016577 0.034856620146692004 0 -0.00032849447827963137 0.034815108464547322 0 0.00025649730107016577 0.034856620146692004 0 -4.7123937682964589e-05 0.03531386356306513 0 0.00025649730107016577 0.034856620146692004 0 0.00049355180110189918 0.035141188411160075 0 -4.7123937682964589e-05 0.03531386356306513 0 0.00025649730107016577 0.034856620146692004 0 0.00067538475411344423 0.034864289094031387 0 0.00049355180110189918 0.035141188411160075 0 0.00053450204575961199 0.029998429950483973 0 0.0019172203716069569 0.031986162819477221 0 0.0037038288742515498 0.029514332500959001 0 0.0019172203716069569 0.031986162819477221 0 0.0037038288742515498 0.029514332500959001 0 0.0037888082784843153 0.032015478762706745 0 0.0037038288742515498 0.029514332500959001 0 0.0037888082784843153 0.032015478762706745 0 0.0062493394419721434 0.029975364884324632 0 0.0036409455278986233 0.026626570120941783 0 0.0037038288742515498 0.029514332500959001 0 0.0057921751072456092 0.026855586756855301 0 0.0036409455278986233 0.026626570120941783 0 0.000885644303359238 0.025541379651869967 0 0.00053450204575961199 0.029998429950483973 0 0.00072593342318123192 0.029914062431246738 0 0.0006534639676329208 0.032472698782310364 0 0.0036409455278986233 0.026626570120941783 0 0.00053450204575961199 0.029998429950483973 0 0.0037038288742515498 0.029514332500959001 0 0.0014161837451741833 0.036050665053644883 0 0.0029300589316697931 0.035062629642067279 0 0.0027059938372519157 0.033887444045181084 0 0.0014161837451741833 0.036050665053644883 0 0.0029300589316697931 0.035062629642067279 0 0.0031215583470492912 0.036695122080927338 0 0.0038582241106262013 0.035133038664788896 0 0.0029300589316697931 0.035062629642067279 0 0.0031215583470492912 0.036695122080927338 0 0.003186979333824311 0.03613885547821926 0 0.0027782480565259351 0.034200737423278449 0 0.0038582241106262013 0.035133038664788896 0 0.0031215583470492912 0.036695122080927338 0 0.004749191781730432 0.035595547981639497 0 0.0038582241106262013 0.035133038664788896 0 0.004749191781730432 0.035595547981639497 0 0.0048441579326853794 0.035073565973363377 0 0.004557230247157068 0.034087007323999961 0 0.004623240928158045 0.032101828420711215 0 0.0038582241106262013 0.035133038664788896 0 0.0036254364283669362 0.03417392339519993 0 0.0048441579326853794 0.035073565973363377 0 0.0029300589316697931 0.035062629642067279 0 0.0036254364283669362 0.03417392339519993 0 0.0027059938372519157 0.033887444045181084 0 0.0038582241106262013 0.035133038664788896 0 0.0029300589316697931 0.035062629642067279 0 0.0036254364283669362 0.03417392339519993 0 0.0036254364283669362 0.03417392339519993 0 0.0027059938372519157 0.033887444045181084 0 0.0037888082784843153 0.032015478762706745 0 0.0036254364283669362 0.03417392339519993 0 0.0052690872800814186 0.035227322660965198 0 0.0058133366187070948 0.032724744600484704 0 0.0036254364283669362 0.03417392339519993 0 0.0037888082784843153 0.032015478762706745 0 0.0058133366187070948 0.032724744600484704 0 0.0019172203716069569 0.031986162819477221 0 0.0027059938372519157 0.033887444045181084 0 0.0037888082784843153 0.032015478762706745 0 0.0019172203716069569 0.031986162819477221 0 0.0010210361548359445 0.035160437756286127 0 0.0020324000956568034 0.036628195962646624 0 0.0019208222431534756 0.03224477117086804 0 0.0017321932794336881 0.036263086054220649 0 0.0019172203716069569 0.031986162819477221 0 0.0014161837451741833 0.036050665053644883 0 0.0027059938372519157 0.033887444045181084 0 0.00053450204575961199 0.029998429950483973 0 0.0019172203716069569 0.031986162819477221 0 0.0010210361548359445 0.035160437756286127 0 0.0006534639676329208 0.032472698782310364 0 0.00093580257436359402 0.035005311068451672 0 0.0010210361548359445 0.035160437756286127 0 0.00049355180110189918 0.035141188411160075 0 0.0003586384380825694 0.035772992613999695 0 0.00067538475411344423 0.034864289094031387 0 0.0010210361548359445 0.035160437756286127 0 0.00049355180110189918 0.035141188411160075 0 0.00049355180110189918 0.035141188411160075 0 -4.7123937682964589e-05 0.03531386356306513 0 0.0003586384380825694 0.035772992613999695 0 -4.7123937682964589e-05 0.03531386356306513 0 0.0003586384380825694 0.035772992613999695 0 -0.00051492462630372518 0.036032652753159443 0 0.0003586384380825694 0.035772992613999695 0 0.0008704356592991382 0.036423456105100512 0 0.000113426830840962 0.036877935097302438 0 0.0003586384380825694 0.035772992613999695 0 0.000113426830840962 0.036877935097302438 0 -0.00051492462630372518 0.036032652753159443 0 0.0010210361548359445 0.035160437756286127 0 0.0003586384380825694 0.035772992613999695 0 0.0008704356592991382 0.036423456105100512 0 0.0010210361548359445 0.035160437756286127 0 0.0020324000956568034 0.036628195962646624 0 0.0008704356592991382 0.036423456105100512 0 0.0020324000956568034 0.036628195962646624 0 0.0008704356592991382 0.036423456105100512 0 0.0010963870261251878 0.03767441474981343 0 0.0008704356592991382 0.036423456105100512 0 0.0010963870261251878 0.03767441474981343 0 0.000113426830840962 0.036877935097302438 0 0.0010963870261251878 0.03767441474981343 0 0.000113426830840962 0.036877935097302438 0 -0.00025247394789197961 0.038678826101733614 0 0.0010963870261251878 0.03767441474981343 0 -0.00025247394789197961 0.038678826101733614 0 0.0012206999198817018 0.039198079412738042 0 0.0010963870261251878 0.03767441474981343 0 0.002113779735108554 0.038564003331298106 0 0.0012206999198817018 0.039198079412738042 0 0.001417747901932146 0.039128708960601805 0 0.0022945086504162354 0.03766304765117922 0 0.0033678077531575676 0.03822382805260411 0 0.0017321932794336881 0.036263086054220649 0 0.0017721973343133828 0.038852696217399799 0 0.0014161837451741833 0.036050665053644883 0 0.001417747901932146 0.039128708960601805 0 0.0022945086504162354 0.03766304765117922 0 0.0020324000956568034 0.036628195962646624 0 0.0010963870261251878 0.03767441474981343 0 0.002113779735108554 0.038564003331298106 0 0.0014161837451741833 0.036050665053644883 0 0.0022945086504162354 0.03766304765117922 0 0.0031215583470492912 0.036695122080927338 0 0.0031215583470492912 0.036695122080927338 0 0.0033678077531575676 0.03822382805260411 0 0.0041617821457296646 0.035904230874177642 0 0.0026300316448702988 0.039729487288672587 0 0.0027782480565259351 0.034200737423278449 0 0.0022945086504162354 0.03766304765117922 0 0.0031215583470492912 0.036695122080927338 0 0.0033678077531575676 0.03822382805260411 0 0.00201480471596267 0.039815869941348787 0 0.0023265447306895387 0.040012843231285553 0 0.002085976839538756 0.039905095449011364 0 0.0026300316448702988 0.039729487288672587 0 0.0024302606856408519 0.039598447269324405 0 0.001417747901932146 0.039128708960601805 0 0.0033678077531575676 0.03822382805260411 0 0.0023265447306895387 0.040012843231285553 0 0.0017721973343133828 0.038852696217399799 0 0.0018558699665779193 0.040484923575700819 0 0.001417747901932146 0.039128708960601805 0 0.0023265447306895387 0.040012843231285553 0 0.0018881415877468951 0.040603523162141157 0 0.0023265447306895387 0.040012843231285553 0 0.0018881415877468951 0.040603523162141157 0 0.0021730393184275594 0.040376478657959722 0 0.0023265447306895387 0.040012843231285553 0 0.0021730393184275594 0.040376478657959722 0 0.0021395576336072255 0.04004359655716936 0 0.0021730393184275594 0.040376478657959722 0 0.0021395576336072255 0.04004359655716936 0 0.0021098682753944902 0.040199610883680341 0 0.0021730393184275594 0.040376478657959722 0 0.0021299346150059646 0.040254866052722861 0 0.0020940498548368421 0.040699627673762971 0 0.0021730393184275594 0.040376478657959722 0 0.0021299346150059646 0.040254866052722861 0 0.0021098682753944902 0.040199610883680341 0 0.0018881415877468951 0.040603523162141157 0 0.0020940498548368421 0.040699627673762971 0 0.0016642074474855868 0.040827455645412021 0 0.0018881415877468951 0.040603523162141157 0 0.0021730393184275594 0.040376478657959722 0 0.0020940498548368421 0.040699627673762971 0 0.0020940498548368421 0.040699627673762971 0 0.0021593008343788302 0.040370469595348346 0 0.0022204949353288 0.041060697189870307 0 0.0021299346150059646 0.040254866052722861 0 0.0020940498548368421 0.040699627673762971 0 0.0021593008343788302 0.040370469595348346 0 0.0021299346150059646 0.040254866052722861 0 0.0021593008343788302 0.040370469595348346 0 0.002029989958130609 0.039891956775584374 0 0.001591279356136714 0.041303840637238687 0 0.0022204949353288 0.041060697189870307 0 0.0014449180187119048 0.041818337773224218 0 0.0020940498548368421 0.040699627673762971 0 0.0022204949353288 0.041060697189870307 0 0.0017918592334810548 0.040988645797520692 0 0.001591279356136714 0.041303840637238687 0 0.0022204949353288 0.041060697189870307 0 0.0017918592334810548 0.040988645797520692 0 0.0017918592334810548 0.040988645797520692 0 0.0016642074474855868 0.040827455645412021 0 0.0013894296286137582 0.041081869241253149 0 0.0020940498548368421 0.040699627673762971 0 0.0017918592334810548 0.040988645797520692 0 0.0016642074474855868 0.040827455645412021 0 0.001591279356136714 0.041303840637238687 0 0.0017918592334810548 0.040988645797520692 0 0.0013894296286137582 0.041081869241253149 0 0.001591279356136714 0.041303840637238687 0 0.0013894296286137582 0.041081869241253149 0 0.0012764991215577816 0.041607549334360859 0 0.0012956236908168626 0.041394891268814404 0 0.0013894296286137582 0.041081869241253149 0 0.0012977766430904308 0.040671352875806976 0 0.0018881415877468951 0.040603523162141157 0 0.0012977766430904308 0.040671352875806976 0 0.0012206999198817018 0.039198079412738042 0 0.0016642074474855868 0.040827455645412021 0 0.0013894296286137582 0.041081869241253149 0 0.0012977766430904308 0.040671352875806976 0 0.0018881415877468951 0.040603523162141157 0 0.0016642074474855868 0.040827455645412021 0 0.0012977766430904308 0.040671352875806976 0 0.002113779735108554 0.038564003331298106 0 0.0018881415877468951 0.040603523162141157 0 0.0012206999198817018 0.039198079412738042 0 0.00057721839646619527 0.040049797984307786 0 0.0012532404177294666 0.04067524836699779 0 -0.00025247394789197961 0.038678826101733614 0 0.0012977766430904308 0.040671352875806976 0 0.0012206999198817018 0.039198079412738042 0 0.0012956236908168626 0.041394891268814404 0 0.0013894296286137582 0.041081869241253149 0 0.001291648321413703 0.041482408911055195 0 0.0012956236908168626 0.041394891268814404 0 0.0012220382731058747 0.041640101909343571 0 0.001291648321413703 0.041482408911055195 0 0.0012220382731058747 0.041640101909343571 0 0.001291648321413703 0.041482408911055195 0 0.0011181732039255816 0.041981852362472892 0 0.0013894296286137582 0.041081869241253149 0 0.001291648321413703 0.041482408911055195 0 0.0012764991215577816 0.041607549334360859 0 0.001291648321413703 0.041482408911055195 0 0.0012764991215577816 0.041607549334360859 0 0.0011181732039255816 0.041981852362472892 0 0.0012764991215577816 0.041607549334360859 0 0.0011527189313629629 0.041953411390386088 0 0.0011181732039255816 0.041981852362472892 0 0.0012764991215577816 0.041607549334360859 0 0.0011527189313629629 0.041953411390386088 0 0.0014449180187119048 0.041818337773224218 0 0.0011311103574458393 0.042196834823075666 0 0.0014438037651762681 0.041900393002490641 0 0.001591279356136714 0.041303840637238687 0 0.0012764991215577816 0.041607549334360859 0 0.0014449180187119048 0.041818337773224218 0 0.00088173765115638549 0.042639884159222902 0 0.00059896413073735552 0.04297915055331495 0 0.00099743233425525772 0.042400624598403346 0 0.00090708487324938616 0.042438965406013995 0 0.0005963182709179829 0.043072927879842259 0 0.0011527189313629629 0.041953411390386088 0 0.00099743233425525772 0.042400624598403346 0 0.0011181732039255816 0.041981852362472892 0 0.0011311103574458393 0.042196834823075666 0 0.00088173765115638549 0.042639884159222902 0 0.0011181732039255816 0.041981852362472892 0 0.00090708487324938616 0.042438965406013995 0 0.0010256623724331755 0.042024139576959461 0 0.00099743233425525772 0.042400624598403346 0 0.0011181732039255816 0.041981852362472892 0 0.00090708487324938616 0.042438965406013995 0 0.00090708487324938616 0.042438965406013995 0 0.0010256623724331755 0.042024139576959461 0 0.00080182683525978587 0.042351358295412242 0 0.0010256623724331755 0.042024139576959461 0 0.00084287974461982136 0.042084753422249002 0 0.00080182683525978587 0.042351358295412242 0 0.0012220382731058747 0.041640101909343571 0 0.0011181732039255816 0.041981852362472892 0 0.0010256623724331755 0.042024139576959461 0 0.0012220382731058747 0.041640101909343571 0 0.0010256623724331755 0.042024139576959461 0 0.0010834041021834042 0.041740653091862555 0 0.0010834041021834042 0.041740653091862555 0 0.0008375477320589663 0.041874380701658449 0 0.00084287974461982136 0.042084753422249002 0 0.0010256623724331755 0.042024139576959461 0 0.0010834041021834042 0.041740653091862555 0 0.00084287974461982136 0.042084753422249002 0 0.00097736284044370667 0.041614221597917625 0 0.0010834041021834042 0.041740653091862555 0 0.0012460345721205116 0.04152319880931548 0 0.00097736284044370667 0.041614221597917625 0 0.0010834041021834042 0.041740653091862555 0 0.0008375477320589663 0.041874380701658449 0 0.00097736284044370667 0.041614221597917625 0 0.0012460345721205116 0.04152319880931548 0 0.0011171636866589708 0.041373471519856674 0 0.0012956236908168626 0.041394891268814404 0 0.0012220382731058747 0.041640101909343571 0 0.0012460345721205116 0.04152319880931548 0 0.0012220382731058747 0.041640101909343571 0 0.0010834041021834042 0.041740653091862555 0 0.0012460345721205116 0.04152319880931548 0 0.00057721839646619527 0.040049797984307786 0 0.0001313935091631808 0.039280532197442791 0 0.000113426830840962 0.036877935097302438 0 -0.00025247394789197961 0.038678826101733614 0 -0.00099755621427637456 0.037026495783038973 0 0.000113426830840962 0.036877935097302438 0 -0.00099755621427637456 0.037026495783038973 0 -0.00051492462630372518 0.036032652753159443 0 0.0001313935091631808 0.039280532197442791 0 -5.4997178629160151e-05 0.038771053878865744 0 -0.00099755621427637456 0.037026495783038973 0 -0.00051492462630372518 0.036032652753159443 0 -0.0013055527945660158 0.035984295119748773 0 -4.7123937682964589e-05 0.03531386356306513 0 -0.00051492462630372518 0.036032652753159443 0 -0.00083094149099308394 0.035508388359497392 0 -0.00051492462630372518 0.036032652753159443 0 -0.00083094149099308394 0.035508388359497392 0 -0.0013055527945660158 0.035984295119748773 0 -0.0016439588142633397 0.035357117119524675 0 -0.00083094149099308394 0.035508388359497392 0 -0.0013055527945660158 0.035984295119748773 0 0.00090739832418208907 0.041095940301794455 0 0.0011171636866589708 0.041373471519856674 0 0.00074088559904715503 0.041356941355716707 0 0.00097736284044370667 0.041614221597917625 0 0.0011171636866589708 0.041373471519856674 0 0.00074088559904715503 0.041356941355716707 0 -0.00048962975454189944 0.037858742817281028 0 -5.4997178629160151e-05 0.038771053878865744 0 0.00046636691985356551 0.041118264253668296 0 0.00074088559904715503 0.041356941355716707 0 0.00026757447567075617 0.041454523748293504 0 0.00074088559904715503 0.041356941355716707 0 0.00026757447567075617 0.041454523748293504 0 0.00059766410190977644 0.041777226238850163 0 0.00069387960919022268 0.041091505926012954 0 0.00090739832418208907 0.041095940301794455 0 0.00074088559904715503 0.041356941355716707 0 0.00046636691985356551 0.041118264253668296 0 0.00069387960919022268 0.041091505926012954 0 0.00074088559904715503 0.041356941355716707 0 0.00023479024561335273 0.043434794580059381 0 0.00011264175901558382 0.043040075258654782 0 -8.2708680192055209e-05 0.044704571830413098 0 1.0176535538573572e-05 0.044720958902112903 0 -9.4042349318438113e-05 0.044832051921529198 0 -8.2708680192055209e-05 0.044704571830413098 0 -0.0001419544332164055 0.044783393280178406 0 -9.4042349318438113e-05 0.044832051921529198 0 -0.0001419544332164055 0.044783393280178406 0 -0.00016887478619464648 0.044848680787282935 0 -9.4042349318438113e-05 0.044832051921529198 0 -0.0001419544332164055 0.044783393280178406 0 -0.00016887478619464648 0.044848680787282935 0 -0.00016920874680739136 0.044847548513932071 0 -0.00016887478619464648 0.044848680787282935 0 -9.4042349318438113e-05 0.044832051921529198 0 -0.00021527862860558312 0.044849032577986135 0 0.00011264175901558382 0.043040075258654782 0 -0.0001023189768774865 0.043378784831790536 0 0.00026757447567075617 0.041454523748293504 0 2.9625938272423676e-05 0.041879103664521314 0 0.00059766410190977644 0.041777226238850163 0 2.9625938272423676e-05 0.041879103664521314 0 0.00037117486217186108 0.042162754072536272 0 0.00059766410190977644 0.041777226238850163 0 2.9625938272423676e-05 0.041879103664521314 0 0.00011386923826512516 0.042374845869163236 0 -0.00026944285501614577 0.042540133271231323 0 -0.0001023189768774865 0.043378784831790536 0 -0.00025411181943529621 0.043617494589218521 0 2.9625938272423676e-05 0.041879103664521314 0 0.00011386923826512516 0.042374845869163236 0 0.00037117486217186108 0.042162754072536272 0 0.00037117486217186108 0.042162754072536272 0 0.00059766410190977644 0.041777226238850163 0 0.00059204038710216136 0.042150176002204325 0 0.00097736284044370667 0.041614221597917625 0 0.00074088559904715503 0.041356941355716707 0 0.00059766410190977644 0.041777226238850163 0 0.00097736284044370667 0.041614221597917625 0 0.00059766410190977644 0.041777226238850163 0 0.0008375477320589663 0.041874380701658449 0 0.00059766410190977644 0.041777226238850163 0 0.0008375477320589663 0.041874380701658449 0 0.00059204038710216136 0.042150176002204325 0 0.0008375477320589663 0.041874380701658449 0 0.00084287974461982136 0.042084753422249002 0 0.00059204038710216136 0.042150176002204325 0 0.00084287974461982136 0.042084753422249002 0 0.00059204038710216136 0.042150176002204325 0 0.00058172349518371361 0.042405721138364466 0 0.00059204038710216136 0.042150176002204325 0 0.00058172349518371361 0.042405721138364466 0 0.00024813140746061284 0.042654197627823923 0 0.00058172349518371361 0.042405721138364466 0 0.00056446881252665624 0.042618392517922626 0 0.00029659593456416659 0.042895196960979043 0 0.00084287974461982136 0.042084753422249002 0 0.00058172349518371361 0.042405721138364466 0 0.00080182683525978587 0.042351358295412242 0 0.00058172349518371361 0.042405721138364466 0 0.00080182683525978587 0.042351358295412242 0 0.00056446881252665624 0.042618392517922626 0 0.00090708487324938616 0.042438965406013995 0 0.00080182683525978587 0.042351358295412242 0 0.00062501210270500334 0.04282393351937417 0 0.00080182683525978587 0.042351358295412242 0 0.00062501210270500334 0.04282393351937417 0 0.00056446881252665624 0.042618392517922626 0 0.00090708487324938616 0.042438965406013995 0 0.00062501210270500334 0.04282393351937417 0 0.0005963182709179829 0.043072927879842259 0 0.00062219830359692605 0.042911381099240593 0 0.00030795755212795184 0.043197074943784247 0 0.00062501210270500334 0.04282393351937417 0 0.00034495325597098909 0.043421420956170194 0 0.00026623905684830605 0.043514636611220493 0 0.00062501210270500334 0.04282393351937417 0 0.00056446881252665624 0.042618392517922626 0 0.00029659593456416659 0.042895196960979043 0 0.00062501210270500334 0.04282393351937417 0 0.00034495325597098909 0.043421420956170194 0 0.0005963182709179829 0.043072927879842259 0 0.00034495325597098909 0.043421420956170194 0 0.0005963182709179829 0.043072927879842259 0 0.00045082640544525092 0.043511787048667303 0 0.00081583554212836141 0.042857622331093276 0 0.0005963182709179829 0.043072927879842259 0 0.00067859063193924992 0.043232281662029283 0 0.00034495325597098909 0.043421420956170194 0 0.00015830224758223957 0.043898918377669134 0 0.00026623905684830605 0.043514636611220493 0 0.00034495325597098909 0.043421420956170194 0 0.00015830224758223957 0.043898918377669134 0 0.00024275856449867646 0.043815982232607624 0 0.00026623905684830605 0.043514636611220493 0 0.00012603772815458479 0.043965270629829821 0 9.4207598326423184e-05 0.04403906443629596 0 0.00015830224758223957 0.043898918377669134 0 0.00026623905684830605 0.043514636611220493 0 9.4207598326423184e-05 0.04403906443629596 0 0.00030795755212795184 0.043197074943784247 0 -3.9724774615224614e-07 0.043622877978209441 0 -8.3995604464578297e-05 0.043228289193686639 0 0.00024813140746061284 0.042654197627823923 0 -3.7415472066683642e-05 0.042955814081203532 0 0.00029659593456416659 0.042895196960979043 0 -8.3995604464578297e-05 0.043228289193686639 0 0.00024813140746061284 0.042654197627823923 0 0.00058172349518371361 0.042405721138364466 0 0.00029659593456416659 0.042895196960979043 0 0.00024813140746061284 0.042654197627823923 0 0.00037117486217186108 0.042162754072536272 0 0.00059204038710216136 0.042150176002204325 0 0.00024813140746061284 0.042654197627823923 0 0.00011386923826512516 0.042374845869163236 0 0.00037117486217186108 0.042162754072536272 0 0.00024813140746061284 0.042654197627823923 0 0.00011386923826512516 0.042374845869163236 0 0.00024813140746061284 0.042654197627823923 0 -3.7415472066683642e-05 0.042955814081203532 0 0.00011386923826512516 0.042374845869163236 0 -3.7415472066683642e-05 0.042955814081203532 0 -0.00026944285501614577 0.042540133271231323 0 -0.00033798281232281759 0.044724408614824532 0 -0.00010476247690317591 0.044415317884738008 0 -0.00019576623131136662 0.043965166154985066 0 -3.7415472066683642e-05 0.042955814081203532 0 -0.00026944285501614577 0.042540133271231323 0 -0.00019576623131136662 0.043965166154985066 0 -0.00025411181943529621 0.043617494589218521 0 -0.0002047662173799129 0.043874751592742324 0 -0.00033798281232281759 0.044724408614824532 0 -8.7062277825876645e-05 0.044731861300342755 0 -0.00010476247690317591 0.044415317884738008 0 -8.7062277825876645e-05 0.044731861300342755 0 -0.00010476247690317591 0.044415317884738008 0 -2.6167220806208768e-05 0.044593576830140466 0 -0.00015384879714219329 0.044186814102522183 0 -7.216037676064288e-05 0.044449297053121915 0 -2.6167220806208768e-05 0.044593576830140466 0 -0.00010476247690317591 0.044415317884738008 0 -0.00015384879714219329 0.044186814102522183 0 -2.6167220806208768e-05 0.044593576830140466 0 -0.00010476247690317591 0.044415317884738008 0 -0.00019576623131136662 0.043965166154985066 0 -0.00015384879714219329 0.044186814102522183 0 -0.00015384879714219329 0.044186814102522183 0 -7.8090551996243696e-05 0.044352563802658805 0 -7.216037676064288e-05 0.044449297053121915 0 -8.3995604464578297e-05 0.043228289193686639 0 -0.00019576623131136662 0.043965166154985066 0 -0.00015384879714219329 0.044186814102522183 0 0.00012603772815458479 0.043965270629829821 0 -0.00015384879714219329 0.044186814102522183 0 -7.1879483311038932e-06 0.044180379103031429 0 -3.9724774615224614e-07 0.043622877978209441 0 -0.00016127849169524078 0.044062854074384358 0 -8.3995604464578297e-05 0.043228289193686639 0 -3.7415472066683642e-05 0.042955814081203532 0 -0.00019576623131136662 0.043965166154985066 0 0.00012603772815458479 0.043965270629829821 0 9.4207598326423184e-05 0.04403906443629596 0 -7.1879483311038932e-06 0.044180379103031429 0 9.4207598326423184e-05 0.04403906443629596 0 -7.1879483311038932e-06 0.044180379103031429 0 -1.1355213517337797e-05 0.044269531985737368 0 -0.00015384879714219329 0.044186814102522183 0 -7.1879483311038932e-06 0.044180379103031429 0 -7.8090551996243696e-05 0.044352563802658805 0 -7.8090551996243696e-05 0.044352563802658805 0 -1.1355213517337797e-05 0.044269531985737368 0 -5.2107087209939392e-05 0.044535926608068446 0 -7.1879483311038932e-06 0.044180379103031429 0 -7.8090551996243696e-05 0.044352563802658805 0 -1.1355213517337797e-05 0.044269531985737368 0 -1.1355213517337797e-05 0.044269531985737368 0 5.478732842959846e-06 0.044344567147023811 0 -5.2107087209939392e-05 0.044535926608068446 0 9.4207598326423184e-05 0.04403906443629596 0 -1.1355213517337797e-05 0.044269531985737368 0 5.478732842959846e-06 0.044344567147023811 0 0.00015830224758223957 0.043898918377669134 0 9.4207598326423184e-05 0.04403906443629596 0 5.478732842959846e-06 0.044344567147023811 0 -5.0352952153089716e-08 0.044999562888965026 0 -3.1689429203330965e-05 0.044705821946800527 0 -1.9248546882056711e-08 0.04499961231187144 0 -5.0352952153089716e-08 0.044999562888965026 0 -5.2107087209939392e-05 0.044535926608068446 0 -3.1689429203330965e-05 0.044705821946800527 0 5.478732842959846e-06 0.044344567147023811 0 -5.2107087209939392e-05 0.044535926608068446 0 -3.1689429203330965e-05 0.044705821946800527 0 -7.8090551996243696e-05 0.044352563802658805 0 -5.2107087209939392e-05 0.044535926608068446 0 -7.216037676064288e-05 0.044449297053121915 0 -5.2107087209939392e-05 0.044535926608068446 0 -7.216037676064288e-05 0.044449297053121915 0 -2.2737174336268216e-05 0.044711548348025265 0 -5.0352952153089716e-08 0.044999562888965026 0 -5.2107087209939392e-05 0.044535926608068446 0 -2.2737174336268216e-05 0.044711548348025265 0 -5.0352952153089716e-08 0.044999562888965026 0 7.1320925883591504e-09 0.044999556761138086 0 -2.2737174336268216e-05 0.044711548348025265 0 7.1320925883591504e-09 0.044999556761138086 0 -2.2737174336268216e-05 0.044711548348025265 0 9.585528821225646e-07 0.044841438803972122 0 -2.2737174336268216e-05 0.044711548348025265 0 -2.6167220806208768e-05 0.044593576830140466 0 9.585528821225646e-07 0.044841438803972122 0 -7.216037676064288e-05 0.044449297053121915 0 -2.2737174336268216e-05 0.044711548348025265 0 -2.6167220806208768e-05 0.044593576830140466 0 -8.7062277825876645e-05 0.044731861300342755 0 -2.6167220806208768e-05 0.044593576830140466 0 -1.6571629712940884e-05 0.0448512584698747 0 -2.6167220806208768e-05 0.044593576830140466 0 -1.6571629712940884e-05 0.0448512584698747 0 9.585528821225646e-07 0.044841438803972122 0 7.1320925883591504e-09 0.044999556761138086 0 9.585528821225646e-07 0.044841438803972122 0 7.6571344535985821e-08 0.044999822957365355 0 -1.6571629712940884e-05 0.0448512584698747 0 9.585528821225646e-07 0.044841438803972122 0 7.6571344535985821e-08 0.044999822957365355 0 -1.6571629712940884e-05 0.0448512584698747 0 7.6571344535985821e-08 0.044999822957365355 0 -5.5637972233580362e-05 0.044892736974256185 0 7.6571344535985821e-08 0.044999822957365355 0 -1.725586697809064e-07 0.04499984419992395 0 -5.5637972233580362e-05 0.044892736974256185 0 -1.725586697809064e-07 0.04499984419992395 0 -5.5637972233580362e-05 0.044892736974256185 0 -9.4991676378355396e-05 0.044914266217064278 0 -8.7062277825876645e-05 0.044731861300342755 0 -1.6571629712940884e-05 0.0448512584698747 0 -5.5637972233580362e-05 0.044892736974256185 0 -8.7062277825876645e-05 0.044731861300342755 0 -5.5637972233580362e-05 0.044892736974256185 0 -0.00019456739920028444 0.044833905701259405 0 -0.00033798281232281759 0.044724408614824532 0 -8.7062277825876645e-05 0.044731861300342755 0 -0.00019456739920028444 0.044833905701259405 0 -0.00021527862860558312 0.044849032577986135 0 -0.00033798281232281759 0.044724408614824532 0 -0.00019456739920028444 0.044833905701259405 0 -0.00021527862860558312 0.044849032577986135 0 -0.00019456739920028444 0.044833905701259405 0 -0.000169709701573524 0.044875466982170785 0 -0.00016887478619464648 0.044848680787282935 0 -0.00021527862860558312 0.044849032577986135 0 -0.000169709701573524 0.044875466982170785 0 -5.5637972233580362e-05 0.044892736974256185 0 -0.00019456739920028444 0.044833905701259405 0 -0.000169709701573524 0.044875466982170785 0 -5.5637972233580362e-05 0.044892736974256185 0 -0.000169709701573524 0.044875466982170785 0 -9.4991676378355396e-05 0.044914266217064278 0 -0.00014656089949785704 0.044879170784085681 0 -0.000169709701573524 0.044875466982170785 0 -9.4991676378355396e-05 0.044914266217064278 0 -0.00014656089949785704 0.044879170784085681 0 -0.000169709701573524 0.044875466982170785 0 -0.00016920874680739136 0.044847548513932071 0 -0.00016887478619464648 0.044848680787282935 0 -0.000169709701573524 0.044875466982170785 0 -0.00016920874680739136 0.044847548513932071 0 -0.0001807624148871175 0.044829161980994119 0 -0.00016920874680739136 0.044847548513932071 0 -0.00016548150851099171 0.044806715956844871 0 -0.0001419544332164055 0.044783393280178406 0 -0.00016920874680739136 0.044847548513932071 0 -0.00016548150851099171 0.044806715956844871 0 -0.0001807624148871175 0.044829161980994119 0 -0.00014656089949785704 0.044879170784085681 0 -0.00011422002116403197 0.044899726216313968 0 -0.0001807624148871175 0.044829161980994119 0 -0.00014656089949785704 0.044879170784085681 0 -0.00016920874680739136 0.044847548513932071 0 -3.0464934371967022e-09 0.044999998327269961 0 -2.6171695571524525e-06 0.044997586353118402 0 -1.5481729319219017e-09 0.044999996510027646 0 2.5638563301998066e-09 0.044999902103274793 0 -3.0389643464574728e-05 0.045001738319732719 0 -1.725586697809064e-07 0.04499984419992395 0 -0.00011422002116403197 0.044899726216313968 0 -9.4991676378355396e-05 0.044914266217064278 0 8.9010390757166894e-10 0.04500000025547303 0 -2.6171695571524525e-06 0.044997586353118402 0 -1.5481729319219017e-09 0.044999996510027646 0 -0.00014656089949785704 0.044879170784085681 0 -0.00011422002116403197 0.044899726216313968 0 -9.4991676378355396e-05 0.044914266217064278 0 0.0066377888874038426 -0.017612804225359838 0 0.0079207213533330802 -0.017097650724801884 0 0.0060203237837570013 -0.017653986629999181 0 0.0060041832045463241 -0.017639863706389224 0 0.0061133477617009097 -0.01742494151632035 0 0.0060203237837570013 -0.017653986629999181 0 0.0061244955951804906 -0.017626830105717105 0 0.0059847669762866807 -0.017744693118605947 0 0.0060203237837570013 -0.017653986629999181 0 0.0061133477617009097 -0.01742494151632035 0 0.0061244955951804906 -0.017626830105717105 0 0.0060203237837570013 -0.017653986629999181 0 0.0060041832045463241 -0.017639863706389224 0 0.005952428486936937 -0.017835020322573135 0 0.0072794168213577417 -0.01758630412389835 0 0.0080516554969346042 -0.015424467048595793 0 0.0066377502124636591 -0.015466869462373028 0 0.0072794168213577417 -0.01758630412389835 0 0.0090635645057262435 -0.016130712926869573 0 0.0080516554969346042 -0.015424467048595793 0 0.0072794168213577417 -0.01758630412389835 0 0.0090635645057262435 -0.016130712926869573 0 0.0097935914660903373 -0.017121423967546241 0 0.0090635645057262435 -0.016130712926869573 0 0.01105176623241228 -0.016919903273992135 0 0.0097935914660903373 -0.017121423967546241 0 0.0090635645057262435 -0.016130712926869573 0 0.01105176623241228 -0.016919903273992135 0 0.0095390688067587739 -0.014980623149849537 0 0.0085517710585577573 -0.013635077083797853 0 0.010138145063177987 -0.011120321066761594 0 0.0085517710585577573 -0.013635077083797853 0 0.0079207213533330802 -0.017097650724801884 0 0.010275943632060504 -0.0067651533772904501 0 0.010297905339824245 -0.0066563831517844792 0 0.010343934351355798 -0.0067242330684697746 0 0.010297905339824245 -0.0066563831517844792 0 0.010410243050569415 -0.0066002754769436183 0 0.010343934351355798 -0.0067242330684697746 0 0.0085517710585577573 -0.013635077083797853 0 0.0089599573705590099 -0.0079703601491894586 0 0.0055775397413268769 -0.0099046052138573523 0 0.0085128850153648895 -0.009458050393386052 0 0.0098421560425482543 -0.0055233937376924025 0 0.0054857528099038193 -0.014344317192339931 0 0.0089599573705590099 -0.0079703601491894586 0 0.0064894223993571193 -0.017214797209374629 0 0.0064078076568562167 -0.017595909903720092 0 0.0069510802836131999 -0.017092806400937778 0 0.0055775397413268769 -0.0099046052138573523 0 0.0085128850153648895 -0.009458050393386052 0 0.0013516178834027763 -0.014234675491367624 0 0.0064894223993571193 -0.017214797209374629 0 0.0064078076568562167 -0.017595909903720092 0 0.0061133477617009097 -0.01742494151632035 0 0.0064078076568562167 -0.017595909903720092 0 0.0061133477617009097 -0.01742494151632035 0 0.0061244955951804906 -0.017626830105717105 0 0.0064078076568562167 -0.017595909903720092 0 0.0061244955951804906 -0.017626830105717105 0 0.0060272708275084597 -0.017774941736533094 0 0.008793815832040466 -0.012514391021340913 0 0.0051513027040854219 -0.015322733727045653 0 0.0099178381682408345 -0.01180561912780123 0 0.0068615915918226276 -0.014616778637806664 0 0.0085855511841525928 -0.015473213777814545 0 0.0061244955951804906 -0.017626830105717105 0 0.0060272708275084597 -0.017774941736533094 0 0.0059847669762866807 -0.017744693118605947 0 0.0054857528099038193 -0.014344317192339931 0 0.0051513027040854219 -0.015322733727045653 0 0.0051513027040854219 -0.015322733727045653 0 0.0050984066387250058 -0.015785461789107759 0 0.0099178381682408345 -0.01180561912780123 0 0.0085855511841525928 -0.015473213777814545 0 0.010905492852415934 -0.01496718627293854 0 0.0047087844087771655 0.0073817201854559896 0 0.0049091801334054715 0.0078806647670431398 0 0.0041464393865488242 0.0066888006981277847 0 0.0080053998579508387 -0.0048820955536094659 0 0.0050053879549532658 3.1227473624062343e-06 0 0.0085855511841525928 -0.015473213777814545 0 0.010905492852415934 -0.01496718627293854 0 0.0079434941553443283 -0.017312623725847052 0 0.005565583045062039 0.0082814022398155478 0 0.0050053879549532658 3.1227473624062343e-06 0 0.0047087844087771655 0.0073817201854559896 0 0.0049820756801171118 0.007198382453830407 0 0.0047843091184372596 0.0069052531179016946 0 0.0068615915918226276 -0.014616778637806664 0 0.0085855511841525928 -0.015473213777814545 0 0.0068635019865898178 -0.016613949064764159 0 0.0085855511841525928 -0.015473213777814545 0 0.0068635019865898178 -0.016613949064764159 0 0.0079434941553443283 -0.017312623725847052 0 0.0051513027040854219 -0.015322733727045653 0 0.0062647108807676053 -0.017265298674575835 0 0.0068615915918226276 -0.014616778637806664 0 0.0068635019865898178 -0.016613949064764159 0 0.0058945189753207526 -0.01729098350959838 0 0.0058945189753207526 -0.01729098350959838 0 0.0059361786388572573 -0.017768151987001581 0 0.005952428486936937 -0.017835020322573135 0 0.0059326637018179921 -0.01784452061268154 0 0.0058945189753207526 -0.01729098350959838 0 0.0059361786388572573 -0.017768151987001581 0 0.0060272708275084597 -0.017774941736533094 0 0.0059361786388572573 -0.017768151987001581 0 0.0059847669762866807 -0.017744693118605947 0 0.0059361786388572573 -0.017768151987001581 0 0.0059847669762866807 -0.017744693118605947 0 0.005952428486936937 -0.017835020322573135 0 0.0060203237837570013 -0.017653986629999181 0 0.0059847669762866807 -0.017744693118605947 0 0.005952428486936937 -0.017835020322573135 0 0.0060041832045463241 -0.017639863706389224 0 0.005952428486936937 -0.017835020322573135 0 0.0058199182632588144 -0.018346637343409439 0 0.005952428486936937 -0.017835020322573135 0 0.0059076225749527065 -0.017769333237289932 0 0.0058199182632588144 -0.018346637343409439 0 0.0058945189753207526 -0.01729098350959838 0 0.005952428486936937 -0.017835020322573135 0 0.0059076225749527065 -0.017769333237289932 0 0.0058945189753207526 -0.01729098350959838 0 0.0059076225749527065 -0.017769333237289932 0 0.0059515781529615635 -0.017543364201585195 0 0.0059076225749527065 -0.017769333237289932 0 0.0058199182632588144 -0.018346637343409439 0 0.0060637451635930685 -0.017613381386498109 0 0.0058300846637539434 -0.018556172368247595 0 0.0058338312522023955 -0.018762954118544017 0 0.0041781481898431798 -0.019346605303669877 0 0.0058199182632588144 -0.018346637343409439 0 0.0056313410037442529 -0.02080029372964946 0 0.0041781481898431798 -0.019346605303669877 0 0.0034848819950102708 -0.021273583441181486 0 0.0056313410037442529 -0.02080029372964946 0 0.0041781481898431798 -0.019346605303669877 0 0.0058199182632588144 -0.018346637343409439 0 0.0050480729682138925 -0.017596832164036423 0 0.0017055586468123793 -0.021714336951089395 0 0.0016568101706525011 -0.019208100756322153 0 0.0026595207874140579 -0.020229919817615311 0 0.0041781481898431798 -0.019346605303669877 0 0.0026595207874140579 -0.020229919817615311 0 0.0034848819950102708 -0.021273583441181486 0 0.0041781481898431798 -0.019346605303669877 0 0.0026591975520187977 -0.018134303430249899 0 0.0050480729682138925 -0.017596832164036423 0 0.0041781481898431798 -0.019346605303669877 0 0.0026595207874140579 -0.020229919817615311 0 0.0026591975520187977 -0.018134303430249899 0 0.0016568101706525011 -0.019208100756322153 0 0.0026595207874140579 -0.020229919817615311 0 0.0026591975520187977 -0.018134303430249899 0 0.0016568101706525011 -0.019208100756322153 0 0.001072006957235961 -0.017385953189313789 0 0.0026591975520187977 -0.018134303430249899 0 0.0027877595490268196 -0.018098928777745379 0 0.0047954334563036537 -0.017777873874483489 0 0.0026591975520187977 -0.018134303430249899 0 0.004602471448917558 -0.01791554487591954 0 0.0040044325116599744 -0.016658042407408102 0 0.0026591975520187977 -0.018134303430249899 0 0.0026679788266531111 -0.016269061499549171 0 0.0040044325116599744 -0.016658042407408102 0 0.0026679788266531111 -0.016269061499549171 0 0.0040044325116599744 -0.016658042407408102 0 0.0037221301369900679 -0.015075647843235401 0 0.001072006957235961 -0.017385953189313789 0 0.0026679788266531111 -0.016269061499549171 0 0.0014400203288280101 -0.015679514834435773 0 0.001072006957235961 -0.017385953189313789 0 0.0026591975520187977 -0.018134303430249899 0 0.0026679788266531111 -0.016269061499549171 0 0.0072794168213577417 -0.01758630412389835 0 0.004602471448917558 -0.01791554487591954 0 0.0057225776700980391 -0.016668936902402818 0 0.0066377888874038426 -0.017612804225359838 0 0.0047954334563036537 -0.017777873874483489 0 0.0060041832045463241 -0.017639863706389224 0 0.0058199182632588144 -0.018346637343409439 0 0.0050480729682138925 -0.017596832164036423 0 0.004602471448917558 -0.01791554487591954 0 0.0040044325116599744 -0.016658042407408102 0 0.0057225776700980391 -0.016668936902402818 0 0.0040044325116599744 -0.016658042407408102 0 0.0057225776700980391 -0.016668936902402818 0 0.0053524247239563252 -0.01527713342153747 0 0.0072794168213577417 -0.01758630412389835 0 0.0057225776700980391 -0.016668936902402818 0 0.0066377502124636591 -0.015466869462373028 0 0.0057225776700980391 -0.016668936902402818 0 0.0053524247239563252 -0.01527713342153747 0 0.0066377502124636591 -0.015466869462373028 0 0.0053524247239563252 -0.01527713342153747 0 0.0044010514000051406 -0.013010594410133788 0 0.0070323748727335929 -0.014023795519656062 0 0.0053524247239563252 -0.01527713342153747 0 0.0070323748727335929 -0.014023795519656062 0 0.0066377502124636591 -0.015466869462373028 0 0.0053524247239563252 -0.01527713342153747 0 0.0037221301369900679 -0.015075647843235401 0 0.0044010514000051406 -0.013010594410133788 0 0.0040044325116599744 -0.016658042407408102 0 0.0053524247239563252 -0.01527713342153747 0 0.0037221301369900679 -0.015075647843235401 0 0.0044897975283053337 -0.012952407919673999 0 0.0076248600207479552 -0.014109227077686373 0 0.0044010514000051406 -0.013010594410133788 0 0.0056660976541301053 -0.011403767644280013 0 0.0081732397173586244 -0.013558125734900088 0 0.0070856192381457484 -0.011073231654312416 0 0.0056660976541301053 -0.011403767644280013 0 0.0081732397173586244 -0.013558125734900088 0 0.0026679788266531111 -0.016269061499549171 0 0.0014400203288280101 -0.015679514834435773 0 0.0018000351054145033 -0.014101096279571399 0 0.0026679788266531111 -0.016269061499549171 0 0.0037221301369900679 -0.015075647843235401 0 0.0018000351054145033 -0.014101096279571399 0 0.0037221301369900679 -0.015075647843235401 0 0.0044010514000051406 -0.013010594410133788 0 0.0018000351054145033 -0.014101096279571399 0 0.0044010514000051406 -0.013010594410133788 0 0.0018000351054145033 -0.014101096279571399 0 0.0029456397348238432 -0.010537979813564302 0 0.0013805649159017816 -0.014720702334718868 0 0.0014400203288280101 -0.015679514834435773 0 0.0018000351054145033 -0.014101096279571399 0 0.0013441932222037333 -0.01395123651931785 0 0.0022974758708799816 -0.01132454188388533 0 0.0013805649159017816 -0.014720702334718868 0 0.0018000351054145033 -0.014101096279571399 0 0.0015834323275584665 -0.014365735956183527 0 0.0029456397348238432 -0.010537979813564302 0 0.0021330479068685858 -0.0079051757007811922 0 7.3266961310831298e-05 -0.0084790837526187678 0 0.0018000351054145033 -0.014101096279571399 0 0.0029456397348238432 -0.010537979813564302 0 7.3266961310831298e-05 -0.0084790837526187678 0 0.0029456397348238432 -0.010537979813564302 0 0.0021330479068685858 -0.0079051757007811922 0 0.0035251767782583502 -0.0089700688408727702 0 0.0021330479068685858 -0.0079051757007811922 0 0.0035251767782583502 -0.0089700688408727702 0 0.0033418980089835394 -0.00764070411493339 0 0.0033370617713187568 -0.0064473198583798567 0 0.002355579351743041 -0.0066374781186994379 0 0.0027701889053224162 -0.0071279032223004 0 0.0027701889053224162 -0.0071279032223004 0 0.0021330479068685858 -0.0079051757007811922 0 0.0033418980089835394 -0.00764070411493339 0 0.0033370617713187568 -0.0064473198583798567 0 0.0027701889053224162 -0.0071279032223004 0 0.0033418980089835394 -0.00764070411493339 0 0.002355579351743041 -0.0066374781186994379 0 0.0021330479068685858 -0.0079051757007811922 0 0.0015850645903994819 -0.0079311650356024468 0 0.002355579351743041 -0.0066374781186994379 0 0.0027701889053224162 -0.0071279032223004 0 0.0021330479068685858 -0.0079051757007811922 0 0.0020604404402552313 -0.0092994288808166195 0 0.0022974758708799816 -0.01132454188388533 0 0.0025327777603754023 -0.012536759764350525 0 0.0042314966610835416 -0.009951529673415031 0 0.0052529298062349537 -0.013985396147940317 0 0.0032084379031380346 -0.0078782222379407234 0 0.0022974758708799816 -0.01132454188388533 0 0.005573891210209252 -0.0094028048267753399 0 0.0071980724052905171 -0.009891270800406516 0 0.0065877610292828549 -0.0077029043697789158 0 0.005573891210209252 -0.0094028048267753399 0 0.0071980724052905171 -0.009891270800406516 0 0.0070856192381457484 -0.011073231654312416 0 0.005573891210209252 -0.0094028048267753399 0 0.0056660976541301053 -0.011403767644280013 0 0.0044149501339160943 -0.010003028169262209 0 0.005573891210209252 -0.0094028048267753399 0 0.0070856192381457484 -0.011073231654312416 0 0.0056660976541301053 -0.011403767644280013 0 0.0044010514000051406 -0.013010594410133788 0 0.0029456397348238432 -0.010537979813564302 0 0.0044149501339160943 -0.010003028169262209 0 0.0044010514000051406 -0.013010594410133788 0 0.0056660976541301053 -0.011403767644280013 0 0.0044149501339160943 -0.010003028169262209 0 0.0035251767782583502 -0.0089700688408727702 0 0.0044149501339160943 -0.010003028169262209 0 0.0043460439533808074 -0.008453466654149637 0 0.0029456397348238432 -0.010537979813564302 0 0.0035251767782583502 -0.0089700688408727702 0 0.0044149501339160943 -0.010003028169262209 0 0.005573891210209252 -0.0094028048267753399 0 0.0044149501339160943 -0.010003028169262209 0 0.0043460439533808074 -0.008453466654149637 0 0.0043460439533808074 -0.008453466654149637 0 0.003977534199889562 -0.0070677581103301516 0 0.0051801104286796932 -0.0074358321640228204 0 0.0043460439533808074 -0.008453466654149637 0 0.0033418980089835394 -0.00764070411493339 0 0.003977534199889562 -0.0070677581103301516 0 0.0035251767782583502 -0.0089700688408727702 0 0.0043460439533808074 -0.008453466654149637 0 0.0033418980089835394 -0.00764070411493339 0 0.0045894821521053585 -0.0063593347676607868 0 0.0033370617713187568 -0.0064473198583798567 0 0.003977534199889562 -0.0070677581103301516 0 0.0033370617713187568 -0.0064473198583798567 0 0.0033418980089835394 -0.00764070411493339 0 0.003977534199889562 -0.0070677581103301516 0 0.0045894821521053585 -0.0063593347676607868 0 0.003977534199889562 -0.0070677581103301516 0 0.0051801104286796932 -0.0074358321640228204 0 0.005264536261485024 -0.0064215921288575456 0 0.0051801104286796932 -0.0074358321640228204 0 0.0060418696757462108 -0.0063380433988635444 0 0.0052031180836345156 -0.0057488911098877707 0 0.005264536261485024 -0.0064215921288575456 0 0.0060418696757462108 -0.0063380433988635444 0 0.0045894821521053585 -0.0063593347676607868 0 0.005264536261485024 -0.0064215921288575456 0 0.0051801104286796932 -0.0074358321640228204 0 0.005573891210209252 -0.0094028048267753399 0 0.0051801104286796932 -0.0074358321640228204 0 0.0065877610292828549 -0.0077029043697789158 0 0.005573891210209252 -0.0094028048267753399 0 0.0043460439533808074 -0.008453466654149637 0 0.0051801104286796932 -0.0074358321640228204 0 0.0051801104286796932 -0.0074358321640228204 0 0.0065877610292828549 -0.0077029043697789158 0 0.0060418696757462108 -0.0063380433988635444 0 0.0060418696757462108 -0.0063380433988635444 0 0.0058835044127642068 -0.0054394497311561632 0 0.0059639307171034401 -0.0049097908269853819 0 0.0061747961167067421 -0.0062903932579111248 0 0.0073085449637138268 -0.0066672013255564353 0 0.0065877610292828549 -0.0077029043697789158 0 0.0060418696757462108 -0.0063380433988635444 0 0.0089722953964811742 -0.0085800555500138796 0 0.005761301243583406 -0.0055675784434954358 0 0.0060418696757462108 -0.0063380433988635444 0 0.0058835044127642068 -0.0054394497311561632 0 0.0059575129742802206 -0.0048052603530854051 0 0.0058835044127642068 -0.0054394497311561632 0 0.0059362658424571236 -0.0049876153305773831 0 0.0059362658424571236 -0.0049876153305773831 0 0.0059733620595809325 -0.0047473765067120328 0 0.0059639307171034401 -0.0049097908269853819 0 0.0058835044127642068 -0.0054394497311561632 0 0.0059362658424571236 -0.0049876153305773831 0 0.0059639307171034401 -0.0049097908269853819 0 0.0059362658424571236 -0.0049876153305773831 0 0.0059733620595809325 -0.0047473765067120328 0 0.0060397671965706588 -0.0045482098098017822 0 0.0059733620595809325 -0.0047473765067120328 0 0.0059639307171034401 -0.0049097908269853819 0 0.0059929825384022872 -0.0046660847930859624 0 0.0089722953964811742 -0.0085800555500138796 0 0.0088768495782559111 -0.0099016862474500134 0 0.010419206818898633 -0.0099642612984697683 0 0.0073085449637138268 -0.0066672013255564353 0 0.0083551540868857868 -0.0078443112453272131 0 0.0065877610292828549 -0.0077029043697789158 0 0.0089722953964811742 -0.0085800555500138796 0 0.0088768495782559111 -0.0099016862474500134 0 0.0071980724052905171 -0.009891270800406516 0 0.0065877610292828549 -0.0077029043697789158 0 0.0098056603831543337 -0.011434009645162384 0 0.006734403835159072 -0.0077873102451591408 0 0.0093638259281470862 -0.010772524233941542 0 0.0071980724052905171 -0.009891270800406516 0 0.0070856192381457484 -0.011073231654312416 0 0.0098056603831543337 -0.011434009645162384 0 0.0070856192381457484 -0.011073231654312416 0 0.0098056603831543337 -0.011434009645162384 0 0.0081732397173586244 -0.013558125734900088 0 0.0093638259281470862 -0.010772524233941542 0 0.010852083816178699 -0.012122079156029938 0 0.0088768495782559111 -0.0099016862474500134 0 0.010128655321684466 -0.011210296220819061 0 0.010494236889604037 -0.010628587119379166 0 0.0098056603831543337 -0.011434009645162384 0 0.0081732397173586244 -0.013558125734900088 0 0.012307272304593908 -0.014563168404430305 0 0.0088768495782559111 -0.0099016862474500134 0 0.010494236889604037 -0.010628587119379166 0 0.010419206818898633 -0.0099642612984697683 0 0.0094792223735709422 -0.014671884487914313 0 0.0080516554969346042 -0.015424467048595793 0 0.00968376359937052 -0.014918910046504769 0 0.0076248600207479552 -0.014109227077686373 0 0.010852083816178699 -0.012122079156029938 0 0.0077121127980678281 -0.015562447214882234 0 0.010138145063177987 -0.011120321066761594 0 0.0070323748727335929 -0.014023795519656062 0 0.0094792223735709422 -0.014671884487914313 0 0.0080516554969346042 -0.015424467048595793 0 0.0090635645057262435 -0.016130712926869573 0 0.0080516554969346042 -0.015424467048595793 0 0.0095390688067587739 -0.014980623149849537 0 0.010852083816178699 -0.012122079156029938 0 0.010138145063177987 -0.011120321066761594 0 0.0070323748727335929 -0.014023795519656062 0 0.0080516554969346042 -0.015424467048595793 0 0.0066377502124636591 -0.015466869462373028 0 0.010091217196363569 -0.0053019981950694611 0 0.011602715544802992 0.0014298137153187756 0 0.0094273143903057764 -0.0039820262942274493 0 0.011602715544802992 0.0014298137153187756 0 0.010197633126643912 -0.0042211664146713512 0 0.010185418738426521 -0.0039125430566655526 0 0.010735817668632568 -0.0041096532220767559 0 0.010197633126643912 -0.0042211664146713512 0 0.010185418738426521 -0.0039125430566655526 0 0.0096468916766491546 -0.0037103917119228193 0 0.010091217196363569 -0.0053019981950694611 0 0.010506549557462106 -0.0090067448758233519 0 0.011612263974949966 -0.010900515640122019 0 0.0105267844301774 -0.011277798612558522 0 0.010494236889604037 -0.010628587119379166 0 0.010275943632060504 -0.0067651533772904501 0 0.010297905339824245 -0.0066563831517844792 0 0.010226961882646997 -0.0066879078990231241 0 0.0094273143903057764 -0.0039820262942274493 0 0.010506549557462106 -0.0090067448758233519 0 0.010275943632060504 -0.0067651533772904501 0 0.010213312243198852 -0.0067000088934847249 0 0.010226961882646997 -0.0066879078990231241 0 0.010128655321684466 -0.011210296220819061 0 0.0105267844301774 -0.011277798612558522 0 0.010494236889604037 -0.010628587119379166 0 0.010852083816178699 -0.012122079156029938 0 0.010506549557462106 -0.0090067448758233519 0 0.010644502146427225 -0.010524180081569898 0 0.01049109298112039 -0.010332036955660154 0 0.010217853855219337 -0.010408523252943971 0 0.010138145063177987 -0.011120321066761594 0 0.010506549557462106 -0.0090067448758233519 0 0.006327799343294571 -0.0049556916596279572 0 0.0059929825384022872 -0.0046660847930859624 0 0.0062685585462162602 -0.0044913482829186963 0 0.011612263974949966 -0.010900515640122019 0 0.010494236889604037 -0.010628587119379166 0 0.010419206818898633 -0.0099642612984697683 0 0.0094273143903057764 -0.0039820262942274493 0 0.0083551540868857868 -0.0078443112453272131 0 0.006327799343294571 -0.0049556916596279572 0 0.0062685585462162602 -0.0044913482829186963 0 0.0067061493963674083 -0.004278168016627169 0 0.0062685585462162602 -0.0044913482829186963 0 0.0062968157393920475 -0.0042220293707972718 0 0.0067061493963674083 -0.004278168016627169 0 0.0062685585462162602 -0.0044913482829186963 0 0.0062968157393920475 -0.0042220293707972718 0 0.0060397671965706588 -0.0045482098098017822 0 0.0062968157393920475 -0.0042220293707972718 0 0.0065390257393452 -0.0038783717132562907 0 0.0067061493963674083 -0.004278168016627169 0 0.0059929825384022872 -0.0046660847930859624 0 0.0062685585462162602 -0.0044913482829186963 0 0.0060397671965706588 -0.0045482098098017822 0 0.0059733620595809325 -0.0047473765067120328 0 0.0059929825384022872 -0.0046660847930859624 0 0.0060397671965706588 -0.0045482098098017822 0 0.0059457179067840997 -0.0048955784090036905 0 0.0068476754724068742 -0.0047162542450511161 0 0.0063687908055253357 -0.0046739334603996506 0 0.0059362658424571236 -0.0049876153305773831 0 0.0069339719821134432 -0.0051187148726802665 0 0.0059362658424571236 -0.0049876153305773831 0 0.0060397671965706588 -0.0045482098098017822 0 0.0062190112040353242 -0.004115946853259644 0 0.0076039936839417269 -0.0044193631088605377 0 0.0069339719821134432 -0.0051187148726802665 0 0.0083892154030760866 -0.0050536493474720194 0 0.0068476754724068742 -0.0047162542450511161 0 0.0064525242683178118 -0.0033957697344976774 0 0.0062190112040353242 -0.004115946853259644 0 0.0066630782850387983 -0.0037085676847281282 0 0.0065390257393452 -0.0038783717132562907 0 0.0062968157393920475 -0.0042220293707972718 0 0.0062190112040353242 -0.004115946853259644 0 0.0065390257393452 -0.0038783717132562907 0 0.0062968157393920475 -0.0042220293707972718 0 0.0060397671965706588 -0.0045482098098017822 0 0.0062190112040353242 -0.004115946853259644 0 0.0068794470004989883 -0.0031175687494543803 0 0.0069679341825688822 -0.0037727814915438081 0 0.0075105268999985878 -0.0034275658959381657 0 0.0068794470004989883 -0.0031175687494543803 0 0.0065390257393452 -0.0038783717132562907 0 0.0069679341825688822 -0.0037727814915438081 0 0.0064525242683178118 -0.0033957697344976774 0 0.0065502646865006134 -0.003649823643998898 0 0.0067061493963674083 -0.004278168016627169 0 0.0072943744941744689 -0.003962747452854006 0 0.0071712751006836077 -0.0047202928712458169 0 0.0065390257393452 -0.0038783717132562907 0 0.0069679341825688822 -0.0037727814915438081 0 0.0067061493963674083 -0.004278168016627169 0 0.0069679341825688822 -0.0037727814915438081 0 0.0067061493963674083 -0.004278168016627169 0 0.0072943744941744689 -0.003962747452854006 0 0.0072943744941744689 -0.003962747452854006 0 0.0079693655757482537 -0.0038174553187395625 0 0.0071712751006836077 -0.0047202928712458169 0 0.0069679341825688822 -0.0037727814915438081 0 0.0072943744941744689 -0.003962747452854006 0 0.0075105268999985878 -0.0034275658959381657 0 0.0075105268999985878 -0.0034275658959381657 0 0.0082130781127536072 -0.0032622007001683931 0 0.0079693655757482537 -0.0038174553187395625 0 0.0072943744941744689 -0.003962747452854006 0 0.0075105268999985878 -0.0034275658959381657 0 0.0079693655757482537 -0.0038174553187395625 0 0.0075105268999985878 -0.0034275658959381657 0 0.0077846157861037211 -0.002709398685391883 0 0.0082130781127536072 -0.0032622007001683931 0 0.0068794470004989883 -0.0031175687494543803 0 0.0075105268999985878 -0.0034275658959381657 0 0.0077846157861037211 -0.002709398685391883 0 0.0064525242683178118 -0.0033957697344976774 0 0.0069528937473778687 -0.0024135708303207695 0 0.0081957204372769075 -0.0015796727415456689 0 0.0064816668312414651 -0.0021031444365168547 0 0.0088313513450923326 -0.0021564571300001127 0 0.0077846157861037211 -0.002709398685391883 0 0.0088313513450923326 -0.0021564571300001127 0 0.0086011916480244078 -0.0028731763360797004 0 0.0069528937473778687 -0.0024135708303207695 0 0.0087938547502732101 -0.0022000353872627496 0 0.0088313513450923326 -0.0021564571300001127 0 0.0086011916480244078 -0.0028731763360797004 0 0.0091623499778192008 -0.002610048194450299 0 0.0086011916480244078 -0.0028731763360797004 0 0.009191095637577848 -0.0031970095507839074 0 0.0086368869188399918 -0.0033192393439719563 0 0.0086011916480244078 -0.0028731763360797004 0 0.0082130781127536072 -0.0032622007001683931 0 0.0086368869188399918 -0.0033192393439719563 0 0.0077846157861037211 -0.002709398685391883 0 0.0086011916480244078 -0.0028731763360797004 0 0.0082130781127536072 -0.0032622007001683931 0 0.0092464691542120721 0.0043703189793082783 0 0.0088160247736269945 -0.0030406060289308698 0 0.0088313513450923326 -0.0021564571300001127 0 0.010187338867686222 -0.0021488099384550222 0 0.0091623499778192008 -0.002610048194450299 0 0.010187338867686222 -0.0021488099384550222 0 0.0091623499778192008 -0.002610048194450299 0 0.009191095637577848 -0.0031970095507839074 0 0.0086011916480244078 -0.0028731763360797004 0 0.0091623499778192008 -0.002610048194450299 0 0.009191095637577848 -0.0031970095507839074 0 0.0098949901240740525 -0.0012570556425184655 0 0.0094442498107523802 -0.0018101396358750641 0 0.0099877894270357943 -0.0017819507273113965 0 0.011552945881869534 0.0045227439917972399 0 0.011801953559253613 0.013487568156589313 0 0.0096904464559922129 -0.0024596425240215143 0 0.0097754727124941248 -0.0024256580746776783 0 0.0097639889712907001 -0.0023349247144666117 0 0.011110147177506458 0.0057693918719970427 0 0.011544541010390427 0.0059321752053630248 0 0.011004508352335471 0.0057637500065319484 0 0.010251634904309173 0.0015906015404840886 0 0.011552945881869534 0.0045227439917972399 0 0.0098921624904214772 -0.0021949723733317261 0 0.0096904464559922129 -0.0024596425240215143 0 0.0099877894270357943 -0.0017819507273113965 0 0.0094442498107523802 -0.0018101396358750641 0 0.0096904464559922129 -0.0024596425240215143 0 0.0099877894270357943 -0.0017819507273113965 0 0.0098921624904214772 -0.0021949723733317261 0 0.0096904464559922129 -0.0024596425240215143 0 0.0097754727124941248 -0.0024256580746776783 0 0.0094442498107523802 -0.0018101396358750641 0 0.0096904464559922129 -0.0024596425240215143 0 0.0086623149896037418 -0.0035742419429346012 0 0.0088160247736269945 -0.0030406060289308698 0 0.0088836899457804489 -0.0031900698491187473 0 0.0079255403595727275 -0.0042784842772053697 0 0.011552945881869534 0.0045227439917972399 0 0.0082130781127536072 -0.0032622007001683931 0 0.0083797201306616085 -0.0035121410101289492 0 0.0079693655757482537 -0.0038174553187395625 0 0.0082130781127536072 -0.0032622007001683931 0 0.0083797201306616085 -0.0035121410101289492 0 0.0086368869188399918 -0.0033192393439719563 0 0.0083797201306616085 -0.0035121410101289492 0 0.0086368869188399918 -0.0033192393439719563 0 0.0086623149896037418 -0.0035742419429346012 0 0.009191095637577848 -0.0031970095507839074 0 0.0086368869188399918 -0.0033192393439719563 0 0.0086623149896037418 -0.0035742419429346012 0 0.0096904464559922129 -0.0024596425240215143 0 0.0086623149896037418 -0.0035742419429346012 0 0.0085675193028396535 -0.0042245967846568627 0 0.0086623149896037418 -0.0035742419429346012 0 0.0079693655757482537 -0.0038174553187395625 0 0.0085675193028396535 -0.0042245967846568627 0 0.0083797201306616085 -0.0035121410101289492 0 0.0086623149896037418 -0.0035742419429346012 0 0.0079693655757482537 -0.0038174553187395625 0 0.0079693655757482537 -0.0038174553187395625 0 0.0085675193028396535 -0.0042245967846568627 0 0.0074862844887232504 -0.0046041656103070899 0 0.011552945881869534 0.0045227439917972399 0 0.014208813865256482 0.013479890988651089 0 0.013656313648572935 0.018973030815961304 0 0.01389531025992408 0.020239766769236688 0 0.014376368597325988 0.020149491770956287 0 0.013656313648572935 0.018973030815961304 0 0.01310431787681922 0.019852215719837911 0 0.01389531025992408 0.020239766769236688 0 0.011552945881869534 0.0045227439917972399 0 0.0090523597482759979 -0.00070610842425317935 0 0.01310431787681922 0.019852215719837911 0 0.012027198262266652 0.020016437531184993 0 0.011760804567610639 0.018297111883455185 0 0.013656313648572935 0.018973030815961304 0 0.01310431787681922 0.019852215719837911 0 0.011760804567610639 0.018297111883455185 0 0.012027198262266652 0.020016437531184993 0 0.012784774398476197 0.020522993270043803 0 0.012219632184951357 0.021311181128415468 0 0.01310431787681922 0.019852215719837911 0 0.012027198262266652 0.020016437531184993 0 0.012784774398476197 0.020522993270043803 0 0.01310431787681922 0.019852215719837911 0 0.012784774398476197 0.020522993270043803 0 0.013358373104793351 0.020701245693516775 0 0.013091378564954027 0.021089299739302837 0 0.012219632184951357 0.021311181128415468 0 0.012908516551041666 0.022212785601392709 0 0.012784774398476197 0.020522993270043803 0 0.013091378564954027 0.021089299739302837 0 0.013358373104793351 0.020701245693516775 0 0.012784774398476197 0.020522993270043803 0 0.013091378564954027 0.021089299739302837 0 0.012219632184951357 0.021311181128415468 0 0.01389531025992408 0.020239766769236688 0 0.014199429685858396 0.020377186341046856 0 0.014376368597325988 0.020149491770956287 0 0.01310431787681922 0.019852215719837911 0 0.01389531025992408 0.020239766769236688 0 0.013358373104793351 0.020701245693516775 0 0.01389531025992408 0.020239766769236688 0 0.013358373104793351 0.020701245693516775 0 0.014100529161726293 0.020610098091610029 0 0.013091378564954027 0.021089299739302837 0 0.013358373104793351 0.020701245693516775 0 0.013602246501857205 0.021251521800563167 0 0.013107826794075315 0.020409344271602507 0 0.015225538639442886 0.021308388867108514 0 0.013358373104793351 0.020701245693516775 0 0.013824958051728311 0.021016288386251789 0 0.013602246501857205 0.021251521800563167 0 0.01389531025992408 0.020239766769236688 0 0.014199429685858396 0.020377186341046856 0 0.014100529161726293 0.020610098091610029 0 0.014319071408780254 0.020445132688926351 0 0.014199429685858396 0.020377186341046856 0 0.014100529161726293 0.020610098091610029 0 0.011857829340310509 0.0033109023771391091 0 0.011204690551694809 0.0031043102666723768 0 0.011428776102084107 0.0036023293786802348 0 0.011857829340310509 0.0033109023771391091 0 0.011204690551694809 0.0031043102666723768 0 0.011213562681197558 0.0026475083984000055 0 0.014319071408780254 0.020445132688926351 0 0.014199429685858396 0.020377186341046856 0 0.014376368597325988 0.020149491770956287 0 0.014319071408780254 0.020445132688926351 0 0.014376368597325988 0.020149491770956287 0 0.01445573066778944 0.02040140458306109 0 0.014376368597325988 0.020149491770956287 0 0.014487937834000443 0.020397158530853787 0 0.01445573066778944 0.02040140458306109 0 0.014208813865256482 0.013479890988651089 0 0.011697187872487523 0.0063469543424070169 0 0.010368294754596712 0.0032138026930659544 0 0.011127240753256105 0.0027082410296034301 0 0.011204690551694809 0.0031043102666723768 0 0.011127240753256105 0.0027082410296034301 0 0.011204690551694809 0.0031043102666723768 0 0.011213562681197558 0.0026475083984000055 0 0.010368294754596712 0.0032138026930659544 0 0.011204690551694809 0.0031043102666723768 0 0.011428776102084107 0.0036023293786802348 0 0.0094273143903057764 -0.0039820262942274493 0 0.0091193568704247673 -0.00020949021794697744 0 0.006327799343294571 -0.0049556916596279572 0 0.0067061493963674083 -0.004278168016627169 0 0.0071712751006836077 -0.0047202928712458169 0 0.012486254051386229 0.0039445113522800302 0 0.011857829340310509 0.0033109023771391091 0 0.011676896887352959 0.0036864581659817779 0 0.0079693655757482537 -0.0038174553187395625 0 0.0074862844887232504 -0.0046041656103070899 0 0.0071712751006836077 -0.0047202928712458169 0 0.011857829340310509 0.0033109023771391091 0 0.011676896887352959 0.0036864581659817779 0 0.011428776102084107 0.0036023293786802348 0 0.0090523597482759979 -0.00070610842425317935 0 0.0091193568704247673 -0.00020949021794697744 0 0.0050280410751400214 0.018387274493898598 0 0.0060139256933159991 0.018485530874140378 0 0.0060296609045868872 0.017497708622701336 0 0.0060128960273215055 0.018728886664316297 0 0.0067815666112909616 0.01394389434434245 0 0.0060139256933159991 0.018485530874140378 0 0.0062323497696321383 0.017125213217725949 0 0.0077921966181802348 0.018614333444871498 0 0.0099672568387726649 0.042133243350516991 0 0.010492387847392782 0.041681503950111075 0 0.011355839870824282 0.042348426200581185 0 0.0060458308251355045 0.023017786149044265 0 0.0093183241223740547 0.023218850636282908 0 0.0094622449887725897 0.022221711971398946 0 0.010991102817580011 0.041415577796806706 0 0.010492387847392782 0.041681503950111075 0 0.011355839870824282 0.042348426200581185 0 0.01158091666316742 0.041155434549940716 0 0.010991102817580011 0.041415577796806706 0 0.011355839870824282 0.042348426200581185 0 0.011876727634692136 0.029805245842497271 0 0.010530818354671985 0.020710254765235855 0 0.0067815666112909616 0.01394389434434245 0 0.010530818354671985 0.020710254765235855 0 0.011128272657893588 0.017388388349252916 0 0.012435137812094613 0.01731685542464655 0 0.012613899873619955 0.015872841079885201 0 0.010517910800945345 -0.0012122477322120708 0 0.01062437286706899 -0.0013490788619376819 0 0.010660956402967993 -0.0014265412805627802 0 0.011128272657893588 0.017388388349252916 0 0.012613899873619955 0.015872841079885201 0 0.010182635033881639 0.016239813746718044 0 0.010530818354671985 0.020710254765235855 0 0.01071285486807428 0.0061443498707881312 0 0.010498822176629858 -0.0011668504978097592 0 0.01062437286706899 -0.0013490788619376819 0 0.010684348283769794 -0.001408448757113904 0 0.0062323497696321383 0.017125213217725949 0 0.0077921966181802348 0.018614333444871498 0 0.0092661990249595372 0.01746911411515403 0 0.010498822176629858 -0.0011668504978097592 0 0.010517910800945345 -0.0012122477322120708 0 0.01062437286706899 -0.0013490788619376819 0 0.0067815666112909616 0.01394389434434245 0 0.01041954289221388 0.0051720195451986414 0 0.0077921966181802348 0.018614333444871498 0 0.0092661990249595372 0.01746911411515403 0 0.01005126368984386 0.019406434130004743 0 0.010542107462726548 0.00074864337438688196 0 0.01041954289221388 0.0051720195451986414 0 0.01054564671731884 -0.0017314764376942906 0 0.010607504273534529 -0.0015421307382572408 0 0.010402205794928999 -0.0016197747735979826 0 0.010472125877783492 -0.0018405004604678504 0 0.01054564671731884 -0.0017314764376942906 0 0.010402205794928999 -0.0016197747735979826 0 0.010511965640804742 -0.0018207890454645132 0 0.01054564671731884 -0.0017314764376942906 0 0.010615099095672084 -0.0015625093179920508 0 0.010542107462726548 0.00074864337438688196 0 0.010370609416683552 0.00043398828120033429 0 0.01054564671731884 -0.0017314764376942906 0 0.010615099095672084 -0.0015625093179920508 0 0.010607504273534529 -0.0015421307382572408 0 0.01062437286706899 -0.0013490788619376819 0 0.010615099095672084 -0.0015625093179920508 0 0.010607504273534529 -0.0015421307382572408 0 0.0097825560013781541 0.0016559969257804522 0 0.01041954289221388 0.0051720195451986414 0 0.01062437286706899 -0.0013490788619376819 0 0.010660956402967993 -0.0014265412805627802 0 0.010607504273534529 -0.0015421307382572408 0 0.010660956402967993 -0.0014265412805627802 0 0.010607504273534529 -0.0015421307382572408 0 0.010402205794928999 -0.0016197747735979826 0 0.0098949901240740525 -0.0012570556425184655 0 0.010660956402967993 -0.0014265412805627802 0 0.010402205794928999 -0.0016197747735979826 0 0.0092464691542120721 0.0043703189793082783 0 0.01071285486807428 0.0061443498707881312 0 0.0098949901240740525 -0.0012570556425184655 0 0.010402205794928999 -0.0016197747735979826 0 0.0099877894270357943 -0.0017819507273113965 0 0.010402205794928999 -0.0016197747735979826 0 0.0099877894270357943 -0.0017819507273113965 0 0.010223658039174108 -0.001874956275630821 0 0.010251634904309173 0.0015906015404840886 0 0.010542107462726548 0.00074864337438688196 0 0.0092661990249595372 0.01746911411515403 0 0.011760804567610639 0.018297111883455185 0 0.01005126368984386 0.019406434130004743 0 0.0097754727124941248 -0.0024256580746776783 0 0.010626376078813515 -0.0020087227972532787 0 0.010189163266854522 -0.0021267958211980608 0 0.010670825017605601 0.0055861197941352841 0 0.01043199353042959 0.0055375341900851414 0 0.011004508352335471 0.0057637500065319484 0 0.0098921624904214772 -0.0021949723733317261 0 0.010189163266854522 -0.0021267958211980608 0 0.010223658039174108 -0.001874956275630821 0 0.0098921624904214772 -0.0021949723733317261 0 0.0099877894270357943 -0.0017819507273113965 0 0.010223658039174108 -0.001874956275630821 0 0.01041954289221388 0.0051720195451986414 0 0.011801953559253613 0.013487568156589313 0 0.011110147177506458 0.0057693918719970427 0 0.010670825017605601 0.0055861197941352841 0 0.011004508352335471 0.0057637500065319484 0 0.010472125877783492 -0.0018405004604678504 0 0.010402205794928999 -0.0016197747735979826 0 0.010223658039174108 -0.001874956275630821 0 0.010542107462726548 0.00074864337438688196 0 0.010139457715118698 -0.00082389843176237725 0 0.010472125877783492 -0.0018405004604678504 0 0.010189163266854522 -0.0021267958211980608 0 0.010223658039174108 -0.001874956275630821 0 0.0098921624904214772 -0.0021949723733317261 0 0.0097754727124941248 -0.0024256580746776783 0 0.010189163266854522 -0.0021267958211980608 0 0.012027198262266652 0.020016437531184993 0 0.011760804567610639 0.018297111883455185 0 0.01005126368984386 0.019406434130004743 0 0.012027198262266652 0.020016437531184993 0 0.012219632184951357 0.021311181128415468 0 0.010711248033110786 0.02152921216216128 0 0.012027198262266652 0.020016437531184993 0 0.010711248033110786 0.02152921216216128 0 0.01005126368984386 0.019406434130004743 0 0.010711248033110786 0.02152921216216128 0 0.0083937636081365865 0.020679439199259748 0 0.0089026634992070714 0.02249818737631153 0 0.010711248033110786 0.02152921216216128 0 0.01005126368984386 0.019406434130004743 0 0.0083937636081365865 0.020679439199259748 0 0.0077921966181802348 0.018614333444871498 0 0.01005126368984386 0.019406434130004743 0 0.0083937636081365865 0.020679439199259748 0 0.0077921966181802348 0.018614333444871498 0 0.0083937636081365865 0.020679439199259748 0 0.0065975356997840665 0.020174641340362644 0 0.0060139256933159991 0.018485530874140378 0 0.0077921966181802348 0.018614333444871498 0 0.0065975356997840665 0.020174641340362644 0 0.0069283909525874824 0.022170414458913004 0 0.0083937636081365865 0.020679439199259748 0 0.0065975356997840665 0.020174641340362644 0 0.0069283909525874824 0.022170414458913004 0 0.0083937636081365865 0.020679439199259748 0 0.0089026634992070714 0.02249818737631153 0 0.0069283909525874824 0.022170414458913004 0 0.0050169502125958082 0.021540563959733458 0 0.0065975356997840665 0.020174641340362644 0 0.0050169502125958082 0.021540563959733458 0 0.0052715462072937518 0.019896901887639873 0 0.0065975356997840665 0.020174641340362644 0 0.0060139256933159991 0.018485530874140378 0 0.0052715462072937518 0.019896901887639873 0 0.0065975356997840665 0.020174641340362644 0 0.0050280410751400214 0.018387274493898598 0 0.0060139256933159991 0.018485530874140378 0 0.0052715462072937518 0.019896901887639873 0 0.00480522057352991 0.024156600828174432 0 0.0075658713676018084 0.024180925807347823 0 0.0057921751072456092 0.026855586756855301 0 0.00480522057352991 0.024156600828174432 0 0.0069283909525874824 0.022170414458913004 0 0.0075658713676018084 0.024180925807347823 0 0.00480522057352991 0.024156600828174432 0 0.0069283909525874824 0.022170414458913004 0 0.0050169502125958082 0.021540563959733458 0 0.0069283909525874824 0.022170414458913004 0 0.0075658713676018084 0.024180925807347823 0 0.0089026634992070714 0.02249818737631153 0 0.0075658713676018084 0.024180925807347823 0 0.0086416579734824757 0.027902242590145437 0 0.0057921751072456092 0.026855586756855301 0 0.0075658713676018084 0.024180925807347823 0 0.010668860905012055 0.024654502202367014 0 0.0086416579734824757 0.027902242590145437 0 0.0078183483332471895 0.024155866494983459 0 0.010011113099063218 0.024206258077794446 0 0.010668860905012055 0.024654502202367014 0 0.011287197097926071 0.027171836405868066 0 0.0086416579734824757 0.027902242590145437 0 0.010711248033110786 0.02152921216216128 0 0.0098949667878101295 0.023878444868720872 0 0.0089026634992070714 0.02249818737631153 0 0.0075658713676018084 0.024180925807347823 0 0.0098949667878101295 0.023878444868720872 0 0.0089026634992070714 0.02249818737631153 0 0.0098949667878101295 0.023878444868720872 0 0.011824011230082676 0.022631625830892815 0 0.012120692275450221 0.023825157383098362 0 0.010711248033110786 0.02152921216216128 0 0.0098949667878101295 0.023878444868720872 0 0.011824011230082676 0.022631625830892815 0 0.012219632184951357 0.021311181128415468 0 0.010711248033110786 0.02152921216216128 0 0.011824011230082676 0.022631625830892815 0 0.010668860905012055 0.024654502202367014 0 0.011287197097926071 0.027171836405868066 0 0.013565949970865439 0.025035518292592041 0 0.010011113099063218 0.024206258077794446 0 0.013693360139304677 0.025087958703220892 0 0.0083127159455227365 0.019537909194783189 0 0.0098711891211127681 0.0181103384736724 0 0.011023756985262041 0.029747389212531318 0 0.011287197097926071 0.027171836405868066 0 0.013757562019004401 0.027483134858567498 0 0.011287197097926071 0.027171836405868066 0 0.013565949970865439 0.025035518292592041 0 0.013757562019004401 0.027483134858567498 0 0.005733678171152683 0.0091688398567731314 0 0.0061351441107979588 0.0086432389305094569 0 0.0060442461360811287 0.0091355279328536407 0 0.005733678171152683 0.0091688398567731314 0 0.0060442461360811287 0.0091355279328536407 0 0.0058649933999850154 0.009456626630221978 0 0.011023756985262041 0.029747389212531318 0 0.0086416579734824757 0.027902242590145437 0 0.0081007048241402771 0.030010105857750043 0 0.011023756985262041 0.029747389212531318 0 0.011287197097926071 0.027171836405868066 0 0.0086416579734824757 0.027902242590145437 0 0.0086416579734824757 0.027902242590145437 0 0.0081007048241402771 0.030010105857750043 0 0.0062493394419721434 0.029975364884324632 0 0.011023756985262041 0.029747389212531318 0 0.0081007048241402771 0.030010105857750043 0 0.0082767627651106936 0.031825448486404853 0 0.0037888082784843153 0.032015478762706745 0 0.0062493394419721434 0.029975364884324632 0 0.0058133366187070948 0.032724744600484704 0 0.0081007048241402771 0.030010105857750043 0 0.0062493394419721434 0.029975364884324632 0 0.0058999235331034803 0.031700555951220989 0 0.006228208307020134 0.030193989387720194 0 0.0057492977440776775 0.032479021235859384 0 0.0086416579734824757 0.027902242590145437 0 0.0062493394419721434 0.029975364884324632 0 0.0057921751072456092 0.026855586756855301 0 0.0037038288742515498 0.029514332500959001 0 0.0062493394419721434 0.029975364884324632 0 0.0057921751072456092 0.026855586756855301 0 0.0087211843737108226 0.0015566108793398225 0 0.011715563905744934 0.016918513718772423 0 0.0056935763144371878 0.0088078525894365878 0 0.0061848468005555185 0.0087776263693311006 0 0.0059947152353027975 0.008529211717678932 0 0.011388736078082676 0.010123909655394347 0 0.0096156021600887886 0.0083228823514386353 0 0.013097156974397306 0.0088359482646317572 0 0.0140013374995561 -0.010264354205102065 0 0.015736263582799243 -0.010018545483596127 0 0.014305175874294987 -0.011504997569395889 0 0.014118700749826402 0.0081813592282865139 0 0.0087211843737108226 0.0015566108793398225 0 0.0099178381682408345 -0.01180561912780123 0 0.0140013374995561 -0.010264354205102065 0 0.014305175874294987 -0.011504997569395889 0 0.0099178381682408345 -0.01180561912780123 0 0.0140013374995561 -0.010264354205102065 0 0.013876321993721684 -0.0087950310717091664 0 0.008793815832040466 -0.012514391021340913 0 0.013924118944403027 0.0059297606775906677 0 0.0083390455280738778 -0.00043194635528774839 0 0.011536184740530286 0.0027767987420799635 0 0.014227272005943101 0.00044152248379352821 0 0.0085128850153648895 -0.009458050393386052 0 0.0098421560425482543 -0.0055233937376924025 0 0.015791334143960469 -0.0045799065495433638 0 0.0089599573705590099 -0.0079703601491894586 0 0.013924118944403027 0.0059297606775906677 0 0.0089599573705590099 -0.0079703601491894586 0 0.011697187872487523 0.0063469543424070169 0 0.010410243050569415 -0.0066002754769436183 0 0.010343934351355798 -0.0067242330684697746 0 0.010426698580580309 -0.0066024609459138838 0 0.011697187872487523 0.0063469543424070169 0 0.013924118944403027 0.0059297606775906677 0 0.014492856821826269 0.020382489348310752 0 0.01445573066778944 0.02040140458306109 0 0.014391939285385928 0.020512181081886575 0 0.011602715544802992 0.0014298137153187756 0 0.011697187872487523 0.0063469543424070169 0 0.011697187872487523 0.0063469543424070169 0 0.012909083540945025 0.007916282160051186 0 0.014319071408780254 0.020445132688926351 0 0.01445573066778944 0.02040140458306109 0 0.014391939285385928 0.020512181081886575 0 0.013924118944403027 0.0059297606775906677 0 0.015062540370748596 0.019591095413985075 0 0.014580558942338933 0.010821180816956134 0 0.01314577875014686 0.01177609922292859 0 0.015944092621965968 0.012233837793315791 0 0.014118700749826402 0.0081813592282865139 0 0.013924118944403027 0.0059297606775906677 0 0.0140013374995561 -0.010264354205102065 0 0.015736263582799243 -0.010018545483596127 0 0.013876321993721684 -0.0087950310717091664 0 0.014319071408780254 0.020445132688926351 0 0.014391939285385928 0.020512181081886575 0 0.014100529161726293 0.020610098091610029 0 0.013924118944403027 0.0059297606775906677 0 0.015225538639442886 0.021308388867108514 0 0.01416968445588329 0.021039566526791023 0 0.013824958051728311 0.021016288386251789 0 0.013602246501857205 0.021251521800563167 0 0.014042138305913695 0.022358068119402819 0 0.013059555184118421 0.023017546270146218 0 0.014252286284419149 0.023903933376707018 0 0.015003238706538132 0.023275167262442466 0 0.014042138305913695 0.022358068119402819 0 0.014252286284419149 0.023903933376707018 0 0.013641514028509272 0.021088919969802129 0 0.015062540370748596 0.019591095413985075 0 0.014118700749826402 0.0081813592282865139 0 0.015062540370748596 0.019591095413985075 0 0.012219632184951357 0.021311181128415468 0 0.011824011230082676 0.022631625830892815 0 0.012908516551041666 0.022212785601392709 0 0.015062540370748596 0.019591095413985075 0 0.013221948796753593 0.021447158463512726 0 0.013091378564954027 0.021089299739302837 0 0.014459006225414753 0.022405487628664542 0 0.012908516551041666 0.022212785601392709 0 0.014042138305913695 0.022358068119402819 0 0.012908516551041666 0.022212785601392709 0 0.013059555184118421 0.023017546270146218 0 0.011824011230082676 0.022631625830892815 0 0.013059555184118421 0.023017546270146218 0 0.012120692275450221 0.023825157383098362 0 0.011824011230082676 0.022631625830892815 0 0.012908516551041666 0.022212785601392709 0 0.013059555184118421 0.023017546270146218 0 0.013565949970865439 0.025035518292592041 0 0.016353733242261807 0.025313361438569226 0 0.013757562019004401 0.027483134858567498 0 0.011715563905744934 0.016918513718772423 0 0.0098711891211127681 0.0181103384736724 0 0.013693360139304677 0.025087958703220892 0 0.011715563905744934 0.016918513718772423 0 0.013059555184118421 0.023017546270146218 0 0.012120692275450221 0.023825157383098362 0 0.014252286284419149 0.023903933376707018 0 0.014118700749826402 0.0081813592282865139 0 0.011715563905744934 0.016918513718772423 0 0.0061848468005555185 0.0087776263693311006 0 0.0059947152353027975 0.008529211717678932 0 0.0063057162622176723 0.0085088137096661874 0 0.0059947152353027975 0.008529211717678932 0 0.0063057162622176723 0.0085088137096661874 0 0.0058499413447575836 0.007813937676197702 0 0.0061848468005555185 0.0087776263693311006 0 0.0063057162622176723 0.0085088137096661874 0 0.0061351441107979588 0.0086432389305094569 0 0.0063057162622176723 0.0085088137096661874 0 0.0061351441107979588 0.0086432389305094569 0 0.0060442461360811287 0.0091355279328536407 0 0.0063057162622176723 0.0085088137096661874 0 0.0060442461360811287 0.0091355279328536407 0 0.0063609391541490749 0.0094852557401596573 0 0.0062980491247563069 0.0084803517970343922 0 0.006169095917986419 0.0082758499282055958 0 0.0063057162622176723 0.0085088137096661874 0 0.0058499413447575836 0.007813937676197702 0 0.006045834384488696 0.0070636378106543754 0 0.0058499413447575836 0.007813937676197702 0 0.0053714224594378027 0.0073351039223046467 0 0.0055679543042262769 0.0080965431983065893 0 0.0059947152353027975 0.008529211717678932 0 0.0058499413447575836 0.007813937676197702 0 0.0055679543042262769 0.0080965431983065893 0 0.0056935763144371878 0.0088078525894365878 0 0.0059947152353027975 0.008529211717678932 0 0.0055679543042262769 0.0080965431983065893 0 0.0099178381682408345 -0.01180561912780123 0 0.014305175874294987 -0.011504997569395889 0 0.010905492852415934 -0.01496718627293854 0 0.0056935763144371878 0.0088078525894365878 0 0.0055679543042262769 0.0080965431983065893 0 0.0049091801334054715 0.0078806647670431398 0 0.0087211843737108226 0.0015566108793398225 0 0.0080053998579508387 -0.0048820955536094659 0 0.0053714224594378027 0.0073351039223046467 0 0.0049091801334054715 0.0078806647670431398 0 0.0049820756801171118 0.007198382453830407 0 0.0047087844087771655 0.0073817201854559896 0 0.0049091801334054715 0.0078806647670431398 0 0.0049820756801171118 0.007198382453830407 0 0.0053714224594378027 0.0073351039223046467 0 0.0055679543042262769 0.0080965431983065893 0 0.0049091801334054715 0.0078806647670431398 0 0.0049820756801171118 0.007198382453830407 0 0.0050463207024947394 0.0066136277627117674 0 0.0047843091184372596 0.0069052531179016946 0 0.0053714224594378027 0.0073351039223046467 0 0.0049820756801171118 0.007198382453830407 0 0.0050463207024947394 0.0066136277627117674 0 0.0050463207024947394 0.0066136277627117674 0 0.0054890921557996615 0.006803854891105604 0 0.0055114817089284762 0.0063207840007778876 0 0.0054890921557996615 0.006803854891105604 0 0.006045834384488696 0.0070636378106543754 0 0.0055114817089284762 0.0063207840007778876 0 0.0058499413447575836 0.007813937676197702 0 0.0053714224594378027 0.0073351039223046467 0 0.006045834384488696 0.0070636378106543754 0 0.0053714224594378027 0.0073351039223046467 0 0.0054890921557996615 0.006803854891105604 0 0.006045834384488696 0.0070636378106543754 0 0.0053714224594378027 0.0073351039223046467 0 0.0050463207024947394 0.0066136277627117674 0 0.0054890921557996615 0.006803854891105604 0 0.0060442461360811287 0.0091355279328536407 0 0.0063609391541490749 0.0094852557401596573 0 0.0060149618025543547 0.0096388147714612064 0 0.0063609391541490749 0.0094852557401596573 0 0.0060149618025543547 0.0096388147714612064 0 0.0060607069446682116 0.0098004018935959683 0 0.0060149618025543547 0.0096388147714612064 0 0.0060607069446682116 0.0098004018935959683 0 0.0060233030667420171 0.0098581486186224733 0 0.006169095917986419 0.0082758499282055958 0 0.0057372667436725441 0.0080846519574429322 0 0.0063609391541490749 0.0094852557401596573 0 0.0060607069446682116 0.0098004018935959683 0 0.0059683213860442516 0.0098649117098649729 0 0.0060607069446682116 0.0098004018935959683 0 0.0059559528949822632 0.0098297205897517701 0 0.0059683213860442516 0.0098649117098649729 0 0.0059559528949822632 0.0098297205897517701 0 0.0053977209391197437 0.0096370340128726327 0 0.0059683213860442516 0.0098649117098649729 0 0.0059559528949822632 0.0098297205897517701 0 0.0060233030667420171 0.0098581486186224733 0 0.006080244276727995 0.0098532696162557821 0 0.0060607069446682116 0.0098004018935959683 0 0.0059559528949822632 0.0098297205897517701 0 0.0060233030667420171 0.0098581486186224733 0 0.0059559528949822632 0.0098297205897517701 0 0.006080244276727995 0.0098532696162557821 0 0.0060306530410559073 0.0096257069761179568 0 0.006080244276727995 0.0098532696162557821 0 0.0060306530410559073 0.0096257069761179568 0 0.0062598218182949635 0.0098610478156454344 0 0.0059559528949822632 0.0098297205897517701 0 0.0053977209391197437 0.0096370340128726327 0 0.0056542935263430563 0.0094490859752084534 0 0.0059559528949822632 0.0098297205897517701 0 0.0060306530410559073 0.0096257069761179568 0 0.0056542935263430563 0.0094490859752084534 0 0.0050214031681866745 0.0060368859668188347 0 0.0049660427245143725 0.0061124849248446892 0 0.0048197669220589531 0.0060701713617593639 0 0.0049660427245143725 0.0061124849248446892 0 0.0048197669220589531 0.0060701713617593639 0 0.0048646747469967243 0.006024989651752485 0 0.0050463207024947394 0.0066136277627117674 0 0.0049660427245143725 0.0061124849248446892 0 0.0048532099564424069 0.0062692067424432955 0 0.0050463207024947394 0.0066136277627117674 0 0.0049660427245143725 0.0061124849248446892 0 0.0055114817089284762 0.0063207840007778876 0 0.0050214031681866745 0.0060368859668188347 0 0.0049660427245143725 0.0061124849248446892 0 0.0055114817089284762 0.0063207840007778876 0 0.0052089606869290071 0.0078370296343926015 0 0.0057372667436725441 0.0080846519574429322 0 0.0033096121080507749 0.02744015712289254 0 0.0067772837964263366 0.020062896452038709 0 0.0033096121080507749 0.02744015712289254 0 0.0030757809528886341 0.027774258951575051 0 0.0057789619016042756 0.033663942710063323 0 0.0055134537453404801 0.033491347717962472 0 0.0058999235331034803 0.031700555951220989 0 0.002019787308206959 0.039456038288723572 0 0.0019809146255709729 0.039489192371959601 0 0.0020567920693678201 0.039673731184282621 0 0.0033096121080507749 0.02744015712289254 0 0.0027782480565259351 0.034200737423278449 0 0.0046800192951324685 0.029699659249749159 0 0.0031593507469554866 0.030876975159123399 0 0.0035601759548916797 0.028973620801309847 0 0.0027782480565259351 0.034200737423278449 0 0.004623240928158045 0.032101828420711215 0 0.0033096121080507749 0.02744015712289254 0 0.004623240928158045 0.032101828420711215 0 0.004623240928158045 0.032101828420711215 0 0.0057492977440776775 0.032479021235859384 0 0.0057789619016042756 0.033663942710063323 0 0.0058999235331034803 0.031700555951220989 0 0.0082767627651106936 0.031825448486404853 0 0.0081007048241402771 0.030010105857750043 0 0.0058999235331034803 0.031700555951220989 0 0.0082767627651106936 0.031825448486404853 0 0.0054121858701150858 0.0099873780407832274 0 0.0049024665534324191 0.0095863711716590427 0 0.0044651534929206925 0.011956033176978293 0 0.0054121858701150858 0.0099873780407832274 0 0.0044651534929206925 0.011956033176978293 0 0.006798878345310201 0.013504873814930644 0 0.00096355961168182022 0.012422516371916527 0 0.0049024665534324191 0.0095863711716590427 0 0.0044651534929206925 0.011956033176978293 0 0.00096355961168182022 0.012422516371916527 0 0.0044651534929206925 0.011956033176978293 0 0.0043352657507812866 0.014667525686392008 0 0.0044651534929206925 0.011956033176978293 0 0.006798878345310201 0.013504873814930644 0 0.0043352657507812866 0.014667525686392008 0 0.0056673971860813424 0.010500511354430992 0 0.0059584458998307834 0.010643064187163312 0 0.0054121858701150858 0.0099873780407832274 0 0.0057488017965425615 0.0098982114492239953 0 0.0056888678676988913 0.0098490308131121036 0 0.0057488017965425615 0.0098982114492239953 0 0.0056888678676988913 0.0098490308131121036 0 0.00589204959900742 0.009868915635112524 0 0.0054121858701150858 0.0099873780407832274 0 0.0056888678676988913 0.0098490308131121036 0 0.005665464452383558 0.0095673655635591538 0 0.005733678171152683 0.0091688398567731314 0 0.0049024665534324191 0.0095863711716590427 0 0.005665464452383558 0.0095673655635591538 0 0.0054121858701150858 0.0099873780407832274 0 0.0049024665534324191 0.0095863711716590427 0 0.005665464452383558 0.0095673655635591538 0 0.0083127159455227365 0.019537909194783189 0 0.0067772837964263366 0.020062896452038709 0 0.005733678171152683 0.0091688398567731314 0 0.005665464452383558 0.0095673655635591538 0 0.0058649933999850154 0.009456626630221978 0 0.0056888678676988913 0.0098490308131121036 0 0.005665464452383558 0.0095673655635591538 0 0.0058520565146125024 0.0097296578424775314 0 0.0060442461360811287 0.0091355279328536407 0 0.0060149618025543547 0.0096388147714612064 0 0.0058649933999850154 0.009456626630221978 0 0.005665464452383558 0.0095673655635591538 0 0.0058649933999850154 0.009456626630221978 0 0.0058520565146125024 0.0097296578424775314 0 0.0060149618025543547 0.0096388147714612064 0 0.0058649933999850154 0.009456626630221978 0 0.0058520565146125024 0.0097296578424775314 0 0.0060233030667420171 0.0098581486186224733 0 0.0058520565146125024 0.0097296578424775314 0 0.00589204959900742 0.009868915635112524 0 0.0060149618025543547 0.0096388147714612064 0 0.0060233030667420171 0.0098581486186224733 0 0.0058520565146125024 0.0097296578424775314 0 0.0056888678676988913 0.0098490308131121036 0 0.0058520565146125024 0.0097296578424775314 0 0.00589204959900742 0.009868915635112524 0 0.00589204959900742 0.009868915635112524 0 0.0060545483931678766 0.0098951999000355777 0 0.0059423651540891301 0.0099732673339665082 0 0.0060233030667420171 0.0098581486186224733 0 0.00589204959900742 0.009868915635112524 0 0.0060545483931678766 0.0098951999000355777 0 0.0060233030667420171 0.0098581486186224733 0 0.006080244276727995 0.0098532696162557821 0 0.0060545483931678766 0.0098951999000355777 0 0.0062598218182949635 0.0098610478156454344 0 0.0070609463858776582 0.01053939285591958 0 0.0067264119575269413 0.0095242992557224258 0 0.006080244276727995 0.0098532696162557821 0 0.0060545483931678766 0.0098951999000355777 0 0.0062598218182949635 0.0098610478156454344 0 0.0049004373771817959 0.0086679317918078608 0 0.0067304455096465383 0.019393582087576952 0 0.0060545483931678766 0.0098951999000355777 0 0.0062598218182949635 0.0098610478156454344 0 0.0059423651540891301 0.0099732673339665082 0 0.0067304455096465383 0.019393582087576952 0 0.0044790166110395303 0.025609265498030196 0 0.0021232125131184095 0.039654257966683759 0 0.0020872887538672127 0.039775716499352985 0 0.0020381401722157889 0.039779104982583455 0 0.0067304455096465383 0.019393582087576952 0 0.0030757809528886341 0.027774258951575051 0 0.0057488017965425615 0.0098982114492239953 0 0.00589204959900742 0.009868915635112524 0 0.0059423651540891301 0.0099732673339665082 0 0.0059584458998307834 0.010643064187163312 0 0.0067304455096465383 0.019393582087576952 0 0.006798878345310201 0.013504873814930644 0 0.0079075436057677168 0.017063318591982755 0 0.0043352657507812866 0.014667525686392008 0 0.0021232125131184095 0.039654257966683759 0 0.0021172614954022961 0.039611305232349042 0 0.0020872887538672127 0.039775716499352985 0 0.0021172614954022961 0.039611305232349042 0 0.0020872887538672127 0.039775716499352985 0 0.0020567920693678201 0.039673731184282621 0 0.0020872887538672127 0.039775716499352985 0 0.002085976839538756 0.039905095449011364 0 0.0020278821001975611 0.039931962218849461 0 0.00201480471596267 0.039815869941348787 0 0.002085976839538756 0.039905095449011364 0 0.0020567920693678201 0.039673731184282621 0 0.0020872887538672127 0.039775716499352985 0 0.002085976839538756 0.039905095449011364 0 0.0020567920693678201 0.039673731184282621 0 0.00201480471596267 0.039815869941348787 0 0.0019809146255709729 0.039489192371959601 0 0.0020567920693678201 0.039673731184282621 0 0.002019787308206959 0.039456038288723572 0 0.0021172614954022961 0.039611305232349042 0 0.0020567920693678201 0.039673731184282621 0 0.0021395576336072255 0.04004359655716936 0 0.0019899157806573236 0.040094698245590386 0 0.0021098682753944902 0.040199610883680341 0 0.002085976839538756 0.039905095449011364 0 0.0021395576336072255 0.04004359655716936 0 0.0020278821001975611 0.039931962218849461 0 0.0023265447306895387 0.040012843231285553 0 0.002085976839538756 0.039905095449011364 0 0.0021395576336072255 0.04004359655716936 0 0.0021395576336072255 0.04004359655716936 0 0.0020278821001975611 0.039931962218849461 0 0.0019899157806573236 0.040094698245590386 0 0.0020278821001975611 0.039931962218849461 0 0.0019899157806573236 0.040094698245590386 0 0.0019017247872023535 0.039964588918474278 0 0.0019899157806573236 0.040094698245590386 0 0.0019017247872023535 0.039964588918474278 0 0.0016241746349805199 0.040169295609067728 0 0.0019017247872023535 0.039964588918474278 0 0.0020381401722157889 0.039779104982583455 0 0.0019391287154894592 0.039868771626455801 0 0.0019017247872023535 0.039964588918474278 0 0.0019391287154894592 0.039868771626455801 0 0.0016241746349805199 0.040169295609067728 0 0.0020872887538672127 0.039775716499352985 0 0.0020278821001975611 0.039931962218849461 0 0.0020381401722157889 0.039779104982583455 0 0.0020278821001975611 0.039931962218849461 0 0.0019017247872023535 0.039964588918474278 0 0.0020381401722157889 0.039779104982583455 0 0.0062598218182949635 0.0098610478156454344 0 0.0067264119575269413 0.0095242992557224258 0 0.0062504559413875888 0.0092527039407407363 0 0.0067264119575269413 0.0095242992557224258 0 0.0066341912921048683 0.0088436878548110529 0 0.0062504559413875888 0.0092527039407407363 0 0.0044790166110395303 0.025609265498030196 0 0.0043412091943072191 0.024081398431141088 0 0.0019391287154894592 0.039868771626455801 0 0.0019621760738775498 0.040059981746325204 0 0.0016241746349805199 0.040169295609067728 0 0.0066341912921048683 0.0088436878548110529 0 0.006485221905782516 0.0080956878556803554 0 0.0060336264757636761 0.0084995405482135508 0 0.0043412091943072191 0.024081398431141088 0 0.002123204063910757 0.025044464929042071 0 0.002123204063910757 0.025044464929042071 0 0.0017455682629003474 0.041946266425229813 0 -7.6774794716252137e-05 0.04040618658126223 0 0.00090803691891074673 0.039521821543103498 0 0.0016241746349805199 0.040169295609067728 0 -7.6774794716252137e-05 0.04040618658126223 0 0.00090803691891074673 0.039521821543103498 0 -0.0013414942954098805 0.038748385997233563 0 0.00090803691891074673 0.039521821543103498 0 0.0016241746349805199 0.040169295609067728 0 0.0017842875198905716 0.03955946786654635 0 0.0019899157806573236 0.040094698245590386 0 0.0016241746349805199 0.040169295609067728 0 0.0019843719479527471 0.040043929956545272 0 0.0019843719479527471 0.040043929956545272 0 0.0017842875198905716 0.03955946786654635 0 0.002029989958130609 0.039891956775584374 0 0.0016241746349805199 0.040169295609067728 0 0.0019843719479527471 0.040043929956545272 0 0.0017842875198905716 0.03955946786654635 0 0.0021299346150059646 0.040254866052722861 0 0.0019843719479527471 0.040043929956545272 0 0.002029989958130609 0.039891956775584374 0 0.0019899157806573236 0.040094698245590386 0 0.0019843719479527471 0.040043929956545272 0 0.0021098682753944902 0.040199610883680341 0 0.0021299346150059646 0.040254866052722861 0 0.0019843719479527471 0.040043929956545272 0 0.0021098682753944902 0.040199610883680341 0 0.0048253912886520312 0.0087876206768203995 0 0.0057624507075484119 0.009017372795336407 0 0.0051731156982422815 0.0079636147184166551 0 0.0045709391441831806 0.006284045339130716 0 0.0047352572455858126 0.0065609371032135707 0 0.0045405998068319409 0.0072539512040387085 0 0.0045709391441831806 0.006284045339130716 0 0.0047352572455858126 0.0065609371032135707 0 0.0048197669220589531 0.0060701713617593639 0 0.0047352572455858126 0.0065609371032135707 0 0.0048197669220589531 0.0060701713617593639 0 0.0048754094782915572 0.0060950310988911044 0 0.0052089606869290071 0.0078370296343926015 0 0.0047307866125401382 0.0075405012067620014 0 0.0050214031681866745 0.0060368859668188347 0 0.0045709391441831806 0.006284045339130716 0 0.0048197669220589531 0.0060701713617593639 0 0.0053977209391197437 0.0096370340128726327 0 0.0048253912886520312 0.0087876206768203995 0 0.0056542935263430563 0.0094490859752084534 0 0.0060306530410559073 0.0096257069761179568 0 0.0056542935263430563 0.0094490859752084534 0 0.0057624507075484119 0.009017372795336407 0 0.0048253912886520312 0.0087876206768203995 0 0.0056542935263430563 0.0094490859752084534 0 0.0057624507075484119 0.009017372795336407 0 0.0060306530410559073 0.0096257069761179568 0 0.0062504559413875888 0.0092527039407407363 0 0.0057624507075484119 0.009017372795336407 0 0.0060306530410559073 0.0096257069761179568 0 0.0062598218182949635 0.0098610478156454344 0 0.0062504559413875888 0.0092527039407407363 0 0.0066341912921048683 0.0088436878548110529 0 0.0062504559413875888 0.0092527039407407363 0 0.0060336264757636761 0.0084995405482135508 0 0.0062504559413875888 0.0092527039407407363 0 0.0060336264757636761 0.0084995405482135508 0 0.0057624507075484119 0.009017372795336407 0 0.0060336264757636761 0.0084995405482135508 0 0.0057624507075484119 0.009017372795336407 0 0.0051731156982422815 0.0079636147184166551 0 0.0060336264757636761 0.0084995405482135508 0 0.0056782735328155063 0.0076668332716194566 0 0.0051731156982422815 0.0079636147184166551 0 0.006485221905782516 0.0080956878556803554 0 0.0060336264757636761 0.0084995405482135508 0 0.0056782735328155063 0.0076668332716194566 0 0.002123204063910757 0.025044464929042071 0 0.0026874823674824643 0.0080261980576860903 0 0.002123204063910757 0.025044464929042071 0 -0.00061743043321932649 0.024525805189419041 0 0.00099170841445042992 0.011651855262120633 0 -0.00043809796091045735 0.011222719349478733 0 0.00045107440581240439 0.010138181198628516 0 -0.00043809796091045735 0.011222719349478733 0 -0.00075878904179663175 0.010298050661107495 0 0.00045107440581240439 0.010138181198628516 0 -0.00043809796091045735 0.011222719349478733 0 -0.0017277255221475453 0.010829011158365839 0 -0.00075878904179663175 0.010298050661107495 0 -0.0017277255221475453 0.010829011158365839 0 -0.0015738800633477456 0.009984794868309008 0 -0.00075878904179663175 0.010298050661107495 0 0.0026874823674824643 0.0080261980576860903 0 0.0012229855929240827 0.0094985933552668485 0 -0.0017277255221475453 0.010829011158365839 0 -0.002108291188821357 0.010171551542870525 0 -0.0015738800633477456 0.009984794868309008 0 0.0048253912886520312 0.0087876206768203995 0 0.0051731156982422815 0.0079636147184166551 0 0.0045405998068319409 0.0072539512040387085 0 0.0056782735328155063 0.0076668332716194566 0 0.0046620705563294937 0.0071923510646783569 0 0.0051731156982422815 0.0079636147184166551 0 0.0046620705563294937 0.0071923510646783569 0 0.0051731156982422815 0.0079636147184166551 0 0.0045405998068319409 0.0072539512040387085 0 0.0047352572455858126 0.0065609371032135707 0 0.0045405998068319409 0.0072539512040387085 0 0.0047042331382879752 0.0069613138736287217 0 0.0047307866125401382 0.0075405012067620014 0 0.0045580781957892235 0.0072865229201637171 0 0.0047352572455858126 0.0065609371032135707 0 0.0047042331382879752 0.0069613138736287217 0 0.0048305141641927507 0.0068426497611697142 0 0.0047042331382879752 0.0069613138736287217 0 0.0046779090630556727 0.0071402506186842869 0 0.0048305141641927507 0.0068426497611697142 0 0.0045405998068319409 0.0072539512040387085 0 0.0047042331382879752 0.0069613138736287217 0 0.0046779090630556727 0.0071402506186842869 0 0.0012229855929240827 0.0094985933552668485 0 0.0026908488514292956 0.0049217070908256586 0 0.0046620705563294937 0.0071923510646783569 0 0.0046779090630556727 0.0071402506186842869 0 0.0047828251784045542 0.0072219942183401895 0 -0.0017277255221475453 0.010829011158365839 0 -0.0028993688007528827 0.010533326382239427 0 -0.002108291188821357 0.010171551542870525 0 0.0046620705563294937 0.0071923510646783569 0 0.0045405998068319409 0.0072539512040387085 0 0.0046779090630556727 0.0071402506186842869 0 0.0046779090630556727 0.0071402506186842869 0 0.0047828251784045542 0.0072219942183401895 0 0.0048305141641927507 0.0068426497611697142 0 0.00042307039147509599 0.0039975361269925123 0 0.001577199013151568 0.0041446567164201906 0 0.00019106939973628534 0.0055433722579706452 0 0.0086877583557982609 -0.0013681703326052994 0 0.0076223855319597252 -0.0015916829783359202 0 0.0074894766090324956 0.00055643955299340176 0 0.0026908488514292956 0.0049217070908256586 0 0.0031830932059207116 -0.005995398832345694 0 0.0031830932059207116 -0.005995398832345694 0 0.0058424564910792382 -0.013942160123877322 0 0.0038248137685768344 -0.024684767638184453 0 0.0040059167765937771 -0.024886334531488485 0 0.0040025735857562176 -0.024979506481642426 0 0.0031830932059207116 -0.005995398832345694 0 0.0031422196293062368 -0.010568762052188142 0 0.0076223855319597252 -0.0015916829783359202 0 0.0074894766090324956 0.00055643955299340176 0 0.0059517199746976579 -2.2051411521729863e-05 0 0.0047828251784045542 0.0072219942183401895 0 0.0050832783488764695 0.0065899636263233351 0 0.0048305141641927507 0.0068426497611697142 0 0.0026908488514292956 0.0049217070908256586 0 0.0069803833093422252 0.003014714108457417 0 0.0050832783488764695 0.0065899636263233351 0 0.0048305141641927507 0.0068426497611697142 0 0.0048919434203528629 0.0064135482698321243 0 0.0040059167765937771 -0.024886334531488485 0 0.0040428259457149463 -0.025126259819964334 0 0.0039637982211340825 -0.025155866510254542 0 0.0040059167765937771 -0.024886334531488485 0 0.0040025735857562176 -0.024979506481642426 0 0.0040428259457149463 -0.025126259819964334 0 0.0040025735857562176 -0.024979506481642426 0 0.0040428259457149463 -0.025126259819964334 0 0.0041045463993595625 -0.024943099270995289 0 0.0040428259457149463 -0.025126259819964334 0 0.0041045463993595625 -0.024943099270995289 0 0.0040475690962160716 -0.025035829807027472 0 0.0058424564910792382 -0.013942160123877322 0 0.0037223631438115705 -0.010537433785098417 0 0.0059517199746976579 -2.2051411521729863e-05 0 0.004026461432508086 0.0018910653188946274 0 0.0061325334928905946 0.0028376688168563918 0 0.0053533675025447449 0.0045895317126302864 0 0.0046190584748066572 0.0052569484331144506 0 0.0061325334928905946 0.0028376688168563918 0 0.0037840051672722902 0.0036536961799428476 0 0.0044842279204169392 0.0053149438142717663 0 0.004026461432508086 0.0018910653188946274 0 0.0061325334928905946 0.0028376688168563918 0 0.0037840051672722902 0.0036536961799428476 0 0.004026461432508086 0.0018910653188946274 0 0.0037840051672722902 0.0036536961799428476 0 0.0023454780340596373 0.0037355013741411799 0 0.0047352572455858126 0.0065609371032135707 0 0.0048919434203528629 0.0064135482698321243 0 0.0048754094782915572 0.0060950310988911044 0 0.0047352572455858126 0.0065609371032135707 0 0.0048305141641927507 0.0068426497611697142 0 0.0048919434203528629 0.0064135482698321243 0 0.0050832783488764695 0.0065899636263233351 0 0.0049699708611408832 0.0059773925857206688 0 0.0048919434203528629 0.0064135482698321243 0 0.0049699708611408832 0.0059773925857206688 0 0.0048919434203528629 0.0064135482698321243 0 0.0048754094782915572 0.0060950310988911044 0 0.0069803833093422252 0.003014714108457417 0 0.0053533675025447449 0.0045895317126302864 0 0.0074894766090324956 0.00055643955299340176 0 0.0059517199746976579 -2.2051411521729863e-05 0 0.0061325334928905946 0.0028376688168563918 0 0.0049699708611408832 0.0059773925857206688 0 0.0048754094782915572 0.0060950310988911044 0 0.0047838263070205259 0.0057995091925776461 0 0.0048197669220589531 0.0060701713617593639 0 0.0048754094782915572 0.0060950310988911044 0 0.0048646747469967243 0.006024989651752485 0 0.0048754094782915572 0.0060950310988911044 0 0.0048646747469967243 0.006024989651752485 0 0.0047838263070205259 0.0057995091925776461 0 0.0049660427245143725 0.0061124849248446892 0 0.0048646747469967243 0.006024989651752485 0 0.0048035221448497539 0.0060617358920446573 0 0.0048532099564424069 0.0062692067424432955 0 0.0048035221448497539 0.0060617358920446573 0 0.0046962197819547238 0.0062327379454120337 0 0.0049660427245143725 0.0061124849248446892 0 0.0048532099564424069 0.0062692067424432955 0 0.0048035221448497539 0.0060617358920446573 0 0.0048035221448497539 0.0060617358920446573 0 0.0047005467579574571 0.0059380540559487013 0 0.0046962197819547238 0.0062327379454120337 0 0.0047005467579574571 0.0059380540559487013 0 0.0046962197819547238 0.0062327379454120337 0 0.0045043168631456664 0.0061843350395491123 0 0.0048035221448497539 0.0060617358920446573 0 0.0047005467579574571 0.0059380540559487013 0 0.0047838263070205259 0.0057995091925776461 0 0.0048646747469967243 0.006024989651752485 0 0.0048035221448497539 0.0060617358920446573 0 0.0047838263070205259 0.0057995091925776461 0 0.0049699708611408832 0.0059773925857206688 0 0.0047838263070205259 0.0057995091925776461 0 0.0044842279204169392 0.0053149438142717663 0 0.0047005467579574571 0.0059380540559487013 0 0.0047838263070205259 0.0057995091925776461 0 0.0044842279204169392 0.0053149438142717663 0 0.0037840051672722902 0.0036536961799428476 0 0.0044842279204169392 0.0053149438142717663 0 0.0025859783963707418 0.0055346527725298501 0 0.0044842279204169392 0.0053149438142717663 0 0.0039967957361275227 0.0062866734393163615 0 0.0045043168631456664 0.0061843350395491123 0 0.0044842279204169392 0.0053149438142717663 0 0.0039967957361275227 0.0062866734393163615 0 0.0025859783963707418 0.0055346527725298501 0 0.0047005467579574571 0.0059380540559487013 0 0.0044842279204169392 0.0053149438142717663 0 0.0045043168631456664 0.0061843350395491123 0 0.005082309822156455 -0.0049887849187014123 0 0.0053004539488179956 -0.0063451388089428365 0 0.0045043168631456664 0.0061843350395491123 0 0.0044882789555953815 0.0064808413162308403 0 0.0045737317508102292 0.0064015971812184796 0 0.0039967957361275227 0.0062866734393163615 0 0.0045043168631456664 0.0061843350395491123 0 0.0044882789555953815 0.0064808413162308403 0 0.0060205164999633945 -0.017599543957839449 0 0.0059515781529615635 -0.017543364201585195 0 0.0060217493055240521 -0.017568734541703542 0 0.0060205164999633945 -0.017599543957839449 0 0.0063604190726540199 -0.01781558589830003 0 0.0059515781529615635 -0.017543364201585195 0 0.0058945189753207526 -0.01729098350959838 0 0.0063604190726540199 -0.01781558589830003 0 0.0059515781529615635 -0.017543364201585195 0 0.0068635019865898178 -0.016613949064764159 0 0.0058945189753207526 -0.01729098350959838 0 0.0063604190726540199 -0.01781558589830003 0 0.0044882789555953815 0.0064808413162308403 0 0.0045035442419960213 0.0065209745016757406 0 0.0045225847582695622 0.0065345273928797201 0 0.0068635019865898178 -0.016613949064764159 0 0.0063604190726540199 -0.01781558589830003 0 0.0079434941553443283 -0.017312623725847052 0 0.0053004539488179956 -0.0063451388089428365 0 0.0050053879549532658 3.1227473624062343e-06 0 0.0045035442419960213 0.0065209745016757406 0 0.0045453644536826293 0.0068588252864335104 0 0.0046833449302314074 0.0065309090237986407 0 0.0059662409033050907 0.0065136959626179184 0 0.0050053879549532658 3.1227473624062343e-06 0 0.0047087844087771655 0.0073817201854559896 0 0.0045453644536826293 0.0068588252864335104 0 0.0047843091184372596 0.0069052531179016946 0 0.0050463207024947394 0.0066136277627117674 0 0.0047843091184372596 0.0069052531179016946 0 0.0046833449302314074 0.0065309090237986407 0 0.0045453644536826293 0.0068588252864335104 0 0.0047843091184372596 0.0069052531179016946 0 0.0046833449302314074 0.0065309090237986407 0 0.0050463207024947394 0.0066136277627117674 0 0.0048532099564424069 0.0062692067424432955 0 0.0046833449302314074 0.0065309090237986407 0 0.0048532099564424069 0.0062692067424432955 0 0.0046962197819547238 0.0062327379454120337 0 0.0046833449302314074 0.0065309090237986407 0 0.0046962197819547238 0.0062327379454120337 0 0.0045043168631456664 0.0061843350395491123 0 0.0045737317508102292 0.0064015971812184796 0 0.0046962197819547238 0.0062327379454120337 0 0.0046833449302314074 0.0065309090237986407 0 0.0045737317508102292 0.0064015971812184796 0 0.0044882789555953815 0.0064808413162308403 0 0.0045035442419960213 0.0065209745016757406 0 0.0045737317508102292 0.0064015971812184796 0 0.0045035442419960213 0.0065209745016757406 0 0.0046833449302314074 0.0065309090237986407 0 0.0045737317508102292 0.0064015971812184796 0 0.0038216148891462407 -0.022750857899074682 0 0.0026365362923759504 -0.022204881799027965 0 0.002970085910033247 -0.023154071954173041 0 0.0017506011973553769 -0.023269792075108719 0 0.0026365362923759504 -0.022204881799027965 0 0.002970085910033247 -0.023154071954173041 0 0.0017055586468123793 -0.021714336951089395 0 0.0026595207874140579 -0.020229919817615311 0 0.0026365362923759504 -0.022204881799027965 0 0.0026595207874140579 -0.020229919817615311 0 0.0026365362923759504 -0.022204881799027965 0 0.0034848819950102708 -0.021273583441181486 0 0.0038216148891462407 -0.022750857899074682 0 0.0026365362923759504 -0.022204881799027965 0 0.0034848819950102708 -0.021273583441181486 0 0.0038216148891462407 -0.022750857899074682 0 0.0034848819950102708 -0.021273583441181486 0 0.0045292658545425073 -0.021851265325495976 0 0.0034848819950102708 -0.021273583441181486 0 0.0045292658545425073 -0.021851265325495976 0 0.0056313410037442529 -0.02080029372964946 0 0.0059076225749527065 -0.017769333237289932 0 0.0059515781529615635 -0.017543364201585195 0 0.0060637451635930685 -0.017613381386498109 0 0.0045292658545425073 -0.021851265325495976 0 0.0056313410037442529 -0.02080029372964946 0 0.0052113896032765844 -0.022476850331329519 0 0.0059515781529615635 -0.017543364201585195 0 0.0060637451635930685 -0.017613381386498109 0 0.0060217493055240521 -0.017568734541703542 0 0.0058338312522023955 -0.018762954118544017 0 0.0055231946907018702 -0.021898976622322475 0 0.0038216148891462407 -0.022750857899074682 0 0.0045292658545425073 -0.021851265325495976 0 0.0052113896032765844 -0.022476850331329519 0 0.0038216148891462407 -0.022750857899074682 0 0.0052113896032765844 -0.022476850331329519 0 0.0043720711428299423 -0.023339718000627455 0 0.0038216148891462407 -0.022750857899074682 0 0.0043720711428299423 -0.023339718000627455 0 0.003783299768152924 -0.023540315957589406 0 0.0043720711428299423 -0.023339718000627455 0 0.0041457689325827916 -0.023814493290918955 0 0.0044787156248039198 -0.023684440596945185 0 0.0043720711428299423 -0.023339718000627455 0 0.003783299768152924 -0.023540315957589406 0 0.0041457689325827916 -0.023814493290918955 0 0.0052113896032765844 -0.022476850331329519 0 0.0043720711428299423 -0.023339718000627455 0 0.0047651461714787232 -0.023624662852407587 0 0.005082309822156455 -0.0049887849187014123 0 0.0061650583845416175 -0.011395653043785833 0 0.0060205164999633945 -0.017599543957839449 0 0.0060217493055240521 -0.017568734541703542 0 0.0060535035334300432 -0.017445648689902785 0 0.0055231946907018702 -0.021898976622322475 0 0.0061650583845416175 -0.011395653043785833 0 0.0043720711428299423 -0.023339718000627455 0 0.0047651461714787232 -0.023624662852407587 0 0.0044787156248039198 -0.023684440596945185 0 0.0061650583845416175 -0.011395653043785833 0 0.0027188140802126472 -0.014931203515516873 0 0.0037840051672722902 0.0036536961799428476 0 0.0025859783963707418 0.0055346527725298501 0 0.0023454780340596373 0.0037355013741411799 0 0.0047651461714787232 -0.023624662852407587 0 0.0043999568107068012 -0.023974460144515337 0 0.0045473748367428355 -0.024503704359128253 0 0.0047651461714787232 -0.023624662852407587 0 0.0044787156248039198 -0.023684440596945185 0 0.0043999568107068012 -0.023974460144515337 0 0.0043999568107068012 -0.023974460144515337 0 0.004177970243632638 -0.024210191199142722 0 0.0045473748367428355 -0.024503704359128253 0 0.0063249621210691252 -0.023656886577032035 0 0.0027188140802126472 -0.014931203515516873 0 0.0041457689325827916 -0.023814493290918955 0 0.004177970243632638 -0.024210191199142722 0 0.0037190452469875687 -0.024072463621776022 0 0.003783299768152924 -0.023540315957589406 0 0.0041457689325827916 -0.023814493290918955 0 0.0037190452469875687 -0.024072463621776022 0 0.0041457689325827916 -0.023814493290918955 0 0.0043999568107068012 -0.023974460144515337 0 0.004177970243632638 -0.024210191199142722 0 0.0041457689325827916 -0.023814493290918955 0 0.0044787156248039198 -0.023684440596945185 0 0.0043999568107068012 -0.023974460144515337 0 0.004177970243632638 -0.024210191199142722 0 0.0037190452469875687 -0.024072463621776022 0 0.0037723611606233377 -0.024452603967114375 0 0.0037190452469875687 -0.024072463621776022 0 0.0033031734958530682 -0.024358205166737593 0 0.0037723611606233377 -0.024452603967114375 0 0.0037190452469875687 -0.024072463621776022 0 0.0033031734958530682 -0.024358205166737593 0 0.0031426954919830819 -0.023849252930535855 0 0.0033031734958530682 -0.024358205166737593 0 0.0031426954919830819 -0.023849252930535855 0 0.0027402634463403676 -0.024239530582396151 0 0.003783299768152924 -0.023540315957589406 0 0.0037190452469875687 -0.024072463621776022 0 0.0031426954919830819 -0.023849252930535855 0 0.0038216148891462407 -0.022750857899074682 0 0.003783299768152924 -0.023540315957589406 0 0.002970085910033247 -0.023154071954173041 0 0.003783299768152924 -0.023540315957589406 0 0.0031426954919830819 -0.023849252930535855 0 0.002970085910033247 -0.023154071954173041 0 0.0031426954919830819 -0.023849252930535855 0 0.002970085910033247 -0.023154071954173041 0 0.0023830034921498836 -0.023712230873195 0 0.0017506011973553769 -0.023269792075108719 0 0.002970085910033247 -0.023154071954173041 0 0.0023830034921498836 -0.023712230873195 0 0.0019294072227913804 -0.02425175876648324 0 0.0023830034921498836 -0.023712230873195 0 0.0027402634463403676 -0.024239530582396151 0 0.0019294072227913804 -0.02425175876648324 0 0.0027402634463403676 -0.024239530582396151 0 0.0024494882823635146 -0.024687990266377042 0 0.0031426954919830819 -0.023849252930535855 0 0.0023830034921498836 -0.023712230873195 0 0.0027402634463403676 -0.024239530582396151 0 0.0024494882823635146 -0.024687990266377042 0 0.0029922516458791375 -0.024729691673024256 0 0.002768932940400079 -0.025071597808703844 0 0.0027402634463403676 -0.024239530582396151 0 0.0024494882823635146 -0.024687990266377042 0 0.0029922516458791375 -0.024729691673024256 0 0.0033031734958530682 -0.024358205166737593 0 0.0033711743699883739 -0.02469494050010735 0 0.0029922516458791375 -0.024729691673024256 0 0.0033031734958530682 -0.024358205166737593 0 0.0027402634463403676 -0.024239530582396151 0 0.0029922516458791375 -0.024729691673024256 0 0.0033031734958530682 -0.024358205166737593 0 0.0033711743699883739 -0.02469494050010735 0 0.0037723611606233377 -0.024452603967114375 0 0.0033711743699883739 -0.02469494050010735 0 0.0033376677187159413 -0.024995530153683967 0 0.0036964474773443401 -0.024734246292139547 0 0.0033711743699883739 -0.02469494050010735 0 0.0029922516458791375 -0.024729691673024256 0 0.0033376677187159413 -0.024995530153683967 0 0.0029922516458791375 -0.024729691673024256 0 0.0033376677187159413 -0.024995530153683967 0 0.002768932940400079 -0.025071597808703844 0 0.0033376677187159413 -0.024995530153683967 0 0.0031087827320396785 -0.025376502085630793 0 0.0035386147233675436 -0.025291297828975989 0 0.0033376677187159413 -0.024995530153683967 0 0.002768932940400079 -0.025071597808703844 0 0.0031087827320396785 -0.025376502085630793 0 0.002768932940400079 -0.025071597808703844 0 0.0025775163398601658 -0.02548710592857955 0 0.0031087827320396785 -0.025376502085630793 0 0.0023320569479578102 -0.025156816196587391 0 0.002768932940400079 -0.025071597808703844 0 0.0025775163398601658 -0.02548710592857955 0 0.0023320569479578102 -0.025156816196587391 0 0.0024494882823635146 -0.024687990266377042 0 0.002768932940400079 -0.025071597808703844 0 0.0037223631438115705 -0.010537433785098417 0 0.0027188140802126472 -0.014931203515516873 0 0.0041045463993595625 -0.024943099270995289 0 0.0040345318544024447 -0.024631028555784584 0 0.0040272068501806396 -0.024845753479800545 0 0.0042210258006100034 -0.024469205145898152 0 0.0039840197520596282 -0.024677303117022265 0 0.0040272068501806396 -0.024845753479800545 0 0.0027188140802126472 -0.014931203515516873 0 0.0036353626030531144 -0.026860028240582715 0 0.0039840197520596282 -0.024677303117022265 0 0.0036964474773443401 -0.024734246292139547 0 0.0038465572889905828 -0.0250376679015776 0 0.004177970243632638 -0.024210191199142722 0 0.0042210258006100034 -0.024469205145898152 0 0.0039840197520596282 -0.024677303117022265 0 0.004177970243632638 -0.024210191199142722 0 0.0039840197520596282 -0.024677303117022265 0 0.0037723611606233377 -0.024452603967114375 0 0.0033711743699883739 -0.02469494050010735 0 0.0037723611606233377 -0.024452603967114375 0 0.0036964474773443401 -0.024734246292139547 0 0.0039840197520596282 -0.024677303117022265 0 0.0037723611606233377 -0.024452603967114375 0 0.0036964474773443401 -0.024734246292139547 0 0.0033376677187159413 -0.024995530153683967 0 0.0036964474773443401 -0.024734246292139547 0 0.0038465572889905828 -0.0250376679015776 0 0.0033376677187159413 -0.024995530153683967 0 0.0038465572889905828 -0.0250376679015776 0 0.0035386147233675436 -0.025291297828975989 0 0.0039840197520596282 -0.024677303117022265 0 0.0038465572889905828 -0.0250376679015776 0 0.0040272068501806396 -0.024845753479800545 0 0.0038465572889905828 -0.0250376679015776 0 0.0040475690962160716 -0.025035829807027472 0 0.0040272068501806396 -0.024845753479800545 0 0.0041045463993595625 -0.024943099270995289 0 0.0040475690962160716 -0.025035829807027472 0 0.0040272068501806396 -0.024845753479800545 0 0.0038465572889905828 -0.0250376679015776 0 0.0040475690962160716 -0.025035829807027472 0 0.0039799519909133911 -0.025224672397306011 0 0.0040428259457149463 -0.025126259819964334 0 0.0040475690962160716 -0.025035829807027472 0 0.0039799519909133911 -0.025224672397306011 0 0.0040428259457149463 -0.025126259819964334 0 0.0039799519909133911 -0.025224672397306011 0 0.0039625068389165302 -0.025359593160888098 0 0.0039799519909133911 -0.025224672397306011 0 0.0038428810343775583 -0.025428203596972624 0 0.0039625068389165302 -0.025359593160888098 0 0.0038465572889905828 -0.0250376679015776 0 0.0038428810343775583 -0.025428203596972624 0 0.0035386147233675436 -0.025291297828975989 0 0.0038465572889905828 -0.0250376679015776 0 0.0039799519909133911 -0.025224672397306011 0 0.0038428810343775583 -0.025428203596972624 0 0.0038428810343775583 -0.025428203596972624 0 0.0035386147233675436 -0.025291297828975989 0 0.0034457866922457956 -0.025638655826846362 0 0.0038428810343775583 -0.025428203596972624 0 0.0039725475471932429 -0.025657915022897645 0 0.0034457866922457956 -0.025638655826846362 0 0.0039725475471932429 -0.025657915022897645 0 0.0039625068389165302 -0.025359593160888098 0 0.0039946187765210342 -0.025163850765075466 0 0.0038428810343775583 -0.025428203596972624 0 0.0039725475471932429 -0.025657915022897645 0 0.0039625068389165302 -0.025359593160888098 0 0.0040428259457149463 -0.025126259819964334 0 0.0039625068389165302 -0.025359593160888098 0 0.0039637982211340825 -0.025155866510254542 0 0.0029162734917307425 -0.025744527679135407 0 0.0024310787998595902 -0.025986402646321551 0 0.0030364261426955833 -0.026174892092299108 0 0.0029162734917307425 -0.025744527679135407 0 0.0024310787998595902 -0.025986402646321551 0 0.0025775163398601658 -0.02548710592857955 0 0.0029162734917307425 -0.025744527679135407 0 0.0025775163398601658 -0.02548710592857955 0 0.0031087827320396785 -0.025376502085630793 0 0.0029162734917307425 -0.025744527679135407 0 0.0031087827320396785 -0.025376502085630793 0 0.0034457866922457956 -0.025638655826846362 0 0.0031087827320396785 -0.025376502085630793 0 0.0035386147233675436 -0.025291297828975989 0 0.0034457866922457956 -0.025638655826846362 0 0.0029162734917307425 -0.025744527679135407 0 0.0034457866922457956 -0.025638655826846362 0 0.0030364261426955833 -0.026174892092299108 0 0.0039725475471932429 -0.025657915022897645 0 0.0034457866922457956 -0.025638655826846362 0 0.0030364261426955833 -0.026174892092299108 0 0.0039725475471932429 -0.025657915022897645 0 0.0030364261426955833 -0.026174892092299108 0 0.0031192291111433955 -0.02714075861934169 0 0.0021902204302123446 -0.026726677289578629 0 0.0024310787998595902 -0.025986402646321551 0 0.0030364261426955833 -0.026174892092299108 0 0.0021902204302123446 -0.026726677289578629 0 0.0031192291111433955 -0.02714075861934169 0 0.001705607079034069 -0.027616266558314888 0 0.0055457856452722125 -0.015949485789165916 0 0.0029196779249460263 -0.02298846492547572 0 0.0021902204302123446 -0.026726677289578629 0 0.0030364261426955833 -0.026174892092299108 0 0.0031192291111433955 -0.02714075861934169 0 0.00701916039594547 0.0049790737247545598 0 0.0061671775591921165 0.0058708199661191372 0 0.0056503361200603147 0.0048339627723014214 0 0.0025774779177498413 -0.02928855182270184 0 0.0055457856452722125 -0.015949485789165916 0 0.0055457856452722125 -0.015949485789165916 0 0.0050350603459156252 -0.0096019957656503559 0 0.0061671775591921165 0.0058708199661191372 0 0.006607413582704255 0.0062743703068332581 0 0.0071057903209165493 0.0059115013939514396 0 0.00701916039594547 0.0049790737247545598 0 0.0061671775591921165 0.0058708199661191372 0 0.0071057903209165493 0.0059115013939514396 0 0.0061671775591921165 0.0058708199661191372 0 0.006607413582704255 0.0062743703068332581 0 0.0061752403700441926 0.0067709638555545426 0 0.006607413582704255 0.0062743703068332581 0 0.0071057903209165493 0.0059115013939514396 0 0.0070848849602191278 0.0064513978261787923 0 0.0071057903209165493 0.0059115013939514396 0 0.0075101955951995718 0.0063938778774608514 0 0.0081837634468564305 0.0059644390243671986 0 0.00701916039594547 0.0049790737247545598 0 0.0071057903209165493 0.0059115013939514396 0 0.0081837634468564305 0.0059644390243671986 0 0.0055457856452722125 -0.015949485789165916 0 0.005415479231882442 -0.0060354340277196938 0 0.0039625068389165302 -0.025359593160888098 0 0.0039637982211340825 -0.025155866510254542 0 0.0039946187765210342 -0.025163850765075466 0 0.0042045342078195838 0.0046881363460701967 0 0.0049083884800452593 0.0058259503604640222 0 0.0037815096832465259 0.005865251779287972 0 0.0042045342078195838 0.0046881363460701967 0 0.0056503361200603147 0.0048339627723014214 0 0.0049083884800452593 0.0058259503604640222 0 0.0040801195946714771 -0.010235818499289704 0 0.0050350603459156252 -0.0096019957656503559 0 0.0039725475471932429 -0.025657915022897645 0 0.0048328622372763516 -0.024875335967707583 0 0.0039946187765210342 -0.025163850765075466 0 0.0061671775591921165 0.0058708199661191372 0 0.0049083884800452593 0.0058259503604640222 0 0.005245699274411578 0.0067969144726293821 0 0.0061671775591921165 0.0058708199661191372 0 0.0056503361200603147 0.0048339627723014214 0 0.0049083884800452593 0.0058259503604640222 0 0.0049083884800452593 0.0058259503604640222 0 0.0043172250932633051 0.0069074364900876132 0 0.0037815096832465259 0.005865251779287972 0 0.0046153599019983418 0.0075258987900623468 0 0.005245699274411578 0.0067969144726293821 0 0.0053748861777550439 0.0079931380003766903 0 0.0046153599019983418 0.0075258987900623468 0 0.0043172250932633051 0.0069074364900876132 0 0.0038372803394156178 0.0078395232609796001 0 0.0049083884800452593 0.0058259503604640222 0 0.0043172250932633051 0.0069074364900876132 0 0.005245699274411578 0.0067969144726293821 0 0.0046153599019983418 0.0075258987900623468 0 0.0043172250932633051 0.0069074364900876132 0 0.005245699274411578 0.0067969144726293821 0 0.0061752403700441926 0.0067709638555545426 0 0.0053748861777550439 0.0079931380003766903 0 0.0066500366046071359 0.0070665137474463964 0 0.005245699274411578 0.0067969144726293821 0 0.0061752403700441926 0.0067709638555545426 0 0.0053748861777550439 0.0079931380003766903 0 0.0061671775591921165 0.0058708199661191372 0 0.005245699274411578 0.0067969144726293821 0 0.0061752403700441926 0.0067709638555545426 0 0.0042957338435002075 0.0018854210333701673 0 0.0052812193990808692 0.0013475845469875629 0 0.0051857681087627535 0.0019165352466910947 0 0.0047122084822583954 0.0052037442481812886 0 0.0054016234809641343 0.0012769776068762618 0 0.0042957338435002075 0.0018854210333701673 0 0.0051857681087627535 0.0019165352466910947 0 0.0042447465825122509 0.0024219880277801644 0 0.0030567266774596431 -0.0037858969503666725 0 0.0037977932440998786 0.00086417032429185719 0 0.0042957338435002075 0.0018854210333701673 0 0.0042447465825122509 0.0024219880277801644 0 0.003326925217853416 0.0024150610487662211 0 0.0047122084822583954 0.0052037442481812886 0 0.0042641656561880686 0.0062923329362411665 0 0.0046153599019983418 0.0075258987900623468 0 0.0053748861777550439 0.0079931380003766903 0 0.0042912955522106735 0.008098451819048549 0 0.0053748861777550439 0.0079931380003766903 0 0.0040387378836447638 0.0089083004723136267 0 0.004038981668836681 0.008753901128635699 0 0.0053748861777550439 0.0079931380003766903 0 0.0042912955522106735 0.008098451819048549 0 0.004038981668836681 0.008753901128635699 0 0.0046153599019983418 0.0075258987900623468 0 0.0042912955522106735 0.008098451819048549 0 0.0038372803394156178 0.0078395232609796001 0 0.0017193317167184341 -0.0075438312666708295 0 0.0016804951795556112 -0.0083254816080867572 0 0.00078034470803021484 -0.0076241677539494864 0 0.0020817273878393533 -0.0081520437063576246 0 0.0017193317167184341 -0.0075438312666708295 0 0.0016804951795556112 -0.0083254816080867572 0 0.0020817273878393533 -0.0081520437063576246 0 0.0017193317167184341 -0.0075438312666708295 0 0.0025610058102868791 -0.0079315901681096413 0 0.0047431969803917061 -0.0014476156584587185 0 0.005415479231882442 -0.0060354340277196938 0 0.0071057903209165493 0.0059115013939514396 0 0.0075101955951995718 0.0063938778774608514 0 0.0070848849602191278 0.0064513978261787923 0 0.0047431969803917061 -0.0014476156584587185 0 0.0070998988558848355 0.0018750276850814627 0 0.0075224214366285784 0.0064062475722409104 0 0.0070848849602191278 0.0064513978261787923 0 0.0066405327032221326 0.0070243301541283252 0 0.006607413582704255 0.0062743703068332581 0 0.0070848849602191278 0.0064513978261787923 0 0.0067339217449015627 0.0065369603860707774 0 0.0067339217449015627 0.0065369603860707774 0 0.0065475779338336057 0.0066065960801668239 0 0.0066706621292227427 0.0068435353567498159 0 0.0070848849602191278 0.0064513978261787923 0 0.0067339217449015627 0.0065369603860707774 0 0.0066706621292227427 0.0068435353567498159 0 0.0061752403700441926 0.0067709638555545426 0 0.0065475779338336057 0.0066065960801668239 0 0.0066706621292227427 0.0068435353567498159 0 0.006607413582704255 0.0062743703068332581 0 0.0067339217449015627 0.0065369603860707774 0 0.0065475779338336057 0.0066065960801668239 0 0.006607413582704255 0.0062743703068332581 0 0.0061752403700441926 0.0067709638555545426 0 0.0065475779338336057 0.0066065960801668239 0 0.0061752403700441926 0.0067709638555545426 0 0.0066500366046071359 0.0070665137474463964 0 0.0066706621292227427 0.0068435353567498159 0 0.0070848849602191278 0.0064513978261787923 0 0.0066405327032221326 0.0070243301541283252 0 0.0066706621292227427 0.0068435353567498159 0 0.0047431969803917061 -0.0014476156584587185 0 0.0054016234809641343 0.0012769776068762618 0 0.0054016234809641343 0.0012769776068762618 0 0.0053301682838262244 0.0028874611318618262 0 0.0025610058102868791 -0.0079315901681096413 0 0.0023632104316742169 -0.0084514136970011387 0 0.0026616330602708435 -0.008583427632806364 0 0.0020817273878393533 -0.0081520437063576246 0 0.0025610058102868791 -0.0079315901681096413 0 0.0023632104316742169 -0.0084514136970011387 0 0.0035180881211444113 -0.0055549419331377197 0 0.0030567266774596431 -0.0037858969503666725 0 0.0054016234809641343 0.0012769776068762618 0 0.0030567266774596431 -0.0037858969503666725 0 0.0023632104316742169 -0.0084514136970011387 0 0.0026702002982190174 -0.0085996270492218422 0 0.0021436399578614604 -0.0092787722854135272 0 0.0023632104316742169 -0.0084514136970011387 0 0.0016804951795556112 -0.0083254816080867572 0 0.0021436399578614604 -0.0092787722854135272 0 0.0016804951795556112 -0.0083254816080867572 0 0.0021436399578614604 -0.0092787722854135272 0 0.0010149089617344632 -0.008931354957476937 0 0.0020817273878393533 -0.0081520437063576246 0 0.0023632104316742169 -0.0084514136970011387 0 0.0016804951795556112 -0.0083254816080867572 0 0.0012550446352523966 -0.01027637721594241 0 0.0021436399578614604 -0.0092787722854135272 0 0.0010149089617344632 -0.008931354957476937 0 0.0012550446352523966 -0.01027637721594241 0 0.0022015279427240863 -0.010535984456765655 0 0.0021436399578614604 -0.0092787722854135272 0 0.0025391210208605885 -0.005909047068867068 0 0.0028012098984904598 -0.0072898688834057883 0 0.0022015279427240863 -0.010535984456765655 0 0.0028409309783134552 -0.00971600331157285 0 0.0030137897249062533 -0.010822307350863144 0 0.0030567266774596431 -0.0037858969503666725 0 0.0025391210208605885 -0.005909047068867068 0 0.0026702002982190174 -0.0085996270492218422 0 0.0028409309783134552 -0.00971600331157285 0 0.0021436399578614604 -0.0092787722854135272 0 0.0022015279427240863 -0.010535984456765655 0 0.0028409309783134552 -0.00971600331157285 0 0.0021436399578614604 -0.0092787722854135272 0 0.0020931554499516464 -0.00056380696964400921 0 0.0022909067258497185 -0.001908467621366915 0 0.0034542144649602436 -0.0011916944536105661 0 0.0022909067258497185 -0.001908467621366915 0 0.0034542144649602436 -0.0011916944536105661 0 0.0034580437747982903 -0.0024469675648864314 0 0.0034542144649602436 -0.0011916944536105661 0 0.0034580437747982903 -0.0024469675648864314 0 0.0048928027688017626 -0.0018292870045642036 0 0.0042447465825122509 0.0024219880277801644 0 0.0033188282156942491 0.0029115443867327321 0 0.003326925217853416 0.0024150610487662211 0 0.0037977932440998786 0.00086417032429185719 0 0.0042637727755425381 0.0023267792836443638 0 0.0041375727645236024 -0.0029951807577936491 0 0.0034580437747982903 -0.0024469675648864314 0 0.0048928027688017626 -0.0018292870045642036 0 0.0041375727645236024 -0.0029951807577936491 0 0.0050044811483646954 -0.0034858626116790548 0 0.0048928027688017626 -0.0018292870045642036 0 0.0041375727645236024 -0.0029951807577936491 0 0.0034580437747982903 -0.0024469675648864314 0 0.0033935041616878904 -0.0033439309421164944 0 0.0022909067258497185 -0.001908467621366915 0 0.0034580437747982903 -0.0024469675648864314 0 0.0024718918023961729 -0.003348768685692768 0 0.0034580437747982903 -0.0024469675648864314 0 0.0024718918023961729 -0.003348768685692768 0 0.0033935041616878904 -0.0033439309421164944 0 0.0024718918023961729 -0.003348768685692768 0 0.0030535516111393295 -0.0039608059049607326 0 0.0026906866343412491 -0.0048286733998235253 0 0.0030535516111393295 -0.0039608059049607326 0 0.0038700762997986018 -0.0039795211898654356 0 0.0026906866343412491 -0.0048286733998235253 0 0.0028012098984904598 -0.0072898688834057883 0 0.0023463859234002338 -0.0072593889171045601 0 0.0033935041616878904 -0.0033439309421164944 0 0.0030535516111393295 -0.0039608059049607326 0 0.0038700762997986018 -0.0039795211898654356 0 0.0024718918023961729 -0.003348768685692768 0 0.0033935041616878904 -0.0033439309421164944 0 0.0030535516111393295 -0.0039608059049607326 0 0.0038700762997986018 -0.0039795211898654356 0 0.0035139385252092549 -0.0047656786549451179 0 0.0050044811483646954 -0.0034858626116790548 0 0.0017884071196848444 -0.0015269591233951459 0 0.0023945544122038831 0.0058901320080022483 0 0.0041375727645236024 -0.0029951807577936491 0 0.0038700762997986018 -0.0039795211898654356 0 0.0050044811483646954 -0.0034858626116790548 0 0.0041375727645236024 -0.0029951807577936491 0 0.0033935041616878904 -0.0033439309421164944 0 0.0038700762997986018 -0.0039795211898654356 0 0.00067842815080181441 0.003347082405306432 0 0.0011527196214608153 0.0031470489464014762 0 0.0011713797282351479 0.0037624966232953283 0 0.00067842815080181441 0.003347082405306432 0 0.0011527196214608153 0.0031470489464014762 0 0.00073787250479268257 0.0027572525347416407 0 0.0035139385252092549 -0.0047656786549451179 0 0.0023470730218982812 -0.0056136940129427231 0 0.0016402827989051027 -0.0063382471650367924 0 0.0038700762997986018 -0.0039795211898654356 0 0.0035139385252092549 -0.0047656786549451179 0 0.0022864813880125261 -0.0051089265379390706 0 0.0040959705807718464 -0.0036389788114854346 0 0.0023463859234002338 -0.0072593889171045601 0 0.00067842815080181441 0.003347082405306432 0 0.00026296058536463108 0.0030883096335630046 0 0.00045479683683935388 0.0027994000773405017 0 0.0017884071196848444 -0.0015269591233951459 0 0.001138088603869995 -0.00069036332046936257 0 0.0035139385252092549 -0.0047656786549451179 0 0.0022864813880125261 -0.0051089265379390706 0 0.0023470730218982812 -0.0056136940129427231 0 0.0022855944498164638 -0.0051270377867883446 0 0.0023470730218982812 -0.0056136940129427231 0 0.0016402827989051027 -0.0063382471650367924 0 0.0023463859234002338 -0.0072593889171045601 0 0.0022422864296655076 -0.0063167132285768821 0 0.0031946416335233109 -0.011924921410489297 0 0.0024754741445115217 -0.01245531637516786 0 0.0024551545108887612 -0.011498697958910765 0 0.0022855944498164638 -0.0051270377867883446 0 0.00082720411205493641 -0.0061450996957697597 0 0.0016402827989051027 -0.0063382471650367924 0 0.0023463859234002338 -0.0072593889171045601 0 0.0020040366656566824 -0.0091829175816862656 0 0.0024754741445115217 -0.01245531637516786 0 0.0014986862098534707 -0.01162149349059215 0 0.0024551545108887612 -0.011498697958910765 0 -0.00012914945819534609 -0.019930045311464247 0 -0.00011087525770674376 -0.020084508014330142 0 -0.00018309583235960535 -0.020046727983303324 0 0.00072399686111532745 -0.016014132362887727 0 0.00066152060055646488 -0.015349636454653278 0 0.0024754741445115217 -0.01245531637516786 0 0.0014986862098534707 -0.01162149349059215 0 0.0017444533586263996 -0.012985733265430108 0 0.0022015279427240863 -0.010535984456765655 0 0.0014986862098534707 -0.01162149349059215 0 0.0024551545108887612 -0.011498697958910765 0 0.00057099307583536468 -0.015034304659506297 0 0.00072399686111532745 -0.016014132362887727 0 0.0012550446352523966 -0.01027637721594241 0 0.0022015279427240863 -0.010535984456765655 0 0.0014986862098534707 -0.01162149349059215 0 0.0030137897249062533 -0.010822307350863144 0 0.0031946416335233109 -0.011924921410489297 0 0.0024551545108887612 -0.011498697958910765 0 0.0022015279427240863 -0.010535984456765655 0 0.0030137897249062533 -0.010822307350863144 0 0.0024551545108887612 -0.011498697958910765 0 -0.00023498271009411237 0.01652513502709747 0 -9.0896131678894126e-05 0.016350754485323193 0 4.8368584584316435e-05 0.016431755934616207 0 -9.0896131678894126e-05 0.016350754485323193 0 -0.00021479477653310139 0.016229144880659432 0 3.8000478061548554e-05 0.016235558826812505 0 -0.00023498271009411237 0.01652513502709747 0 -9.0896131678894126e-05 0.016350754485323193 0 -0.00021479477653310139 0.016229144880659432 0 -0.00023498271009411237 0.01652513502709747 0 -0.00021479477653310139 0.016229144880659432 0 -0.00049926730059809347 0.016399486256216178 0 -0.00021479477653310139 0.016229144880659432 0 -0.00049926730059809347 0.016399486256216178 0 -0.00053674319633806983 0.016117193470423546 0 -0.00049926730059809347 0.016399486256216178 0 -0.00057065972520809643 0.016638992594653568 0 -0.0010408590923626224 0.016517669621544922 0 -0.00049926730059809347 0.016399486256216178 0 -0.00053674319633806983 0.016117193470423546 0 -0.0010408590923626224 0.016517669621544922 0 -0.00023498271009411237 0.01652513502709747 0 -0.00049926730059809347 0.016399486256216178 0 -0.00057065972520809643 0.016638992594653568 0 -0.00042119366194773728 0.016818398892900679 0 -0.00028386834321827384 0.016939230622941559 0 -0.00072771383432665697 0.017181046170557636 0 -0.00023498271009411237 0.01652513502709747 0 -0.00057065972520809643 0.016638992594653568 0 -0.00042119366194773728 0.016818398892900679 0 -0.00057065972520809643 0.016638992594653568 0 -0.00042119366194773728 0.016818398892900679 0 -0.00076849294760935021 0.016855689381430505 0 -0.00042119366194773728 0.016818398892900679 0 -0.00076849294760935021 0.016855689381430505 0 -0.00072771383432665697 0.017181046170557636 0 -0.00023498271009411237 0.01652513502709747 0 -0.00014140746557671989 0.016731975814521943 0 4.8368584584316435e-05 0.016431755934616207 0 -0.00042119366194773728 0.016818398892900679 0 -0.00014140746557671989 0.016731975814521943 0 -0.00028386834321827384 0.016939230622941559 0 -0.00023498271009411237 0.01652513502709747 0 -0.00042119366194773728 0.016818398892900679 0 -0.00014140746557671989 0.016731975814521943 0 -0.00014140746557671989 0.016731975814521943 0 4.9986619763234215e-05 0.016713140533388713 0 -7.051409425145367e-05 0.016898447438157143 0 4.9986619763234215e-05 0.016713140533388713 0 0.00032473040010216078 0.016665621998812989 0 4.8368584584316435e-05 0.016431755934616207 0 -0.00014140746557671989 0.016731975814521943 0 4.9986619763234215e-05 0.016713140533388713 0 4.8368584584316435e-05 0.016431755934616207 0 4.9986619763234215e-05 0.016713140533388713 0 0.00032473040010216078 0.016665621998812989 0 0.00010068253382901206 0.016846999734727617 0 0.00058369128893490823 0.01079851106020532 0 0.0023945544122038831 0.0058901320080022483 0 0.00032473040010216078 0.016665621998812989 0 0.0003841250905359466 0.016243102897179684 0 4.8368584584316435e-05 0.016431755934616207 0 0.0003841250905359466 0.016243102897179684 0 4.8368584584316435e-05 0.016431755934616207 0 3.8000478061548554e-05 0.016235558826812505 0 -9.0896131678894126e-05 0.016350754485323193 0 4.8368584584316435e-05 0.016431755934616207 0 3.8000478061548554e-05 0.016235558826812505 0 0.0003841250905359466 0.016243102897179684 0 3.8000478061548554e-05 0.016235558826812505 0 8.8669569569444425e-05 0.016043241658036174 0 -0.00021479477653310139 0.016229144880659432 0 0.00043499872099211527 0.015859290478666955 0 0.00014176198077319648 0.015654696455499471 0 -0.00088840172916103801 0.016959351331648203 0 0.0012005924602618216 0.012174694619254625 0 -0.00021479477653310139 0.016229144880659432 0 3.8000478061548554e-05 0.016235558826812505 0 8.8669569569444425e-05 0.016043241658036174 0 0.0019121540759991164 0.0091042315637091392 0 0.00060433079294944518 0.0081327131122988783 0 0.0027612837577367542 0.0070016002360480546 0 0.0012005924602618216 0.012174694619254625 0 0.0013922418692943887 0.010679728707937196 0 0.0030722245554022777 0.0076009484178652482 0 0.0016708071654508829 0.0065799745750829454 0 0.0031179997868040266 0.0058202204126523993 0 0.0023945544122038831 0.0058901320080022483 0 0.0012005924602618216 0.012174694619254625 0 0.0012005924602618216 0.012174694619254625 0 0.0042637727755425381 0.0023267792836443638 0 0.0023945544122038831 0.0058901320080022483 0 0.0042637727755425381 0.0023267792836443638 0 0.0019121540759991164 0.0091042315637091392 0 0.0048858738553076049 0.0075734963384199525 0 0.0027612837577367542 0.0070016002360480546 0 0.0048858738553076049 0.0075734963384199525 0 0.0049197707760304963 0.0058790074351787267 0 0.0027612837577367542 0.0070016002360480546 0 0.0042641656561880686 0.0062923329362411665 0 0.0029980840196286922 0.0082286064234472402 0 0.0034091011651612006 0.0088835263733702697 0 0.0040396607401563074 0.0089208962641586544 0 0.0031159575268419454 0.0094927996637649767 0 0.0042637727755425381 0.0023267792836443638 0 0.0042641656561880686 0.0062923329362411665 0 0.0034091011651612006 0.0088835263733702697 0 0.0040396607401563074 0.0089208962641586544 0 0.004038981668836681 0.008753901128635699 0 0.0042641656561880686 0.0062923329362411665 0 0.0042471684340041442 0.0067278559806565469 0 0.0022171914050486551 0.009998808766825391 0 0.0031159575268419454 0.0094927996637649767 0 0.0024967318514080815 0.0090592140410895097 0 0.0013922418692943887 0.010679728707937196 0 0.0029980840196286922 0.0082286064234472402 0 0.0034091011651612006 0.0088835263733702697 0 0.0031159575268419454 0.0094927996637649767 0 0.0024967318514080815 0.0090592140410895097 0 0.0022171914050486551 0.009998808766825391 0 0.0024967318514080815 0.0090592140410895097 0 0.001235867758938301 0.0093867930923079608 0 0.0013922418692943887 0.010679728707937196 0 0.001498724121557435 0.0094894984322032704 0 0.0024468318500290845 0.010301889848384448 0 0.001235867758938301 0.0093867930923079608 0 0.00076580841335250596 0.011218504447804872 0 0.0013922418692943887 0.010679728707937196 0 -8.1785464966876718e-05 0.014041265833858008 0 -0.00021479477653310139 0.016229144880659432 0 0.00014176198077319648 0.015654696455499471 0 -0.00053674319633806983 0.016117193470423546 0 0.001235867758938301 0.0093867930923079608 0 0.00076580841335250596 0.011218504447804872 0 -0.00018668568821231639 0.01049115970664263 0 0.001235867758938301 0.0093867930923079608 0 -0.00018668568821231639 0.01049115970664263 0 -6.5117042240486601e-05 0.009382895329246967 0 0.001235867758938301 0.0093867930923079608 0 0.00072373333814395029 0.0082911457747554436 0 -6.5117042240486601e-05 0.009382895329246967 0 0.00072373333814395029 0.0082911457747554436 0 -0.00020206768567970619 0.0085272613678384311 0 -6.5117042240486601e-05 0.009382895329246967 0 0.00072373333814395029 0.0082911457747554436 0 0.00023390625266963403 0.0075435766754902277 0 -0.00020206768567970619 0.0085272613678384311 0 0.00072373333814395029 0.0082911457747554436 0 0.0019306157016142484 0.0084188927928223918 0 0.001565465329899717 0.0076234781610291817 0 0.001235867758938301 0.0093867930923079608 0 0.00072373333814395029 0.0082911457747554436 0 0.0019306157016142484 0.0084188927928223918 0 0.0024967318514080815 0.0090592140410895097 0 0.001235867758938301 0.0093867930923079608 0 0.0019306157016142484 0.0084188927928223918 0 0.0019306157016142484 0.0084188927928223918 0 0.001565465329899717 0.0076234781610291817 0 0.0023951284908073239 0.0074918536383865898 0 0.001565465329899717 0.0076234781610291817 0 0.0023951284908073239 0.0074918536383865898 0 0.0018339573158878976 0.0067765496628194701 0 0.001565465329899717 0.0076234781610291817 0 0.00098174215653996618 0.0069797584401250466 0 0.0018339573158878976 0.0067765496628194701 0 0.00072373333814395029 0.0082911457747554436 0 0.001565465329899717 0.0076234781610291817 0 0.00098174215653996618 0.0069797584401250466 0 0.00072373333814395029 0.0082911457747554436 0 0.00098174215653996618 0.0069797584401250466 0 0.00023390625266963403 0.0075435766754902277 0 0.00098174215653996618 0.0069797584401250466 0 0.00023390625266963403 0.0075435766754902277 0 0.00014990018252898936 0.0066802656702160401 0 0.0042912955522106735 0.008098451819048549 0 0.0038372803394156178 0.0078395232609796001 0 0.0036795835287469908 0.0083851591673716891 0 0.0034091011651612006 0.0088835263733702697 0 0.004038981668836681 0.008753901128635699 0 0.0036795835287469908 0.0083851591673716891 0 0.0042912955522106735 0.008098451819048549 0 0.004038981668836681 0.008753901128635699 0 0.0036795835287469908 0.0083851591673716891 0 0.0034091011651612006 0.0088835263733702697 0 0.0036795835287469908 0.0083851591673716891 0 0.0030050606177481625 0.0082485113909741593 0 0.0038372803394156178 0.0078395232609796001 0 0.0036795835287469908 0.0083851591673716891 0 0.0030050606177481625 0.0082485113909741593 0 0.0024967318514080815 0.0090592140410895097 0 0.0019306157016142484 0.0084188927928223918 0 0.0030050606177481625 0.0082485113909741593 0 0.0019306157016142484 0.0084188927928223918 0 0.0030050606177481625 0.0082485113909741593 0 0.0023951284908073239 0.0074918536383865898 0 0.0034091011651612006 0.0088835263733702697 0 0.0024967318514080815 0.0090592140410895097 0 0.0030050606177481625 0.0082485113909741593 0 0.0030050606177481625 0.0082485113909741593 0 0.0023951284908073239 0.0074918536383865898 0 0.0033329795919253302 0.0070934632365092795 0 0.0023951284908073239 0.0074918536383865898 0 0.0033329795919253302 0.0070934632365092795 0 0.0026159912910913808 0.0062263214783520298 0 0.0023951284908073239 0.0074918536383865898 0 0.0026159912910913808 0.0062263214783520298 0 0.0018339573158878976 0.0067765496628194701 0 0.0038372803394156178 0.0078395232609796001 0 0.0030050606177481625 0.0082485113909741593 0 0.0033329795919253302 0.0070934632365092795 0 0.0043172250932633051 0.0069074364900876132 0 0.0033329795919253302 0.0070934632365092795 0 0.0037815096832465259 0.005865251779287972 0 0.0043172250932633051 0.0069074364900876132 0 0.0038372803394156178 0.0078395232609796001 0 0.0033329795919253302 0.0070934632365092795 0 0.0033329795919253302 0.0070934632365092795 0 0.0037815096832465259 0.005865251779287972 0 0.0026159912910913808 0.0062263214783520298 0 0.0027303026791038964 0.0045385324668591577 0 0.0026159912910913808 0.0062263214783520298 0 0.0013932629179859088 0.0056746769350235985 0 0.0027303026791038964 0.0045385324668591577 0 0.0037815096832465259 0.005865251779287972 0 0.0026159912910913808 0.0062263214783520298 0 0.0031422196293062368 -0.010568762052188142 0 0.0040801195946714771 -0.010235818499289704 0 0.0027303026791038964 0.0045385324668591577 0 0.0042045342078195838 0.0046881363460701967 0 0.0037815096832465259 0.005865251779287972 0 0.00098174215653996618 0.0069797584401250466 0 0.00068976087025131088 0.0061872160404617665 0 0.0013932629179859088 0.0056746769350235985 0 0.00068976087025131088 0.0061872160404617665 0 0.00014990018252898936 0.0066802656702160401 0 0.00019106939973628534 0.0055433722579706452 0 0.00098174215653996618 0.0069797584401250466 0 0.00068976087025131088 0.0061872160404617665 0 0.00014990018252898936 0.0066802656702160401 0 0.0026159912910913808 0.0062263214783520298 0 0.0018339573158878976 0.0067765496628194701 0 0.0013932629179859088 0.0056746769350235985 0 0.00098174215653996618 0.0069797584401250466 0 0.0018339573158878976 0.0067765496628194701 0 0.0013932629179859088 0.0056746769350235985 0 0.0012085749449272339 0.0043551336527840904 0 0.0027303026791038964 0.0045385324668591577 0 0.0013932629179859088 0.0056746769350235985 0 0.00068976087025131088 0.0061872160404617665 0 0.0013932629179859088 0.0056746769350235985 0 0.00019106939973628534 0.0055433722579706452 0 0.0031830932059207116 -0.005995398832345694 0 -0.001506227015276061 0.0082592349050783567 0 0.0012085749449272339 0.0043551336527840904 0 0.0013932629179859088 0.0056746769350235985 0 0.00019106939973628534 0.0055433722579706452 0 0.00042307039147509599 0.0039975361269925123 0 0.00019106939973628534 0.0055433722579706452 0 -0.00071179163117213249 0.0060177750617547536 0 -0.0028993688007528827 0.010533326382239427 0 -0.002108291188821357 0.010171551542870525 0 -0.0022042774980492803 0.0094070355839052707 0 0.0026908488514292956 0.0049217070908256586 0 -0.0021417852868011226 0.0083681851430770938 0 -0.002108291188821357 0.010171551542870525 0 -0.0022042774980492803 0.0094070355839052707 0 -0.0015738800633477456 0.009984794868309008 0 0.00014990018252898936 0.0066802656702160401 0 0.00019106939973628534 0.0055433722579706452 0 -0.00071179163117213249 0.0060177750617547536 0 0.00014990018252898936 0.0066802656702160401 0 -0.00071179163117213249 0.0060177750617547536 0 -0.00051837700766263397 0.0078482523845171317 0 -0.00071179163117213249 0.0060177750617547536 0 -0.00051837700766263397 0.0078482523845171317 0 -0.0012580399603675455 0.0080280456509030269 0 -0.0021417852868011226 0.0083681851430770938 0 -0.0010201650737610695 0.0076500287774753711 0 -0.0022042774980492803 0.0094070355839052707 0 -0.0010009516127778731 0.0093430923725040527 0 -0.0012580399603675455 0.0080280456509030269 0 -0.0022042774980492803 0.0094070355839052707 0 -0.0015738800633477456 0.009984794868309008 0 -0.0010009516127778731 0.0093430923725040527 0 -0.0015738800633477456 0.009984794868309008 0 -0.00075878904179663175 0.010298050661107495 0 -0.0010009516127778731 0.0093430923725040527 0 -0.00075878904179663175 0.010298050661107495 0 0.00045107440581240439 0.010138181198628516 0 -0.0010009516127778731 0.0093430923725040527 0 -0.00061743043321932649 0.024525805189419041 0 -0.0015974698378637747 0.022142840199057184 0 0.00045107440581240439 0.010138181198628516 0 -0.00022105468418605413 0.0087478737385513362 0 -0.0010009516127778731 0.0093430923725040527 0 -0.0013414942954098805 0.038748385997233563 0 -0.0030201610386938835 0.035543926122264785 0 0.00016354789492410512 0.035936243069672621 0 -0.00022105468418605413 0.0087478737385513362 0 -0.0010009516127778731 0.0093430923725040527 0 -0.0012580399603675455 0.0080280456509030269 0 -0.0010442926682606511 0.0082182165677337753 0 -0.0010231920096654343 0.0083025844271652407 0 -0.0012580399603675455 0.0080280456509030269 0 -0.00022105468418605413 0.0087478737385513362 0 -0.0010442926682606511 0.0082182165677337753 0 -0.0012580399603675455 0.0080280456509030269 0 -0.0015974698378637747 0.022142840199057184 0 -0.0026634462496496467 0.019981360910777242 0 -0.0030201610386938835 0.035543926122264785 0 -0.004321929293757262 0.031757169298296466 0 0.00050476886548679362 0.032933202700972698 0 -0.004321929293757262 0.031757169298296466 0 0.00050476886548679362 0.032933202700972698 0 -0.0021196266297759674 0.029574356912074388 0 -0.0010442926682606511 0.0082182165677337753 0 -0.0010571152857309911 0.0086156443208947869 0 -0.0013571213241879742 0.0091562694684965036 0 -0.0026634462496496467 0.019981360910777242 0 -0.0034455931130879043 0.018944116288889024 0 -0.0010442926682606511 0.0082182165677337753 0 -0.0010231920096654343 0.0083025844271652407 0 -0.0010571152857309911 0.0086156443208947869 0 -0.0010231920096654343 0.0083025844271652407 0 -0.00051837700766263397 0.0078482523845171317 0 -0.0006443826008350823 0.0089066651538120788 0 -0.0010231920096654343 0.0083025844271652407 0 -0.0010571152857309911 0.0086156443208947869 0 -0.0006443826008350823 0.0089066651538120788 0 -0.00020206768567970619 0.0085272613678384311 0 -0.00051837700766263397 0.0078482523845171317 0 -0.0013622401142805202 0.0095424429105238073 0 -0.00020206768567970619 0.0085272613678384311 0 -6.5117042240486601e-05 0.009382895329246967 0 -0.0013622401142805202 0.0095424429105238073 0 -0.00067664996106269588 0.00838103916834455 0 -0.0007409527946061411 0.0081882510735007026 0 0.00023390625266963403 0.0075435766754902277 0 -0.00020206768567970619 0.0085272613678384311 0 -0.00051837700766263397 0.0078482523845171317 0 0.00023390625266963403 0.0075435766754902277 0 0.00014990018252898936 0.0066802656702160401 0 -0.00051837700766263397 0.0078482523845171317 0 -0.0010231920096654343 0.0083025844271652407 0 -0.00051837700766263397 0.0078482523845171317 0 -0.0012580399603675455 0.0080280456509030269 0 0.0020214022313015719 0.039336747046326628 0 0.0018808267650401681 0.039305008694665425 0 0.0020627892653591567 0.039747176847484134 0 0.0020214022313015719 0.039336747046326628 0 0.0018808267650401681 0.039305008694665425 0 0.0017563413759369112 0.039025621523896679 0 0.002029989958130609 0.039891956775584374 0 0.0018808267650401681 0.039305008694665425 0 0.0020627892653591567 0.039747176847484134 0 0.0017842875198905716 0.03955946786654635 0 0.0018808267650401681 0.039305008694665425 0 0.0014839936822582753 0.038262300860018673 0 0.0017842875198905716 0.03955946786654635 0 0.002029989958130609 0.039891956775584374 0 0.0018808267650401681 0.039305008694665425 0 0.0018808267650401681 0.039305008694665425 0 0.0017563413759369112 0.039025621523896679 0 0.0014839936822582753 0.038262300860018673 0 0.0028816228099972935 0.0374209340733304 0 0.0016190491884677653 0.038264214502440677 0 0.0042028232165696794 0.035758790122916349 0 0.0014839936822582753 0.038262300860018673 0 0.00016354789492410512 0.035936243069672621 0 0.00090803691891074673 0.039521821543103498 0 0.0017842875198905716 0.03955946786654635 0 0.0014839936822582753 0.038262300860018673 0 -0.0013414942954098805 0.038748385997233563 0 0.0014839936822582753 0.038262300860018673 0 0.00016354789492410512 0.035936243069672621 0 0.00090803691891074673 0.039521821543103498 0 -0.0013414942954098805 0.038748385997233563 0 0.0014839936822582753 0.038262300860018673 0 -0.0030201610386938835 0.035543926122264785 0 0.00016354789492410512 0.035936243069672621 0 0.00050476886548679362 0.032933202700972698 0 0.00050476886548679362 0.032933202700972698 0 0.0010376913998845889 0.028355331295742477 0 -0.0021196266297759674 0.029574356912074388 0 0.00050476886548679362 0.032933202700972698 0 0.0033764321722549425 0.030998122703276076 0 0.0010376913998845889 0.028355331295742477 0 0.00050476886548679362 0.032933202700972698 0 0.0033764321722549425 0.030998122703276076 0 0.0029214045298715618 0.033528305904588697 0 0.0042028232165696794 0.035758790122916349 0 0.00016354789492410512 0.035936243069672621 0 0.0029214045298715618 0.033528305904588697 0 0.00016354789492410512 0.035936243069672621 0 0.00050476886548679362 0.032933202700972698 0 0.0029214045298715618 0.033528305904588697 0 0.0028816228099972935 0.0374209340733304 0 0.0043927449606838524 0.036139114644270671 0 0.0033764321722549425 0.030998122703276076 0 0.0029214045298715618 0.033528305904588697 0 0.0066713627243007957 0.033454794658947511 0 0.0042028232165696794 0.035758790122916349 0 0.0029214045298715618 0.033528305904588697 0 0.0066713627243007957 0.033454794658947511 0 0.0033764321722549425 0.030998122703276076 0 0.0062188950835403364 0.030113851226603018 0 0.0066713627243007957 0.033454794658947511 0 0.0043927449606838524 0.036139114644270671 0 0.0053324051075915833 0.03585527526501802 0 0.0062188950835403364 0.030113851226603018 0 0.0066713627243007957 0.033454794658947511 0 0.0091197773635445772 0.031231777114533649 0 0.0019113035743277362 0.039079764206210815 0 0.0021079378360094386 0.039109393704138198 0 0.0021766188179065276 0.03882729058265913 0 0.0020214022313015719 0.039336747046326628 0 0.0017563413759369112 0.039025621523896679 0 0.0019113035743277362 0.039079764206210815 0 0.0020214022313015719 0.039336747046326628 0 0.0019113035743277362 0.039079764206210815 0 0.0021079378360094386 0.039109393704138198 0 0.0075766091664959149 0.026508781261032562 0 0.005546305355971815 0.02706150156356605 0 0.0047980255601641495 0.022842818320841184 0 0.0075766091664959149 0.026508781261032562 0 0.0078262960032252603 0.0286285553214141 0 0.005546305355971815 0.02706150156356605 0 0.0062188950835403364 0.030113851226603018 0 0.0078262960032252603 0.0286285553214141 0 0.005546305355971815 0.02706150156356605 0 0.0062188950835403364 0.030113851226603018 0 0.0078262960032252603 0.0286285553214141 0 0.0091197773635445772 0.031231777114533649 0 0.0033764321722549425 0.030998122703276076 0 0.0062188950835403364 0.030113851226603018 0 0.0039924480273309569 0.028639257899670152 0 0.0062188950835403364 0.030113851226603018 0 0.0039924480273309569 0.028639257899670152 0 0.005546305355971815 0.02706150156356605 0 0.0039924480273309569 0.028639257899670152 0 0.005546305355971815 0.02706150156356605 0 0.0028492259303940447 0.025669720710366321 0 0.005546305355971815 0.02706150156356605 0 0.0028492259303940447 0.025669720710366321 0 0.0047980255601641495 0.022842818320841184 0 0.0028492259303940447 0.025669720710366321 0 0.0010376913998845889 0.028355331295742477 0 -0.00026254269200525154 0.024702612527347512 0 0.0033764321722549425 0.030998122703276076 0 0.0039924480273309569 0.028639257899670152 0 0.0010376913998845889 0.028355331295742477 0 0.0039924480273309569 0.028639257899670152 0 0.0028492259303940447 0.025669720710366321 0 0.0010376913998845889 0.028355331295742477 0 0.0010376913998845889 0.028355331295742477 0 -0.0021196266297759674 0.029574356912074388 0 -0.0023472166834984311 0.026828963569627627 0 0.0010376913998845889 0.028355331295742477 0 -0.00026254269200525154 0.024702612527347512 0 -0.0023472166834984311 0.026828963569627627 0 -0.00026254269200525154 0.024702612527347512 0 0.0011523989697440563 0.022354125912305567 0 -0.0012152935172592217 0.02216351202609761 0 0.0011523989697440563 0.022354125912305567 0 0.0018701345863116703 0.019533749636456169 0 -0.00075318368376829908 0.019657741250947922 0 0.0011523989697440563 0.022354125912305567 0 -0.0012152935172592217 0.02216351202609761 0 -0.00075318368376829908 0.019657741250947922 0 0.0011523989697440563 0.022354125912305567 0 0.0047980255601641495 0.022842818320841184 0 0.0018701345863116703 0.019533749636456169 0 0.0028492259303940447 0.025669720710366321 0 0.0011523989697440563 0.022354125912305567 0 0.0047980255601641495 0.022842818320841184 0 0.0028492259303940447 0.025669720710366321 0 -0.00026254269200525154 0.024702612527347512 0 0.0011523989697440563 0.022354125912305567 0 0.0010993609920946399 0.023345579582661154 0 0.0013749899313276605 0.021653970674412611 0 0.00031189651181788558 0.021787577285273429 0 0.0029510631206926298 0.023279416495167116 0 0.0010985977661574103 0.020686842908238721 0 0.0010993609920946399 0.023345579582661154 0 0.0022441911549253477 0.022303225620776815 0 0.0025104708899107496 0.023725995574199646 0 0.0010993609920946399 0.023345579582661154 0 0.0022441911549253477 0.022303225620776815 0 0.0013749899313276605 0.021653970674412611 0 0.0050759021310197144 0.025001837353872635 0 0.0029510631206926298 0.023279416495167116 0 0.0020624954486291214 0.025206536516904771 0 0.0010993609920946399 0.023345579582661154 0 0.0025104708899107496 0.023725995574199646 0 -0.0006443826008350823 0.0089066651538120788 0 -0.0013571213241879742 0.0091562694684965036 0 -0.0010452729911193219 0.010365542950467375 0 -0.001263307453665646 0.010889011427853416 0 -0.0013622401142805202 0.0095424429105238073 0 -0.0023223385789248132 0.01186695439178416 0 -0.0007409527946061411 0.0081882510735007026 0 -0.0025600646542377806 0.015510355835819703 0 -0.001263307453665646 0.010889011427853416 0 -0.0016995939163136156 0.011715379777925803 0 -0.0023223385789248132 0.01186695439178416 0 -0.001263307453665646 0.010889011427853416 0 -0.00018668568821231639 0.01049115970664263 0 -0.00089704008801066634 0.012217386822844654 0 -0.001263307453665646 0.010889011427853416 0 -0.00018668568821231639 0.01049115970664263 0 -0.0013622401142805202 0.0095424429105238073 0 0.00076580841335250596 0.011218504447804872 0 -0.00018668568821231639 0.01049115970664263 0 -0.00089704008801066634 0.012217386822844654 0 -0.00018668568821231639 0.01049115970664263 0 -6.5117042240486601e-05 0.009382895329246967 0 -0.0013622401142805202 0.0095424429105238073 0 -0.0010571152857309911 0.0086156443208947869 0 -0.0006443826008350823 0.0089066651538120788 0 -0.0013571213241879742 0.0091562694684965036 0 -0.004321929293757262 0.031757169298296466 0 -0.0054608150066641509 0.028026993824872008 0 -0.0021196266297759674 0.029574356912074388 0 -0.0054608150066641509 0.028026993824872008 0 -0.0021196266297759674 0.029574356912074388 0 -0.0023472166834984311 0.026828963569627627 0 -0.0023472166834984311 0.026828963569627627 0 -0.004396752776214762 0.025764282282344175 0 -0.0032533358594267585 0.023813325783793887 0 -0.00026254269200525154 0.024702612527347512 0 -0.0023472166834984311 0.026828963569627627 0 -0.0032533358594267585 0.023813325783793887 0 -0.0034455931130879043 0.018944116288889024 0 -0.0025600646542377806 0.015510355835819703 0 -0.0054608150066641509 0.028026993824872008 0 -0.0023472166834984311 0.026828963569627627 0 -0.004396752776214762 0.025764282282344175 0 -0.0054608150066641509 0.028026993824872008 0 -0.004396752776214762 0.025764282282344175 0 -0.0065309329011715763 0.024387972555427517 0 -0.0032533358594267585 0.023813325783793887 0 -0.0056388991324250425 0.021934590332501044 0 -0.0065309329011715763 0.024387972555427517 0 -0.004396752776214762 0.025764282282344175 0 -0.0032533358594267585 0.023813325783793887 0 -0.0065309329011715763 0.024387972555427517 0 -0.0031536797532613061 0.018310909564291555 0 -0.0025600646542377806 0.015510355835819703 0 -0.00026254269200525154 0.024702612527347512 0 -0.0032533358594267585 0.023813325783793887 0 -0.0012152935172592217 0.02216351202609761 0 -0.0012152935172592217 0.02216351202609761 0 -0.0032902006130103635 0.02078441384148362 0 -0.00075318368376829908 0.019657741250947922 0 -0.0032533358594267585 0.023813325783793887 0 -0.0012152935172592217 0.02216351202609761 0 -0.0032902006130103635 0.02078441384148362 0 -0.0027028196637375575 0.020487298278482516 0 -0.00087564945959327028 0.019663391456137089 0 -0.0032533358594267585 0.023813325783793887 0 -0.0032902006130103635 0.02078441384148362 0 -0.0056388991324250425 0.021934590332501044 0 -0.0015617978134644548 0.016934557154717398 0 -0.0013522754269397182 0.017318336703109102 0 -0.0016465249236510319 0.017446533344904962 0 -0.0031536797532613061 0.018310909564291555 0 -0.0018383567836986003 0.018392801414760542 0 -0.0015384996312785852 0.019910901594074829 0 -0.0024376213769528921 0.020347226033126543 0 -0.0020945097697571569 0.019383057938534065 0 -0.0027028196637375575 0.020487298278482516 0 -0.0031536797532613061 0.018310909564291555 0 -0.0015617978134644548 0.016934557154717398 0 -0.0010408590923626224 0.016517669621544922 0 -0.0010692139686672532 0.017094090440916646 0 -0.0015617978134644548 0.016934557154717398 0 -0.0010692139686672532 0.017094090440916646 0 -0.0013522754269397182 0.017318336703109102 0 -0.001263307453665646 0.010889011427853416 0 -0.0016995939163136156 0.011715379777925803 0 -0.00089704008801066634 0.012217386822844654 0 -0.0016995939163136156 0.011715379777925803 0 -0.0023223385789248132 0.01186695439178416 0 -0.00089704008801066634 0.012217386822844654 0 -0.0031536797532613061 0.018310909564291555 0 -0.00060786236241442001 0.013872125906012885 0 -0.0028193645464837194 0.013319698871274108 0 -0.0023223385789248132 0.01186695439178416 0 -0.00089704008801066634 0.012217386822844654 0 -8.1785464966876718e-05 0.014041265833858008 0 -0.00060786236241442001 0.013872125906012885 0 -0.00057065972520809643 0.016638992594653568 0 -0.0010408590923626224 0.016517669621544922 0 -0.00076849294760935021 0.016855689381430505 0 -0.00076849294760935021 0.016855689381430505 0 -0.0010692139686672532 0.017094090440916646 0 -0.00072771383432665697 0.017181046170557636 0 -0.0010408590923626224 0.016517669621544922 0 -0.00076849294760935021 0.016855689381430505 0 -0.0010692139686672532 0.017094090440916646 0 -0.00095955571338184693 0.017447353321476608 0 -0.00072771383432665697 0.017181046170557636 0 -0.00083808766530953094 0.017578478031497615 0 -0.0010692139686672532 0.017094090440916646 0 -0.00095955571338184693 0.017447353321476608 0 -0.00072771383432665697 0.017181046170557636 0 -0.0010692139686672532 0.017094090440916646 0 -0.00095955571338184693 0.017447353321476608 0 -0.0011577772921277936 0.017414578000424841 0 -0.00095955571338184693 0.017447353321476608 0 -0.0011458068689893628 0.017636760266463082 0 -0.0011577772921277936 0.017414578000424841 0 -0.00095955571338184693 0.017447353321476608 0 -0.00095618878832934415 0.017627252306761446 0 -0.00083808766530953094 0.017578478031497615 0 -0.00095618878832934415 0.017627252306761446 0 -0.0013173586162381122 0.01796118968043137 0 -0.00087699772541260869 0.0176142621571573 0 -0.00095955571338184693 0.017447353321476608 0 -0.00095618878832934415 0.017627252306761446 0 -0.0011458068689893628 0.017636760266463082 0 -0.00095618878832934415 0.017627252306761446 0 -0.00087699772541260869 0.0176142621571573 0 -0.00083808766530953094 0.017578478031497615 0 -0.00095618878832934415 0.017627252306761446 0 -0.0013173586162381122 0.01796118968043137 0 -0.0011458068689893628 0.017636760266463082 0 -0.0013173586162381122 0.01796118968043137 0 -0.0011458068689893628 0.017636760266463082 0 -0.0013488964171562354 0.017718446541993522 0 -0.0011458068689893628 0.017636760266463082 0 -0.0013488964171562354 0.017718446541993522 0 -0.0011577772921277936 0.017414578000424841 0 -0.0010692139686672532 0.017094090440916646 0 -0.0011577772921277936 0.017414578000424841 0 -0.0013522754269397182 0.017318336703109102 0 -0.0013488964171562354 0.017718446541993522 0 -0.0011577772921277936 0.017414578000424841 0 -0.0013522754269397182 0.017318336703109102 0 -0.0013488964171562354 0.017718446541993522 0 -0.0013522754269397182 0.017318336703109102 0 -0.0016465249236510319 0.017446533344904962 0 -0.0020945097697571569 0.019383057938534065 0 -0.0012543745765212768 0.019006741753913387 0 -0.0015565459824486039 0.018209736655960936 0 -0.0018383567836986003 0.018392801414760542 0 -0.0016380520555181516 0.018206515184667527 0 -0.0013488964171562354 0.017718446541993522 0 -0.0016465249236510319 0.017446533344904962 0 -0.0015565459824486039 0.018209736655960936 0 -0.0012543745765212768 0.019006741753913387 0 -0.00075318368376829908 0.019657741250947922 0 -0.00050743902746931159 0.017823765261902928 0 -0.0015384996312785852 0.019910901594074829 0 -0.0012543745765212768 0.019006741753913387 0 -0.00075318368376829908 0.019657741250947922 0 -0.0015384996312785852 0.019910901594074829 0 -0.0020945097697571569 0.019383057938534065 0 -0.0012543745765212768 0.019006741753913387 0 -0.0015565459824486039 0.018209736655960936 0 -0.0013247181904160667 0.018013546930085635 0 -0.00050743902746931159 0.017823765261902928 0 -0.0012543745765212768 0.019006741753913387 0 -0.0015565459824486039 0.018209736655960936 0 -0.00050743902746931159 0.017823765261902928 0 -0.0013173586162381122 0.01796118968043137 0 -0.0013488964171562354 0.017718446541993522 0 -0.0015565459824486039 0.018209736655960936 0 -0.0013173586162381122 0.01796118968043137 0 -0.0015565459824486039 0.018209736655960936 0 -0.0013247181904160667 0.018013546930085635 0 -0.0013247181904160667 0.018013546930085635 0 -0.0011339949794974874 0.01813798905476861 0 -0.001390765323984606 0.017919126857405831 0 -0.0013173586162381122 0.01796118968043137 0 -0.0013247181904160667 0.018013546930085635 0 -0.001390765323984606 0.017919126857405831 0 -0.0013247181904160667 0.018013546930085635 0 -0.0011339949794974874 0.01813798905476861 0 -0.00050743902746931159 0.017823765261902928 0 -0.0010819143779684155 0.018224884517195936 0 -0.0004427757002057564 0.01905293555338981 0 -0.0011339949794974874 0.01813798905476861 0 -0.001390765323984606 0.017919126857405831 0 -0.0013471917570911879 0.017637640053752787 0 -0.0015865672355019115 0.017741416339251595 0 -0.001390765323984606 0.017919126857405831 0 -0.0013471917570911879 0.017637640053752787 0 -0.0018327041225730206 0.017581278492341017 0 -0.0015865672355019115 0.017741416339251595 0 -0.0017051028781499657 0.017964520331228123 0 -0.0015865672355019115 0.017741416339251595 0 -0.0017051028781499657 0.017964520331228123 0 -0.001390765323984606 0.017919126857405831 0 -0.0013173586162381122 0.01796118968043137 0 -0.00087452894221435619 0.017574186725714883 0 -0.00087699772541260869 0.0176142621571573 0 -0.00087452894221435619 0.017574186725714883 0 -0.00087699772541260869 0.0176142621571573 0 -0.00080769097313142506 0.017402503857018584 0 -0.0013173586162381122 0.01796118968043137 0 -0.0017051028781499657 0.017964520331228123 0 -0.001390765323984606 0.017919126857405831 0 -0.0013707295859178808 0.017865790567108891 0 -0.0012524945681715246 0.017880239934518264 0 0.0021105072647926095 0.02105146638839972 0 0.00098182435484667663 0.020429751228364233 0 0.0020247992226221658 0.01993731009649902 0 0.0021105072647926095 0.02105146638839972 0 0.0020247992226221658 0.01993731009649902 0 0.0027271576077536937 0.020599135644810942 0 0.0022441911549253477 0.022303225620776815 0 0.0021105072647926095 0.02105146638839972 0 0.0013749899313276605 0.021653970674412611 0 0.0013749899313276605 0.021653970674412611 0 0.00098182435484667663 0.020429751228364233 0 0.00031189651181788558 0.021787577285273429 0 0.0021105072647926095 0.02105146638839972 0 0.0013749899313276605 0.021653970674412611 0 0.00098182435484667663 0.020429751228364233 0 0.00098182435484667663 0.020429751228364233 0 0.00031189651181788558 0.021787577285273429 0 -0.00051913049123031535 0.020184319067753854 0 0.0018701345863116703 0.019533749636456169 0 -0.00075318368376829908 0.019657741250947922 0 -0.00050743902746931159 0.017823765261902928 0 0.0010985977661574103 0.020686842908238721 0 -0.0004427757002057564 0.01905293555338981 0 -0.0011339949794974874 0.01813798905476861 0 -0.00051913049123031535 0.020184319067753854 0 4.2717584029999815e-05 0.019086909623021196 0 -0.0011339949794974874 0.01813798905476861 0 4.2717584029999815e-05 0.019086909623021196 0 0.00011472403746885447 0.017864970870737948 0 4.2717584029999815e-05 0.019086909623021196 0 0.0010795078809775302 0.019216141388222616 0 0.00011472403746885447 0.017864970870737948 0 0.0010795078809775302 0.019216141388222616 0 0.0013386448000315154 0.018574612489632516 0 0.00051443478269072172 0.018601965515764526 0 0.0010284664024504135 0.019119791194112151 0 0.00032179446032372361 0.018257628857780792 0 0.00098182435484667663 0.020429751228364233 0 -0.00051913049123031535 0.020184319067753854 0 4.2717584029999815e-05 0.019086909623021196 0 0.00098182435484667663 0.020429751228364233 0 4.2717584029999815e-05 0.019086909623021196 0 0.0010795078809775302 0.019216141388222616 0 0.00098182435484667663 0.020429751228364233 0 0.0010795078809775302 0.019216141388222616 0 0.0020247992226221658 0.01993731009649902 0 0.0010795078809775302 0.019216141388222616 0 0.0021726590416543336 0.019071781296029374 0 0.0013386448000315154 0.018574612489632516 0 0.0010795078809775302 0.019216141388222616 0 0.0021726590416543336 0.019071781296029374 0 0.0020247992226221658 0.01993731009649902 0 0.0021726590416543336 0.019071781296029374 0 0.0020247992226221658 0.01993731009649902 0 0.0028988540139590741 0.019980503101835221 0 0.0023194884520034735 0.018127285734165277 0 0.001486427655343655 0.017812023101180109 0 0.0019287980366808446 0.01702388877219561 0 0.0023194884520034735 0.018127285734165277 0 0.0013386448000315154 0.018574612489632516 0 0.001486427655343655 0.017812023101180109 0 0.0021726590416543336 0.019071781296029374 0 0.0023194884520034735 0.018127285734165277 0 0.0013386448000315154 0.018574612489632516 0 0.0013386448000315154 0.018574612489632516 0 0.001486427655343655 0.017812023101180109 0 0.00081456038310749189 0.018012147592593297 0 -0.0011339949794974874 0.01813798905476861 0 0.00011472403746885447 0.017864970870737948 0 -0.00053257735126757114 0.017170795229020805 0 0.001486427655343655 0.017812023101180109 0 0.00081456038310749189 0.018012147592593297 0 0.00073936240532257306 0.017239826388178087 0 0.00081456038310749189 0.018012147592593297 0 -9.987705828780593e-05 0.017836829873394994 0 0.00073936240532257306 0.017239826388178087 0 0.0013386448000315154 0.018574612489632516 0 0.00081456038310749189 0.018012147592593297 0 0.00051443478269072172 0.018601965515764526 0 0.00032179446032372361 0.018257628857780792 0 -0.00030617140740676771 0.017507415500516918 0 0.00081456038310749189 0.018012147592593297 0 0.00051443478269072172 0.018601965515764526 0 -9.987705828780593e-05 0.017836829873394994 0 -3.6160294097674289e-07 0.016995300912891212 0 0.00031878014212555439 0.016387627524672328 0 0.00073936240532257306 0.017239826388178087 0 -9.987705828780593e-05 0.017836829873394994 0 -3.6160294097674289e-07 0.016995300912891212 0 0.00073936240532257306 0.017239826388178087 0 0.00031878014212555439 0.016387627524672328 0 -0.00036568884216222209 0.016332663732809071 0 9.1017302958839601e-05 0.015891197180159782 0 -3.6160294097674289e-07 0.016995300912891212 0 0.00031878014212555439 0.016387627524672328 0 -0.00036568884216222209 0.016332663732809071 0 0.00031878014212555439 0.016387627524672328 0 0.00073936240532257306 0.017239826388178087 0 0.0013431079894145595 0.016310782177041482 0 0.00073936240532257306 0.017239826388178087 0 0.0013431079894145595 0.016310782177041482 0 0.0019287980366808446 0.01702388877219561 0 0.001486427655343655 0.017812023101180109 0 0.00073936240532257306 0.017239826388178087 0 0.0019287980366808446 0.01702388877219561 0 0.0013431079894145595 0.016310782177041482 0 0.0019287980366808446 0.01702388877219561 0 0.0025866845054688006 0.015893104073830835 0 -0.0013224639253462088 0.017125539616236845 0 -0.0016854048290750698 0.016914172807764652 0 -0.0013718480576007134 0.016628031325658734 0 -0.0013224639253462088 0.017125539616236845 0 -0.0016854048290750698 0.016914172807764652 0 -0.0015991113037186211 0.017341786589723594 0 -0.0016854048290750698 0.016914172807764652 0 -0.0015991113037186211 0.017341786589723594 0 -0.0020713270858153466 0.017159712872310409 0 -0.0018327041225730206 0.017581278492341017 0 -0.0015865672355019115 0.017741416339251595 0 -0.0015991113037186211 0.017341786589723594 0 -0.0018327041225730206 0.017581278492341017 0 -0.0015991113037186211 0.017341786589723594 0 -0.0020713270858153466 0.017159712872310409 0 -0.0015865672355019115 0.017741416339251595 0 -0.0015991113037186211 0.017341786589723594 0 -0.0013471917570911879 0.017637640053752787 0 -0.0013224639253462088 0.017125539616236845 0 -0.0015991113037186211 0.017341786589723594 0 -0.0013471917570911879 0.017637640053752787 0 -0.0013224639253462088 0.017125539616236845 0 -0.0013471917570911879 0.017637640053752787 0 -0.0010606893642943235 0.017355433733794248 0 -0.0011339949794974874 0.01813798905476861 0 -0.00053257735126757114 0.017170795229020805 0 -0.0010606893642943235 0.017355433733794248 0 -0.0011339949794974874 0.01813798905476861 0 -0.0013471917570911879 0.017637640053752787 0 -0.0010606893642943235 0.017355433733794248 0 -0.00053257735126757114 0.017170795229020805 0 -0.0010606893642943235 0.017355433733794248 0 -0.00089208644310610253 0.016725612415717486 0 -0.00030617140740676771 0.017507415500516918 0 -0.00075924156654614324 0.016891065822606858 0 -0.0013224639253462088 0.017125539616236845 0 -0.0010606893642943235 0.017355433733794248 0 -0.00089208644310610253 0.016725612415717486 0 -0.00089208644310610253 0.016725612415717486 0 -0.0011221223239543617 0.01628860335661864 0 -0.0013718480576007134 0.016628031325658734 0 -0.00075924156654614324 0.016891065822606858 0 -0.0011142930395051096 0.016351114173002643 0 -0.0013224639253462088 0.017125539616236845 0 -0.00089208644310610253 0.016725612415717486 0 -0.0013718480576007134 0.016628031325658734 0 -9.987705828780593e-05 0.017836829873394994 0 -3.6160294097674289e-07 0.016995300912891212 0 -0.00063506718883434064 0.017078207079446909 0 -3.6160294097674289e-07 0.016995300912891212 0 -0.00063506718883434064 0.017078207079446909 0 -0.00036568884216222209 0.016332663732809071 0 -0.00063506718883434064 0.017078207079446909 0 -0.00036568884216222209 0.016332663732809071 0 -0.0011221223239543617 0.01628860335661864 0 -0.0011221223239543617 0.01628860335661864 0 -0.0013718480576007134 0.016628031325658734 0 -0.001619003983769821 0.016026338672165453 0 -0.0013718480576007134 0.016628031325658734 0 -0.0017789998841728303 0.016441197164206774 0 -0.001619003983769821 0.016026338672165453 0 -0.0016854048290750698 0.016914172807764652 0 -0.0017789998841728303 0.016441197164206774 0 -0.001989491842112617 0.016682528958941338 0 -0.0016854048290750698 0.016914172807764652 0 -0.0013718480576007134 0.016628031325658734 0 -0.0017789998841728303 0.016441197164206774 0 -0.0017789998841728303 0.016441197164206774 0 -0.001619003983769821 0.016026338672165453 0 -0.0020860575396452444 0.015916389870107881 0 -0.0017789998841728303 0.016441197164206774 0 -0.0020860575396452444 0.015916389870107881 0 -0.00220965790706835 0.01635561273047844 0 -0.0020860575396452444 0.015916389870107881 0 -0.0026530442367791751 0.015755524727561043 0 -0.00220965790706835 0.01635561273047844 0 -0.0026530442367791751 0.015755524727561043 0 -0.0025736018669702391 0.016442200549418005 0 -0.00220965790706835 0.01635561273047844 0 -0.0025736018669702391 0.016442200549418005 0 -0.00220965790706835 0.01635561273047844 0 -0.0023015214483244392 0.01677469017888544 0 -0.0017789998841728303 0.016441197164206774 0 -0.00220965790706835 0.01635561273047844 0 -0.001989491842112617 0.016682528958941338 0 -0.00220965790706835 0.01635561273047844 0 -0.001989491842112617 0.016682528958941338 0 -0.0023015214483244392 0.01677469017888544 0 -0.0016854048290750698 0.016914172807764652 0 -0.001989491842112617 0.016682528958941338 0 -0.0020713270858153466 0.017159712872310409 0 -0.001989491842112617 0.016682528958941338 0 -0.0020713270858153466 0.017159712872310409 0 -0.0023015214483244392 0.01677469017888544 0 -0.0020713270858153466 0.017159712872310409 0 -0.0023015214483244392 0.01677469017888544 0 -0.0026473041536194423 0.017029302476935751 0 -0.0025736018669702391 0.016442200549418005 0 -0.0023015214483244392 0.01677469017888544 0 -0.0026473041536194423 0.017029302476935751 0 -0.0030303969608115938 0.01507396080104664 0 -0.003130251598195881 0.015206002394315556 0 -0.0027617245784524475 0.015490642078821525 0 -0.0020713270858153466 0.017159712872310409 0 -0.0026473041536194423 0.017029302476935751 0 -0.0022723265346772754 0.017656599763840423 0 -0.0029649349992947752 0.015983436195832656 0 -0.0017042268702557267 0.016769116010649322 0 -0.0023890947290946384 0.015494565913873937 0 -0.0017042268702557267 0.016769116010649322 0 -0.0015331281877456824 0.015978681525633229 0 -0.00084719299895046106 0.016733595561432765 0 -0.0012906618627415644 0.016665262760976976 0 -0.0018327041225730206 0.017581278492341017 0 -0.0020713270858153466 0.017159712872310409 0 -0.0022723265346772754 0.017656599763840423 0 -0.002395795092558235 0.016087393705686303 0 -0.002353097762969054 0.01535177253359655 0 -0.0028607733837672932 0.015700085375591935 0 -0.002395795092558235 0.016087393705686303 0 -0.0019821906731025698 0.016118318598416715 0 -0.002353097762969054 0.01535177253359655 0 -0.002395795092558235 0.016087393705686303 0 -0.0019821906731025698 0.016118318598416715 0 -0.0019624966932635188 0.016716124776013887 0 -0.0019821906731025698 0.016118318598416715 0 -0.0015331281877456824 0.015978681525633229 0 -0.002353097762969054 0.01535177253359655 0 -0.0019821906731025698 0.016118318598416715 0 -0.0015331281877456824 0.015978681525633229 0 -0.0016430619750613614 0.016525243492487796 0 -0.0015331281877456824 0.015978681525633229 0 -0.0012906618627415644 0.016665262760976976 0 -0.0016430619750613614 0.016525243492487796 0 -0.003130251598195881 0.015206002394315556 0 -0.0031643329486554508 0.015048301688500403 0 -0.0032279224172657092 0.014989505736875734 0 -0.0031643329486554508 0.015048301688500403 0 -0.0032279224172657092 0.014989505736875734 0 -0.0032297881103201605 0.014969595593516653 0 -0.0030303969608115938 0.01507396080104664 0 -0.0031643329486554508 0.015048301688500403 0 -0.0032297881103201605 0.014969595593516653 0 -0.0023890947290946384 0.015494565913873937 0 -0.0027694767487796215 0.015198327619466287 0 -0.0030303969608115938 0.01507396080104664 0 -0.003130251598195881 0.015206002394315556 0 -0.0031643329486554508 0.015048301688500403 0 -0.0032279224172657092 0.014989505736875734 0 -0.0032297881103201605 0.014969595593516653 0 -0.0032043301138966586 0.014998599138706648 0 -0.0025736018669702391 0.016442200549418005 0 -0.0026473041536194423 0.017029302476935751 0 -0.0030178227175051277 0.016249464095146448 0 -0.0029649349992947752 0.015983436195832656 0 -0.0030849584014435477 0.01563620228550771 0 -0.0026530442367791751 0.015755524727561043 0 -0.0025736018669702391 0.016442200549418005 0 -0.0030178227175051277 0.016249464095146448 0 -0.0026530442367791751 0.015755524727561043 0 -0.0030178227175051277 0.016249464095146448 0 -0.0032565236626435584 0.015213178283115253 0 -0.0032297881103201605 0.014969595593516653 0 -0.0032043301138966586 0.014998599138706648 0 -0.0032565236626435584 0.015213178283115253 0 -0.0032043301138966586 0.014998599138706648 0 -0.0032160735101317488 0.015067149596885984 0 -0.0032565236626435584 0.015213178283115253 0 -0.0030849584014435477 0.01563620228550771 0 -0.0032572578803902125 0.015249342386677772 0 -0.0032043301138966586 0.014998599138706648 0 -0.0032160735101317488 0.015067149596885984 0 -0.0031819402934960875 0.014950767273882932 0 -0.0032160735101317488 0.015067149596885984 0 -0.0031819402934960875 0.014950767273882932 0 -0.0032121302835942094 0.01500613841902446 0 -0.0032121302835942094 0.01500613841902446 0 -0.0032266510223839693 0.014916265964258102 0 -0.003201616035764437 0.015009792146351057 0 -0.0031819402934960875 0.014950767273882932 0 -0.0032121302835942094 0.01500613841902446 0 -0.0032266510223839693 0.014916265964258102 0 -0.0032266510223839693 0.014916265964258102 0 -0.0031729520360275461 0.015033266963081904 0 -0.003201616035764437 0.015009792146351057 0 -0.0032266510223839693 0.014916265964258102 0 -0.0031984064162706794 0.014839189813043762 0 -0.0032243145254259127 0.014640494326623109 0 -0.0032266510223839693 0.014916265964258102 0 -0.0032243145254259127 0.014640494326623109 0 -0.0031729520360275461 0.015033266963081904 0 -0.0031819402934960875 0.014950767273882932 0 -0.0032266510223839693 0.014916265964258102 0 -0.0031984064162706794 0.014839189813043762 0 -0.0032836019767631835 0.01441063960531447 0 -0.003416812762991204 0.014884856351771251 0 -0.0032243145254259127 0.014640494326623109 0 -0.0032334309680741567 0.014935996306576828 0 -0.0035019302885035014 0.015207296319495781 0 -0.0031984064162706794 0.014839189813043762 0 -0.0032334309680741567 0.014935996306576828 0 -0.0031064544416352607 0.014922520706074917 0 -0.0031984064162706794 0.014839189813043762 0 -0.0032243145254259127 0.014640494326623109 0 -0.0032334309680741567 0.014935996306576828 0 -0.0032334309680741567 0.014935996306576828 0 -0.0031064544416352607 0.014922520706074917 0 -0.0030754091402734303 0.015279223561858922 0 -0.0032279224172657092 0.014989505736875734 0 -0.0032043301138966586 0.014998599138706648 0 -0.0031064544416352607 0.014922520706074917 0 -0.0027694767487796215 0.015198327619466287 0 -0.0030874274550731049 0.014937949487963809 0 -0.0032043301138966586 0.014998599138706648 0 -0.0031819402934960875 0.014950767273882932 0 -0.0031064544416352607 0.014922520706074917 0 -0.0031819402934960875 0.014950767273882932 0 -0.0031984064162706794 0.014839189813043762 0 -0.0031064544416352607 0.014922520706074917 0 -0.0034624761403568988 -0.004248453621787579 0 -0.0037734500221480428 -0.0052412844501719463 0 -0.0044020161550774855 -0.0039370724298499913 0 -0.0034624761403568988 -0.004248453621787579 0 -0.0024918913055444756 -0.0043384552943719146 0 -0.0026629635756546832 -0.0033289951492058226 0 -0.0034624761403568988 -0.004248453621787579 0 -0.0024918913055444756 -0.0043384552943719146 0 -0.0031335943372438643 -0.0047936983898918071 0 -0.0027817436690756397 0.005453974179294504 0 -0.0028403614772085834 0.005536119612391358 0 -0.0032243145254259127 0.014640494326623109 0 -0.0031729520360275461 0.015033266963081904 0 -0.0029641876171607358 0.014149114603708192 0 -0.0026629635756546832 -0.0033289951492058226 0 -0.00351228448596675 -0.003348566847504559 0 -0.0029992080823489863 -0.0024355316424688762 0 -0.0034624761403568988 -0.004248453621787579 0 -0.0026629635756546832 -0.0033289951492058226 0 -0.00351228448596675 -0.003348566847504559 0 -0.0032243145254259127 0.014640494326623109 0 -0.0029641876171607358 0.014149114603708192 0 -0.0033378792281804344 0.013379544653611035 0 -0.0034624761403568988 -0.004248453621787579 0 -0.00351228448596675 -0.003348566847504559 0 -0.0044020161550774855 -0.0039370724298499913 0 -0.00351228448596675 -0.003348566847504559 0 -0.0040306352306299078 -0.0027753265109518891 0 -0.0044020161550774855 -0.0039370724298499913 0 -0.002412139885515167 -0.0042060668074545091 0 -0.0015497809289875025 -0.012160828234088338 0 -0.0029992080823489863 -0.0024355316424688762 0 -0.0030974588767414637 -0.0020722386965516862 0 -0.0040306352306299078 -0.0027753265109518891 0 -0.00351228448596675 -0.003348566847504559 0 -0.0029992080823489863 -0.0024355316424688762 0 -0.0040306352306299078 -0.0027753265109518891 0 -0.0029641876171607358 0.014149114603708192 0 -0.0025318661018743226 0.012266158367020842 0 -0.0033378792281804344 0.013379544653611035 0 -0.0025318661018743226 0.012266158367020842 0 -0.0033378792281804344 0.013379544653611035 0 -0.0033006728203313139 0.011652641756738863 0 -0.0026629635756546832 -0.0033289951492058226 0 -0.0028356071521559679 -0.0022967149744485102 0 -0.0029992080823489863 -0.0024355316424688762 0 -0.0028403614772085834 0.005536119612391358 0 -0.002514901153203554 0.0041253045611754835 0 -0.002514901153203554 0.0041253045611754835 0 -0.0036682268349199289 0.0022703300605931773 0 -0.0016314991639620115 -0.0025087051143283718 0 -0.0010292747586541165 -0.0045787259262267174 0 -0.0012752799845499299 -0.0095970083743267438 0 -0.001853392714651355 -0.0092781663928745966 0 -0.0014006216230145682 -0.0089561355798396889 0 0.00038570593328649037 -0.0013371374774504504 0 -0.00032088795261752876 -0.0018152489605606425 0 -0.00054840392105711441 -0.00059340014141093689 0 -0.002514901153203554 0.0041253045611754835 0 -0.0026172470303271046 0.010499243258353679 0 -0.0022262876000410507 0.002996771956915857 0 -0.0023802002007174044 0.0038127016910961789 0 -0.0013117560481655161 0.0037103685773943679 0 -0.0013296182830932952 0.0045219920475387159 0 -0.0023802002007174044 0.0038127016910961789 0 -0.0013117560481655161 0.0037103685773943679 0 -0.001004710669162245 0.0036388753076642411 0 -0.0016314991639620115 -0.0025087051143283718 0 -0.001004710669162245 0.0036388753076642411 0 -0.0026172470303271046 0.010499243258353679 0 -0.0012752799845499299 -0.0095970083743267438 0 -0.0014314552273507087 -0.0097150082250567465 0 -0.001853392714651355 -0.0092781663928745966 0 -0.0028257867270000962 -0.0023005864931252692 0 -0.0029992080823489863 -0.0024355316424688762 0 -0.0028921774530981203 -0.0019314599474135573 0 -0.0029992080823489863 -0.0024355316424688762 0 -0.0028921774530981203 -0.0019314599474135573 0 -0.0030974588767414637 -0.0020722386965516862 0 -0.0016314991639620115 -0.0025087051143283718 0 -0.002412139885515167 -0.0042060668074545091 0 -0.002514901153203554 0.0041253045611754835 0 -0.0016314991639620115 -0.0025087051143283718 0 -0.0014314552273507087 -0.0097150082250567465 0 -0.001853392714651355 -0.0092781663928745966 0 -0.0021920170244419234 -0.010270148220957506 0 -0.0011722957569235608 -0.015997999916856537 0 -0.0015497809289875025 -0.012160828234088338 0 -0.002353097762969054 0.01535177253359655 0 -0.0030754091402734303 0.015279223561858922 0 -0.0028607733837672932 0.015700085375591935 0 -0.002353097762969054 0.01535177253359655 0 -0.0031064544416352607 0.014922520706074917 0 -0.0030754091402734303 0.015279223561858922 0 -0.0030754091402734303 0.015279223561858922 0 -0.0032256969186803181 0.015636140259075969 0 -0.0028607733837672932 0.015700085375591935 0 -0.0035019302885035014 0.015207296319495781 0 -0.0032256969186803181 0.015636140259075969 0 -0.003573382578285462 0.015786647055222501 0 -0.0030754091402734303 0.015279223561858922 0 -0.0035019302885035014 0.015207296319495781 0 -0.0032256969186803181 0.015636140259075969 0 -0.003416812762991204 0.014884856351771251 0 -0.0026172470303271046 0.010499243258353679 0 -0.0032334309680741567 0.014935996306576828 0 -0.0030754091402734303 0.015279223561858922 0 -0.0035019302885035014 0.015207296319495781 0 -0.003475130952950445 0.0098867234808606378 0 -0.0034539529663045656 0.0091615336625510066 0 -0.0016780845847012629 0.010594949830957176 0 -0.0032256969186803181 0.015636140259075969 0 -0.003573382578285462 0.015786647055222501 0 -0.0029747885858042054 0.016304068283051667 0 -0.0026172470303271046 0.010499243258353679 0 -0.0023092417317038534 0.013717048170458825 0 -0.0032256969186803181 0.015636140259075969 0 -0.0028607733837672932 0.015700085375591935 0 -0.0029747885858042054 0.016304068283051667 0 -0.002395795092558235 0.016087393705686303 0 -0.0028607733837672932 0.015700085375591935 0 -0.0029747885858042054 0.016304068283051667 0 -0.0012747496822887005 0.0092385602026277634 0 -0.0013453333005133486 0.013883688078184679 0 -0.002395795092558235 0.016087393705686303 0 -0.0029747885858042054 0.016304068283051667 0 -0.00242666554432525 0.01670043409789752 0 -0.00087581733616736324 0.0074312509749649277 0 -0.00088461160765698223 0.0076632085324029329 0 0.0011908326576597773 0.008758934578259138 0 -0.0016898526484071573 0.010937416513967122 0 -0.0016780845847012629 0.010594949830957176 0 2.7725600219860454e-05 0.012057639264295891 0 -0.0023092417317038534 0.013717048170458825 0 -0.0013453333005133486 0.013883688078184679 0 -0.00014884585335756865 0.0043636283074780947 0 -0.00048999058983673635 0.010537940050218178 0 -0.003475130952950445 0.0098867234808606378 0 -0.0016898526484071573 0.010937416513967122 0 -0.0016780845847012629 0.010594949830957176 0 -0.0027919822345151063 0.006102844666857842 0 -0.00087581733616736324 0.0074312509749649277 0 -0.00088461160765698223 0.0076632085324029329 0 -0.001004710669162245 0.0036388753076642411 0 -0.00014884585335756865 0.0043636283074780947 0 -0.001004710669162245 0.0036388753076642411 0 -0.0012747496822887005 0.0092385602026277634 0 0.00034636095368594373 0.0017217954154775165 0 0.00065375412945009202 0.0019058093407801702 0 0.00033192372946023161 0.0020962148674083048 0 0.00065375412945009202 0.0019058093407801702 0 0.00033192372946023161 0.0020962148674083048 0 0.000693546024638687 0.0022853100282585197 0 -0.00088461160765698223 0.0076632085324029329 0 0.0011908326576597773 0.008758934578259138 0 0.0011790265147046202 0.0091774025841164907 0 0.00065375412945009202 0.0019058093407801702 0 0.000693546024638687 0.0022853100282585197 0 0.0010164049107080945 0.0021350110715088926 0 -0.00025271212248085796 -0.01959490036659239 0 -0.00010904115672948555 -0.019563529439309175 0 -0.00019250067257201416 -0.019670344222363852 0 -0.0011722957569235608 -0.015997999916856537 0 -0.0014732366290412116 -0.0085468623009209207 0 -0.001853392714651355 -0.0092781663928745966 0 -0.0014006216230145682 -0.0089561355798396889 0 -0.0015122061883114789 -0.0083160684384658359 0 -0.0010292747586541165 -0.0045787259262267174 0 -0.0014732366290412116 -0.0085468623009209207 0 -0.001004710669162245 0.0036388753076642411 0 0.00048870745184422784 0.00055860644592720034 0 0.00038570593328649037 -0.0013371374774504504 0 -0.00054840392105711441 -0.00059340014141093689 0 0.00035721210479737578 0.00057847069920944662 0 -0.00054840392105711441 -0.00059340014141093689 0 0.00035721210479737578 0.00057847069920944662 0 -0.00077733503490185114 0.00063156281062286095 0 0.00035721210479737578 0.00057847069920944662 0 -0.00077733503490185114 0.00063156281062286095 0 -0.00011141599623042166 0.0013703205370408445 0 -0.00010904115672948555 -0.019563529439309175 0 -0.00015579833481166395 -0.019534414454866259 0 -0.00019250067257201416 -0.019670344222363852 0 -0.00015579833481166395 -0.019534414454866259 0 -0.00010209078584264913 -0.019319792599541679 0 -0.00021580996624881422 -0.019578281927198037 0 -0.0014732366290412116 -0.0085468623009209207 0 -0.00043388451025634601 -0.011793647911477594 0 -0.00010904115672948555 -0.019563529439309175 0 -0.00015579833481166395 -0.019534414454866259 0 -0.00010209078584264913 -0.019319792599541679 0 -0.00043388451025634601 -0.011793647911477594 0 -0.00027234384599046619 -0.020805180129656396 0 -0.0026317822642476407 -0.0056103062476272024 0 -0.0012277616200004793 -0.0013707003024025519 0 -0.0036376045181337273 5.7604925132996082e-05 0 -0.00077733503490185114 0.00063156281062286095 0 -0.00026152413455992967 0.002039736079155822 0 -0.00011141599623042166 0.0013703205370408445 0 0.00035721210479737578 0.00057847069920944662 0 -0.00011141599623042166 0.0013703205370408445 0 0.00017697575772405188 0.0023897393359721183 0 -0.0014732366290412116 -0.0085468623009209207 0 -0.00047356378727440727 0.0014123302690066872 0 0.00048870745184422784 0.00055860644592720034 0 0.00016954166504046158 0.0026581395868181981 0 -0.00026152413455992967 0.002039736079155822 0 -0.00011141599623042166 0.0013703205370408445 0 0.00017697575772405188 0.0023897393359721183 0 0.001138088603869995 -0.00069036332046936257 0 -0.00043388451025634601 -0.011793647911477594 0 0.00082720411205493641 -0.0061450996957697597 0 0.0016402827989051027 -0.0063382471650367924 0 -0.00064012188358328196 -0.0082042631695237959 0 -0.00047356378727440727 0.0014123302690066872 0 -0.00021218237305101323 0.002109164899977332 0 -0.0012277616200004793 -0.0013707003024025519 0 -3.7266790339537466e-05 0.0027324726418077555 0 -0.0036376045181337273 5.7604925132996082e-05 0 0.00026296058536463108 0.0030883096335630046 0 -3.7266790339537466e-05 0.0027324726418077555 0 -0.0036376045181337273 5.7604925132996082e-05 0 -0.00026152413455992967 0.002039736079155822 0 0.00013521169439683841 0.0025661460802854762 0 -3.7266790339537466e-05 0.0027324726418077555 0 -0.00026152413455992967 0.002039736079155822 0 0.00013521169439683841 0.0025661460802854762 0 0.00017697575772405188 0.0023897393359721183 0 0.00013521169439683841 0.0025661460802854762 0 0.00026296058536463108 0.0030883096335630046 0 -3.7266790339537466e-05 0.0027324726418077555 0 0.0020040366656566824 -0.0091829175816862656 0 0.00066152060055646488 -0.015349636454653278 0 0.0010407099667670723 -0.018994376688036673 0 0.00098063945810084713 -0.018677809207585581 0 1.9105058991192826e-06 -0.01952257359549096 0 -0.00043388451025634601 -0.011793647911477594 0 0.00066152060055646488 -0.015349636454653278 0 0.00082720411205493641 -0.0061450996957697597 0 -0.00064012188358328196 -0.0082042631695237959 0 -0.0008087417842139662 -0.0073612550808259394 0 -0.00011087525770674376 -0.020084508014330142 0 -0.00023178918825726146 -0.020114164967023694 0 -0.00018309583235960535 -0.020046727983303324 0 0.000693546024638687 0.0022853100282585197 0 0.0010813578081904883 0.0025872502712071389 0 0.0010164049107080945 0.0021350110715088926 0 0.000693546024638687 0.0022853100282585197 0 0.00073787250479268257 0.0027572525347416407 0 0.0010813578081904883 0.0025872502712071389 0 0.000693546024638687 0.0022853100282585197 0 0.0004583529649991686 0.0024029279445251781 0 0.00073787250479268257 0.0027572525347416407 0 0.00033192372946023161 0.0020962148674083048 0 0.00017697575772405188 0.0023897393359721183 0 0.0004583529649991686 0.0024029279445251781 0 0.00033192372946023161 0.0020962148674083048 0 0.000693546024638687 0.0022853100282585197 0 0.0004583529649991686 0.0024029279445251781 0 0.00067842815080181441 0.003347082405306432 0 0.00045479683683935388 0.0027994000773405017 0 0.00073787250479268257 0.0027572525347416407 0 0.0004583529649991686 0.0024029279445251781 0 0.00045479683683935388 0.0027994000773405017 0 0.00073787250479268257 0.0027572525347416407 0 0.00017697575772405188 0.0023897393359721183 0 0.0004583529649991686 0.0024029279445251781 0 0.00045479683683935388 0.0027994000773405017 0 0.00013521169439683841 0.0025661460802854762 0 0.00017697575772405188 0.0023897393359721183 0 0.00045479683683935388 0.0027994000773405017 0 0.00013521169439683841 0.0025661460802854762 0 0.00026296058536463108 0.0030883096335630046 0 0.00045479683683935388 0.0027994000773405017 0 0.0011527196214608153 0.0031470489464014762 0 0.00073787250479268257 0.0027572525347416407 0 0.0010813578081904883 0.0025872502712071389 0 0.00032473040010216078 0.016665621998812989 0 0.00020652327041259207 0.016940628871805658 0 0.00010068253382901206 0.016846999734727617 0 0.00058369128893490823 0.01079851106020532 0 0.00075077825477313706 0.0093903549985899191 0 0.00020652327041259207 0.016940628871805658 0 1.3563842718592139e-05 0.016987641325594431 0 0.00010068253382901206 0.016846999734727617 0 0.00020652327041259207 0.016940628871805658 0 5.706357093552447e-05 0.017048243114641787 0 0.00015302735955642971 0.017014143408031493 0 0.00075077825477313706 0.0093903549985899191 0 -0.00048999058983673635 0.010537940050218178 0 -0.00029567535469786176 0.015841270013099602 0 -0.0005794210424854623 0.015766813983361078 0 0.00087248153957049878 0.01684400198183935 0 0.00020652327041259207 0.016940628871805658 0 5.706357093552447e-05 0.017048243114641787 0 1.3563842718592139e-05 0.016987641325594431 0 5.706357093552447e-05 0.017048243114641787 0 1.3563842718592139e-05 0.016987641325594431 0 -0.00017714007416918496 0.017087090499092412 0 7.3705147371866202e-05 0.016885237905090472 0 -0.00019095881616839233 0.017086011480332713 0 -0.0014180848164110709 0.017582231776721056 0 -0.0014744991434729622 0.017601696730918343 0 -0.0012648189243202644 0.017568424108768587 0 -0.0014180848164110709 0.017582231776721056 0 -0.0012648189243202644 0.017568424108768587 0 -0.0013362306251026787 0.017469225671969593 0 1.3563842718592139e-05 0.016987641325594431 0 0.00010068253382901206 0.016846999734727617 0 -7.051409425145367e-05 0.016898447438157143 0 1.3563842718592139e-05 0.016987641325594431 0 -7.051409425145367e-05 0.016898447438157143 0 -0.00017714007416918496 0.017087090499092412 0 4.9986619763234215e-05 0.016713140533388713 0 0.00010068253382901206 0.016846999734727617 0 -7.051409425145367e-05 0.016898447438157143 0 -0.00014140746557671989 0.016731975814521943 0 -7.051409425145367e-05 0.016898447438157143 0 -0.00028386834321827384 0.016939230622941559 0 -7.051409425145367e-05 0.016898447438157143 0 -0.00028386834321827384 0.016939230622941559 0 -0.00017714007416918496 0.017087090499092412 0 -0.00028386834321827384 0.016939230622941559 0 -0.00040116223157436146 0.017096955622309465 0 -0.00017714007416918496 0.017087090499092412 0 -0.00063427938734535747 0.017232548760380498 0 -0.00019095881616839233 0.017086011480332713 0 -0.00028386834321827384 0.016939230622941559 0 -0.00072771383432665697 0.017181046170557636 0 -0.00040116223157436146 0.017096955622309465 0 -0.00072771383432665697 0.017181046170557636 0 -0.00078512729034946078 0.017521869907643088 0 -0.00083808766530953094 0.017578478031497615 0 -0.00073974925202266949 0.017176112066540607 0 -0.00063427938734535747 0.017232548760380498 0 -0.00078512729034946078 0.017521869907643088 0 -0.00083808766530953094 0.017578478031497615 0 -0.00088804887981486984 0.01759152363743614 0 -0.00088804887981486984 0.01759152363743614 0 -0.0009576393437155425 0.017513067985382512 0 -0.00086851835063147642 0.017545117179326091 0 -0.00083808766530953094 0.017578478031497615 0 -0.00088804887981486984 0.01759152363743614 0 -0.00086851835063147642 0.017545117179326091 0 -0.00087699772541260869 0.0176142621571573 0 -0.00083808766530953094 0.017578478031497615 0 -0.00086851835063147642 0.017545117179326091 0 -0.00078512729034946078 0.017521869907643088 0 -0.00088804887981486984 0.01759152363743614 0 -0.0010139547986944672 0.01766619532620162 0 -0.00088804887981486984 0.01759152363743614 0 -0.0010139547986944672 0.01766619532620162 0 -0.0010798076909219754 0.017547270444673614 0 -0.00088804887981486984 0.01759152363743614 0 -0.0010798076909219754 0.017547270444673614 0 -0.0009576393437155425 0.017513067985382512 0 -0.0014744991434729622 0.017601696730918343 0 -0.0010139547986944672 0.01766619532620162 0 -0.0012648189243202644 0.017568424108768587 0 -0.00088346012608097766 0.016692601289402909 0 -0.00019095881616839233 0.017086011480332713 0 -0.0010139547986944672 0.01766619532620162 0 -0.0010798076909219754 0.017547270444673614 0 -0.0012648189243202644 0.017568424108768587 0 -0.0010798076909219754 0.017547270444673614 0 -0.0012648189243202644 0.017568424108768587 0 -0.0012153471916910019 0.017465180814947408 0 -0.0012648189243202644 0.017568424108768587 0 -0.0012153471916910019 0.017465180814947408 0 -0.0013362306251026787 0.017469225671969593 0 -0.0010798076909219754 0.017547270444673614 0 -0.0012153471916910019 0.017465180814947408 0 -0.0011132868115799675 0.017377444842654452 0 -0.0012153471916910019 0.017465180814947408 0 -0.0013043194170705161 0.017352363257622957 0 -0.0013362306251026787 0.017469225671969593 0 -0.0012153471916910019 0.017465180814947408 0 -0.0013043194170705161 0.017352363257622957 0 -0.0011132868115799675 0.017377444842654452 0 -0.0010798076909219754 0.017547270444673614 0 -0.0011132868115799675 0.017377444842654452 0 -0.0009576393437155425 0.017513067985382512 0 -0.0011132868115799675 0.017377444842654452 0 -0.0009576393437155425 0.017513067985382512 0 -0.00094236899520816985 0.017411324790721997 0 -0.0011132868115799675 0.017377444842654452 0 -0.00094236899520816985 0.017411324790721997 0 -0.0010597113419316779 0.017123183300091251 0 -0.0011132868115799675 0.017377444842654452 0 -0.0012466559041984723 0.017190650535424606 0 -0.0010597113419316779 0.017123183300091251 0 -0.0013043194170705161 0.017352363257622957 0 -0.0012466559041984723 0.017190650535424606 0 -0.0014405551790177111 0.017176781795346503 0 -0.0013043194170705161 0.017352363257622957 0 -0.0011132868115799675 0.017377444842654452 0 -0.0012466559041984723 0.017190650535424606 0 -0.00087699772541260869 0.0176142621571573 0 -0.00086851835063147642 0.017545117179326091 0 -0.00080769097313142506 0.017402503857018584 0 -0.00094236899520816985 0.017411324790721997 0 -0.00086851835063147642 0.017545117179326091 0 -0.00080769097313142506 0.017402503857018584 0 -0.0009576393437155425 0.017513067985382512 0 -0.00094236899520816985 0.017411324790721997 0 -0.00086851835063147642 0.017545117179326091 0 -0.00094236899520816985 0.017411324790721997 0 -0.00080769097313142506 0.017402503857018584 0 -0.0010597113419316779 0.017123183300091251 0 -0.0012524945681715246 0.017880239934518264 0 -0.0017042268702557267 0.016769116010649322 0 -0.0018327041225730206 0.017581278492341017 0 -0.0017051028781499657 0.017964520331228123 0 -0.0022723265346772754 0.017656599763840423 0 -0.00087452894221435619 0.017574186725714883 0 -0.00080769097313142506 0.017402503857018584 0 -0.00077724100046702271 0.017323644077099354 0 -0.00072636387113379265 0.017506663420790502 0 -0.0017042268702557267 0.016769116010649322 0 -0.00080769097313142506 0.017402503857018584 0 -0.00084719299895046106 0.016733595561432765 0 -0.0010597113419316779 0.017123183300091251 0 -0.0012466559041984723 0.017190650535424606 0 -0.0010597113419316779 0.017123183300091251 0 -0.0013883054645152143 0.016928641545790393 0 -0.0010597113419316779 0.017123183300091251 0 -0.0012906618627415644 0.016665262760976976 0 -0.0013883054645152143 0.016928641545790393 0 -0.00084719299895046106 0.016733595561432765 0 -0.0010597113419316779 0.017123183300091251 0 -0.0012906618627415644 0.016665262760976976 0 -0.0012906618627415644 0.016665262760976976 0 -0.0016430619750613614 0.016525243492487796 0 -0.0013883054645152143 0.016928641545790393 0 -0.0013883054645152143 0.016928641545790393 0 -0.0016692375047266557 0.016951152134229482 0 -0.0014405551790177111 0.017176781795346503 0 -0.0016430619750613614 0.016525243492487796 0 -0.0013883054645152143 0.016928641545790393 0 -0.0016692375047266557 0.016951152134229482 0 -0.0016692375047266557 0.016951152134229482 0 -0.0019624966932635188 0.016716124776013887 0 -0.0019310564011369353 0.017098525706060162 0 -0.0016430619750613614 0.016525243492487796 0 -0.0016692375047266557 0.016951152134229482 0 -0.0019624966932635188 0.016716124776013887 0 -0.0019821906731025698 0.016118318598416715 0 -0.0016430619750613614 0.016525243492487796 0 -0.0019624966932635188 0.016716124776013887 0 -0.002395795092558235 0.016087393705686303 0 -0.0019624966932635188 0.016716124776013887 0 -0.0023857666127767184 0.017117622058936577 0 -0.0025956745299291861 0.017361118765207743 0 -0.0013453333005133486 0.013883688078184679 0 -0.0019624966932635188 0.016716124776013887 0 -0.0019310564011369353 0.017098525706060162 0 -0.0023857666127767184 0.017117622058936577 0 -0.0019310564011369353 0.017098525706060162 0 -0.0020976248381988807 0.017317637762091886 0 -0.0023857666127767184 0.017117622058936577 0 -0.0005794210424854623 0.015766813983361078 0 -0.0014896261298220149 0.014835817875341002 0 -0.0020672717484582588 0.014688451127427712 0 7.3705147371866202e-05 0.016885237905090472 0 -0.00048999058983673635 0.010537940050218178 0 -0.001567216382738586 0.016181868950403876 0 -0.0013453333005133486 0.013883688078184679 0 -0.0013453333005133486 0.013883688078184679 0 -0.00048999058983673635 0.010537940050218178 0 -0.0014896261298220149 0.014835817875341002 0 -0.0020615007254961388 0.014366250337173763 0 -0.0020672717484582588 0.014688451127427712 0 -0.00029567535469786176 0.015841270013099602 0 -0.0005794210424854623 0.015766813983361078 0 -0.0014896261298220149 0.014835817875341002 0 -0.00088346012608097766 0.016692601289402909 0 -0.001567216382738586 0.016181868950403876 0 -0.0014180848164110709 0.017582231776721056 0 -0.0020976248381988807 0.017317637762091886 0 -0.0015228418592989569 0.017370388092753451 0 -0.0014180848164110709 0.017582231776721056 0 -0.0014744991434729622 0.017601696730918343 0 -0.0018652580050538769 0.017218678314048129 0 -0.0014489897524294837 0.017627292990676439 0 -0.001567216382738586 0.016181868950403876 0 -0.0014180848164110709 0.017582231776721056 0 -0.0013362306251026787 0.017469225671969593 0 -0.0015228418592989569 0.017370388092753451 0 -0.0013043194170705161 0.017352363257622957 0 -0.0013362306251026787 0.017469225671969593 0 -0.0015228418592989569 0.017370388092753451 0 -0.0015228418592989569 0.017370388092753451 0 -0.0014405551790177111 0.017176781795346503 0 -0.0016853442199828616 0.017227731510142539 0 -0.0013043194170705161 0.017352363257622957 0 -0.0015228418592989569 0.017370388092753451 0 -0.0014405551790177111 0.017176781795346503 0 -0.0012466559041984723 0.017190650535424606 0 -0.0013883054645152143 0.016928641545790393 0 -0.0014405551790177111 0.017176781795346503 0 -0.0016692375047266557 0.016951152134229482 0 -0.0014405551790177111 0.017176781795346503 0 -0.0016853442199828616 0.017227731510142539 0 -0.0020976248381988807 0.017317637762091886 0 -0.0015228418592989569 0.017370388092753451 0 -0.0016853442199828616 0.017227731510142539 0 -0.0019310564011369353 0.017098525706060162 0 -0.0020976248381988807 0.017317637762091886 0 -0.0016853442199828616 0.017227731510142539 0 -0.0016692375047266557 0.016951152134229482 0 -0.0019310564011369353 0.017098525706060162 0 -0.0016853442199828616 0.017227731510142539 0 4.5989567565021202e-05 0.044859055205604237 0 -1.79050031157913e-06 0.044967871838809188 0 9.7453570575794745e-05 0.044721161276102858 0 2.1883219259630733e-05 0.044966189880577948 0 -2.4191956775948592e-05 0.044769336256488317 0 5.2992785166547871e-05 0.044857863520896477 0 7.3613763658217975e-05 0.044808446963398446 0 4.5989567565021202e-05 0.044859055205604237 0 5.2992785166547871e-05 0.044857863520896477 0 4.5989567565021202e-05 0.044859055205604237 0 1.925342927866995e-05 0.044929426047583654 0 7.3613763658217975e-05 0.044808446963398446 0 8.4303617878927611e-05 0.044800255908103874 0 0.0001166599164104328 0.044743971001186079 0 5.2992785166547871e-05 0.044857863520896477 0 7.3613763658217975e-05 0.044808446963398446 0 8.4303617878927611e-05 0.044800255908103874 0 7.3613763658217975e-05 0.044808446963398446 0 8.4271309803987633e-05 0.044776739821537494 0 0.0001166599164104328 0.044743971001186079 0 8.4271309803987633e-05 0.044776739821537494 0 4.5989567565021202e-05 0.044859055205604237 0 9.7453570575794745e-05 0.044721161276102858 0 7.3613763658217975e-05 0.044808446963398446 0 8.4271309803987633e-05 0.044776739821537494 0 4.5989567565021202e-05 0.044859055205604237 0 8.4271309803987633e-05 0.044776739821537494 0 0.00011093269047443811 0.044724270254297663 0 9.7453570575794745e-05 0.044721161276102858 0 -1.79050031157913e-06 0.044967871838809188 0 1.2245146590681371e-08 0.044999800741368431 0 3.7661946700921232e-08 0.044999851653639421 0 -1.79050031157913e-06 0.044967871838809188 0 1.925342927866995e-05 0.044929426047583654 0 1.2245146590681371e-08 0.044999800741368431 0 4.5989567565021202e-05 0.044859055205604237 0 -1.79050031157913e-06 0.044967871838809188 0 1.925342927866995e-05 0.044929426047583654 0 1.925342927866995e-05 0.044929426047583654 0 1.2245146590681371e-08 0.044999800741368431 0 3.2976155659747588e-05 0.044912806364785972 0 5.2992785166547871e-05 0.044857863520896477 0 1.925342927866995e-05 0.044929426047583654 0 3.2976155659747588e-05 0.044912806364785972 0 5.2992785166547871e-05 0.044857863520896477 0 3.2976155659747588e-05 0.044912806364785972 0 9.2893467370351899e-05 0.044795170806600323 0 5.2992785166547871e-05 0.044857863520896477 0 8.4303617878927611e-05 0.044800255908103874 0 9.2893467370351899e-05 0.044795170806600323 0 9.2893467370351899e-05 0.044795170806600323 0 0.00014457845986446625 0.044673719701429318 0 0.00020155637180017271 0.044731427667323222 0 9.2893467370351899e-05 0.044795170806600323 0 0.00014457845986446625 0.044673719701429318 0 0.0001166599164104328 0.044743971001186079 0 8.4303617878927611e-05 0.044800255908103874 0 9.2893467370351899e-05 0.044795170806600323 0 0.0001166599164104328 0.044743971001186079 0 0.00014457845986446625 0.044673719701429318 0 0.00033123497937508512 0.044540144560143609 0 0.00020155637180017271 0.044731427667323222 0 0.00014471933090724588 0.044693494744836901 0 0.00016961330355525129 0.044654728047364617 0 0.00023720489284408599 0.044701317002663395 0 0.00014457845986446625 0.044673719701429318 0 0.00042506917614241747 0.044217270633344186 0 0.00033123497937508512 0.044540144560143609 0 0.00014457845986446625 0.044673719701429318 0 0.00014471933090724588 0.044693494744836901 0 0.00023720489284408599 0.044701317002663395 0 0.00016103869022413654 0.044643317767775414 0 0.00035167574840141411 0.044461109520820288 0 0.00014471933090724588 0.044693494744836901 0 0.00011093269047443811 0.044724270254297663 0 0.00016961330355525129 0.044654728047364617 0 0.00014457845986446625 0.044673719701429318 0 0.0001166599164104328 0.044743971001186079 0 0.00014471933090724588 0.044693494744836901 0 8.4271309803987633e-05 0.044776739821537494 0 0.0001166599164104328 0.044743971001186079 0 0.00011093269047443811 0.044724270254297663 0 0.0001166599164104328 0.044743971001186079 0 0.00014471933090724588 0.044693494744836901 0 0.00011093269047443811 0.044724270254297663 0 -0.00013636285373363273 0.044556073360893116 0 -2.0653809688294304e-05 0.044459355076606262 0 -0.00019545329658506602 0.044499621024380528 0 -3.5321973512921829e-05 0.044491802603549201 0 -7.4913961801524511e-05 0.044777529733034886 0 -3.4058646475063719e-05 0.044577995937898254 0 -6.9640872482027778e-05 0.044597904699569806 0 -7.9754635116852701e-05 0.044630486035421843 0 -2.4191956775948592e-05 0.044769336256488317 0 0.00011150454080221723 0.044580191229717889 0 -5.4011177957394091e-06 0.044774420745945183 0 -2.4191956775948592e-05 0.044769336256488317 0 -0.00013636285373363273 0.044556073360893116 0 4.0777820050517942e-05 0.044529894890173359 0 -2.0653809688294304e-05 0.044459355076606262 0 0.00011093269047443811 0.044724270254297663 0 0.00010498327438457461 0.044721345860357135 0 0.00016961330355525129 0.044654728047364617 0 4.0777820050517942e-05 0.044529894890173359 0 -2.0653809688294304e-05 0.044459355076606262 0 0.0001708018997405534 0.044409592875372154 0 -3.4058646475063719e-05 0.044577995937898254 0 5.7403468459204261e-05 0.04441344618303486 0 0.0001708018997405534 0.044409592875372154 0 -3.5321973512921829e-05 0.044491802603549201 0 0.00015477523520501316 0.044432592391626495 0 -3.4058646475063719e-05 0.044577995937898254 0 5.7403468459204261e-05 0.04441344618303486 0 -3.8228353204663421e-05 0.044504083162469961 0 5.7403468459204261e-05 0.04441344618303486 0 -3.8228353204663421e-05 0.044504083162469961 0 3.1687925794362738e-05 0.044353805233643545 0 -3.4058646475063719e-05 0.044577995937898254 0 -6.9640872482027778e-05 0.044597904699569806 0 -3.8228353204663421e-05 0.044504083162469961 0 -6.9640872482027778e-05 0.044597904699569806 0 -3.8228353204663421e-05 0.044504083162469961 0 -7.4324730100363496e-05 0.044602495893765241 0 -6.9640872482027778e-05 0.044597904699569806 0 -7.4324730100363496e-05 0.044602495893765241 0 -7.4810796114972581e-05 0.04464915695801449 0 -7.4324730100363496e-05 0.044602495893765241 0 -7.4810796114972581e-05 0.04464915695801449 0 -6.8990850230373778e-05 0.044740053382169118 0 -7.4810796114972581e-05 0.04464915695801449 0 -4.598560139766733e-05 0.044706132393356357 0 -6.8990850230373778e-05 0.044740053382169118 0 -7.4810796114972581e-05 0.04464915695801449 0 -7.9754635116852701e-05 0.044630486035421843 0 -4.598560139766733e-05 0.044706132393356357 0 -6.9640872482027778e-05 0.044597904699569806 0 -7.4810796114972581e-05 0.04464915695801449 0 -7.9754635116852701e-05 0.044630486035421843 0 -1.79050031157913e-06 0.044967871838809188 0 -8.6509374500760801e-05 0.044975643369750483 0 -6.1806672533464449e-05 0.045000768384972051 0 -7.4913961801524511e-05 0.044777529733034886 0 -3.1154826851431345e-05 0.044863657600833731 0 -2.4191956775948592e-05 0.044769336256488317 0 -7.4913961801524511e-05 0.044777529733034886 0 -3.0376075665511407e-06 0.044997111489019269 0 -7.8598191014706252e-10 0.044999993736996632 0 -1.1686839725363193e-06 0.044999439553833884 0 -7.4913961801524511e-05 0.044777529733034886 0 1.0694983416845219e-08 0.045000083288026696 0 -1.79050031157913e-06 0.044967871838809188 0 -6.1806672533464449e-05 0.045000768384972051 0 3.7661946700921232e-08 0.044999851653639421 0 -4.598560139766733e-05 0.044706132393356357 0 4.3906153028582262e-08 0.044999199246520918 0 -6.8990850230373778e-05 0.044740053382169118 0 -7.8598191014706252e-10 0.044999993736996632 0 -1.1686839725363193e-06 0.044999439553833884 0 -8.5637310654052503e-10 0.045000002383766113 0 -3.1154826851431345e-05 0.044863657600833731 0 -2.2500519607286409e-08 0.04499990328122469 0 4.3906153028582262e-08 0.044999199246520918 0 -6.8990850230373778e-05 0.044740053382169118 0 -1.1796978589435632e-05 0.044962906591378075 0 -7.4324730100363496e-05 0.044602495893765241 0 -6.8990850230373778e-05 0.044740053382169118 0 -5.6056499491927982e-05 0.04448117860838198 0 -6.8990850230373778e-05 0.044740053382169118 0 -8.1525274482119274e-05 0.04453950277669113 0 -5.6056499491927982e-05 0.04448117860838198 0 -1.2888060405881097e-05 0.044905668893002855 0 -3.7853518860967976e-05 0.044609449412561224 0 -6.8990850230373778e-05 0.044740053382169118 0 -1.1796978589435632e-05 0.044962906591378075 0 -8.1525274482119274e-05 0.04453950277669113 0 -1.1796978589435632e-05 0.044962906591378075 0 -2.23416687303844e-05 0.044808579621508866 0 -1.3609817384592672e-05 0.044666944690243689 0 4.3906153028582262e-08 0.044999199246520918 0 -6.4780722886292395e-08 0.044999837128134129 0 -1.1796978589435632e-05 0.044962906591378075 0 -6.4780722886292395e-08 0.044999837128134129 0 -1.1796978589435632e-05 0.044962906591378075 0 -2.23416687303844e-05 0.044808579621508866 0 -6.4780722886292395e-08 0.044999837128134129 0 -2.23416687303844e-05 0.044808579621508866 0 -1.9248546882056711e-08 0.04499961231187144 0 -2.23416687303844e-05 0.044808579621508866 0 9.6753873072340991e-07 0.044499346261136045 0 -1.3609817384592672e-05 0.044666944690243689 0 -2.23416687303844e-05 0.044808579621508866 0 -3.1689429203330965e-05 0.044705821946800527 0 9.6753873072340991e-07 0.044499346261136045 0 -2.23416687303844e-05 0.044808579621508866 0 -3.1689429203330965e-05 0.044705821946800527 0 -1.9248546882056711e-08 0.04499961231187144 0 5.478732842959846e-06 0.044344567147023811 0 9.6753873072340991e-07 0.044499346261136045 0 0.00010710592322075206 0.044147166951344061 0 0.00015830224758223957 0.043898918377669134 0 5.478732842959846e-06 0.044344567147023811 0 0.00010710592322075206 0.044147166951344061 0 5.478732842959846e-06 0.044344567147023811 0 -3.1689429203330965e-05 0.044705821946800527 0 9.6753873072340991e-07 0.044499346261136045 0 9.6753873072340991e-07 0.044499346261136045 0 9.1916049265605842e-05 0.044346073025106438 0 0.00010710592322075206 0.044147166951344061 0 9.6753873072340991e-07 0.044499346261136045 0 9.1916049265605842e-05 0.044346073025106438 0 -1.3609817384592672e-05 0.044666944690243689 0 5.1149841988814656e-05 0.044093559828958656 0 -8.1525274482119274e-05 0.04453950277669113 0 -5.6056499491927982e-05 0.04448117860838198 0 7.7382383765137235e-05 0.044218763250497312 0 -3.7853518860967976e-05 0.044609449412561224 0 -3.8228353204663421e-05 0.044504083162469961 0 -7.4324730100363496e-05 0.044602495893765241 0 -5.6056499491927982e-05 0.04448117860838198 0 5.1149841988814656e-05 0.044093559828958656 0 -5.6056499491927982e-05 0.04448117860838198 0 3.1687925794362738e-05 0.044353805233643545 0 -3.8228353204663421e-05 0.044504083162469961 0 -5.6056499491927982e-05 0.04448117860838198 0 3.1687925794362738e-05 0.044353805233643545 0 5.7403468459204261e-05 0.04441344618303486 0 3.1687925794362738e-05 0.044353805233643545 0 0.00019462359696505277 0.044194106147335759 0 5.1149841988814656e-05 0.044093559828958656 0 3.1687925794362738e-05 0.044353805233643545 0 0.00019462359696505277 0.044194106147335759 0 0.00019462359696505277 0.044194106147335759 0 0.0005619542008151754 0.04386780853502318 0 0.00040840973685417391 0.044167095205963604 0 0.00019462359696505277 0.044194106147335759 0 0.00038974539070397139 0.043669476929290386 0 0.0005619542008151754 0.04386780853502318 0 7.7382383765137235e-05 0.044218763250497312 0 0.00034742919671111594 0.043824740822002314 0 5.1149841988814656e-05 0.044093559828958656 0 0.00019462359696505277 0.044194106147335759 0 0.00038974539070397139 0.043669476929290386 0 9.1916049265605842e-05 0.044346073025106438 0 0.00029882029801693788 0.043982797365343725 0 0.00010710592322075206 0.044147166951344061 0 0.00029882029801693788 0.043982797365343725 0 0.00024275856449867646 0.043815982232607624 0 0.00010710592322075206 0.044147166951344061 0 0.00029882029801693788 0.043982797365343725 0 0.00024275856449867646 0.043815982232607624 0 0.00045082640544525092 0.043511787048667303 0 0.00015830224758223957 0.043898918377669134 0 0.00024275856449867646 0.043815982232607624 0 0.00010710592322075206 0.044147166951344061 0 0.0005963182709179829 0.043072927879842259 0 0.00067859063193924992 0.043232281662029283 0 0.00045082640544525092 0.043511787048667303 0 0.00034495325597098909 0.043421420956170194 0 0.00024275856449867646 0.043815982232607624 0 0.00045082640544525092 0.043511787048667303 0 0.00029882029801693788 0.043982797365343725 0 0.00045082640544525092 0.043511787048667303 0 0.00061269124962693355 0.04356459541673368 0 0.00067859063193924992 0.043232281662029283 0 0.00045082640544525092 0.043511787048667303 0 0.00061269124962693355 0.04356459541673368 0 0.00090010902176452146 0.043236934292981942 0 0.00094605262700862608 0.043716556967003009 0 0.0013094262769701769 0.04342235090738248 0 0.00090010902176452146 0.043236934292981942 0 0.0005619542008151754 0.04386780853502318 0 0.00094605262700862608 0.043716556967003009 0 0.00034742919671111594 0.043824740822002314 0 0.0007556808326930341 0.043398947429659045 0 0.00038974539070397139 0.043669476929290386 0 0.00090010902176452146 0.043236934292981942 0 0.0005619542008151754 0.04386780853502318 0 0.0005619542008151754 0.04386780853502318 0 0.00058394817145628855 0.044143443284358534 0 0.00040840973685417391 0.044167095205963604 0 0.0005619542008151754 0.04386780853502318 0 0.00077801133846464715 0.043977396994809202 0 0.00058394817145628855 0.044143443284358534 0 0.0005619542008151754 0.04386780853502318 0 0.00094605262700862608 0.043716556967003009 0 0.00077801133846464715 0.043977396994809202 0 0.00094605262700862608 0.043716556967003009 0 0.00077801133846464715 0.043977396994809202 0 0.00097309630045051582 0.04398531320610341 0 0.00094605262700862608 0.043716556967003009 0 0.00097309630045051582 0.04398531320610341 0 0.0012202614071876831 0.043814509428608574 0 0.00080601644518229598 0.044165626443483298 0 0.00060656310520226602 0.044411684089373862 0 0.0010907036482382694 0.04427566725937733 0 0.00077801133846464715 0.043977396994809202 0 0.00097309630045051582 0.04398531320610341 0 0.00080601644518229598 0.044165626443483298 0 0.00097309630045051582 0.04398531320610341 0 0.00080601644518229598 0.044165626443483298 0 0.0010907036482382694 0.04427566725937733 0 0.0011958399399362146 0.043961123787025602 0 0.0010316599848738017 0.043981339473660008 0 0.0012516720169036902 0.043834984350219812 0 0.0008547685982838181 0.043918808171651759 0 0.0010316599848738017 0.043981339473660008 0 0.0012516720169036902 0.043834984350219812 0 0.00053337497682728473 0.044498361972754523 0 0.0011534460005023096 0.044156015669431857 0 0.00065715096541254863 0.044279419182919881 0 0.0011534460005023096 0.044156015669431857 0 0.00050116188162107678 0.044621826204789494 0 0.00054581218697580215 0.044536222248960033 0 0.00085267382200550487 0.044490542100969546 0 0.0008547685982838181 0.043918808171651759 0 0.0010316599848738017 0.043981339473660008 0 0.0008907692424533853 0.044029372428535073 0 0.00060656310520226602 0.044411684089373862 0 0.00058394817145628855 0.044143443284358534 0 0.0004211472215687014 0.04431806709801546 0 0.00080601644518229598 0.044165626443483298 0 0.00060656310520226602 0.044411684089373862 0 0.00058394817145628855 0.044143443284358534 0 0.00077801133846464715 0.043977396994809202 0 0.00080601644518229598 0.044165626443483298 0 0.00058394817145628855 0.044143443284358534 0 0.00058394817145628855 0.044143443284358534 0 0.00040840973685417391 0.044167095205963604 0 0.0004211472215687014 0.04431806709801546 0 0.00019462359696505277 0.044194106147335759 0 0.00040840973685417391 0.044167095205963604 0 0.00028861095472528756 0.04430956657654448 0 0.00028861095472528756 0.04430956657654448 0 0.0004211472215687014 0.04431806709801546 0 0.00024786002697782701 0.044500674263208341 0 0.00040840973685417391 0.044167095205963604 0 0.00028861095472528756 0.04430956657654448 0 0.0004211472215687014 0.04431806709801546 0 5.7403468459204261e-05 0.04441344618303486 0 0.00019462359696505277 0.044194106147335759 0 0.0001708018997405534 0.044409592875372154 0 0.00019462359696505277 0.044194106147335759 0 0.00028861095472528756 0.04430956657654448 0 0.0001708018997405534 0.044409592875372154 0 0.00028861095472528756 0.04430956657654448 0 0.0001708018997405534 0.044409592875372154 0 0.00024786002697782701 0.044500674263208341 0 4.0777820050517942e-05 0.044529894890173359 0 0.0001708018997405534 0.044409592875372154 0 0.00024786002697782701 0.044500674263208341 0 0.00016961330355525129 0.044654728047364617 0 0.00030032319399912841 0.044591699083864109 0 0.00023720489284408599 0.044701317002663395 0 0.00011150454080221723 0.044580191229717889 0 0.00028664816186182247 0.044542979784067009 0 0.00050116188162107678 0.044621826204789494 0 0.00054581218697580215 0.044536222248960033 0 0.00030032319399912841 0.044591699083864109 0 0.00050116188162107678 0.044621826204789494 0 0.00030032319399912841 0.044591699083864109 0 0.00023720489284408599 0.044701317002663395 0 0.00060656310520226602 0.044411684089373862 0 0.0004211472215687014 0.04431806709801546 0 0.00024786002697782701 0.044500674263208341 0 0.00053337497682728473 0.044498361972754523 0 0.00028664816186182247 0.044542979784067009 0 0.0008547685982838181 0.043918808171651759 0 0.00075241013169864246 0.044101964989978128 0 0.00042506917614241747 0.044217270633344186 0 0.00075241013169864246 0.044101964989978128 0 0.00059846694581424406 0.044261891718666249 0 0.00042506917614241747 0.044217270633344186 0 0.00065715096541254863 0.044279419182919881 0 0.00035167574840141411 0.044461109520820288 0 0.00075241013169864246 0.044101964989978128 0 0.00059846694581424406 0.044261891718666249 0 0.00069809241359440686 0.044319538215229548 0 0.00059846694581424406 0.044261891718666249 0 0.00042506917614241747 0.044217270633344186 0 0.00051250530856176925 0.044402708225397595 0 0.00042506917614241747 0.044217270633344186 0 0.00033123497937508512 0.044540144560143609 0 0.00051250530856176925 0.044402708225397595 0 0.00033123497937508512 0.044540144560143609 0 0.00051250530856176925 0.044402708225397595 0 0.00044952619090450228 0.044603060769539023 0 0.00051250530856176925 0.044402708225397595 0 0.00060448929057907105 0.044483375555590503 0 0.00044952619090450228 0.044603060769539023 0 0.00051250530856176925 0.044402708225397595 0 0.00069809241359440686 0.044319538215229548 0 0.00060448929057907105 0.044483375555590503 0 0.00059846694581424406 0.044261891718666249 0 0.00051250530856176925 0.044402708225397595 0 0.00069809241359440686 0.044319538215229548 0 0.00069809241359440686 0.044319538215229548 0 0.00060448929057907105 0.044483375555590503 0 0.00073748719933158205 0.044439477889082923 0 0.00073748719933158205 0.044439477889082923 0 0.00084731779012577708 0.044336711999272742 0 0.00090288509915740492 0.04440546182220087 0 0.00069809241359440686 0.044319538215229548 0 0.00073748719933158205 0.044439477889082923 0 0.00084731779012577708 0.044336711999272742 0 0.00069809241359440686 0.044319538215229548 0 0.00084731779012577708 0.044336711999272742 0 0.00083909195232871614 0.044235980321882105 0 0.00084731779012577708 0.044336711999272742 0 0.00083909195232871614 0.044235980321882105 0 0.0010025469999698571 0.044244546620086193 0 0.00084731779012577708 0.044336711999272742 0 0.0010025469999698571 0.044244546620086193 0 0.00090288509915740492 0.04440546182220087 0 0.0010025469999698571 0.044244546620086193 0 0.0010433166059858646 0.044397829385305218 0 0.00090288509915740492 0.04440546182220087 0 0.0012152370309580671 0.044277511258752643 0 0.0010025469999698571 0.044244546620086193 0 0.0010433166059858646 0.044397829385305218 0 0.0012152370309580671 0.044277511258752643 0 0.0010025469999698571 0.044244546620086193 0 0.0012287924525427238 0.044104602257945574 0 0.0010025469999698571 0.044244546620086193 0 0.001077814198444777 0.044077278177610965 0 0.00091787347354789321 0.04411532163031226 0 0.0010025469999698571 0.044244546620086193 0 0.001077814198444777 0.044077278177610965 0 0.0012287924525427238 0.044104602257945574 0 0.001077814198444777 0.044077278177610965 0 0.0011958399399362146 0.043961123787025602 0 0.0012287924525427238 0.044104602257945574 0 0.001077814198444777 0.044077278177610965 0 0.0011958399399362146 0.043961123787025602 0 0.0010316599848738017 0.043981339473660008 0 0.001077814198444777 0.044077278177610965 0 0.0010316599848738017 0.043981339473660008 0 0.00091787347354789321 0.04411532163031226 0 0.0010316599848738017 0.043981339473660008 0 0.0008907692424533853 0.044029372428535073 0 0.00091787347354789321 0.04411532163031226 0 0.00075241013169864246 0.044101964989978128 0 0.0008907692424533853 0.044029372428535073 0 0.00091787347354789321 0.04411532163031226 0 0.0008547685982838181 0.043918808171651759 0 0.00075241013169864246 0.044101964989978128 0 0.0008907692424533853 0.044029372428535073 0 0.00075241013169864246 0.044101964989978128 0 0.00069809241359440686 0.044319538215229548 0 0.00083909195232871614 0.044235980321882105 0 0.00075241013169864246 0.044101964989978128 0 0.00083909195232871614 0.044235980321882105 0 0.00091787347354789321 0.04411532163031226 0 0.00083909195232871614 0.044235980321882105 0 0.0010025469999698571 0.044244546620086193 0 0.00091787347354789321 0.04411532163031226 0 0.0016439287190434496 0.043822461269272958 0 0.0014427744261597711 0.043955094789037807 0 0.0014888318482424695 0.043649987743036613 0 0.0016551059818840359 0.04399498479197566 0 0.0014427744261597711 0.043955094789037807 0 0.0014619011939906777 0.044167386536974669 0 0.0016551059818840359 0.04399498479197566 0 0.0016439287190434496 0.043822461269272958 0 0.0014427744261597711 0.043955094789037807 0 0.0016439287190434496 0.043822461269272958 0 0.0018763594300554326 0.043828879042730078 0 0.0017394314305614652 0.043667305461502964 0 0.0016551059818840359 0.04399498479197566 0 0.0016439287190434496 0.043822461269272958 0 0.0018763594300554326 0.043828879042730078 0 0.0011958399399362146 0.043961123787025602 0 0.0014427744261597711 0.043955094789037807 0 0.0014888318482424695 0.043649987743036613 0 0.0011958399399362146 0.043961123787025602 0 0.0014427744261597711 0.043955094789037807 0 0.0012287924525427238 0.044104602257945574 0 0.0014427744261597711 0.043955094789037807 0 0.0012287924525427238 0.044104602257945574 0 0.0014619011939906777 0.044167386536974669 0 0.0012152370309580671 0.044277511258752643 0 0.0012287924525427238 0.044104602257945574 0 0.0014619011939906777 0.044167386536974669 0 0.0012152370309580671 0.044277511258752643 0 0.0014619011939906777 0.044167386536974669 0 0.0013718085699292043 0.044388836035039382 0 0.0016551059818840359 0.04399498479197566 0 0.0014619011939906777 0.044167386536974669 0 0.0019135957434689517 0.044217727581030854 0 0.0014619011939906777 0.044167386536974669 0 0.0019135957434689517 0.044217727581030854 0 0.0013718085699292043 0.044388836035039382 0 0.0022440171267227361 0.043888062697224235 0 0.0018763594300554326 0.043828879042730078 0 0.0019135957434689517 0.044217727581030854 0 0.0016551059818840359 0.04399498479197566 0 0.0018763594300554326 0.043828879042730078 0 0.0019135957434689517 0.044217727581030854 0 0.0038902643489828032 0.025616837392952507 0 0.0039462672322690216 0.025391217114429203 0 0.0039429266591322655 0.025463287510190002 0 0.0030796251694049986 0.034092567022094906 0 0.0029019920798229733 0.034949383707435687 0 0.0030796251694049986 0.034092567022094906 0 0.0025755120443183895 0.044347626925739882 0 0.0022440171267227361 0.043888062697224235 0 0.0018763594300554326 0.043828879042730078 0 0.002155890132803949 0.043611908599925552 0 0.0018763594300554326 0.043828879042730078 0 0.0019376472394206294 0.043595925178117736 0 0.0017394314305614652 0.043667305461502964 0 0.0018763594300554326 0.043828879042730078 0 0.0019376472394206294 0.043595925178117736 0 0.002155890132803949 0.043611908599925552 0 0.0019376472394206294 0.043595925178117736 0 0.0017928904012244624 0.043443681746516596 0 0.0017394314305614652 0.043667305461502964 0 0.0019376472394206294 0.043595925178117736 0 0.002155890132803949 0.043611908599925552 0 0.0020747349084563704 0.043275301494101498 0 0.0026126563914020151 0.041848943255040766 0 0.0026738004706651575 0.042296698268105913 0 0.0024088463561249066 0.042185427431005139 0 0.0025755120443183895 0.044347626925739882 0 0.0022268060581724959 0.042725536559356472 0 0.0026738004706651575 0.042296698268105913 0 0.0022713474394443428 0.042457287825460585 0 0.0024088463561249066 0.042185427431005139 0 0.0022268060581724959 0.042725536559356472 0 0.0017659341816027884 0.043785501248889677 0 0.0019376472394206294 0.043595925178117736 0 0.0020747349084563704 0.043275301494101498 0 0.0017928904012244624 0.043443681746516596 0 0.0024346217720624883 0.043759013638828746 0 0.0018039523060456959 0.04402297199356095 0 0.0020512412125352746 0.043686656477388071 0 0.0018039523060456959 0.04402297199356095 0 0.0017957739728127831 0.043792199961152897 0 0.0020512412125352746 0.043686656477388071 0 0.001611254905490894 0.043785434126594053 0 0.0015870890735781406 0.043946156423948571 0 0.001677136025205563 0.043922089028543297 0 0.0017957739728127831 0.043792199961152897 0 0.001611254905490894 0.043785434126594053 0 0.001677136025205563 0.043922089028543297 0 0.001611254905490894 0.043785434126594053 0 0.0014052044590237896 0.043888544990234514 0 0.0015041956791606002 0.043620753527479517 0 0.001611254905490894 0.043785434126594053 0 0.0015870890735781406 0.043946156423948571 0 0.0014052044590237896 0.043888544990234514 0 0.0018039523060456959 0.04402297199356095 0 0.0017957739728127831 0.043792199961152897 0 0.001677136025205563 0.043922089028543297 0 0.0018039523060456959 0.04402297199356095 0 0.0015846842435545891 0.043956955942359467 0 0.001677136025205563 0.043922089028543297 0 0.0015870890735781406 0.043946156423948571 0 0.0015846842435545891 0.043956955942359467 0 0.001677136025205563 0.043922089028543297 0 0.0018039523060456959 0.04402297199356095 0 0.0015846842435545891 0.043956955942359467 0 0.0014607928237928545 0.043986196818954451 0 0.0017928904012244624 0.043443681746516596 0 0.0014888318482424695 0.043649987743036613 0 0.0017394314305614652 0.043667305461502964 0 0.0017659341816027884 0.043785501248889677 0 0.0014998963996642174 0.043812599818570719 0 0.0016439287190434496 0.043822461269272958 0 0.0014888318482424695 0.043649987743036613 0 0.0017394314305614652 0.043667305461502964 0 0.0011958399399362146 0.043961123787025602 0 0.0014607928237928545 0.043986196818954451 0 0.0012516720169036902 0.043834984350219812 0 0.0012326488082104506 0.043944375002503276 0 0.0014998963996642174 0.043812599818570719 0 0.0015846842435545891 0.043956955942359467 0 0.0014607928237928545 0.043986196818954451 0 0.0012516720169036902 0.043834984350219812 0 0.0010907036482382694 0.04427566725937733 0 0.0014052044590237896 0.043888544990234514 0 0.0012202614071876831 0.043814509428608574 0 0.0016165232975004517 0.043953580501401725 0 0.0011534460005023096 0.044156015669431857 0 0.0015870890735781406 0.043946156423948571 0 0.0010907036482382694 0.04427566725937733 0 0.0014052044590237896 0.043888544990234514 0 0.0015870890735781406 0.043946156423948571 0 0.0015846842435545891 0.043956955942359467 0 0.001506933379452824 0.043969217641853305 0 0.0016477714649221851 0.043899794551017869 0 0.0011534460005023096 0.044156015669431857 0 0.00097309630045051582 0.04398531320610341 0 0.0010907036482382694 0.04427566725937733 0 0.0012202614071876831 0.043814509428608574 0 0.00094605262700862608 0.043716556967003009 0 0.0012202614071876831 0.043814509428608574 0 0.0013094262769701769 0.04342235090738248 0 0.0012202614071876831 0.043814509428608574 0 0.0015041956791606002 0.043620753527479517 0 0.0013094262769701769 0.04342235090738248 0 0.0014052044590237896 0.043888544990234514 0 0.0012202614071876831 0.043814509428608574 0 0.0015041956791606002 0.043620753527479517 0 0.001611254905490894 0.043785434126594053 0 0.0015041956791606002 0.043620753527479517 0 0.0018320144541575057 0.043473206106186456 0 0.0017957739728127831 0.043792199961152897 0 0.001611254905490894 0.043785434126594053 0 0.0018320144541575057 0.043473206106186456 0 0.0015041956791606002 0.043620753527479517 0 0.0016263125287446496 0.04327573772765568 0 0.0013094262769701769 0.04342235090738248 0 0.0016263125287446496 0.04327573772765568 0 0.0018406326895793012 0.043086328546240525 0 0.0018320144541575057 0.043473206106186456 0 0.0015041956791606002 0.043620753527479517 0 0.0016263125287446496 0.04327573772765568 0 0.0018320144541575057 0.043473206106186456 0 0.0016263125287446496 0.04327573772765568 0 0.0013094262769701769 0.04342235090738248 0 0.0016069129143119704 0.042824531691900938 0 0.0016263125287446496 0.04327573772765568 0 0.0016069129143119704 0.042824531691900938 0 0.0018406326895793012 0.043086328546240525 0 0.00090010902176452146 0.043236934292981942 0 0.0013094262769701769 0.04342235090738248 0 0.0016069129143119704 0.042824531691900938 0 0.00081583554212836141 0.042857622331093276 0 0.00067859063193924992 0.043232281662029283 0 0.0008777485450388395 0.043099154447024404 0 0.00067859063193924992 0.043232281662029283 0 0.00061269124962693355 0.04356459541673368 0 0.0008777485450388395 0.043099154447024404 0 0.0007556808326930341 0.043398947429659045 0 0.0012360922675525279 0.042973676544997272 0 0.00081583554212836141 0.042857622331093276 0 0.0008777485450388395 0.043099154447024404 0 0.0010092175236181982 0.04271505782891924 0 0.001061240815741599 0.042450057547453589 0 0.00081583554212836141 0.042857622331093276 0 0.0010092175236181982 0.04271505782891924 0 0.0010092175236181982 0.04271505782891924 0 0.0012101061840029865 0.042712714493473913 0 0.0014449180187119048 0.041818337773224218 0 0.001061240815741599 0.042450057547453589 0 0.0010092175236181982 0.04271505782891924 0 0.0014449180187119048 0.041818337773224218 0 0.0012360922675525279 0.042973676544997272 0 0.0017096685486994486 0.042640681007970145 0 0.0008777485450388395 0.043099154447024404 0 0.0010092175236181982 0.04271505782891924 0 0.0012101061840029865 0.042712714493473913 0 0.0022241465656429281 0.04258748135082864 0 0.0021912702704019226 0.042539390430673868 0 0.0021962504251438861 0.042819883557869393 0 0.0021912702704019226 0.042539390430673868 0 0.0021962504251438861 0.042819883557869393 0 0.0022194121329534191 0.042573784205228359 0 0.0016069129143119704 0.042824531691900938 0 0.0022241465656429281 0.04258748135082864 0 0.0021962504251438861 0.042819883557869393 0 0.0016069129143119704 0.042824531691900938 0 0.0021962504251438861 0.042819883557869393 0 0.0018406326895793012 0.043086328546240525 0 0.0021962504251438861 0.042819883557869393 0 0.0018406326895793012 0.043086328546240525 0 0.0018320144541575057 0.043473206106186456 0 0.0021962504251438861 0.042819883557869393 0 0.0020512412125352746 0.043686656477388071 0 0.0018320144541575057 0.043473206106186456 0 0.0024346217720624883 0.043759013638828746 0 0.0021962504251438861 0.042819883557869393 0 0.0020512412125352746 0.043686656477388071 0 0.0017957739728127831 0.043792199961152897 0 0.0020512412125352746 0.043686656477388071 0 0.0018320144541575057 0.043473206106186456 0 0.0022268060581724959 0.042725536559356472 0 0.0022617442628807857 0.042977368650461215 0 0.0021912702704019226 0.042539390430673868 0 0.0022194121329534191 0.042573784205228359 0 0.0022713474394443428 0.042457287825460585 0 0.0022830459908037958 0.042438604741274547 0 0.0021962504251438861 0.042819883557869393 0 0.0022194121329534191 0.042573784205228359 0 0.0022268060581724959 0.042725536559356472 0 0.0024184625933130455 0.042381942854918177 0 0.0022830459908037958 0.042438604741274547 0 0.0022194121329534191 0.042573784205228359 0 0.0022713474394443428 0.042457287825460585 0 0.0022713474394443428 0.042457287825460585 0 0.0022012526990409179 0.042333628346689474 0 0.0021554493937253191 0.042434653779419351 0 0.0022713474394443428 0.042457287825460585 0 0.0022012526990409179 0.042333628346689474 0 0.0024088463561249066 0.042185427431005139 0 0.0022012526990409179 0.042333628346689474 0 0.0021722439363580596 0.042341487172196497 0 0.0021554493937253191 0.042434653779419351 0 0.0021722439363580596 0.042341487172196497 0 0.002166805780517791 0.042274696648762204 0 0.0021554821102817618 0.042229212477494962 0 0.0022012526990409179 0.042333628346689474 0 0.0021722439363580596 0.042341487172196497 0 0.0021554821102817618 0.042229212477494962 0 0.0021944241726671444 0.042363256042454459 0 0.0021554493937253191 0.042434653779419351 0 0.0019882977769327555 0.042329678221283737 0 0.0021722439363580596 0.042341487172196497 0 0.0021944241726671444 0.042363256042454459 0 0.0021966419817192398 0.042306418015588182 0 0.0021722439363580596 0.042341487172196497 0 0.0021944241726671444 0.042363256042454459 0 0.0021554493937253191 0.042434653779419351 0 0.0021912702704019226 0.042539390430673868 0 0.0022713474394443428 0.042457287825460585 0 0.0021554493937253191 0.042434653779419351 0 0.0021912702704019226 0.042539390430673868 0 0.0021554493937253191 0.042434653779419351 0 0.0019882977769327555 0.042329678221283737 0 0.0012101061840029865 0.042712714493473913 0 0.0019882977769327555 0.042329678221283737 0 0.0014449180187119048 0.041818337773224218 0 0.0017096685486994486 0.042640681007970145 0 0.0019808004061254068 0.04237816529286182 0 0.0022241465656429281 0.04258748135082864 0 0.0021912702704019226 0.042539390430673868 0 0.0019882977769327555 0.042329678221283737 0 0.0021944241726671444 0.042363256042454459 0 0.0019882977769327555 0.042329678221283737 0 0.0024675953297931263 0.042028741426634132 0 0.0022204949353288 0.041060697189870307 0 0.0019882977769327555 0.042329678221283737 0 0.0024675953297931263 0.042028741426634132 0 0.0022204949353288 0.041060697189870307 0 0.0019882977769327555 0.042329678221283737 0 0.0014449180187119048 0.041818337773224218 0 0.0021593008343788302 0.040370469595348346 0 0.0020627892653591567 0.039747176847484134 0 0.0024165959507800425 0.039880032034735252 0 0.0021593008343788302 0.040370469595348346 0 0.002029989958130609 0.039891956775584374 0 0.0020627892653591567 0.039747176847484134 0 0.0021593008343788302 0.040370469595348346 0 0.0022204949353288 0.041060697189870307 0 0.0024165959507800425 0.039880032034735252 0 0.0022729247078941395 0.041025525148777067 0 0.0023520386685639385 0.040811104177908779 0 0.0021944241726671444 0.042363256042454459 0 0.0024675953297931263 0.042028741426634132 0 0.002300702661357706 0.042288415388088231 0 0.0023520386685639385 0.040811104177908779 0 0.0022668663025733849 0.04138738437240206 0 0.0020214022313015719 0.039336747046326628 0 0.0020627892653591567 0.039747176847484134 0 0.0024165959507800425 0.039880032034735252 0 0.0020214022313015719 0.039336747046326628 0 0.0024165959507800425 0.039880032034735252 0 0.0023227665463160596 0.039227647504663898 0 0.0022668663025733849 0.04138738437240206 0 0.0053324051075915833 0.03585527526501802 0 0.0023227665463160596 0.039227647504663898 0 0.0021079378360094386 0.039109393704138198 0 0.0021766188179065276 0.03882729058265913 0 0.0020214022313015719 0.039336747046326628 0 0.0023227665463160596 0.039227647504663898 0 0.0021079378360094386 0.039109393704138198 0 0.0021944241726671444 0.042363256042454459 0 0.002300702661357706 0.042288415388088231 0 0.0021966419817192398 0.042306418015588182 0 0.002300702661357706 0.042288415388088231 0 0.0021966419817192398 0.042306418015588182 0 0.0022037433916109049 0.042260333284820435 0 0.0021966419817192398 0.042306418015588182 0 0.0021685823270228446 0.042239277760391082 0 0.002166805780517791 0.042274696648762204 0 0.0021722439363580596 0.042341487172196497 0 0.0021966419817192398 0.042306418015588182 0 0.002166805780517791 0.042274696648762204 0 0.0021966419817192398 0.042306418015588182 0 0.0021685823270228446 0.042239277760391082 0 0.0022037433916109049 0.042260333284820435 0 0.0021685823270228446 0.042239277760391082 0 0.0022037433916109049 0.042260333284820435 0 0.0021754507314541414 0.042213688309863849 0 0.0021685823270228446 0.042239277760391082 0 0.0021687036766057906 0.042207750699520943 0 0.002144266329622716 0.042204337818688605 0 0.002166805780517791 0.042274696648762204 0 0.002144266329622716 0.042204337818688605 0 0.0021554821102817618 0.042229212477494962 0 0.0021685823270228446 0.042239277760391082 0 0.002166805780517791 0.042274696648762204 0 0.002144266329622716 0.042204337818688605 0 0.002300702661357706 0.042288415388088231 0 0.0022037433916109049 0.042260333284820435 0 0.0021684799451417514 0.042221859829794955 0 0.0021685823270228446 0.042239277760391082 0 0.0021754507314541414 0.042213688309863849 0 0.0021687036766057906 0.042207750699520943 0 0.0022037433916109049 0.042260333284820435 0 0.0021754507314541414 0.042213688309863849 0 0.0021684799451417514 0.042221859829794955 0 0.0021754507314541414 0.042213688309863849 0 0.0021750188264312341 0.042200765572646244 0 0.0021684799451417514 0.042221859829794955 0 0.003929360994644495 0.033551889480099968 0 0.0053324051075915833 0.03585527526501802 0 0.0043272916289846305 0.034681771386391086 0 0.003929360994644495 0.033551889480099968 0 0.0050759021310197144 0.025001837353872635 0 0.003929360994644495 0.033551889480099968 0 0.0078262960032252603 0.0286285553214141 0 0.010201827674902596 0.030242892477845007 0 0.0090438983478796295 0.031273595337584698 0 0.0077102128829412758 0.028082782280091631 0 0.0053324051075915833 0.03585527526501802 0 0.0075766091664959149 0.026508781261032562 0 0.0078262960032252603 0.0286285553214141 0 0.010201827674902596 0.030242892477845007 0 0.0020624954486291214 0.025206536516904771 0 0.00326149512525726 0.026850184292517638 0 0.0032481121932341032 0.02637537579708988 0 0.0020624954486291214 0.025206536516904771 0 0.0032481121932341032 0.02637537579708988 0 0.0029005507165369812 0.024886172953967754 0 0.0020624954486291214 0.025206536516904771 0 0.0029005507165369812 0.024886172953967754 0 0.0025104708899107496 0.023725995574199646 0 0.0032481121932341032 0.02637537579708988 0 0.0029005507165369812 0.024886172953967754 0 0.0037987712256283739 0.024261373390014902 0 0.0032481121932341032 0.02637537579708988 0 0.003485121635133934 0.026342307055323137 0 0.0033082001328619474 0.026131741444977551 0 0.0032736597768549982 0.026304806799699858 0 0.0035280859203046669 0.025213177421074554 0 0.003485121635133934 0.026342307055323137 0 0.0034786454824757172 0.026031770787877981 0 0.0033082001328619474 0.026131741444977551 0 0.003929360994644495 0.033551889480099968 0 0.0025364406499789973 0.03444535080045176 0 0.00326149512525726 0.026850184292517638 0 0.0032481121932341032 0.02637537579708988 0 0.003485121635133934 0.026342307055323137 0 0.0021687036766057906 0.042207750699520943 0 0.0020896335959649068 0.042075196564646151 0 0.002144266329622716 0.042204337818688605 0 0.0020896335959649068 0.042075196564646151 0 0.002144266329622716 0.042204337818688605 0 0.0021554821102817618 0.042229212477494962 0 0.0022012526990409179 0.042333628346689474 0 0.0021554821102817618 0.042229212477494962 0 0.0021990020948497429 0.042126768574002972 0 0.0020896335959649068 0.042075196564646151 0 0.0021554821102817618 0.042229212477494962 0 0.0021990020948497429 0.042126768574002972 0 0.0021990020948497429 0.042126768574002972 0 0.0024088463561249066 0.042185427431005139 0 0.0022110712311281598 0.041733478928484093 0 0.0022012526990409179 0.042333628346689474 0 0.0021990020948497429 0.042126768574002972 0 0.0024088463561249066 0.042185427431005139 0 0.0026126563914020151 0.041848943255040766 0 0.0024088463561249066 0.042185427431005139 0 0.0022110712311281598 0.041733478928484093 0 0.0025364406499789973 0.03444535080045176 0 0.0030959120203303404 0.033866789786100839 0 0.003485121635133934 0.026342307055323137 0 0.0037081854283967227 0.026270153991749819 0 0.0034786454824757172 0.026031770787877981 0 0.0020896335959649068 0.042075196564646151 0 0.0021990020948497429 0.042126768574002972 0 0.0022110712311281598 0.041733478928484093 0 0.0037081854283967227 0.026270153991749819 0 0.0034786454824757172 0.026031770787877981 0 0.0037831300632886044 0.025694904352918338 0 0.0030796251694049986 0.034092567022094906 0 0.0030959120203303404 0.033866789786100839 0 0.002546955441494417 0.041325857385873965 0 0.0026126563914020151 0.041848943255040766 0 0.0022110712311281598 0.041733478928484093 0 0.004137124247629507 0.025979265473104102 0 0.0037081854283967227 0.026270153991749819 0 0.0037831300632886044 0.025694904352918338 0 0.0030796251694049986 0.034092567022094906 0 0.0039141739098679657 0.021813851622511215 0 0.004137124247629507 0.025979265473104102 0 0.0037831300632886044 0.025694904352918338 0 0.0039671648655623462 0.025280099503357256 0 0.0034786454824757172 0.026031770787877981 0 0.0037831300632886044 0.025694904352918338 0 0.0031731564340556581 0.025751151796720675 0 0.0039860418092122667 0.022432169751329851 0 0.0031282320235156303 0.022840874215330445 0 0.0031855053823445279 0.021465920121708598 0 0.0039860418092122667 0.022432169751329851 0 0.0031282320235156303 0.022840874215330445 0 0.0037987712256283739 0.024261373390014902 0 0.0022441911549253477 0.022303225620776815 0 0.0031282320235156303 0.022840874215330445 0 0.0025104708899107496 0.023725995574199646 0 0.0031282320235156303 0.022840874215330445 0 0.0025104708899107496 0.023725995574199646 0 0.0037987712256283739 0.024261373390014902 0 0.0029005507165369812 0.024886172953967754 0 0.0025104708899107496 0.023725995574199646 0 0.0037987712256283739 0.024261373390014902 0 0.0034786454824757172 0.026031770787877981 0 0.0031731564340556581 0.025751151796720675 0 0.0033082001328619474 0.026131741444977551 0 0.0035589297030617518 0.024071640070442737 0 0.0035280859203046669 0.025213177421074554 0 0.0040032044679606466 0.020947103027146512 0 0.003358568314945532 0.020741624294310358 0 0.0031855053823445279 0.021465920121708598 0 0.0040032044679606466 0.020947103027146512 0 0.003358568314945532 0.020741624294310358 0 0.0035438067829773245 0.020253253750666896 0 0.003358568314945532 0.020741624294310358 0 0.0027271576077536937 0.020599135644810942 0 0.0031855053823445279 0.021465920121708598 0 0.0021105072647926095 0.02105146638839972 0 0.0027271576077536937 0.020599135644810942 0 0.0031855053823445279 0.021465920121708598 0 0.0022441911549253477 0.022303225620776815 0 0.0021105072647926095 0.02105146638839972 0 0.0031855053823445279 0.021465920121708598 0 0.0022441911549253477 0.022303225620776815 0 0.0031282320235156303 0.022840874215330445 0 0.0031855053823445279 0.021465920121708598 0 0.0035589297030617518 0.024071640070442737 0 0.0035302682029486844 0.022434863956072599 0 0.0039860418092122667 0.022432169751329851 0 0.0040032044679606466 0.020947103027146512 0 0.0031855053823445279 0.021465920121708598 0 0.0037831300632886044 0.025694904352918338 0 0.0031731564340556581 0.025751151796720675 0 0.003850650647066781 0.024985305392059357 0 0.0031731564340556581 0.025751151796720675 0 0.0029466880304491387 0.024005276596158254 0 0.003850650647066781 0.024985305392059357 0 0.0037831300632886044 0.025694904352918338 0 0.003850650647066781 0.024985305392059357 0 0.0039671648655623462 0.025280099503357256 0 0.0039671648655623462 0.025280099503357256 0 0.0039911400556917626 0.02535135783884258 0 0.0039415182493310798 0.025413020055321919 0 0.003850650647066781 0.024985305392059357 0 0.0039671648655623462 0.025280099503357256 0 0.0039911400556917626 0.02535135783884258 0 0.0029466880304491387 0.024005276596158254 0 0.003850650647066781 0.024985305392059357 0 0.0053068995963570309 0.021860929946705333 0 0.0039349874729314848 0.024905678713067366 0 0.0045758636307398183 0.023634101549468916 0 0.0029466880304491387 0.024005276596158254 0 0.0053068995963570309 0.021860929946705333 0 0.0040077084210756609 0.020158232729629397 0 0.0035302682029486844 0.022434863956072599 0 0.0039636552849926033 0.020318254838187409 0 0.0039911400556917626 0.02535135783884258 0 0.0039927257198843075 0.025536930603372851 0 0.0039489080966138672 0.025471868751709897 0 0.0053068995963570309 0.021860929946705333 0 0.0055841191078389186 0.019629613489435475 0 0.0040077084210756609 0.020158232729629397 0 0.0045758636307398183 0.023634101549468916 0 0.0047620806265202646 0.022695204395811609 0 0.0039911400556917626 0.02535135783884258 0 0.0039489080966138672 0.025471868751709897 0 0.0039415182493310798 0.025413020055321919 0 0.0055841191078389186 0.019629613489435475 0 0.0040077084210756609 0.020158232729629397 0 0.0043091702695926123 0.019087185609517731 0 0.0040077084210756609 0.020158232729629397 0 0.0033249945898994483 0.019236350354137621 0 0.0043091702695926123 0.019087185609517731 0 0.0033249945898994483 0.019236350354137621 0 0.0035438067829773245 0.020253253750666896 0 0.0028988540139590741 0.019980503101835221 0 0.0040077084210756609 0.020158232729629397 0 0.0033249945898994483 0.019236350354137621 0 0.0035438067829773245 0.020253253750666896 0 0.0040032044679606466 0.020947103027146512 0 0.0040077084210756609 0.020158232729629397 0 0.0035438067829773245 0.020253253750666896 0 0.003358568314945532 0.020741624294310358 0 0.0035438067829773245 0.020253253750666896 0 0.0028988540139590741 0.019980503101835221 0 0.003358568314945532 0.020741624294310358 0 0.0027271576077536937 0.020599135644810942 0 0.0028988540139590741 0.019980503101835221 0 0.0020247992226221658 0.01993731009649902 0 0.0027271576077536937 0.020599135644810942 0 0.0028988540139590741 0.019980503101835221 0 0.0021726590416543336 0.019071781296029374 0 0.0033249945898994483 0.019236350354137621 0 0.0028988540139590741 0.019980503101835221 0 0.0023194884520034735 0.018127285734165277 0 0.0033249945898994483 0.019236350354137621 0 0.0032434766961760976 0.01818425323217646 0 0.0021726590416543336 0.019071781296029374 0 0.0023194884520034735 0.018127285734165277 0 0.0033249945898994483 0.019236350354137621 0 0.0033249945898994483 0.019236350354137621 0 0.0032434766961760976 0.01818425323217646 0 0.0039888406570348809 0.018339984714753167 0 0.0033249945898994483 0.019236350354137621 0 0.0039888406570348809 0.018339984714753167 0 0.0043091702695926123 0.019087185609517731 0 0.0032434766961760976 0.01818425323217646 0 0.0037732637270427062 0.017692225572162081 0 0.0039888406570348809 0.018339984714753167 0 0.0023194884520034735 0.018127285734165277 0 0.0032434766961760976 0.01818425323217646 0 0.0028899505452972597 0.01695644846877363 0 0.0023194884520034735 0.018127285734165277 0 0.0019287980366808446 0.01702388877219561 0 0.0028899505452972597 0.01695644846877363 0 0.0032243984585233741 0.01811974381260624 0 0.0029549738164597423 0.017097223435644859 0 0.0030141467894756347 0.017196192897354311 0 0.0037732637270427062 0.017692225572162081 0 0.004198306579136642 0.017119529193352103 0 0.0032434766961760976 0.01818425323217646 0 0.0030141467894756347 0.017196192897354311 0 0.0037732637270427062 0.017692225572162081 0 0.0030141467894756347 0.017196192897354311 0 0.0039762090201439651 0.016407905642618681 0 0.0033911023662425289 0.016030426020473037 0 0.0030141467894756347 0.017196192897354311 0 0.0039762090201439651 0.016407905642618681 0 0.004198306579136642 0.017119529193352103 0 0.0029549738164597423 0.017097223435644859 0 0.0026453937958833477 0.015979247083384877 0 0.0019287980366808446 0.01702388877219561 0 0.0028899505452972597 0.01695644846877363 0 0.0025866845054688006 0.015893104073830835 0 0.0030141467894756347 0.017196192897354311 0 0.0027051411036840387 0.016104511188680146 0 0.0033911023662425289 0.016030426020473037 0 0.0051194537963121208 0.01680547067375621 0 0.0051518667160968404 0.01716226697131042 0 0.0053847845167574954 0.017037768138600431 0 0.0051194537963121208 0.01680547067375621 0 0.0054432690993942191 0.016685569509292359 0 0.0053847845167574954 0.017037768138600431 0 0.0047849671910872495 0.016992634619777257 0 0.0051194537963121208 0.01680547067375621 0 0.0051518667160968404 0.01716226697131042 0 0.0051518667160968404 0.01716226697131042 0 0.0054344313334573988 0.017260558104894241 0 0.0053847845167574954 0.017037768138600431 0 0.0051194537963121208 0.01680547067375621 0 0.0052218421198627933 0.016578339298304247 0 0.0050806635568942183 0.016545425915397694 0 0.0051194537963121208 0.01680547067375621 0 0.0052218421198627933 0.016578339298304247 0 0.0054578684520466582 0.016525894623103402 0 0.0056838949770053318 0.017044066107375688 0 0.0042311730861680939 0.019140506949015947 0 0.0052218421198627933 0.016578339298304247 0 0.0050806635568942183 0.016545425915397694 0 0.0052820175186320591 0.016393429214468586 0 0.0052218421198627933 0.016578339298304247 0 0.0054578684520466582 0.016525894623103402 0 0.0052820175186320591 0.016393429214468586 0 0.0047849671910872495 0.016992634619777257 0 0.0051194537963121208 0.01680547067375621 0 0.0045790808537991912 0.016479757808446002 0 0.0050806635568942183 0.016545425915397694 0 0.0045790808537991912 0.016479757808446002 0 0.0051579271257612882 0.016301348312475587 0 0.0051194537963121208 0.01680547067375621 0 0.0050806635568942183 0.016545425915397694 0 0.0045790808537991912 0.016479757808446002 0 0.0045790808537991912 0.016479757808446002 0 0.0039762090201439651 0.016407905642618681 0 0.004198306579136642 0.017119529193352103 0 0.0047849671910872495 0.016992634619777257 0 0.0045790808537991912 0.016479757808446002 0 0.004198306579136642 0.017119529193352103 0 0.0047849671910872495 0.016992634619777257 0 0.004198306579136642 0.017119529193352103 0 0.0048671977651766974 0.017390093841556185 0 0.004198306579136642 0.017119529193352103 0 0.0045151275704670008 0.017748417200276884 0 0.0048671977651766974 0.017390093841556185 0 0.0037732637270427062 0.017692225572162081 0 0.004198306579136642 0.017119529193352103 0 0.0045151275704670008 0.017748417200276884 0 0.0045151275704670008 0.017748417200276884 0 0.0048671977651766974 0.017390093841556185 0 0.0051876768151391224 0.017872163908333603 0 0.0047849671910872495 0.016992634619777257 0 0.0048671977651766974 0.017390093841556185 0 0.0051518667160968404 0.01716226697131042 0 0.0048671977651766974 0.017390093841556185 0 0.0051518667160968404 0.01716226697131042 0 0.0053025618049982164 0.017477109180620926 0 0.0051518667160968404 0.01716226697131042 0 0.0053025618049982164 0.017477109180620926 0 0.0054344313334573988 0.017260558104894241 0 0.0048671977651766974 0.017390093841556185 0 0.0053025618049982164 0.017477109180620926 0 0.0051876768151391224 0.017872163908333603 0 0.0051876768151391224 0.017872163908333603 0 0.0048961539840907892 0.018442241861835074 0 0.00573670016467557 0.018549882533793846 0 0.0045151275704670008 0.017748417200276884 0 0.0051876768151391224 0.017872163908333603 0 0.0048961539840907892 0.018442241861835074 0 0.0045151275704670008 0.017748417200276884 0 0.0048961539840907892 0.018442241861835074 0 0.0039888406570348809 0.018339984714753167 0 0.0037732637270427062 0.017692225572162081 0 0.0045151275704670008 0.017748417200276884 0 0.0039888406570348809 0.018339984714753167 0 0.0048961539840907892 0.018442241861835074 0 0.0039888406570348809 0.018339984714753167 0 0.0043091702695926123 0.019087185609517731 0 0.0055841191078389186 0.019629613489435475 0 0.0048961539840907892 0.018442241861835074 0 0.00573670016467557 0.018549882533793846 0 0.0055841191078389186 0.019629613489435475 0 0.0048961539840907892 0.018442241861835074 0 0.0043091702695926123 0.019087185609517731 0 0.0039510698435174249 0.02561147839950096 0 0.0038990693557103442 0.025611202019578345 0 0.0039360415657302208 0.025557487873537163 0 0.0039927257198843075 0.025536930603372851 0 0.0039510698435174249 0.02561147839950096 0 0.0039360415657302208 0.025557487873537163 0 0.0047620806265202646 0.022695204395811609 0 0.0049583772870854421 0.021761678227508453 0 0.0039510698435174249 0.02561147839950096 0 0.0039049234349495662 0.025650579062203128 0 0.0038990693557103442 0.025611202019578345 0 0.0032535951823424092 0.032102575082353819 0 0.0013405640775031506 0.029339242485060785 0 0.0028941554587346239 0.029882769455126031 0 0.0039510698435174249 0.02561147839950096 0 0.0039049234349495662 0.025650579062203128 0 0.0039377387547549535 0.025623070752220835 0 0.0031372880814691407 0.029442274675386095 0 0.004675644212475261 0.023314139934883765 0 0.0049583772870854421 0.021761678227508453 0 0.004675644212475261 0.023314139934883765 0 0.0051876768151391224 0.017872163908333603 0 0.00573670016467557 0.018549882533793846 0 0.0056216599608402331 0.017747385592579257 0 0.00573670016467557 0.018549882533793846 0 0.0056216599608402331 0.017747385592579257 0 0.0060153252968640552 0.017661916201621837 0 0.0053025618049982164 0.017477109180620926 0 0.0051876768151391224 0.017872163908333603 0 0.0056216599608402331 0.017747385592579257 0 0.0053025618049982164 0.017477109180620926 0 0.0056216599608402331 0.017747385592579257 0 0.0055949852831447683 0.017451111050383158 0 0.0053025618049982164 0.017477109180620926 0 0.0055949852831447683 0.017451111050383158 0 0.0054344313334573988 0.017260558104894241 0 0.0055949852831447683 0.017451111050383158 0 0.0056233205351591932 0.017197231060946366 0 0.0054344313334573988 0.017260558104894241 0 0.0059140216550606674 0.0172550291536606 0 0.0058919330689043781 0.017495065411295561 0 0.0060174315050359464 0.017694588951424874 0 0.0056233205351591932 0.017197231060946366 0 0.0059140216550606674 0.0172550291536606 0 0.0058919330689043781 0.017495065411295561 0 0.0055949852831447683 0.017451111050383158 0 0.0056233205351591932 0.017197231060946366 0 0.0058919330689043781 0.017495065411295561 0 0.004050337736657892 0.020725692608266528 0 0.004675644212475261 0.023314139934883765 0 0.0056216599608402331 0.017747385592579257 0 0.0058919330689043781 0.017495065411295561 0 0.0060153252968640552 0.017661916201621837 0 0.0056216599608402331 0.017747385592579257 0 0.0055949852831447683 0.017451111050383158 0 0.0058919330689043781 0.017495065411295561 0 0.0013405640775031506 0.029339242485060785 0 0.0028941554587346239 0.029882769455126031 0 0.0020154537509653116 0.027854619858164266 0 0.0028941554587346239 0.029882769455126031 0 0.0020154537509653116 0.027854619858164266 0 0.0038272182173829604 0.029208071771859388 0 0.0033991003691700118 0.026000627132806969 0 0.0033017081864109257 0.031356994472029283 0 0.004675644212475261 0.023314139934883765 0 0.0033991003691700118 0.026000627132806969 0 0.0059140216550606674 0.0172550291536606 0 0.0060174315050359464 0.017694588951424874 0 0.0062378613174114564 0.017205444610558427 0 0.0033991003691700118 0.026000627132806969 0 0.0025113790940589713 0.030540839005631544 0 0.0029613003115988822 0.033588749870965037 0 0.00290900859022133 0.033651895373517274 0 0.002943025898430509 0.033687370433368731 0 0.0032022101561714443 0.023888312618048628 0 0.0033133295015530845 0.024536611062750121 0 0.002737444731663723 0.024905155709900349 0 0.0033991003691700118 0.026000627132806969 0 0.0042311730861680939 0.019140506949015947 0 0.0032022101561714443 0.023888312618048628 0 0.0033133295015530845 0.024536611062750121 0 0.0040417967058356419 0.024450837457691325 0 0.0059140216550606674 0.0172550291536606 0 0.0062378613174114564 0.017205444610558427 0 0.0054432690993942191 0.016685569509292359 0 0.0062378613174114564 0.017205444610558427 0 0.0054487183814984508 0.016582083263854304 0 0.0054432690993942191 0.016685569509292359 0 0.0042311730861680939 0.019140506949015947 0 0.004077133407935485 0.017532282670714425 0 0.0042311730861680939 0.019140506949015947 0 0.0043201602224047612 0.018634628983734528 0 0.0051194537963121208 0.01680547067375621 0 0.0054505323309316893 0.016592382772629574 0 0.0054432690993942191 0.016685569509292359 0 0.0056233205351591932 0.017197231060946366 0 0.0059140216550606674 0.0172550291536606 0 0.0054432690993942191 0.016685569509292359 0 0.0056233205351591932 0.017197231060946366 0 0.0054432690993942191 0.016685569509292359 0 0.0053847845167574954 0.017037768138600431 0 0.0056233205351591932 0.017197231060946366 0 0.0054344313334573988 0.017260558104894241 0 0.0053847845167574954 0.017037768138600431 0 0.0028482791585743004 0.03367455366143856 0 0.00290900859022133 0.033651895373517274 0 0.0028752012399229096 0.033725343071665255 0 0.0028482791585743004 0.03367455366143856 0 0.00290900859022133 0.033651895373517274 0 0.0029179449573524369 0.033609676287101528 0 0.0029613003115988822 0.033588749870965037 0 0.00290900859022133 0.033651895373517274 0 0.0029179449573524369 0.033609676287101528 0 0.0033017081864109257 0.031356994472029283 0 0.0035880991127983887 0.037380067091568533 0 0.0032954048085538975 0.043208855281988111 0 0.0037353135566888739 0.042229669528147815 0 0.0028128959160267143 0.042599230231567711 0 0.0028482791585743004 0.03367455366143856 0 0.0029179449573524369 0.033609676287101528 0 0.002886655436339979 0.033627348555487276 0 0.0029981163252037289 0.038593348172801252 0 0.0035880991127983887 0.037380067091568533 0 0.0037353135566888739 0.042229669528147815 0 0.0031130252296093963 0.041786155262314745 0 0.0028128959160267143 0.042599230231567711 0 0.0037421763329335751 0.042170324539066661 0 0.003491107209974806 0.041298697353615646 0 0.0031130252296093963 0.041786155262314745 0 0.0035880991127983887 0.037380067091568533 0 0.0039629920906373546 0.042436085155908951 0 0.0032535951823424092 0.032102575082353819 0 0.0028941554587346239 0.029882769455126031 0 0.0040339291148744029 0.030904683980815556 0 0.0056319983690452597 0.030561532086712161 0 0.0040339291148744029 0.030904683980815556 0 0.0043070105655520141 0.033606488516319782 0 0.0028941554587346239 0.029882769455126031 0 0.0038272182173829604 0.029208071771859388 0 0.0040339291148744029 0.030904683980815556 0 0.0038272182173829604 0.029208071771859388 0 0.0056319983690452597 0.030561532086712161 0 0.0040339291148744029 0.030904683980815556 0 0.0041962900438208038 0.041109856980214084 0 0.003491107209974806 0.041298697353615646 0 0.0039017106841990243 0.040697658188394735 0 0.0039049234349495662 0.025650579062203128 0 0.0038812424378868605 0.025662196106864672 0 0.0038990693557103442 0.025611202019578345 0 0.0035880991127983887 0.037380067091568533 0 0.0038754530252533771 0.0342834310764282 0 0.0032535951823424092 0.032102575082353819 0 0.0040339291148744029 0.030904683980815556 0 0.0043070105655520141 0.033606488516319782 0 0.0031372880814691407 0.029442274675386095 0 0.0038754530252533771 0.0342834310764282 0 0.0037421763329335751 0.042170324539066661 0 0.0041962900438208038 0.041109856980214084 0 0.003491107209974806 0.041298697353615646 0 0.0039017106841990243 0.040697658188394735 0 0.0030954097094768184 0.039863540205596494 0 0.0030664570536428578 0.040792378720746543 0 0.003491107209974806 0.041298697353615646 0 0.0039017106841990243 0.040697658188394735 0 0.0030664570536428578 0.040792378720746543 0 0.003780776430580939 0.025670969454142309 0 0.0038489252792483801 0.025602226308921779 0 0.0038556393462938375 0.025665570176220866 0 0.0028032361132918002 0.034966304627402946 0 0.003757470379813365 0.032734032111333279 0 0.0032187460776714341 0.039745508701685417 0 0.0039017106841990243 0.040697658188394735 0 0.0030954097094768184 0.039863540205596494 0 0.0028032361132918002 0.034966304627402946 0 0.001242309468358345 0.039655706167428618 0 0.0038489252792483801 0.025602226308921779 0 0.0038749813132444911 0.025603345831445232 0 0.0039050731569626809 0.025530105148235185 0 0.0038489252792483801 0.025602226308921779 0 0.0038749813132444911 0.025603345831445232 0 0.0038556393462938375 0.025665570176220866 0 0.0038749813132444911 0.025603345831445232 0 0.0038556393462938375 0.025665570176220866 0 0.0038990693557103442 0.025611202019578345 0 0.0038812424378868605 0.025662196106864672 0 0.0038556393462938375 0.025665570176220866 0 0.0038990693557103442 0.025611202019578345 0 0.0038754530252533771 0.0342834310764282 0 0.003757470379813365 0.032734032111333279 0 0.0038990693557103442 0.025611202019578345 0 0.0039360415657302208 0.025557487873537163 0 0.0039050731569626809 0.025530105148235185 0 0.0038749813132444911 0.025603345831445232 0 0.0038990693557103442 0.025611202019578345 0 0.0039050731569626809 0.025530105148235185 0 0.0039927257198843075 0.025536930603372851 0 0.0039360415657302208 0.025557487873537163 0 0.0039489080966138672 0.025471868751709897 0 0.0039360415657302208 0.025557487873537163 0 0.0039489080966138672 0.025471868751709897 0 0.0039050731569626809 0.025530105148235185 0 0.0039489080966138672 0.025471868751709897 0 0.0039050731569626809 0.025530105148235185 0 0.0039415182493310798 0.025413020055321919 0 0.0038489252792483801 0.025602226308921779 0 0.0039050731569626809 0.025530105148235185 0 0.0039072233124238243 0.025482238879894998 0 0.0039050731569626809 0.025530105148235185 0 0.0039072233124238243 0.025482238879894998 0 0.0039415182493310798 0.025413020055321919 0 0.0039072233124238243 0.025482238879894998 0 0.0039415182493310798 0.025413020055321919 0 0.0039462672322690216 0.025391217114429203 0 0.0039671648655623462 0.025280099503357256 0 0.0039415182493310798 0.025413020055321919 0 0.0039462672322690216 0.025391217114429203 0 0.0038902643489828032 0.025616837392952507 0 0.0039671648655623462 0.025280099503357256 0 0.0039462672322690216 0.025391217114429203 0 0.0039072233124238243 0.025482238879894998 0 0.0039462672322690216 0.025391217114429203 0 0.0039429266591322655 0.025463287510190002 0 0.0039072233124238243 0.025482238879894998 0 0.0039429266591322655 0.025463287510190002 0 0.0038278428314020485 0.025555185605711791 0 0.0019135957434689517 0.044217727581030854 0 0.0013718085699292043 0.044388836035039382 0 0.0015495551965059458 0.044537295032205534 0 0.0029019920798229733 0.034949383707435687 0 0.0026443491718201825 0.035076071174596699 0 0.0013718085699292043 0.044388836035039382 0 0.0015495551965059458 0.044537295032205534 0 0.0011711273109105732 0.044489051350255458 0 0.0012152370309580671 0.044277511258752643 0 0.0013718085699292043 0.044388836035039382 0 0.0011711273109105732 0.044489051350255458 0 0.0028032361132918002 0.034966304627402946 0 0.0026443491718201825 0.035076071174596699 0 0.003780776430580939 0.025670969454142309 0 0.0038489252792483801 0.025602226308921779 0 0.0038278428314020485 0.025555185605711791 0 0.0015495551965059458 0.044537295032205534 0 0.0010898165264202149 0.044668201403413856 0 0.0011711273109105732 0.044489051350255458 0 0.0012187504012021145 0.044791128818352205 0 0.0015495551965059458 0.044537295032205534 0 0.0010898165264202149 0.044668201403413856 0 0.0038489252792483801 0.025602226308921779 0 0.0039072233124238243 0.025482238879894998 0 0.0038278428314020485 0.025555185605711791 0 0.00083053622584911111 0.044732887508586006 0 0.0005950457918800677 0.044729224717950565 0 0.00071249860690718954 0.044871735556611447 0 0.00075055699770305016 0.044634457706765725 0 0.00083053622584911111 0.044732887508586006 0 0.0005950457918800677 0.044729224717950565 0 0.00075055699770305016 0.044634457706765725 0 0.00083053622584911111 0.044732887508586006 0 0.0009346740066825558 0.044553172673812216 0 0.00083053622584911111 0.044732887508586006 0 0.0010898165264202149 0.044668201403413856 0 0.00090941147732470661 0.044835970341668752 0 0.00083053622584911111 0.044732887508586006 0 0.0010898165264202149 0.044668201403413856 0 0.0009346740066825558 0.044553172673812216 0 0.0010898165264202149 0.044668201403413856 0 0.0011711273109105732 0.044489051350255458 0 0.0009346740066825558 0.044553172673812216 0 0.0011711273109105732 0.044489051350255458 0 0.0010433166059858646 0.044397829385305218 0 0.0009346740066825558 0.044553172673812216 0 0.0012152370309580671 0.044277511258752643 0 0.0011711273109105732 0.044489051350255458 0 0.0010433166059858646 0.044397829385305218 0 0.0010433166059858646 0.044397829385305218 0 0.00090288509915740492 0.04440546182220087 0 0.0009346740066825558 0.044553172673812216 0 0.00090288509915740492 0.04440546182220087 0 0.0009346740066825558 0.044553172673812216 0 0.00078962657442607851 0.044530677805845791 0 0.00075055699770305016 0.044634457706765725 0 0.0009346740066825558 0.044553172673812216 0 0.00078962657442607851 0.044530677805845791 0 0.00075055699770305016 0.044634457706765725 0 0.00078962657442607851 0.044530677805845791 0 0.00065045435845008707 0.044572151250992231 0 0.00073748719933158205 0.044439477889082923 0 0.00090288509915740492 0.04440546182220087 0 0.00078962657442607851 0.044530677805845791 0 0.00060448929057907105 0.044483375555590503 0 0.00073748719933158205 0.044439477889082923 0 0.00065045435845008707 0.044572151250992231 0 0.00073748719933158205 0.044439477889082923 0 0.00078962657442607851 0.044530677805845791 0 0.00065045435845008707 0.044572151250992231 0 0.00065045435845008707 0.044572151250992231 0 0.00044952619090450228 0.044603060769539023 0 0.0005950457918800677 0.044729224717950565 0 0.00060448929057907105 0.044483375555590503 0 0.00065045435845008707 0.044572151250992231 0 0.00044952619090450228 0.044603060769539023 0 0.00044952619090450228 0.044603060769539023 0 0.00039030851398760678 0.044759634403766603 0 0.00020155637180017271 0.044731427667323222 0 0.00039030851398760678 0.044759634403766603 0 0.0005950457918800677 0.044729224717950565 0 0.0004974848126657541 0.044932929324838687 0 0.00044952619090450228 0.044603060769539023 0 0.00039030851398760678 0.044759634403766603 0 0.0005950457918800677 0.044729224717950565 0 0.00075055699770305016 0.044634457706765725 0 0.00065045435845008707 0.044572151250992231 0 0.0005950457918800677 0.044729224717950565 0 0.0005950457918800677 0.044729224717950565 0 0.0004974848126657541 0.044932929324838687 0 0.00071249860690718954 0.044871735556611447 0 0.00039030851398760678 0.044759634403766603 0 0.0004974848126657541 0.044932929324838687 0 0.0002972728937703912 0.044887822456245632 0 0.0004974848126657541 0.044932929324838687 0 0.00048151810319237609 0.045119061956025164 0 0.00030213198684710297 0.045026296870332702 0 0.0004974848126657541 0.044932929324838687 0 0.00030213198684710297 0.045026296870332702 0 0.0002972728937703912 0.044887822456245632 0 0.0004974848126657541 0.044932929324838687 0 0.00077922282975460941 0.045035116077599607 0 0.00048151810319237609 0.045119061956025164 0 0.0004974848126657541 0.044932929324838687 0 0.00077922282975460941 0.045035116077599607 0 0.00071249860690718954 0.044871735556611447 0 0.00077922282975460941 0.045035116077599607 0 0.00071249860690718954 0.044871735556611447 0 0.00090941147732470661 0.044835970341668752 0 0.00083053622584911111 0.044732887508586006 0 0.00071249860690718954 0.044871735556611447 0 0.00090941147732470661 0.044835970341668752 0 0.0015250815121057861 0.043314841723933274 0 0.001242309468358345 0.039655706167428618 0 0.00077922282975460941 0.045035116077599607 0 0.00090941147732470661 0.044835970341668752 0 0.001160693722249959 0.044831138992623268 0 0.0012187504012021145 0.044791128818352205 0 0.0010898165264202149 0.044668201403413856 0 0.001160693722249959 0.044831138992623268 0 0.0010898165264202149 0.044668201403413856 0 0.00090941147732470661 0.044835970341668752 0 0.001160693722249959 0.044831138992623268 0 0.0021849419997294157 0.040774948923314631 0 0.0030954097094768184 0.039863540205596494 0 0.0030664570536428578 0.040792378720746543 0 0.0021849419997294157 0.040774948923314631 0 0.0030664570536428578 0.040792378720746543 0 0.0025545290460887195 0.041423647768607338 0 0.003491107209974806 0.041298697353615646 0 0.0030664570536428578 0.040792378720746543 0 0.0025545290460887195 0.041423647768607338 0 0.003491107209974806 0.041298697353615646 0 0.0025545290460887195 0.041423647768607338 0 0.0031130252296093963 0.041786155262314745 0 0.0025545290460887195 0.041423647768607338 0 0.0021843021499102335 0.042175033665972333 0 0.0013332766558206439 0.041712109052477589 0 0.0021849419997294157 0.040774948923314631 0 0.0025545290460887195 0.041423647768607338 0 0.0013332766558206439 0.041712109052477589 0 0.0025545290460887195 0.041423647768607338 0 0.0021843021499102335 0.042175033665972333 0 0.0031130252296093963 0.041786155262314745 0 0.0021843021499102335 0.042175033665972333 0 0.0031130252296093963 0.041786155262314745 0 0.0028128959160267143 0.042599230231567711 0 0.0032954048085538975 0.043208855281988111 0 0.0028128959160267143 0.042599230231567711 0 0.002562998169421544 0.043300817572842071 0 0.0021843021499102335 0.042175033665972333 0 0.0019866907931351237 0.042980964592979683 0 0.0014486587136936968 0.042582515339820777 0 0.0021843021499102335 0.042175033665972333 0 0.0028128959160267143 0.042599230231567711 0 0.0019866907931351237 0.042980964592979683 0 0.0028128959160267143 0.042599230231567711 0 0.0019866907931351237 0.042980964592979683 0 0.002562998169421544 0.043300817572842071 0 0.0019866907931351237 0.042980964592979683 0 0.002562998169421544 0.043300817572842071 0 0.0020991720507171708 0.043848983683246981 0 0.0029981163252037289 0.038593348172801252 0 0.0029499398248757028 0.038749100398782675 0 0.0032954048085538975 0.043208855281988111 0 0.002562998169421544 0.043300817572842071 0 0.0028621509104357233 0.044106484413660933 0 0.002562998169421544 0.043300817572842071 0 0.0028621509104357233 0.044106484413660933 0 0.0020991720507171708 0.043848983683246981 0 0.0012050976356469869 0.043335786822967445 0 0.00058317222776816898 0.043638963184768662 0 0.00085530815013820801 0.04412378165227613 0 0.0012050976356469869 0.043335786822967445 0 0.00085530815013820801 0.04412378165227613 0 0.0020991720507171708 0.043848983683246981 0 0.0019866907931351237 0.042980964592979683 0 0.0012050976356469869 0.043335786822967445 0 0.0020991720507171708 0.043848983683246981 0 0.0019866907931351237 0.042980964592979683 0 0.0012050976356469869 0.043335786822967445 0 0.0014486587136936968 0.042582515339820777 0 0.0012050976356469869 0.043335786822967445 0 0.00060304621027168102 0.042666720240787805 0 0.00058317222776816898 0.043638963184768662 0 0.0012050976356469869 0.043335786822967445 0 0.0014486587136936968 0.042582515339820777 0 0.00060304621027168102 0.042666720240787805 0 0.00093502487784882034 0.043337522576530667 0 0.00044701118789387898 0.043897459783953444 0 0.0014486587136936968 0.042582515339820777 0 0.0013332766558206439 0.041712109052477589 0 0.00060304621027168102 0.042666720240787805 0 0.0021843021499102335 0.042175033665972333 0 0.0014486587136936968 0.042582515339820777 0 0.0013332766558206439 0.041712109052477589 0 0.0015250815121057861 0.043314841723933274 0 0.00093502487784882034 0.043337522576530667 0 0.00048151810319237609 0.045119061956025164 0 0.00026252438271810735 0.045125272279483028 0 0.00030213198684710297 0.045026296870332702 0 0.00013746961915225923 0.045014194713425514 0 0.00016992595451878421 0.045067458757772218 0 0.00030213198684710297 0.045026296870332702 0 0.00013746961915225923 0.045014194713425514 0 0.00016992595451878421 0.045067458757772218 0 6.847659075752699e-05 0.045033164564556756 0 0.00016992595451878421 0.045067458757772218 0 0.0001185505269088311 0.045086557195765875 0 6.847659075752699e-05 0.045033164564556756 0 0.00016992595451878421 0.045067458757772218 0 0.00026252438271810735 0.045125272279483028 0 0.00030213198684710297 0.045026296870332702 0 0.00060304621027168102 0.042666720240787805 0 0.00011127216102044528 0.043572160406704419 0 0.00058317222776816898 0.043638963184768662 0 0.00016992595451878421 0.045067458757772218 0 0.00026252438271810735 0.045125272279483028 0 0.0001185505269088311 0.045086557195765875 0 0.00044701118789387898 0.043897459783953444 0 0.00013611083420752207 0.044312865926577932 0 0.00011127216102044528 0.043572160406704419 0 0.00058317222776816898 0.043638963184768662 0 0.0002851548939941551 0.044287780782559856 0 3.8463804363022919e-08 0.045000057161891954 0 4.1375740931350653e-05 0.045034035271938576 0 3.5874098834330594e-05 0.045033101151931348 0 0.00013611083420752207 0.044312865926577932 0 -4.3620204550577881e-06 0.044662942811675627 0 0.0001185505269088311 0.045086557195765875 0 4.1375740931350653e-05 0.045034035271938576 0 3.5874098834330594e-05 0.045033101151931348 0 0.0001185505269088311 0.045086557195765875 0 4.1375740931350653e-05 0.045034035271938576 0 6.847659075752699e-05 0.045033164564556756 0 3.8463804363022919e-08 0.045000057161891954 0 4.1375740931350653e-05 0.045034035271938576 0 3.136207973522912e-08 0.045000053587572982 0 4.1375740931350653e-05 0.045034035271938576 0 3.136207973522912e-08 0.045000053587572982 0 6.847659075752699e-05 0.045033164564556756 0 3.136207973522912e-08 0.045000053587572982 0 6.847659075752699e-05 0.045033164564556756 0 2.9616924574275224e-08 0.045000015909940884 0 0.00013746961915225923 0.045014194713425514 0 6.847659075752699e-05 0.045033164564556756 0 5.2492918831149354e-05 0.044991249221684092 0 6.847659075752699e-05 0.045033164564556756 0 2.9616924574275224e-08 0.045000015909940884 0 5.2492918831149354e-05 0.044991249221684092 0 2.9616924574275224e-08 0.045000015909940884 0 2.2603676249301997e-08 0.044999960602546581 0 5.2492918831149354e-05 0.044991249221684092 0 2.2603676249301997e-08 0.044999960602546581 0 5.2492918831149354e-05 0.044991249221684092 0 4.2370183731068502e-05 0.044944975050916332 0 5.2492918831149354e-05 0.044991249221684092 0 0.00010843780640005602 0.044944734936847149 0 4.2370183731068502e-05 0.044944975050916332 0 0.00013746961915225923 0.045014194713425514 0 5.2492918831149354e-05 0.044991249221684092 0 0.00010843780640005602 0.044944734936847149 0 0.00013746961915225923 0.045014194713425514 0 0.00019984966932202751 0.044958383604817985 0 0.00010843780640005602 0.044944734936847149 0 0.00013746961915225923 0.045014194713425514 0 0.00030213198684710297 0.045026296870332702 0 0.00019984966932202751 0.044958383604817985 0 0.00030213198684710297 0.045026296870332702 0 0.00019984966932202751 0.044958383604817985 0 0.0002972728937703912 0.044887822456245632 0 0.00019984966932202751 0.044958383604817985 0 0.0002972728937703912 0.044887822456245632 0 0.00016539301120482999 0.04486488594102353 0 0.00019984966932202751 0.044958383604817985 0 0.00010843780640005602 0.044944734936847149 0 0.00016539301120482999 0.04486488594102353 0 0.00039030851398760678 0.044759634403766603 0 0.0002972728937703912 0.044887822456245632 0 0.00016539301120482999 0.04486488594102353 0 0.00039030851398760678 0.044759634403766603 0 0.00016539301120482999 0.04486488594102353 0 0.00020155637180017271 0.044731427667323222 0 0.00033123497937508512 0.044540144560143609 0 0.00044952619090450228 0.044603060769539023 0 0.00020155637180017271 0.044731427667323222 0 0.00016539301120482999 0.04486488594102353 0 0.00020155637180017271 0.044731427667323222 0 8.7858085068846849e-05 0.044860429407271564 0 9.2893467370351899e-05 0.044795170806600323 0 0.00020155637180017271 0.044731427667323222 0 8.7858085068846849e-05 0.044860429407271564 0 3.2976155659747588e-05 0.044912806364785972 0 8.7858085068846849e-05 0.044860429407271564 0 4.2370183731068502e-05 0.044944975050916332 0 3.2976155659747588e-05 0.044912806364785972 0 9.2893467370351899e-05 0.044795170806600323 0 8.7858085068846849e-05 0.044860429407271564 0 1.2245146590681371e-08 0.044999800741368431 0 3.2976155659747588e-05 0.044912806364785972 0 2.3046805034969529e-08 0.044999898163821009 0 3.2976155659747588e-05 0.044912806364785972 0 2.3046805034969529e-08 0.044999898163821009 0 4.2370183731068502e-05 0.044944975050916332 0 2.2603676249301997e-08 0.044999960602546581 0 2.3046805034969529e-08 0.044999898163821009 0 4.2370183731068502e-05 0.044944975050916332 0 0.00016539301120482999 0.04486488594102353 0 8.7858085068846849e-05 0.044860429407271564 0 4.2370183731068502e-05 0.044944975050916332 0 0.00010843780640005602 0.044944734936847149 0 0.00016539301120482999 0.04486488594102353 0 4.2370183731068502e-05 0.044944975050916332 0 -7.1813522744558528e-08 0.04500024046148679 0 -2.6295033559126383e-05 0.044972821428514262 0 -5.4952973226472493e-05 0.044931646750038488 0 -7.1813522744558528e-08 0.04500024046148679 0 -2.6295033559126383e-05 0.044972821428514262 0 2.8691762181782718e-05 0.044994153422475376 0 -4.3836848229719691e-05 0.044946585071736773 0 -2.6295033559126383e-05 0.044972821428514262 0 -0.00010990893053173865 0.044971053722784669 0 -5.3401728778122308e-05 0.044946648773238181 0 -4.3836848229719691e-05 0.044946585071736773 0 -0.00010990893053173865 0.044971053722784669 0 -5.3401728778122308e-05 0.044946648773238181 0 -2.6303189957234243e-05 0.044927998399277073 0 -4.3836848229719691e-05 0.044946585071736773 0 -4.3836848229719691e-05 0.044946585071736773 0 -2.3257515935055791e-05 0.044925975343736685 0 -2.6295033559126383e-05 0.044972821428514262 0 -2.3257515935055791e-05 0.044925975343736685 0 -2.6295033559126383e-05 0.044972821428514262 0 -7.7792975126045271e-07 0.044928355150215732 0 -2.6303189957234243e-05 0.044927998399277073 0 -2.3257515935055791e-05 0.044925975343736685 0 -1.998485451507769e-06 0.044901425991662983 0 -2.6303189957234243e-05 0.044927998399277073 0 -4.3836848229719691e-05 0.044946585071736773 0 -2.3257515935055791e-05 0.044925975343736685 0 -2.6295033559126383e-05 0.044972821428514262 0 -7.7792975126045271e-07 0.044928355150215732 0 2.8691762181782718e-05 0.044994153422475376 0 -7.7792975126045271e-07 0.044928355150215732 0 0.00012468671459230809 0.045044668879202422 0 2.8691762181782718e-05 0.044994153422475376 0 5.7787580607130036e-05 0.044889250557166846 0 -0.00017691135941511334 0.044973732438473357 0 -2.3257515935055791e-05 0.044925975343736685 0 -7.7792975126045271e-07 0.044928355150215732 0 6.340479357045623e-06 0.0448744766037509 0 9.0680500976147562e-05 0.045021831775835464 0 0.00037372026200992349 0.045262307645712117 0 -7.7792975126045271e-07 0.044928355150215732 0 0.00012468671459230809 0.045044668879202422 0 -4.5901451036492443e-05 0.045016099913958031 0 -7.1813522744558528e-08 0.04500024046148679 0 2.9852242181747731e-05 0.045003386619066311 0 8.5999622488912097e-08 0.045000085083236024 0 -7.1813522744558528e-08 0.04500024046148679 0 2.9852242181747731e-05 0.045003386619066311 0 2.8691762181782718e-05 0.044994153422475376 0 0.00012468671459230809 0.045044668879202422 0 2.9852242181747731e-05 0.045003386619066311 0 2.8691762181782718e-05 0.044994153422475376 0 8.5999622488912097e-08 0.045000085083236024 0 -4.3427563653635878e-07 0.044998996489066051 0 1.3530519872386701e-05 0.044777643622289247 0 0.00012468671459230809 0.045044668879202422 0 2.9852242181747731e-05 0.045003386619066311 0 7.8937410497476011e-05 0.044917103688248597 0 2.9852242181747731e-05 0.045003386619066311 0 8.5999622488912097e-08 0.045000085083236024 0 7.8937410497476011e-05 0.044917103688248597 0 8.5999622488912097e-08 0.045000085083236024 0 7.8937410497476011e-05 0.044917103688248597 0 1.3530519872386701e-05 0.044777643622289247 0 -4.3427563653635878e-07 0.044998996489066051 0 1.3530519872386701e-05 0.044777643622289247 0 -0.00010741208341386336 0.044327055098911043 0 1.3530519872386701e-05 0.044777643622289247 0 -0.00010741208341386336 0.044327055098911043 0 0.0002851548939941551 0.044287780782559856 0 3.8463804363022919e-08 0.045000057161891954 0 -8.8348178280481486e-09 0.04500001550765536 0 3.5874098834330594e-05 0.045033101151931348 0 3.2315658896068604e-08 0.04499983717390818 0 -4.3620204550577881e-06 0.044662942811675627 0 0.00058317222776816898 0.043638963184768662 0 0.0002851548939941551 0.044287780782559856 0 0.00085530815013820801 0.04412378165227613 0 0.0002851548939941551 0.044287780782559856 0 0.00072865129926907542 0.044545865684771556 0 0.00085530815013820801 0.04412378165227613 0 0.00011127216102044528 0.043572160406704419 0 -0.00010741208341386336 0.044327055098911043 0 0.0002851548939941551 0.044287780782559856 0 1.3530519872386701e-05 0.044777643622289247 0 0.0002851548939941551 0.044287780782559856 0 0.000288041247947963 0.044687624726842838 0 0.0002851548939941551 0.044287780782559856 0 0.000288041247947963 0.044687624726842838 0 0.00072865129926907542 0.044545865684771556 0 0.000288041247947963 0.044687624726842838 0 0.00043706705242704092 0.044872376495664772 0 0.00072865129926907542 0.044545865684771556 0 7.8937410497476011e-05 0.044917103688248597 0 1.3530519872386701e-05 0.044777643622289247 0 0.000288041247947963 0.044687624726842838 0 7.8937410497476011e-05 0.044917103688248597 0 0.000288041247947963 0.044687624726842838 0 0.00043706705242704092 0.044872376495664772 0 0.00012468671459230809 0.045044668879202422 0 7.8937410497476011e-05 0.044917103688248597 0 0.00043706705242704092 0.044872376495664772 0 0.00012468671459230809 0.045044668879202422 0 0.00043706705242704092 0.044872376495664772 0 0.00057270826052987698 0.04516363760027519 0 0.00043706705242704092 0.044872376495664772 0 0.00065762398768382815 0.044977517637649005 0 0.00082482148002318428 0.044834542645525242 0 0.00043706705242704092 0.044872376495664772 0 0.00065762398768382815 0.044977517637649005 0 0.00057270826052987698 0.04516363760027519 0 0.00065762398768382815 0.044977517637649005 0 0.0007957178995823197 0.04503537580842322 0 0.00082482148002318428 0.044834542645525242 0 0.0007957178995823197 0.04503537580842322 0 0.00082482148002318428 0.044834542645525242 0 0.0010046256084481129 0.044975941348149667 0 0.00082482148002318428 0.044834542645525242 0 0.0010046256084481129 0.044975941348149667 0 0.0010438510004526095 0.044808752949580824 0 0.0010046256084481129 0.044975941348149667 0 0.0010438510004526095 0.044808752949580824 0 0.0012607854156867747 0.044805650600431353 0 0.00082482148002318428 0.044834542645525242 0 0.0010799296097577413 0.044619340888755341 0 0.00072865129926907542 0.044545865684771556 0 0.00082482148002318428 0.044834542645525242 0 0.0010438510004526095 0.044808752949580824 0 0.0010799296097577413 0.044619340888755341 0 0.00043706705242704092 0.044872376495664772 0 0.00082482148002318428 0.044834542645525242 0 0.00072865129926907542 0.044545865684771556 0 0.00072865129926907542 0.044545865684771556 0 0.0010963305265288457 0.044350754129147636 0 0.00085530815013820801 0.04412378165227613 0 0.0010799296097577413 0.044619340888755341 0 0.00072865129926907542 0.044545865684771556 0 0.0010963305265288457 0.044350754129147636 0 0.0016478776881419905 0.045018665937914287 0 0.00073410400133787595 0.043974565570664856 0 0.001682148203971287 0.044538322172781711 0 0.00085530815013820801 0.04412378165227613 0 0.0020991720507171708 0.043848983683246981 0 0.0028621509104357233 0.044106484413660933 0 0.0020991720507171708 0.043848983683246981 0 0.0024733577997734534 0.044956524597145359 0 0.0010799296097577413 0.044619340888755341 0 0.0010963305265288457 0.044350754129147636 0 0.0013876903270535947 0.044505971765766129 0 0.0016478776881419905 0.045018665937914287 0 0.0019180300820119867 0.040091570754064443 0 0.001682148203971287 0.044538322172781711 0 0.0020991720507171708 0.043848983683246981 0 0.0024733577997734534 0.044956524597145359 0 0.0029499398248757028 0.038749100398782675 0 0.0019180300820119867 0.040091570754064443 0 0.002795273721250787 0.033766104009324276 0 0.0027461824497824116 0.033878591573829775 0 0.002834627444800827 0.033807898077443818 0 0.0019180300820119867 0.040091570754064443 0 0.0021275903227248685 0.03263471399805689 0 0.0027461824497824116 0.033878591573829775 0 0.0028332410736924972 0.033881979654736223 0 0.002834627444800827 0.033807898077443818 0 0.0010313576586343336 0.037116540142600664 0 0.0012102591718433267 0.037942635097393186 0 0.0017314455649819298 0.037506136075424343 0 0.0019180300820119867 0.040091570754064443 0 0.00085406009840672192 0.041766805649438389 0 0.0010313576586343336 0.037116540142600664 0 0.00073259404440147039 0.03779730784562331 0 0.0012102591718433267 0.037942635097393186 0 0.0010799296097577413 0.044619340888755341 0 0.0013876903270535947 0.044505971765766129 0 0.0012607854156867747 0.044805650600431353 0 0.0010438510004526095 0.044808752949580824 0 0.0010799296097577413 0.044619340888755341 0 0.0012607854156867747 0.044805650600431353 0 0.00073259404440147039 0.03779730784562331 0 0.0012102591718433267 0.037942635097393186 0 0.00067984883864968565 0.038379416111449648 0 0.00085406009840672192 0.041766805649438389 0 7.0658746381508207e-05 0.039700200930251263 0 0.0010046256084481129 0.044975941348149667 0 0.0012607854156867747 0.044805650600431353 0 0.0011259679309008528 0.045113485973189912 0 0.00073259404440147039 0.03779730784562331 0 0.00042730761030096383 0.03848697870421091 0 0.00067984883864968565 0.038379416111449648 0 0.00044451223630169581 0.035123856675751748 0 -0.00032428535166504789 0.035347500182815163 0 8.3391557856659713e-05 0.031939689109642497 0 0.0005325975521968193 0.032398100895743111 0 -0.0015662722666108548 0.03333204089568638 0 0.00068465219916645872 0.03205742751141389 0 -0.00032428535166504789 0.035347500182815163 0 0.00044451223630169581 0.035123856675751748 0 0.0021275903227248685 0.03263471399805689 0 8.3391557856659713e-05 0.031939689109642497 0 0.0005325975521968193 0.032398100895743111 0 0.001740187036270303 0.030564297951974254 0 0.00091573278193624508 0.031554579578268516 0 0.0015750761742160558 0.033573869272527083 0 -0.00017624573785609003 0.033384717572421681 0 0.00091573278193624508 0.031554579578268516 0 -0.00017624573785609003 0.033384717572421681 0 -0.0010033692084182109 0.032416479370512591 0 0.00099056390462584241 0.031017343389248966 0 -8.7390689464990673e-06 0.034152989355316493 0 6.7400879051179082e-05 0.026203151941205191 0 -0.00017914464301015852 0.026607032913652563 0 9.4790066465826013e-05 0.026442489830987716 0 0.0013851941937979887 0.034957822966907713 0 0.00036910625021778027 0.034864540224855779 0 0.00089921992844163329 0.036050113947586081 0 0.00099056390462584241 0.031017343389248966 0 0.00043602227919864271 0.031100095321550295 0 -0.00016655557517646427 0.035681389712663367 0 0.00036910625021778027 0.034864540224855779 0 0.00089921992844163329 0.036050113947586081 0 -0.00016655557517646427 0.035681389712663367 0 0.00036910625021778027 0.034864540224855779 0 -0.00064212602440580325 0.034772677235071499 0 -8.7390689464990673e-06 0.034152989355316493 0 -0.0003647450528289273 0.039093658317171591 0 -0.00017624573785609003 0.033384717572421681 0 -0.0010033692084182109 0.032416479370512591 0 -0.0019101183294629538 0.033214369015413109 0 -0.0017132707114096949 0.032736474054085744 0 -0.0010033692084182109 0.032416479370512591 0 -0.0019101183294629538 0.033214369015413109 0 7.0658746381508207e-05 0.039700200930251263 0 -0.00032428535166504789 0.035347500182815163 0 -0.00011040185314368839 0.044971287856258944 0 3.9691078402779593e-05 0.044815985256005289 0 -1.7481676792419031e-05 0.044804478282581987 0 7.0658746381508207e-05 0.039700200930251263 0 7.6492237512878436e-05 0.042955438177177514 0 0.0010046256084481129 0.044975941348149667 0 0.0011259679309008528 0.045113485973189912 0 0.00097934700414977643 0.045188265738052784 0 0.0007957178995823197 0.04503537580842322 0 0.0010046256084481129 0.044975941348149667 0 0.00097934700414977643 0.045188265738052784 0 -0.00011040185314368839 0.044971287856258944 0 -4.2253627497939362e-05 0.044750226782612451 0 -1.7481676792419031e-05 0.044804478282581987 0 0.00049004643724178374 0.040820033125073381 0 0.00031521597970282135 0.041235815444648619 0 -0.00031447069706477013 0.04116422972206079 0 -0.00038167214511108331 0.045015096815532056 0 -0.00011040185314368839 0.044971287856258944 0 -4.2253627497939362e-05 0.044750226782612451 0 7.0658746381508207e-05 0.039700200930251263 0 -0.0003647450528289273 0.039093658317171591 0 -0.0003647450528289273 0.039093658317171591 0 7.6492237512878436e-05 0.042955438177177514 0 0.0007957178995823197 0.04503537580842322 0 0.00097934700414977643 0.045188265738052784 0 0.00057270826052987698 0.04516363760027519 0 7.6492237512878436e-05 0.042955438177177514 0 0.00037372026200992349 0.045262307645712117 0 -7.7792975126045271e-07 0.044928355150215732 0 -4.5901451036492443e-05 0.045016099913958031 0 -7.3610124667918074e-05 0.044965693681406883 0 -0.00013497178792279841 0.044971267013322429 0 -4.5901451036492443e-05 0.045016099913958031 0 -7.3610124667918074e-05 0.044965693681406883 0 7.6492237512878436e-05 0.042955438177177514 0 -0.00017691135941511334 0.044973732438473357 0 0.00065762398768382815 0.044977517637649005 0 0.0007957178995823197 0.04503537580842322 0 0.00057270826052987698 0.04516363760027519 0 -7.7792975126045271e-07 0.044928355150215732 0 3.9691078402779593e-05 0.044815985256005289 0 6.340479357045623e-06 0.0448744766037509 0 3.9691078402779593e-05 0.044815985256005289 0 4.4451410418613556e-06 0.044825300381630212 0 -1.7481676792419031e-05 0.044804478282581987 0 3.9691078402779593e-05 0.044815985256005289 0 4.4451410418613556e-06 0.044825300381630212 0 6.340479357045623e-06 0.0448744766037509 0 7.5545730030974563e-06 0.044871492195566499 0 4.4451410418613556e-06 0.044825300381630212 0 3.4118195399393315e-05 0.044887944610835853 0 7.5545730030974563e-06 0.044871492195566499 0 4.4451410418613556e-06 0.044825300381630212 0 6.340479357045623e-06 0.0448744766037509 0 4.4451410418613556e-06 0.044825300381630212 0 -4.2253627497939362e-05 0.044750226782612451 0 3.4118195399393315e-05 0.044887944610835853 0 -0.00038167214511108331 0.045015096815532056 0 -4.2253627497939362e-05 0.044750226782612451 0 -6.4512867551185738e-05 0.044019542275021549 0 -0.00016655557517646427 0.035681389712663367 0 -0.00064212602440580325 0.034772677235071499 0 -0.0012208601400563895 0.036138708555945642 0 -4.2253627497939362e-05 0.044750226782612451 0 -6.4512867551185738e-05 0.044019542275021549 0 0.00023847945084273889 0.043810384635613625 0 -0.0003647450528289273 0.039093658317171591 0 -0.00063950635995270802 0.040203841583560863 0 7.2087827591809654e-06 0.044634158203885763 0 7.6878168315567584e-05 0.04461605929769822 0 4.4451410418613556e-06 0.044825300381630212 0 -4.2253627497939362e-05 0.044750226782612451 0 -1.7481676792419031e-05 0.044804478282581987 0 -0.0012208601400563895 0.036138708555945642 0 -0.00069230354911780398 0.037338166857541301 0 -0.00020548756655965492 0.036543697668099777 0 -0.0012208601400563895 0.036138708555945642 0 -0.001800471990960382 0.037527731850934706 0 -0.00069230354911780398 0.037338166857541301 0 -6.4512867551185738e-05 0.044019542275021549 0 0.00023847945084273889 0.043810384635613625 0 0.00038047068147089376 0.04275501819592796 0 -0.00063950635995270802 0.040203841583560863 0 -0.0011324725376246287 0.040155709666848512 0 7.6878168315567584e-05 0.04461605929769822 0 -0.00036443952338236938 0.042204993112755204 0 -2.6303189957234243e-05 0.044927998399277073 0 -1.998485451507769e-06 0.044901425991662983 0 2.2863251657838567e-06 0.044943066314056049 0 -1.998485451507769e-06 0.044901425991662983 0 3.4118195399393315e-05 0.044887944610835853 0 2.2863251657838567e-06 0.044943066314056049 0 -2.3257515935055791e-05 0.044925975343736685 0 6.340479357045623e-06 0.0448744766037509 0 -1.998485451507769e-06 0.044901425991662983 0 7.5545730030974563e-06 0.044871492195566499 0 6.340479357045623e-06 0.0448744766037509 0 -1.998485451507769e-06 0.044901425991662983 0 7.5545730030974563e-06 0.044871492195566499 0 -1.998485451507769e-06 0.044901425991662983 0 3.4118195399393315e-05 0.044887944610835853 0 0.00023847945084273889 0.043810384635613625 0 0.00053715263644671396 0.042730953386498113 0 0.00038047068147089376 0.04275501819592796 0 -5.3401728778122308e-05 0.044946648773238181 0 -3.271004552011373e-05 0.044926758232095305 0 -5.3420492438170407e-05 0.044978071298496528 0 -5.3401728778122308e-05 0.044946648773238181 0 -2.6303189957234243e-05 0.044927998399277073 0 2.2863251657838567e-06 0.044943066314056049 0 -0.00036443952338236938 0.042204993112755204 0 -0.0011324725376246287 0.040155709666848512 0 -0.0016430138421821726 0.038545109745444776 0 -0.0017849102196793904 0.038893761751449513 0 -0.00098683379470113856 0.039114554483329393 0 -0.0018563107755417451 0.038587911098272767 0 -0.0016409915411349999 0.038558878291858729 0 -0.0017849102196793904 0.038893761751449513 0 -0.0011324725376246287 0.040155709666848512 0 -0.001102790655185904 0.03954056469751327 0 -0.00011734799443150264 0.044527013529250835 0 -0.00036443952338236938 0.042204993112755204 0 -0.00027032701930686113 0.0383024174842269 0 -0.00098683379470113856 0.039114554483329393 0 0.00029446824025804679 0.03991460704287781 0 -0.0016430138421821726 0.038545109745444776 0 -0.00027032701930686113 0.0383024174842269 0 -0.00098683379470113856 0.039114554483329393 0 -0.0011324725376246287 0.040155709666848512 0 -0.00052287816874493171 0.037839770650163571 0 -0.00052287816874493171 0.037839770650163571 0 0.00015397890053994048 0.033456660352145534 0 0.00015397890053994048 0.033456660352145534 0 -0.00066417643802625952 0.037085930441101929 0 -0.00027032701930686113 0.0383024174842269 0 0.0011223757505066485 0.038060870074061164 0 0.00029446824025804679 0.03991460704287781 0 0.00080869855604425009 0.027869231317311238 0 0.00034340122841116706 0.031886814041419798 0 0.00015397890053994048 0.033456660352145534 0 0.00080869855604425009 0.027869231317311238 0 0.0011223974707799463 0.032116995984929661 0 0.00034340122841116706 0.031886814041419798 0 -2.7801908892807706e-05 0.030901891382152831 0 0.0012000162927018516 0.03081765993046812 0 0.0024846655119592494 0.030531189455938031 0 -2.7801908892807706e-05 0.030901891382152831 0 0.0012000162927018516 0.03081765993046812 0 0.00060767682730593841 0.034791961623403457 0 0.0012000162927018516 0.03081765993046812 0 0.0024846655119592494 0.030531189455938031 0 0.00053738227099315791 0.034287777984734591 0 -5.3569627858559165e-05 0.026483796600846581 0 4.8824593865444043e-05 0.026917173069406782 0 -0.00041244316233869866 0.027096769843953251 0 0.00015397890053994048 0.033456660352145534 0 0.00043602227919864271 0.031100095321550295 0 -0.00044792182785081903 0.027201492130594387 0 -0.00017914464301015852 0.026607032913652563 0 9.1010849527195333e-05 0.027067220206469934 0 -0.00069230354911780398 0.037338166857541301 0 0.00041221032943378129 0.037142419733802466 0 -0.00020548756655965492 0.036543697668099777 0 0.00041221032943378129 0.037142419733802466 0 0.00089921992844163329 0.036050113947586081 0 -0.00020548756655965492 0.036543697668099777 0 -0.00016655557517646427 0.035681389712663367 0 -0.0012208601400563895 0.036138708555945642 0 -0.00020548756655965492 0.036543697668099777 0 -0.00016655557517646427 0.035681389712663367 0 0.00089921992844163329 0.036050113947586081 0 -0.00020548756655965492 0.036543697668099777 0 0.00049876337586997538 0.026735436983334745 0 0.00045477221761809855 0.026513833665728577 0 0.00064836510422206005 0.02648115871501085 0 0.00049876337586997538 0.026735436983334745 0 0.00023544534484875454 0.026656789632902914 0 0.00045477221761809855 0.026513833665728577 0 0.00049876337586997538 0.026735436983334745 0 0.00023544534484875454 0.026656789632902914 0 0.00015329018194945501 0.026836601982606366 0 0.00031720004111327626 0.026531722790123516 0 0.00080869855604425009 0.027869231317311238 0 -0.00017914464301015852 0.026607032913652563 0 0.00023544534484875454 0.026656789632902914 0 9.1010849527195333e-05 0.027067220206469934 0 0.00048210741068977457 0.026728535798271516 0 0.00080869855604425009 0.027869231317311238 0 0.00039993679539795186 0.026441525086971486 0 -5.3569627858559165e-05 0.026483796600846581 0 0.00020335107030221929 0.026639737128789774 0 -5.3569627858559165e-05 0.026483796600846581 0 0.00020335107030221929 0.026639737128789774 0 4.8824593865444043e-05 0.026917173069406782 0 0.00020335107030221929 0.026639737128789774 0 0.00049257715517139723 0.026898038309815717 0 4.8824593865444043e-05 0.026917173069406782 0 0.00039993679539795186 0.026441525086971486 0 0.00020335107030221929 0.026639737128789774 0 0.00064298913709824731 0.026652635011002287 0 0.00020335107030221929 0.026639737128789774 0 0.00064298913709824731 0.026652635011002287 0 0.00049257715517139723 0.026898038309815717 0 0.00064298913709824731 0.026652635011002287 0 0.00096951263831998949 0.026782062582986113 0 0.00049257715517139723 0.026898038309815717 0 0.00064298913709824731 0.026652635011002287 0 0.00096951263831998949 0.026782062582986113 0 0.00080980781405182558 0.026432131382210188 0 0.00085341098152100876 0.026510284744439755 0 0.0011234120970929117 0.026449285715150653 0 0.00096951263831998949 0.026782062582986113 0 0.00080980781405182558 0.026432131382210188 0 0.0011692430765536685 0.026437028068166814 0 0.00086133216795927 0.026585648310322577 0 0.00086068781504057394 0.026304334214447514 0 0.0011692430765536685 0.026437028068166814 0 0.00039993679539795186 0.026441525086971486 0 0.00064298913709824731 0.026652635011002287 0 0.00080980781405182558 0.026432131382210188 0 0.00031720004111327626 0.026531722790123516 0 0.00085341098152100876 0.026510284744439755 0 0.00086133216795927 0.026585648310322577 0 0.00086068781504057394 0.026304334214447514 0 0.00064836510422206005 0.02648115871501085 0 0.00049876337586997538 0.026735436983334745 0 0.00086133216795927 0.026585648310322577 0 0.00064836510422206005 0.02648115871501085 0 0.00086068781504057394 0.026304334214447514 0 0.00054737451071865562 0.026262214471907994 0 0.00064836510422206005 0.02648115871501085 0 0.00086068781504057394 0.026304334214447514 0 0.0010920375472780706 0.026108374922727849 0 0.0011692430765536685 0.026437028068166814 0 0.00086068781504057394 0.026304334214447514 0 0.00054737451071865562 0.026262214471907994 0 0.00075833143591516584 0.02590671508168093 0 0.0019841372693798352 0.022669786120423814 0 0.0014243546880139553 0.022199353984109105 0 0.0028083067851351375 0.019202312589724414 0 0.0024151266147804415 0.018877807810744367 0 0.0026251919725309375 0.018609331986679675 0 0.00086068781504057394 0.026304334214447514 0 0.0010920375472780706 0.026108374922727849 0 0.00075833143591516584 0.02590671508168093 0 0.0004158308749352788 0.025992077595062182 0 0.00054737451071865562 0.026262214471907994 0 0.00075833143591516584 0.02590671508168093 0 0.0004158308749352788 0.025992077595062182 0 0.00054737451071865562 0.026262214471907994 0 0.00032252566444169193 0.026239647874153504 0 0.00054737451071865562 0.026262214471907994 0 0.0003115474916852579 0.026400851069148166 0 0.00032252566444169193 0.026239647874153504 0 0.00054737451071865562 0.026262214471907994 0 0.00045477221761809855 0.026513833665728577 0 0.0003115474916852579 0.026400851069148166 0 0.00054737451071865562 0.026262214471907994 0 0.00045477221761809855 0.026513833665728577 0 0.00064836510422206005 0.02648115871501085 0 -0.00017914464301015852 0.026607032913652563 0 0.00023544534484875454 0.026656789632902914 0 9.4790066465826013e-05 0.026442489830987716 0 0.00023544534484875454 0.026656789632902914 0 9.4790066465826013e-05 0.026442489830987716 0 0.0003115474916852579 0.026400851069148166 0 0.00023544534484875454 0.026656789632902914 0 0.00045477221761809855 0.026513833665728577 0 0.0003115474916852579 0.026400851069148166 0 0.0003115474916852579 0.026400851069148166 0 0.00032252566444169193 0.026239647874153504 0 0.00018805082108532196 0.026299651548114981 0 0.00032252566444169193 0.026239647874153504 0 0.00018805082108532196 0.026299651548114981 0 0.00013519684242006843 0.026214934842264965 0 9.4790066465826013e-05 0.026442489830987716 0 0.0003115474916852579 0.026400851069148166 0 0.00018805082108532196 0.026299651548114981 0 6.7400879051179082e-05 0.026203151941205191 0 9.4790066465826013e-05 0.026442489830987716 0 0.00018805082108532196 0.026299651548114981 0 6.7400879051179082e-05 0.026203151941205191 0 0.00018805082108532196 0.026299651548114981 0 0.00013519684242006843 0.026214934842264965 0 7.7468284072300403e-05 0.026212362975790032 0 0.00013519684242006843 0.026214934842264965 0 0.00032000015258651544 0.025705782105417293 0 0.00099056390462584241 0.031017343389248966 0 0.0014651659424795337 0.026882045174376673 0 0.0004158308749352788 0.025992077595062182 0 0.00013519684242006843 0.026214934842264965 0 0.00032000015258651544 0.025705782105417293 0 0.00099056390462584241 0.031017343389248966 0 0.00060444875249600035 0.030554358575013166 0 0.0004158308749352788 0.025992077595062182 0 0.00032252566444169193 0.026239647874153504 0 0.00013519684242006843 0.026214934842264965 0 0.00068465219916645872 0.03205742751141389 0 0.0014651659424795337 0.026882045174376673 0 0.00091573278193624508 0.031554579578268516 0 0.0015750761742160558 0.033573869272527083 0 0.0028529786255745578 0.030704882625668891 0 0.0005325975521968193 0.032398100895743111 0 0.0026322863858454291 0.031472380378671082 0 0.001740187036270303 0.030564297951974254 0 0.0004158308749352788 0.025992077595062182 0 0.00037908469516655948 0.025679165921941749 0 0.00032000015258651544 0.025705782105417293 0 0.002766022761888468 0.031172573721448157 0 0.0026322863858454291 0.031472380378671082 0 0.001740187036270303 0.030564297951974254 0 0.001757537607266993 0.023503755884156142 0 0.0021174499188045879 0.024959498245735248 0 0.001757537607266993 0.023503755884156142 0 0.0014651659424795337 0.026882045174376673 0 0.0021174499188045879 0.024959498245735248 0 0.0014651659424795337 0.026882045174376673 0 0.0022452866459618252 0.024694368910393047 0 0.0022417065187098181 0.024693624508136083 0 0.0022382379635358259 0.024701619281656616 0 0.0020764377848918689 0.018702856012184792 0 0.0024650763418474749 0.018503170146934259 0 0.0024151266147804415 0.018877807810744367 0 0.001757537607266993 0.023503755884156142 0 0.0014243546880139553 0.022199353984109105 0 0.0004158308749352788 0.025992077595062182 0 0.00037908469516655948 0.025679165921941749 0 0.00075833143591516584 0.02590671508168093 0 0.0020381944693168442 0.018804422951007971 0 0.0021927034317854891 0.018358991214405051 0 0.0024650763418474749 0.018503170146934259 0 0.0020381944693168442 0.018804422951007971 0 0.0019951540156445805 0.018784307086999293 0 0.0021927034317854891 0.018358991214405051 0 0.0021174499188045879 0.024959498245735248 0 0.0028025210822469329 0.026022287365712653 0 0.001757537607266993 0.023503755884156142 0 0.002927032911072088 0.017488307023452113 0 0.0024737275414949841 0.028778349844993868 0 0.0017084288277732977 0.028324954588242274 0 0.0032515759259245974 0.027061182418414029 0 0.0028332410736924972 0.033881979654736223 0 0.002834627444800827 0.033807898077443818 0 0.0029155821216121634 0.033782013806641427 0 0.0021275903227248685 0.03263471399805689 0 0.0028025210822469329 0.026022287365712653 0 0.0021174499188045879 0.024959498245735248 0 0.0021275903227248685 0.03263471399805689 0 0.002834627444800827 0.033807898077443818 0 0.0029155821216121634 0.033782013806641427 0 0.0028752012399229096 0.033725343071665255 0 0.0028025210822469329 0.026022287365712653 0 0.0027315687473192336 0.021453597224192242 0 0.0028025210822469329 0.026022287365712653 0 0.0025113790940589713 0.030540839005631544 0 0.0029155821216121634 0.033782013806641427 0 0.0028752012399229096 0.033725343071665255 0 0.002943025898430509 0.033687370433368731 0 0.00290900859022133 0.033651895373517274 0 0.0028752012399229096 0.033725343071665255 0 0.002943025898430509 0.033687370433368731 0 0.0028482791585743004 0.03367455366143856 0 0.002795273721250787 0.033766104009324276 0 0.0028752012399229096 0.033725343071665255 0 0.002795273721250787 0.033766104009324276 0 0.002834627444800827 0.033807898077443818 0 0.0028752012399229096 0.033725343071665255 0 0.0033133295015530845 0.024536611062750121 0 0.0040417967058356419 0.024450837457691325 0 0.0031606220757076416 0.025193640748566223 0 0.002858789613540069 0.017890479047114938 0 0.002861948377788321 0.018157489447200293 0 0.0029111738668967171 0.017929120728599257 0 0.002858789613540069 0.017890479047114938 0 0.0025618734845880204 0.018095467357738818 0 0.002861948377788321 0.018157489447200293 0 0.0042311730861680939 0.019140506949015947 0 0.0027315687473192336 0.021453597224192242 0 0.0033133295015530845 0.024536611062750121 0 0.002737444731663723 0.024905155709900349 0 0.0031606220757076416 0.025193640748566223 0 0.0021927034317854891 0.018358991214405051 0 0.0025618734845880204 0.018095467357738818 0 0.0024650763418474749 0.018503170146934259 0 0.0022740690495115477 0.025919436123102369 0 0.002737444731663723 0.024905155709900349 0 0.0031606220757076416 0.025193640748566223 0 0.0025618734845880204 0.018095467357738818 0 0.0027426404244133766 0.018351615774720026 0 0.0024650763418474749 0.018503170146934259 0 0.002861948377788321 0.018157489447200293 0 0.0027426404244133766 0.018351615774720026 0 0.0029654839751325217 0.018288428667680309 0 0.0025618734845880204 0.018095467357738818 0 0.002861948377788321 0.018157489447200293 0 0.0027426404244133766 0.018351615774720026 0 0.0027426404244133766 0.018351615774720026 0 0.0026251919725309375 0.018609331986679675 0 0.0029042951874852178 0.018490208065660884 0 0.0027426404244133766 0.018351615774720026 0 0.0029042951874852178 0.018490208065660884 0 0.0029654839751325217 0.018288428667680309 0 0.0027426404244133766 0.018351615774720026 0 0.0024650763418474749 0.018503170146934259 0 0.0026251919725309375 0.018609331986679675 0 0.0024650763418474749 0.018503170146934259 0 0.0024151266147804415 0.018877807810744367 0 0.0026251919725309375 0.018609331986679675 0 0.0028083067851351375 0.019202312589724414 0 0.0026251919725309375 0.018609331986679675 0 0.0029042951874852178 0.018490208065660884 0 0.0030660512248265924 0.018628177596770493 0 0.0031271716926207474 0.018212160464688685 0 0.0029042951874852178 0.018490208065660884 0 0.0031394183321147304 0.018357532663734581 0 0.0029921932451592182 0.01831408137973364 0 0.0029042951874852178 0.018490208065660884 0 0.0036887092855121296 0.018862826970812402 0 0.0032619240203341456 0.019118010812424539 0 0.0029042951874852178 0.018490208065660884 0 0.0031394183321147304 0.018357532663734581 0 0.0031590105305300789 0.018378824628177793 0 0.0031390522875668408 0.017053869832568496 0 0.0024712143646116441 0.017104639045725459 0 0.0027980424910620202 0.016317741127178539 0 0.0029923879056708591 0.017804251197527713 0 0.0025902015565997666 0.017521083290702229 0 0.0029923879056708591 0.017804251197527713 0 0.0031271716926207474 0.018212160464688685 0 0.0029564599725784174 0.017829480762216243 0 0.0029925529928580123 0.017906423679152388 0 0.0029714560972992137 0.017895200194341949 0 0.0029923879056708591 0.017804251197527713 0 0.0031228403823631997 0.01819361748572482 0 0.0031394183321147304 0.018357532663734581 0 0.003076668194862478 0.018181580698099723 0 0.0029921932451592182 0.01831408137973364 0 0.0030413925024487076 0.017756188378003124 0 0.003076668194862478 0.018181580698099723 0 0.0030441902344957774 0.018083372010418194 0 0.0029923879056708591 0.017804251197527713 0 0.0030386559230405454 0.017837898995785036 0 0.002841714296518273 0.017692541223546417 0 0.0026282237161324986 0.018100198082074297 0 0.0024712143646116441 0.017104639045725459 0 0.0031390522875668408 0.017053869832568496 0 0.002841714296518273 0.017692541223546417 0 0.0024712143646116441 0.017104639045725459 0 0.0031390522875668408 0.017053869832568496 0 0.002841714296518273 0.017692541223546417 0 0.0030441902344957774 0.018083372010418194 0 0.0045553179266388331 0.015397277256401533 0 0.0037262960701179675 0.014998959029814419 0 0.0038246803229759953 0.01443468573559333 0 0.0030409049727080991 0.018211497099894423 0 0.0030778732436536767 0.018268427074709888 0 0.0026282237161324986 0.018100198082074297 0 0.0037877465866551613 0.016770939891528374 0 0.0032185805673943715 0.016191486555832326 0 0.0029053707538134548 0.018082040466083069 0 0.0030409049727080991 0.018211497099894423 0 0.0026282237161324986 0.018100198082074297 0 0.002841714296518273 0.017692541223546417 0 0.0029053707538134548 0.018082040466083069 0 0.0026282237161324986 0.018100198082074297 0 0.002841714296518273 0.017692541223546417 0 0.0029053707538134548 0.018082040466083069 0 0.0030441902344957774 0.018083372010418194 0 0.0029053707538134548 0.018082040466083069 0 0.0030441902344957774 0.018083372010418194 0 0.0030409049727080991 0.018211497099894423 0 0.003076668194862478 0.018181580698099723 0 0.0030441902344957774 0.018083372010418194 0 0.0030409049727080991 0.018211497099894423 0 0.0029042951874852178 0.018490208065660884 0 0.0029921932451592182 0.01831408137973364 0 0.0029654839751325217 0.018288428667680309 0 0.003076668194862478 0.018181580698099723 0 0.0030409049727080991 0.018211497099894423 0 0.0029921932451592182 0.01831408137973364 0 0.0030409049727080991 0.018211497099894423 0 0.0029921932451592182 0.01831408137973364 0 0.0029654839751325217 0.018288428667680309 0 0.002861948377788321 0.018157489447200293 0 0.0029654839751325217 0.018288428667680309 0 0.0030778732436536767 0.018268427074709888 0 0.0030409049727080991 0.018211497099894423 0 0.0029654839751325217 0.018288428667680309 0 0.0030778732436536767 0.018268427074709888 0 0.0045553179266388331 0.015397277256401533 0 0.0039480383927973858 0.015736236056186802 0 0.0037262960701179675 0.014998959029814419 0 0.0045790808537991912 0.016479757808446002 0 0.0039762090201439651 0.016407905642618681 0 0.0039480383927973858 0.015736236056186802 0 0.0045790808537991912 0.016479757808446002 0 0.0045553179266388331 0.015397277256401533 0 0.0039480383927973858 0.015736236056186802 0 0.0045790808537991912 0.016479757808446002 0 0.0045553179266388331 0.015397277256401533 0 0.0051579271257612882 0.016301348312475587 0 0.002861948377788321 0.018157489447200293 0 0.0030778732436536767 0.018268427074709888 0 0.0029111738668967171 0.017929120728599257 0 0.0037877465866551613 0.016770939891528374 0 0.004077133407935485 0.017532282670714425 0 0.0045553179266388331 0.015397277256401533 0 0.0052797517752224878 0.016388557205225512 0 0.0051579271257612882 0.016301348312475587 0 0.0050806635568942183 0.016545425915397694 0 0.0052820175186320591 0.016393429214468586 0 0.0051579271257612882 0.016301348312475587 0 0.004077133407935485 0.017532282670714425 0 0.0042231328976149061 0.017444038853152551 0 0.0027051411036840387 0.016104511188680146 0 0.0033911023662425289 0.016030426020473037 0 0.0033867016754968813 0.015334503121700298 0 0.0039762090201439651 0.016407905642618681 0 0.0039480383927973858 0.015736236056186802 0 0.0033911023662425289 0.016030426020473037 0 0.0039480383927973858 0.015736236056186802 0 0.0033911023662425289 0.016030426020473037 0 0.0033867016754968813 0.015334503121700298 0 0.0039480383927973858 0.015736236056186802 0 0.0033867016754968813 0.015334503121700298 0 0.0037262960701179675 0.014998959029814419 0 0.0033867016754968813 0.015334503121700298 0 0.0029118376519593576 0.015083566744117297 0 0.0031859349074203551 0.014727334887486352 0 0.0033867016754968813 0.015334503121700298 0 0.0037262960701179675 0.014998959029814419 0 0.0031859349074203551 0.014727334887486352 0 0.0027051411036840387 0.016104511188680146 0 0.0033867016754968813 0.015334503121700298 0 0.0029118376519593576 0.015083566744117297 0 0.0027051411036840387 0.016104511188680146 0 0.0029118376519593576 0.015083566744117297 0 0.0023855446278764031 0.014937437228878836 0 0.0026453937958833477 0.015979247083384877 0 0.0023998105847686801 0.014999262239028517 0 0.0029118376519593576 0.015083566744117297 0 0.0025713062571338283 0.014498862386095367 0 0.0023855446278764031 0.014937437228878836 0 0.0029118376519593576 0.015083566744117297 0 0.0025713062571338283 0.014498862386095367 0 0.0031859349074203551 0.014727334887486352 0 0.0030507765132576502 0.014297617527949016 0 0.0025713062571338283 0.014498862386095367 0 0.0031859349074203551 0.014727334887486352 0 0.0037262960701179675 0.014998959029814419 0 0.0031859349074203551 0.014727334887486352 0 0.0034347109981371494 0.014463607008571014 0 0.0030507765132576502 0.014297617527949016 0 0.0031859349074203551 0.014727334887486352 0 0.0034347109981371494 0.014463607008571014 0 0.0034347109981371494 0.014463607008571014 0 0.0038246803229759953 0.01443468573559333 0 0.003303395110560845 0.014091585358980901 0 0.0037262960701179675 0.014998959029814419 0 0.0034347109981371494 0.014463607008571014 0 0.0038246803229759953 0.01443468573559333 0 0.0026282237161324986 0.018100198082074297 0 0.0024712143646116441 0.017104639045725459 0 0.0013882773786284713 0.016126755105145833 0 0.0032185805673943715 0.016191486555832326 0 0.0022620754717529415 0.015131120116080225 0 0.0030507765132576502 0.014297617527949016 0 0.003303395110560845 0.014091585358980901 0 0.0031285254211114006 0.013509916007248607 0 0.0038246803229759953 0.01443468573559333 0 0.003303395110560845 0.014091585358980901 0 0.0031285254211114006 0.013509916007248607 0 0.0030507765132576502 0.014297617527949016 0 0.0034347109981371494 0.014463607008571014 0 0.003303395110560845 0.014091585358980901 0 0.0024712143646116441 0.017104639045725459 0 0.0020610091243701847 0.016388327762020611 0 0.0013882773786284713 0.016126755105145833 0 0.0024712143646116441 0.017104639045725459 0 0.0020610091243701847 0.016388327762020611 0 0.0027980424910620202 0.016317741127178539 0 0.001915010860991247 0.014879163867805576 0 0.0022620754717529415 0.015131120116080225 0 0.0030507765132576502 0.014297617527949016 0 0.0025713062571338283 0.014498862386095367 0 0.0031285254211114006 0.013509916007248607 0 0.0011970949717545552 0.015462132041191535 0 0.0012519911788854709 0.01558212669584672 0 0.0011822580071012983 0.015499072966193213 0 0.0011970949717545552 0.015462132041191535 0 0.0012519911788854709 0.01558212669584672 0 0.0013155656529420354 0.015668610791802574 0 0.0012519911788854709 0.01558212669584672 0 0.0011822580071012983 0.015499072966193213 0 0.0011541917006978818 0.015473550524434358 0 0.0011660152086884871 0.01549098670078582 0 0.0011496949257132634 0.01530429194259156 0 0.0010972939371704637 0.015385472043784191 0 0.0012519911788854709 0.01558212669584672 0 0.0011660152086884871 0.01549098670078582 0 0.0011541917006978818 0.015473550524434358 0 0.0012519911788854709 0.01558212669584672 0 0.0013155656529420354 0.015668610791802574 0 0.00137976552722237 0.015752056753373073 0 0.0012519911788854709 0.01558212669584672 0 0.0011660152086884871 0.01549098670078582 0 0.00137976552722237 0.015752056753373073 0 0.0022620754717529415 0.015131120116080225 0 0.0022121558162741285 0.015168849076483592 0 0.0014689747192878667 0.01589978413186725 0 0.00137976552722237 0.015752056753373073 0 0.001578765612236119 0.015855057938774435 0 0.0011660152086884871 0.01549098670078582 0 0.00137976552722237 0.015752056753373073 0 0.0011496949257132634 0.01530429194259156 0 0.00137976552722237 0.015752056753373073 0 0.0011496949257132634 0.01530429194259156 0 0.001578765612236119 0.015855057938774435 0 0.0022006313420714595 0.017137313187623689 0 0.0021582116668490475 0.01698059725758919 0 0.0023444989690720136 0.017053310158491486 0 0.003003721894433179 0.01901550732817469 0 0.0025699653117610328 0.018846320396043337 0 0.0028513860242257937 0.019890042041518292 0 0.003159565204362098 0.018829195780927375 0 0.0030460124381969122 0.021988752381356082 0 0.0026533201723381397 0.017858354907445199 0 0.0025902015565997666 0.017521083290702229 0 0.0022006313420714595 0.017137313187623689 0 0.0023444989690720136 0.017053310158491486 0 0.0024646436303218757 0.017275208464791036 0 0.0017538658122024336 0.016285296121357776 0 0.0025902015565997666 0.017521083290702229 0 0.003003721894433179 0.01901550732817469 0 0.0024089656390471241 0.017866850728495406 0 0.0025699653117610328 0.018846320396043337 0 0.0020610091243701847 0.016388327762020611 0 0.001578765612236119 0.015855057938774435 0 0.0027980424910620202 0.016317741127178539 0 0.0011496949257132634 0.01530429194259156 0 0.001578765612236119 0.015855057938774435 0 0.0027980424910620202 0.016317741127178539 0 0.0020610091243701847 0.016388327762020611 0 0.0013882773786284713 0.016126755105145833 0 0.001578765612236119 0.015855057938774435 0 0.0022620754717529415 0.015131120116080225 0 0.0020843859238785702 0.015403021288017635 0 0.0024089656390471241 0.017866850728495406 0 0.002292050105837367 0.017807687731285458 0 0.0025699653117610328 0.018846320396043337 0 0.0031271716926207474 0.018212160464688685 0 0.003159565204362098 0.018829195780927375 0 0.0036887092855121296 0.018862826970812402 0 0.0035481851624124972 0.019261161818280224 0 0.0038643512731198495 0.019442127442991123 0 0.0025902015565997666 0.017521083290702229 0 0.0031271716926207474 0.018212160464688685 0 0.0036887092855121296 0.018862826970812402 0 0.0035481851624124972 0.019261161818280224 0 0.0032619240203341456 0.019118010812424539 0 0.0028083067851351375 0.019202312589724414 0 0.0029042951874852178 0.018490208065660884 0 0.0032619240203341456 0.019118010812424539 0 0.0028083067851351375 0.019202312589724414 0 0.0032619240203341456 0.019118010812424539 0 0.0033756076821166419 0.019634578826954834 0 0.0019841372693798352 0.022669786120423814 0 0.0024115478159522558 0.023095734673178197 0 0.0010920375472780706 0.026108374922727849 0 0.0013912888494681439 0.026249021119540427 0 0.0011692430765536685 0.026437028068166814 0 0.0035481851624124972 0.019261161818280224 0 0.0032619240203341456 0.019118010812424539 0 0.0033756076821166419 0.019634578826954834 0 0.0035481851624124972 0.019261161818280224 0 0.0033756076821166419 0.019634578826954834 0 0.0038643512731198495 0.019442127442991123 0 0.0033756076821166419 0.019634578826954834 0 0.0038643512731198495 0.019442127442991123 0 0.0040276195634772038 0.020075956081595209 0 0.0013912888494681439 0.026249021119540427 0 0.001476519832578863 0.026458882533093555 0 0.0017136996904693197 0.026408171078965842 0 0.0024115478159522558 0.023095734673178197 0 0.0030460124381969122 0.021988752381356082 0 0.001476519832578863 0.026458882533093555 0 0.001367522685751533 0.026668286104891518 0 0.0017500452334659113 0.026534597329507567 0 0.0013912888494681439 0.026249021119540427 0 0.001476519832578863 0.026458882533093555 0 0.0011692430765536685 0.026437028068166814 0 0.001476519832578863 0.026458882533093555 0 0.0011692430765536685 0.026437028068166814 0 0.001367522685751533 0.026668286104891518 0 0.00096951263831998949 0.026782062582986113 0 0.0011692430765536685 0.026437028068166814 0 0.001367522685751533 0.026668286104891518 0 0.0010754597964266418 0.026661379505294451 0 0.0015328243093196193 0.026705501293108953 0 0.0011445699509795865 0.02658358958687056 0 0.0018318495091038036 0.026347935241487094 0 0.0015295417638651176 0.026797818977862972 0 0.0015328243093196193 0.026705501293108953 0 0.002211258057587906 0.024784871605542356 0 0.0018318495091038036 0.026347935241487094 0 0.0024427027295760005 0.026185895991500407 0 0.0021882347368903762 0.026609274708725355 0 0.0023619029212113484 0.024575026733578451 0 0.0015867625109696713 0.023578243117942262 0 0.0025980708727453656 0.0267739286655552 0 0.002211258057587906 0.024784871605542356 0 0.0025153425497724613 0.026709158647771996 0 0.0023619029212113484 0.024575026733578451 0 0.0026173045496620199 0.025188504307730276 0 0.0025980708727453656 0.0267739286655552 0 0.0024427027295760005 0.026185895991500407 0 0.0025980708727453656 0.0267739286655552 0 0.0023897199987809132 0.02668224346471031 0 0.0024427027295760005 0.026185895991500407 0 0.0023897199987809132 0.02668224346471031 0 0.0021882347368903762 0.026609274708725355 0 0.0023645555251686008 0.023918167330100895 0 0.0023619029212113484 0.024575026733578451 0 0.0015867625109696713 0.023578243117942262 0 0.0023645555251686008 0.023918167330100895 0 0.0023619029212113484 0.024575026733578451 0 0.0029467950099925947 0.024211025099785202 0 0.0023619029212113484 0.024575026733578451 0 0.0026173045496620199 0.025188504307730276 0 0.0028034125893228821 0.024821262674933117 0 0.0026173045496620199 0.025188504307730276 0 0.0029328772325753713 0.025433679294474012 0 0.0027354156636378605 0.025733510862996207 0 0.0026173045496620199 0.025188504307730276 0 0.0030213629785669498 0.025086999497355988 0 0.0029328772325753713 0.025433679294474012 0 0.0030213629785669498 0.025086999497355988 0 0.0029328772325753713 0.025433679294474012 0 0.0032187748470841973 0.025416457079918096 0 0.0030213629785669498 0.025086999497355988 0 0.0032187748470841973 0.025416457079918096 0 0.0034573878418642022 0.024849630808992433 0 0.0030213629785669498 0.025086999497355988 0 0.0034573878418642022 0.024849630808992433 0 0.0031789237224470819 0.024745659739352374 0 0.0034573878418642022 0.024849630808992433 0 0.0031789237224470819 0.024745659739352374 0 0.0035530132629098027 0.024550437141708435 0 0.0031789237224470819 0.024745659739352374 0 0.0028034125893228821 0.024821262674933117 0 0.0029467950099925947 0.024211025099785202 0 0.0026173045496620199 0.025188504307730276 0 0.0030213629785669498 0.025086999497355988 0 0.0028034125893228821 0.024821262674933117 0 0.0030213629785669498 0.025086999497355988 0 0.0031789237224470819 0.024745659739352374 0 0.0028034125893228821 0.024821262674933117 0 0.0032187748470841973 0.025416457079918096 0 0.0043368384418917411 0.024394596585912223 0 0.0031227089323850581 0.025897070279669369 0 0.0032187748470841973 0.025416457079918096 0 0.0034573878418642022 0.024849630808992433 0 0.0043368384418917411 0.024394596585912223 0 0.0034573878418642022 0.024849630808992433 0 0.0043368384418917411 0.024394596585912223 0 0.0035530132629098027 0.024550437141708435 0 0.0023436948787953871 0.02036951454545673 0 0.0029379685269571446 0.021437024788299085 0 0.0043368384418917411 0.024394596585912223 0 0.0035202399336325242 0.024099783815441009 0 0.0033489673576120715 0.02376830611117969 0 0.0043368384418917411 0.024394596585912223 0 0.0035530132629098027 0.024550437141708435 0 0.0035202399336325242 0.024099783815441009 0 0.0023619029212113484 0.024575026733578451 0 0.0028034125893228821 0.024821262674933117 0 0.0029467950099925947 0.024211025099785202 0 0.0029467950099925947 0.024211025099785202 0 0.0032990714824623732 0.024402066684490114 0 0.0035202399336325242 0.024099783815441009 0 0.0031789237224470819 0.024745659739352374 0 0.0029467950099925947 0.024211025099785202 0 0.0032990714824623732 0.024402066684490114 0 0.0031789237224470819 0.024745659739352374 0 0.0035530132629098027 0.024550437141708435 0 0.0032990714824623732 0.024402066684490114 0 0.0035530132629098027 0.024550437141708435 0 0.0032990714824623732 0.024402066684490114 0 0.0035202399336325242 0.024099783815441009 0 0.0029467950099925947 0.024211025099785202 0 0.0035202399336325242 0.024099783815441009 0 0.0033537388926653294 0.023788290721987657 0 0.0032119842950143547 0.022076241739474155 0 0.0029379685269571446 0.021437024788299085 0 0.0023645555251686008 0.023918167330100895 0 0.0029467950099925947 0.024211025099785202 0 0.0025579256352709729 0.023304585344145687 0 0.0029467950099925947 0.024211025099785202 0 0.0033537388926653294 0.023788290721987657 0 0.0025579256352709729 0.023304585344145687 0 0.0025304315253025459 0.019596791995890993 0 0.0019195250032518513 0.015417339369157412 0 0.002476533755552538 0.021151804169091501 0 0.0025019120313249333 0.02119719575886778 0 0.0025388163384265036 0.021187659721094956 0 0.0021582116668490475 0.01698059725758919 0 0.0022289715747593059 0.016848151359960654 0 0.0020247527531711078 0.016883084499557197 0 0.0021582116668490475 0.01698059725758919 0 0.0023444989690720136 0.017053310158491486 0 0.0022289715747593059 0.016848151359960654 0 0.0029379685269571446 0.021437024788299085 0 0.0027709356085148669 0.021477373714715559 0 0.002030887052104891 0.018836306003652638 0 0.0018767668229810479 0.018545950582140779 0 0.003026544558252305 0.018208121619593197 0 0.002488392829450555 0.019114492730977116 0 0.002030887052104891 0.018836306003652638 0 0.003026544558252305 0.018208121619593197 0 0.0025304315253025459 0.019596791995890993 0 0.0027709356085148669 0.021477373714715559 0 0.0029379685269571446 0.021437024788299085 0 0.0025304315253025459 0.019596791995890993 0 0.001476519832578863 0.026458882533093555 0 0.0017136996904693197 0.026408171078965842 0 0.0017500452334659113 0.026534597329507567 0 0.003003721894433179 0.01901550732817469 0 0.0036008810424108173 0.020166865463126956 0 0.0028513860242257937 0.019890042041518292 0 0.0026533201723381397 0.017858354907445199 0 0.0025304315253025459 0.019596791995890993 0 0.0030460124381969122 0.021988752381356082 0 0.002211258057587906 0.024784871605542356 0 0.0030460124381969122 0.021988752381356082 0 0.0027709356085148669 0.021477373714715559 0 0.0029507075850213585 0.022468024845305992 0 0.0029198915852891713 0.022367727319885348 0 0.0028223343085636487 0.022390309854178569 0 0.002211258057587906 0.024784871605542356 0 0.0027709356085148669 0.021477373714715559 0 0.0036008810424108173 0.020166865463126956 0 0.0028513860242257937 0.019890042041518292 0 0.0033942833962490046 0.020224040865441981 0 0.0023645555251686008 0.023918167330100895 0 0.0015867625109696713 0.023578243117942262 0 0.0025579256352709729 0.023304585344145687 0 0.0024731255333599743 0.026918270849934648 0 0.0022475682006948836 0.02694329721445779 0 0.0023793944450056694 0.027255440796811393 0 0.0027185952922778641 0.026837816947997507 0 0.0024731255333599743 0.026918270849934648 0 0.0023793944450056694 0.027255440796811393 0 0.0026924980376824585 0.026913615780640537 0 0.0026200121933963594 0.026343160612696814 0 0.0023793944450056694 0.027255440796811393 0 0.0026270210149775004 0.027350357549372175 0 0.002481620014578534 0.026916272269085276 0 0.0026924980376824585 0.026913615780640537 0 0.0030619619690912727 0.026812845321541014 0 0.0029154811410261796 0.027316744211473488 0 0.0030619619690912727 0.026812845321541014 0 0.0028433824955408481 0.026642136485987448 0 0.0029693379448060991 0.026469000384361532 0 0.0026924980376824585 0.026913615780640537 0 0.0028433824955408481 0.026642136485987448 0 0.0026200121933963594 0.026343160612696814 0 0.0026924980376824585 0.026913615780640537 0 0.0030619619690912727 0.026812845321541014 0 0.0028433824955408481 0.026642136485987448 0 0.0043368384418917411 0.024394596585912223 0 0.0027185952922778641 0.026837816947997507 0 0.0031227089323850581 0.025897070279669369 0 0.0030377429818206256 0.025511342395020092 0 0.0026200121933963594 0.026343160612696814 0 0.0029473258283859898 0.026104563952616254 0 0.0023436948787953871 0.02036951454545673 0 0.0026270210149775004 0.027350357549372175 0 0.0028433824955408481 0.026642136485987448 0 0.0026200121933963594 0.026343160612696814 0 0.0029693379448060991 0.026469000384361532 0 0.0027185952922778641 0.026837816947997507 0 0.0028060140567515656 0.026364760293881774 0 0.0025980708727453656 0.0267739286655552 0 0.0026200121933963594 0.026343160612696814 0 0.0029693379448060991 0.026469000384361532 0 0.0029473258283859898 0.026104563952616254 0 0.0029693379448060991 0.026469000384361532 0 0.0029473258283859898 0.026104563952616254 0 0.0031622670191388523 0.026091318117815235 0 0.0030377429818206256 0.025511342395020092 0 0.0029473258283859898 0.026104563952616254 0 0.0031622670191388523 0.026091318117815235 0 0.0026173045496620199 0.025188504307730276 0 0.0027354156636378605 0.025733510862996207 0 0.0025980708727453656 0.0267739286655552 0 0.0027185952922778641 0.026837816947997507 0 0.0028060140567515656 0.026364760293881774 0 0.0031227089323850581 0.025897070279669369 0 0.0028379439679621092 0.026053827483642718 0 0.0027354156636378605 0.025733510862996207 0 0.0025980708727453656 0.0267739286655552 0 0.0028379439679621092 0.026053827483642718 0 0.0028060140567515656 0.026364760293881774 0 0.0025980708727453656 0.0267739286655552 0 0.0028379439679621092 0.026053827483642718 0 0.0028060140567515656 0.026364760293881774 0 0.0031227089323850581 0.025897070279669369 0 0.0029328772325753713 0.025433679294474012 0 0.0032187748470841973 0.025416457079918096 0 0.0031227089323850581 0.025897070279669369 0 0.0029328772325753713 0.025433679294474012 0 0.0031227089323850581 0.025897070279669369 0 0.0027354156636378605 0.025733510862996207 0 0.0028379439679621092 0.026053827483642718 0 0.0031227089323850581 0.025897070279669369 0 0.0027354156636378605 0.025733510862996207 0 0.0025980708727453656 0.0267739286655552 0 0.0024731255333599743 0.026918270849934648 0 0.0023897199987809132 0.02668224346471031 0 0.0027185952922778641 0.026837816947997507 0 0.0025980708727453656 0.0267739286655552 0 0.0024731255333599743 0.026918270849934648 0 0.0024731255333599743 0.026918270849934648 0 0.0023897199987809132 0.02668224346471031 0 0.0022475682006948836 0.02694329721445779 0 0.0023897199987809132 0.02668224346471031 0 0.0021882347368903762 0.026609274708725355 0 0.0022475682006948836 0.02694329721445779 0 0.0018318495091038036 0.026347935241487094 0 0.0021882347368903762 0.026609274708725355 0 0.001924140947424983 0.026831434172993308 0 0.0021882347368903762 0.026609274708725355 0 0.001924140947424983 0.026831434172993308 0 0.0022475682006948836 0.02694329721445779 0 0.0018318495091038036 0.026347935241487094 0 0.001924140947424983 0.026831434172993308 0 0.0015295417638651176 0.026797818977862972 0 0.001924140947424983 0.026831434172993308 0 0.0015295417638651176 0.026797818977862972 0 0.0016127923694361284 0.027123566738082146 0 0.001924140947424983 0.026831434172993308 0 0.0016127923694361284 0.027123566738082146 0 0.0020486824395869979 0.027243732878897531 0 0.0016127923694361284 0.027123566738082146 0 0.0020486824395869979 0.027243732878897531 0 0.0012701577399831477 0.027822290239240793 0 0.001924140947424983 0.026831434172993308 0 0.0020486824395869979 0.027243732878897531 0 0.0022475682006948836 0.02694329721445779 0 0.0020486824395869979 0.027243732878897531 0 0.0022475682006948836 0.02694329721445779 0 0.0023793944450056694 0.027255440796811393 0 0.0020486824395869979 0.027243732878897531 0 0.0021116973664169784 0.027678803692799764 0 0.0023793944450056694 0.027255440796811393 0 0.0020486824395869979 0.027243732878897531 0 0.0021116973664169784 0.027678803692799764 0 0.0012701577399831477 0.027822290239240793 0 0.0021116973664169784 0.027678803692799764 0 0.0016813913901339978 0.028360699669479954 0 0.0012701577399831477 0.027822290239240793 0 0.001935740185572883 0.027371952122341572 0 0.0031758813216044772 0.029077514688999544 0 0.0021116973664169784 0.027678803692799764 0 0.0030377374798710327 0.028566614604972496 0 0.0022594244955412048 0.028565740418892205 0 0.0021116973664169784 0.027678803692799764 0 0.0016813913901339978 0.028360699669479954 0 0.0022594244955412048 0.028565740418892205 0 0.0026924980376824585 0.026913615780640537 0 0.0023793944450056694 0.027255440796811393 0 0.0029154811410261796 0.027316744211473488 0 0.0023793944450056694 0.027255440796811393 0 0.0029154811410261796 0.027316744211473488 0 0.0025689755830990858 0.027885647401758373 0 0.0021116973664169784 0.027678803692799764 0 0.0023793944450056694 0.027255440796811393 0 0.0025689755830990858 0.027885647401758373 0 0.0029154811410261796 0.027316744211473488 0 0.0025689755830990858 0.027885647401758373 0 0.0032927595388241269 0.027689557042061875 0 0.0025689755830990858 0.027885647401758373 0 0.0030553498632012906 0.028225074729382325 0 0.0032927595388241269 0.027689557042061875 0 0.0031758813216044772 0.029077514688999544 0 0.0025816258702887171 0.024215199233278736 0 0.0030377374798710327 0.028566614604972496 0 0.0037368896928318611 0.029273341996657473 0 0.0032433743290809724 0.029338429966112443 0 0.0030377374798710327 0.028566614604972496 0 0.0032433743290809724 0.029338429966112443 0 0.0026206963053716876 0.029398665119912043 0 0.0030377374798710327 0.028566614604972496 0 0.0026206963053716876 0.029398665119912043 0 0.0022594244955412048 0.028565740418892205 0 0.0032433743290809724 0.029338429966112443 0 0.0029909164082913583 0.029817991821934911 0 0.0026206963053716876 0.029398665119912043 0 0.0032433743290809724 0.029338429966112443 0 0.0035840737591449055 0.02966120852217121 0 0.0029909164082913583 0.029817991821934911 0 0.0037368896928318611 0.029273341996657473 0 0.0032433743290809724 0.029338429966112443 0 0.0035840737591449055 0.02966120852217121 0 0.0025816258702887171 0.024215199233278736 0 0.0026198139305492144 0.030044324804943515 0 0.00020970922935930543 0.023142689124262154 0 0.00060823196024364478 0.02284890071598069 0 0.00046533442384951291 0.023042602611037584 0 0.0035840737591449055 0.02966120852217121 0 0.0032702666278066283 0.030149026530612896 0 0.0041209933424430573 0.029552448268861109 0 0.0011053199825458025 0.02618595863929515 0 0.00071623102423624377 0.022842191836176966 0 0.0035840737591449055 0.02966120852217121 0 0.0032702666278066283 0.030149026530612896 0 0.0029909164082913583 0.029817991821934911 0 0.0011053199825458025 0.02618595863929515 0 0.00035673425747043586 0.022654423724880694 0 0.0032702666278066283 0.030149026530612896 0 0.0029909164082913583 0.029817991821934911 0 0.0022013475345915548 0.030557553105399819 0 0.0011053199825458025 0.02618595863929515 0 0.0011711405331955658 0.029207962012605834 0 9.3360024571931662e-05 0.022998442341362675 0 4.3349330033990352e-05 0.023773398969199316 0 -0.00013877279366458133 0.024502442717238178 0 0.0011053199825458025 0.02618595863929515 0 -3.5643013037875816e-05 0.025722453102943257 0 1.5084131573227706e-05 0.027016224067222001 0 -5.3086708611879752e-05 0.027075017125472403 0 -3.9474587670005468e-05 0.027066906931063343 0 4.3349330033990352e-05 0.023773398969199316 0 1.6834581798734944e-08 0.02482567501336029 0 5.4240592299614397e-07 0.022652918959781138 0 4.3349330033990352e-05 0.023773398969199316 0 1.6834581798734944e-08 0.02482567501336029 0 -0.00013877279366458133 0.024502442717238178 0 9.3360024571931662e-05 0.022998442341362675 0 5.4240592299614397e-07 0.022652918959781138 0 0.00019006434991611731 0.022192501905600692 0 9.3360024571931662e-05 0.022998442341362675 0 4.3349330033990352e-05 0.023773398969199316 0 5.4240592299614397e-07 0.022652918959781138 0 -3.0934168276072257e-07 0.027003167692167956 0 -5.3086708611879752e-05 0.027075017125472403 0 4.0195634914771973e-05 0.028637280748558046 0 0.0011711405331955658 0.029207962012605834 0 0.00067952725509672204 0.029789082615734003 0 0.0022013475345915548 0.030557553105399819 0 0.0015470896150343231 0.030338784909704947 0 0.001104022457755399 0.031011307860075971 0 -3.0934168276072257e-07 0.027003167692167956 0 -5.3086708611879752e-05 0.027075017125472403 0 -3.9474587670005468e-05 0.027066906931063343 0 2.7050475166395093e-07 0.02699933845799548 0 -3.5643013037875816e-05 0.025722453102943257 0 1.6834581798734944e-08 0.02482567501336029 0 -7.6663479570779143e-07 0.026998737614451845 0 -0.00013877279366458133 0.024502442717238178 0 0.0022013475345915548 0.030557553105399819 0 0.0019510744492326874 0.029802775221800529 0 0.0026206963053716876 0.029398665119912043 0 0.0029909164082913583 0.029817991821934911 0 0.0022013475345915548 0.030557553105399819 0 0.0026206963053716876 0.029398665119912043 0 0.0015470896150343231 0.030338784909704947 0 0.0019510744492326874 0.029802775221800529 0 0.00094389146746469649 0.029958982588931694 0 0.0022013475345915548 0.030557553105399819 0 0.0015470896150343231 0.030338784909704947 0 0.0019510744492326874 0.029802775221800529 0 0.0019510744492326874 0.029802775221800529 0 0.0017702694543194116 0.029030730743777045 0 0.00094389146746469649 0.029958982588931694 0 0.0019510744492326874 0.029802775221800529 0 0.0026206963053716876 0.029398665119912043 0 0.0017702694543194116 0.029030730743777045 0 0.0026206963053716876 0.029398665119912043 0 0.0022594244955412048 0.028565740418892205 0 0.0017702694543194116 0.029030730743777045 0 0.0016813913901339978 0.028360699669479954 0 0.0017702694543194116 0.029030730743777045 0 0.00099743819796417848 0.028755187920602342 0 0.0016813913901339978 0.028360699669479954 0 0.0022594244955412048 0.028565740418892205 0 0.0017702694543194116 0.029030730743777045 0 0.0017702694543194116 0.029030730743777045 0 0.00099743819796417848 0.028755187920602342 0 0.00094389146746469649 0.029958982588931694 0 0.00099743819796417848 0.028755187920602342 0 0.00021038371743786562 0.029244837536851784 0 0.00019107380871963305 0.028237544006386187 0 0.00021038371743786562 0.029244837536851784 0 0.00094389146746469649 0.029958982588931694 0 -0.00013633599079185895 0.030149085483683509 0 0.00099743819796417848 0.028755187920602342 0 0.00021038371743786562 0.029244837536851784 0 0.00094389146746469649 0.029958982588931694 0 0.0015470896150343231 0.030338784909704947 0 0.00094389146746469649 0.029958982588931694 0 0.001104022457755399 0.031011307860075971 0 0.00089414131989236855 0.030035080457311066 0 -5.803522419550388e-05 0.02993599454114379 0 0.00094389146746469649 0.029958982588931694 0 0.00041493322017197715 0.030759406612508429 0 5.1742720588798084e-05 0.030228777849808888 0 0.00094389146746469649 0.029958982588931694 0 0.00041493322017197715 0.030759406612508429 0 0.001104022457755399 0.031011307860075971 0 0.00067952725509672204 0.029789082615734003 0 4.6150971051187012e-07 0.031513371933692545 0 4.0195634914771973e-05 0.028637280748558046 0 4.0454836210611189e-07 0.029255529717097238 0 -4.3754558398827237e-07 0.031513942933115144 0 0.00041493322017197715 0.030759406612508429 0 0.001104022457755399 0.031011307860075971 0 1.159368987524751e-06 0.031516847324750373 0 -3.0934168276072257e-07 0.027003167692167956 0 4.0195634914771973e-05 0.028637280748558046 0 4.0454836210611189e-07 0.029255529717097238 0 -0.00019426972053482547 0.033740370256296302 0 -8.5549540412712922e-07 0.031907131450059717 0 -3.8754530956749679e-05 0.036328285960627163 0 0.00041493322017197715 0.030759406612508429 0 1.159368987524751e-06 0.031516847324750373 0 -4.81700318650066e-05 0.031074247568897956 0 -0.00033465351190516167 0.032423254758938418 0 -1.5450857152391339e-07 0.031903852075174474 0 -1.3262775408075597e-06 0.03190020280926361 0 1.159368987524751e-06 0.031516847324750373 0 -4.81700318650066e-05 0.031074247568897956 0 -0.00067371452904277666 0.031013388901856419 0 -1.3262775408075597e-06 0.03190020280926361 0 -4.81700318650066e-05 0.031074247568897956 0 0.00041493322017197715 0.030759406612508429 0 -4.81700318650066e-05 0.031074247568897956 0 5.1742720588798084e-05 0.030228777849808888 0 -0.00067371452904277666 0.031013388901856419 0 -4.81700318650066e-05 0.031074247568897956 0 5.1742720588798084e-05 0.030228777849808888 0 -0.00067371452904277666 0.031013388901856419 0 5.1742720588798084e-05 0.030228777849808888 0 -0.0011154242694035774 0.030420341602805451 0 -0.00013633599079185895 0.030149085483683509 0 -0.0011878608350370835 0.030329986073319458 0 -0.00077363998046632533 0.029698619694654177 0 -5.803522419550388e-05 0.02993599454114379 0 -0.00085055585172494482 0.032752787283613916 0 -0.00033465351190516167 0.032423254758938418 0 -0.00085055585172494482 0.032752787283613916 0 -0.0011878608350370835 0.030329986073319458 0 -0.0012024441523361888 0.029764065410292237 0 -0.00077363998046632533 0.029698619694654177 0 -0.00077363998046632533 0.029698619694654177 0 -0.00033648356784414372 0.02945052474594017 0 -0.00069985519887907053 0.029183240850419505 0 -0.0012024441523361888 0.029764065410292237 0 -0.00077363998046632533 0.029698619694654177 0 -0.0011153224958341708 0.029186600218446771 0 0.00021038371743786562 0.029244837536851784 0 -0.00013633599079185895 0.030149085483683509 0 -0.00033648356784414372 0.02945052474594017 0 -0.00013633599079185895 0.030149085483683509 0 -0.00077363998046632533 0.029698619694654177 0 -0.00033648356784414372 0.02945052474594017 0 0.00021038371743786562 0.029244837536851784 0 -0.00027883983861173682 0.028980527354089358 0 0.00019107380871963305 0.028237544006386187 0 -0.00027883983861173682 0.028980527354089358 0 -0.00076051420388885372 0.028765806968084413 0 0.00019107380871963305 0.028237544006386187 0 0.00021038371743786562 0.029244837536851784 0 -0.00033648356784414372 0.02945052474594017 0 -0.00027883983861173682 0.028980527354089358 0 -0.00033648356784414372 0.02945052474594017 0 -0.00027883983861173682 0.028980527354089358 0 -0.00069985519887907053 0.029183240850419505 0 -0.00027883983861173682 0.028980527354089358 0 -0.00069985519887907053 0.029183240850419505 0 -0.00076051420388885372 0.028765806968084413 0 -0.0011153224958341708 0.029186600218446771 0 -0.00088062035586939464 0.028694709027983375 0 -0.0015539044173060981 0.029280823575034393 0 -0.0011153224958341708 0.029186600218446771 0 -0.00069985519887907053 0.029183240850419505 0 -0.00088765183619539747 0.028990850668483756 0 -0.00077363998046632533 0.029698619694654177 0 -0.0011153224958341708 0.029186600218446771 0 -0.00069985519887907053 0.029183240850419505 0 -0.00069985519887907053 0.029183240850419505 0 -0.00088765183619539747 0.028990850668483756 0 -0.00076051420388885372 0.028765806968084413 0 -0.00088765183619539747 0.028990850668483756 0 -0.00076051420388885372 0.028765806968084413 0 -0.00088062035586939464 0.028694709027983375 0 -0.00050758964138979102 0.029213812286187725 0 -0.00030519909138564415 0.029383322183673947 0 -0.0011153224958341708 0.029186600218446771 0 -0.00088765183619539747 0.028990850668483756 0 -0.00088062035586939464 0.028694709027983375 0 8.7779786428366006e-05 0.028337659881017441 0 1.6525845521646606e-05 0.027895396002274416 0 0.00034266033043643456 0.027916057642849199 0 8.7779786428366006e-05 0.028337659881017441 0 1.6525845521646606e-05 0.027895396002274416 0 -0.00038044570584542956 0.028020634923306274 0 1.6525845521646606e-05 0.027895396002274416 0 0.00024532928122129633 0.027652811294860111 0 0.00034266033043643456 0.027916057642849199 0 1.6525845521646606e-05 0.027895396002274416 0 0.00024532928122129633 0.027652811294860111 0 -2.1985987349234873e-05 0.02759859100135412 0 1.6525845521646606e-05 0.027895396002274416 0 -2.1985987349234873e-05 0.02759859100135412 0 -0.00018533904927460742 0.027805666938593952 0 0.00034266033043643456 0.027916057642849199 0 0.00067556953385131395 0.028096549959653782 0 0.00063325350326754728 0.027534505338901491 0 0.00024532928122129633 0.027652811294860111 0 0.00034266033043643456 0.027916057642849199 0 0.00063325350326754728 0.027534505338901491 0 -0.00076051420388885372 0.028765806968084413 0 -0.00088113356470216554 0.028685712555263497 0 0.00019107380871963305 0.028237544006386187 0 8.7779786428366006e-05 0.028337659881017441 0 0.00034266033043643456 0.027916057642849199 0 0.00067556953385131395 0.028096549959653782 0 -0.00030519909138564415 0.029383322183673947 0 0.00045600009874994206 0.028051619877697151 0 0.00045600009874994206 0.028051619877697151 0 0.0012095326247857313 0.027875808011816994 0 0.00099743819796417848 0.028755187920602342 0 0.00019107380871963305 0.028237544006386187 0 0.0012701577399831477 0.027822290239240793 0 0.0016813913901339978 0.028360699669479954 0 0.00099743819796417848 0.028755187920602342 0 0.0012701577399831477 0.027822290239240793 0 0.00067556953385131395 0.028096549959653782 0 0.0012701577399831477 0.027822290239240793 0 0.00063325350326754728 0.027534505338901491 0 0.00063325350326754728 0.027534505338901491 0 0.0011168783894678976 0.027107587005416128 0 0.00049257715517139723 0.026898038309815717 0 0.0012701577399831477 0.027822290239240793 0 0.00063325350326754728 0.027534505338901491 0 0.0011168783894678976 0.027107587005416128 0 0.0016127923694361284 0.027123566738082146 0 0.0012701577399831477 0.027822290239240793 0 0.0011168783894678976 0.027107587005416128 0 0.0015295417638651176 0.026797818977862972 0 0.0016127923694361284 0.027123566738082146 0 0.0011168783894678976 0.027107587005416128 0 0.0011445699509795865 0.02658358958687056 0 0.0015295417638651176 0.026797818977862972 0 0.0011168783894678976 0.027107587005416128 0 0.0011445699509795865 0.02658358958687056 0 0.0011168783894678976 0.027107587005416128 0 0.00049257715517139723 0.026898038309815717 0 0.0010754597964266418 0.026661379505294451 0 0.000521204816889916 0.026882773641739553 0 0.00049257715517139723 0.026898038309815717 0 4.8824593865444043e-05 0.026917173069406782 0 0.00023172314335045534 0.027290181060636749 0 4.8824593865444043e-05 0.026917173069406782 0 0.00023172314335045534 0.027290181060636749 0 -0.00014654751259814179 0.027340863937308078 0 0.00023172314335045534 0.027290181060636749 0 -2.1985987349234873e-05 0.02759859100135412 0 -0.00014654751259814179 0.027340863937308078 0 0.00024532928122129633 0.027652811294860111 0 0.00023172314335045534 0.027290181060636749 0 -2.1985987349234873e-05 0.02759859100135412 0 0.00024532928122129633 0.027652811294860111 0 0.00063325350326754728 0.027534505338901491 0 0.00023172314335045534 0.027290181060636749 0 0.00063325350326754728 0.027534505338901491 0 0.00049257715517139723 0.026898038309815717 0 0.00023172314335045534 0.027290181060636749 0 -0.00051784807614957808 0.037184080011584207 0 -0.0017038182090626799 0.034607396861261075 0 -0.0034065810970467006 0.038396091072410231 0 -0.00066417643802625952 0.037085930441101929 0 -0.0016201732523744561 0.04199738560957083 0 -0.00085806797490777886 0.033652393205636524 0 -0.00015190029622364542 0.03413071669718494 0 -0.0021033769756925017 0.036205374668629053 0 -0.00019482757753878504 0.02986604271972966 0 0.00034340122841116706 0.031886814041419798 0 -0.00057805176574678445 0.027556522890928262 0 -0.00014654751259814179 0.027340863937308078 0 -0.00041244316233869866 0.027096769843953251 0 -0.00057805176574678445 0.027556522890928262 0 -0.00030710870507637045 0.027640485635843256 0 -0.00014654751259814179 0.027340863937308078 0 -0.00085806797490777886 0.033652393205636524 0 -0.00015190029622364542 0.03413071669718494 0 0.0003816239916362984 0.031135973852867524 0 -2.1985987349234873e-05 0.02759859100135412 0 -0.00030710870507637045 0.027640485635843256 0 -0.00014654751259814179 0.027340863937308078 0 -0.00062039367560135232 0.035294778544173448 0 0.00034340122841116706 0.031886814041419798 0 4.8824593865444043e-05 0.026917173069406782 0 -0.00014654751259814179 0.027340863937308078 0 -0.00041244316233869866 0.027096769843953251 0 -2.7801908892807706e-05 0.030901891382152831 0 0.00060767682730593841 0.034791961623403457 0 -0.0017038182090626799 0.034607396861261075 0 -0.00051784807614957808 0.037184080011584207 0 0.00060767682730593841 0.034791961623403457 0 -0.0017038182090626799 0.034607396861261075 0 -0.00098683379470113856 0.039114554483329393 0 0.00029446824025804679 0.03991460704287781 0 -0.0010944391991836333 0.040012277844396621 0 -0.0017849102196793904 0.038893761751449513 0 -0.00098683379470113856 0.039114554483329393 0 -0.0010944391991836333 0.040012277844396621 0 -0.00036443952338236938 0.042204993112755204 0 -0.00094200114125253152 0.043631200740156438 0 -0.0017849102196793904 0.038893761751449513 0 -0.0010944391991836333 0.040012277844396621 0 -0.0024557054051743488 0.040416353165199807 0 -0.0018563107755417451 0.038587911098272767 0 -0.0017849102196793904 0.038893761751449513 0 -0.0024557054051743488 0.040416353165199807 0 -0.00075850250056292128 0.045610334137606054 0 -0.001807153344518636 0.044920405604102626 0 -0.0010588992395334207 0.044744972421605821 0 -0.00094200114125253152 0.043631200740156438 0 -0.0016201732523744561 0.04199738560957083 0 -0.0010944391991836333 0.040012277844396621 0 -0.0024557054051743488 0.040416353165199807 0 -0.00052744882083455161 0.04172509527121597 0 -0.00075850250056292128 0.045610334137606054 0 -0.0010588992395334207 0.044744972421605821 0 -0.00044940499394850893 0.044752789225240557 0 0.00029446824025804679 0.03991460704287781 0 -0.0010944391991836333 0.040012277844396621 0 -0.00052744882083455161 0.04172509527121597 0 -0.001807153344518636 0.044920405604102626 0 -0.0015700002681136773 0.044360549003347641 0 -0.0010588992395334207 0.044744972421605821 0 -0.0019531260663919418 0.045116904729985217 0 -0.0015700002681136773 0.044360549003347641 0 -0.0024542270714520832 0.044589147824434974 0 -0.0015700002681136773 0.044360549003347641 0 -0.0022167494958973129 0.044276197256051579 0 -0.0024542270714520832 0.044589147824434974 0 -0.0016201732523744561 0.04199738560957083 0 -0.0020153629684316467 0.045244944416845283 0 -0.0010588992395334207 0.044744972421605821 0 -0.00070235752447785885 0.044170910473592985 0 -0.00044940499394850893 0.044752789225240557 0 -0.0015700002681136773 0.044360549003347641 0 -0.0010588992395334207 0.044744972421605821 0 -0.00070235752447785885 0.044170910473592985 0 -0.0015700002681136773 0.044360549003347641 0 -0.00070235752447785885 0.044170910473592985 0 -0.00126655813419109 0.043868905943014451 0 -0.00070235752447785885 0.044170910473592985 0 -0.00126655813419109 0.043868905943014451 0 -0.00043847352149945971 0.043411181335113243 0 -0.0015700002681136773 0.044360549003347641 0 -0.0020139732827352754 0.044051869459794855 0 -0.0022167494958973129 0.044276197256051579 0 -0.0020139732827352754 0.044051869459794855 0 -0.0022167494958973129 0.044276197256051579 0 -0.0023724638820979815 0.044091733481061844 0 -0.0020139732827352754 0.044051869459794855 0 -0.0022995664936488911 0.043925100661884327 0 -0.0023724638820979815 0.044091733481061844 0 -0.0015700002681136773 0.044360549003347641 0 -0.00126655813419109 0.043868905943014451 0 -0.0020139732827352754 0.044051869459794855 0 -0.00126655813419109 0.043868905943014451 0 -0.0020139732827352754 0.044051869459794855 0 -0.0019373979057637767 0.043635601591782897 0 -0.0020139732827352754 0.044051869459794855 0 -0.0019373979057637767 0.043635601591782897 0 -0.0022995664936488911 0.043925100661884327 0 -0.0019373979057637767 0.043635601591782897 0 -0.0023898518518475896 0.043670035899818681 0 -0.0022995664936488911 0.043925100661884327 0 -0.0018798306686295162 0.034307279921002742 0 -0.001132760967036132 0.034812108827892367 0 -0.0024264562313398869 0.03739348402281726 0 -0.001343100177949162 0.036232414411876197 0 -0.0026952765556069016 0.041292375573826631 0 -0.0026488955806176087 0.043736726554330967 0 -0.0029100562492323043 0.044435721328073823 0 -0.0028210893063922078 0.043305902375366308 0 -0.0023898518518475896 0.043670035899818681 0 -0.0026488955806176087 0.043736726554330967 0 -0.0024710654162628768 0.043886760165743915 0 -0.0023898518518475896 0.043670035899818681 0 -0.0026488955806176087 0.043736726554330967 0 -0.0025408637430164864 0.04350690588918487 0 -0.0026488955806176087 0.043736726554330967 0 -0.0024710654162628768 0.043886760165743915 0 -0.0026173142983187069 0.044081538496878271 0 -0.0023898518518475896 0.043670035899818681 0 -0.0024710654162628768 0.043886760165743915 0 -0.0022995664936488911 0.043925100661884327 0 -0.0026173142983187069 0.044081538496878271 0 -0.0025211567282452663 0.04429620299703068 0 -0.0029100562492323043 0.044435721328073823 0 -0.0026488955806176087 0.043736726554330967 0 -0.0026173142983187069 0.044081538496878271 0 -0.0029100562492323043 0.044435721328073823 0 -0.0024710654162628768 0.043886760165743915 0 -0.0022995664936488911 0.043925100661884327 0 -0.0023724638820979815 0.044091733481061844 0 -0.0024710654162628768 0.043886760165743915 0 -0.0023724638820979815 0.044091733481061844 0 -0.0026173142983187069 0.044081538496878271 0 -0.0023724638820979815 0.044091733481061844 0 -0.0026173142983187069 0.044081538496878271 0 -0.0025211567282452663 0.04429620299703068 0 -0.0022167494958973129 0.044276197256051579 0 -0.0023724638820979815 0.044091733481061844 0 -0.0025211567282452663 0.04429620299703068 0 -0.0024542270714520832 0.044589147824434974 0 -0.0029100562492323043 0.044435721328073823 0 -0.0025191967055535071 0.044714284906268532 0 -0.00019482757753878504 0.02986604271972966 0 -0.001343100177949162 0.036232414411876197 0 -0.0022167494958973129 0.044276197256051579 0 -0.0025211567282452663 0.04429620299703068 0 -0.0024542270714520832 0.044589147824434974 0 -0.00015190029622364542 0.03413071669718494 0 -0.00068549846733466791 0.037167302325286991 0 -0.0021033769756925017 0.036205374668629053 0 -0.0025211567282452663 0.04429620299703068 0 -0.0024542270714520832 0.044589147824434974 0 -0.0029100562492323043 0.044435721328073823 0 -0.00051784807614957808 0.037184080011584207 0 -0.0034065810970467006 0.038396091072410231 0 -0.0016659986870485339 0.039579292432007876 0 -0.0023789762364464181 0.041262795627944368 0 -0.001893949799047626 0.039940451052619466 0 -0.001343100177949162 0.036232414411876197 0 -0.001893949799047626 0.039940451052619466 0 -0.00062039367560135232 0.035294778544173448 0 -0.001893949799047626 0.039940451052619466 0 -0.0016201732523744561 0.04199738560957083 0 -0.001893949799047626 0.039940451052619466 0 -0.0019531260663919418 0.045116904729985217 0 -0.0024542270714520832 0.044589147824434974 0 -0.0025252657439867022 0.044733314098560045 0 -9.0477059149925783e-05 0.026606916366037417 0 -0.0011775847067139629 0.031493680517488298 0 1.6525845521646606e-05 0.027895396002274416 0 -0.00018533904927460742 0.027805666938593952 0 -0.00038044570584542956 0.028020634923306274 0 -0.00030710870507637045 0.027640485635843256 0 -0.00018533904927460742 0.027805666938593952 0 -0.00038044570584542956 0.028020634923306274 0 -0.00030710870507637045 0.027640485635843256 0 -0.00082732486269932728 0.028595038042781847 0 -0.00047484537315141873 0.028845236117204815 0 -0.00057805176574678445 0.027556522890928262 0 -0.00030710870507637045 0.027640485635843256 0 -0.00082732486269932728 0.028595038042781847 0 -2.1985987349234873e-05 0.02759859100135412 0 -0.00030710870507637045 0.027640485635843256 0 -0.00018533904927460742 0.027805666938593952 0 -0.001343100177949162 0.036232414411876197 0 -0.0011775847067139629 0.031493680517488298 0 -7.5461712850441952e-05 0.032293780123470256 0 -0.0016063609809188024 0.031263346545169199 0 -0.0019390653801661679 0.03300765712899955 0 -0.00030519909138564415 0.029383322183673947 0 -0.0011775847067139629 0.031493680517488298 0 -0.0011775847067139629 0.031493680517488298 0 -0.0019051044823461935 0.035519248573383497 0 -0.00088062035586939464 0.028694709027983375 0 -0.0015539044173060981 0.029280823575034393 0 -0.0019751214967790257 0.029176150697836668 0 -0.00030519909138564415 0.029383322183673947 0 -0.0019051044823461935 0.035519248573383497 0 -8.5549540412712922e-07 0.031907131450059717 0 -3.8754530956749679e-05 0.036328285960627163 0 -8.0541089567940298e-07 0.039164319455051277 0 -0.0015539044173060981 0.029280823575034393 0 -0.0019751214967790257 0.029176150697836668 0 -0.0019927576822008127 0.02927823050307507 0 -0.001132760967036132 0.034812108827892367 0 -0.0024264562313398869 0.03739348402281726 0 -0.0017379610509502378 0.037926538425620888 0 -0.0024160207596008619 0.043345618828184412 0 -0.0028629322927110515 0.043299517877267463 0 -0.0023026310049052488 0.043039647472417501 0 -0.0023898518518475896 0.043670035899818681 0 -0.0024160207596008619 0.043345618828184412 0 -0.0025408637430164864 0.04350690588918487 0 -0.0026488955806176087 0.043736726554330967 0 -0.0025408637430164864 0.04350690588918487 0 -0.0027477246146169658 0.043407229109275448 0 -0.0024160207596008619 0.043345618828184412 0 -0.0025408637430164864 0.04350690588918487 0 -0.0027477246146169658 0.043407229109275448 0 -0.0024160207596008619 0.043345618828184412 0 -0.0028629322927110515 0.043299517877267463 0 -0.0027477246146169658 0.043407229109275448 0 -0.0026488955806176087 0.043736726554330967 0 -0.0028210893063922078 0.043305902375366308 0 -0.0027477246146169658 0.043407229109275448 0 -0.0026952765556069016 0.041292375573826631 0 -0.0026307592803678248 0.037220713959678554 0 -0.0026952765556069016 0.041292375573826631 0 -0.0025530256697783808 0.041617193443070841 0 -0.0030368888637007539 0.043265665332255766 0 -0.0031529149515676699 0.042944578960393109 0 -0.0028907640960450002 0.04252026505475049 0 -0.0026952765556069016 0.041292375573826631 0 -0.002969441334158903 0.043057274214134821 0 -0.0024264562313398869 0.03739348402281726 0 -0.0017379610509502378 0.037926538425620888 0 -0.0019680057175094044 0.038011942320686838 0 -0.0019051044823461935 0.035519248573383497 0 -0.0026307592803678248 0.037220713959678554 0 -0.003252657609992572 0.042981788638753848 0 -0.003337647421427151 0.042884596881146375 0 -0.0031529149515676699 0.042944578960393109 0 -0.0026307592803678248 0.037220713959678554 0 -0.0028293490836912576 0.037448329447610673 0 -0.0032620506011355127 0.037558614392364943 0 -0.0023205715815845947 0.037213243778034158 0 -0.0030175058472991533 0.036269730539949342 0 -0.0019051044823461935 0.035519248573383497 0 -0.0025500188023604969 0.03669613856649085 0 -0.0026307592803678248 0.037220713959678554 0 -0.0025500188023604969 0.03669613856649085 0 -0.003337647421427151 0.042884596881146375 0 -0.0031529149515676699 0.042944578960393109 0 -0.0028907640960450002 0.04252026505475049 0 -0.0030368888637007539 0.043265665332255766 0 -0.0032457673280674509 0.04297511666504561 0 -0.0031529149515676699 0.042944578960393109 0 -0.0028629322927110515 0.043299517877267463 0 -0.0028907640960450002 0.04252026505475049 0 -0.0023026310049052488 0.043039647472417501 0 -0.0025500188023604969 0.03669613856649085 0 -0.0017223789560843797 0.038064608801674366 0 -0.003337647421427151 0.042884596881146375 0 -0.0027506025295553037 0.041696856919135154 0 -0.0030910451937182356 0.0408895101786729 0 -0.003337647421427151 0.042884596881146375 0 -0.0028907640960450002 0.04252026505475049 0 -0.0027506025295553037 0.041696856919135154 0 -0.0028907640960450002 0.04252026505475049 0 -0.0027506025295553037 0.041696856919135154 0 -0.0023220078599215871 0.042421530277181409 0 -0.0028907640960450002 0.04252026505475049 0 -0.0023220078599215871 0.042421530277181409 0 -0.0023026310049052488 0.043039647472417501 0 -0.0019619281412764232 0.035324086837675954 0 -0.0019173856538862544 0.035371686518409669 0 -0.0019827266331316016 0.035461719928044436 0 -0.0012024441523361888 0.029764065410292237 0 -0.0015539044173060981 0.029280823575034393 0 -0.0015905591422839132 0.029789962351323224 0 -0.0012024441523361888 0.029764065410292237 0 -0.0011153224958341708 0.029186600218446771 0 -0.0015539044173060981 0.029280823575034393 0 -0.0025500188023604969 0.03669613856649085 0 -0.0021322481266699417 0.032197273003007759 0 -0.0015539044173060981 0.029280823575034393 0 -0.0019927576822008127 0.02927823050307507 0 -0.0015905591422839132 0.029789962351323224 0 -0.0011878608350370835 0.030329986073319458 0 -0.0012024441523361888 0.029764065410292237 0 -0.0015905591422839132 0.029789962351323224 0 -0.00085055585172494482 0.032752787283613916 0 -0.0021322481266699417 0.032197273003007759 0 -0.0018702267689516979 0.035418212906526768 0 -0.0019173856538862544 0.035371686518409669 0 -0.0019827266331316016 0.035461719928044436 0 -0.00019426972053482547 0.033740370256296302 0 -0.0001518927141029977 0.034828387566936743 0 -3.8754530956749679e-05 0.036328285960627163 0 -0.00085055585172494482 0.032752787283613916 0 -0.0017223789560843797 0.038064608801674366 0 -0.0001518927141029977 0.034828387566936743 0 -7.1999086717271547e-05 0.036128794077096779 0 -3.8754530956749679e-05 0.036328285960627163 0 -0.0017223789560843797 0.038064608801674366 0 -0.00086380083416497198 0.039222354644389612 0 -0.0027506025295553037 0.041696856919135154 0 -0.0030910451937182356 0.0408895101786729 0 -0.0019756907142896756 0.040607719159307526 0 -4.74617818327425e-05 0.036357625576313314 0 -3.8754530956749679e-05 0.036328285960627163 0 -0.00016182607479674164 0.037820951299459837 0 -0.0017223789560843797 0.038064608801674366 0 -0.0011904976304821246 0.036859963343465849 0 -3.8754530956749679e-05 0.036328285960627163 0 -8.0541089567940298e-07 0.039164319455051277 0 -0.00016182607479674164 0.037820951299459837 0 -8.0541089567940298e-07 0.039164319455051277 0 -0.00016182607479674164 0.037820951299459837 0 -0.00032683847328686177 0.039992589153240096 0 -0.0027506025295553037 0.041696856919135154 0 -0.0019756907142896756 0.040607719159307526 0 -0.0018693391683062689 0.041939530971108016 0 -0.0019756907142896756 0.040607719159307526 0 -0.0012738513224187706 0.041238194534714584 0 -0.0018693391683062689 0.041939530971108016 0 -0.00086380083416497198 0.039222354644389612 0 -0.00026469037051794813 0.039689474105985167 0 -0.0012738513224187706 0.041238194534714584 0 -0.00032683847328686177 0.039992589153240096 0 -0.00072429137574013948 0.042252915753027941 0 -0.0019756907142896756 0.040607719159307526 0 -0.0012738513224187706 0.041238194534714584 0 -0.00032683847328686177 0.039992589153240096 0 -0.0012738513224187706 0.041238194534714584 0 -0.00072429137574013948 0.042252915753027941 0 -0.0018693391683062689 0.041939530971108016 0 -0.00072429137574013948 0.042252915753027941 0 -0.0017453893927977969 0.042794228730968324 0 -0.0012160097830455265 0.043237426099946359 0 -0.00072429137574013948 0.042252915753027941 0 -0.0018693391683062689 0.041939530971108016 0 -0.0017453893927977969 0.042794228730968324 0 -0.0027506025295553037 0.041696856919135154 0 -0.0018693391683062689 0.041939530971108016 0 -0.0023220078599215871 0.042421530277181409 0 -0.0018693391683062689 0.041939530971108016 0 -0.0023220078599215871 0.042421530277181409 0 -0.0017453893927977969 0.042794228730968324 0 -0.0023220078599215871 0.042421530277181409 0 -0.0023026310049052488 0.043039647472417501 0 -0.0017453893927977969 0.042794228730968324 0 -0.0019373979057637767 0.043635601591782897 0 -0.0023026310049052488 0.043039647472417501 0 -0.0017453893927977969 0.042794228730968324 0 -0.0019373979057637767 0.043635601591782897 0 -0.0017453893927977969 0.042794228730968324 0 -0.0012160097830455265 0.043237426099946359 0 -0.00126655813419109 0.043868905943014451 0 -0.0019373979057637767 0.043635601591782897 0 -0.0012160097830455265 0.043237426099946359 0 -0.0019373979057637767 0.043635601591782897 0 -0.0023898518518475896 0.043670035899818681 0 -0.0024160207596008619 0.043345618828184412 0 -0.0019373979057637767 0.043635601591782897 0 -0.0024160207596008619 0.043345618828184412 0 -0.0023026310049052488 0.043039647472417501 0 -0.00072429137574013948 0.042252915753027941 0 -0.0012160097830455265 0.043237426099946359 0 -0.00043847352149945971 0.043411181335113243 0 -0.00126655813419109 0.043868905943014451 0 -0.0012160097830455265 0.043237426099946359 0 -0.00043847352149945971 0.043411181335113243 0 -8.0541089567940298e-07 0.039164319455051277 0 0.00019562729483111856 0.042299223413996452 0 1.0830898217537008e-06 0.04499620931114421 0 1.0830898217537008e-06 0.04499620931114421 0 0.00026758465191707216 0.043908106953661853 0 3.1070984329760483e-07 0.044998850763760034 0 -0.00043847352149945971 0.043411181335113243 0 0.00026758465191707216 0.043908106953661853 0 -7.0640457540697158e-05 0.044421200994426938 0 -0.00043847352149945971 0.043411181335113243 0 0.00019562729483111856 0.042299223413996452 0 0.00026758465191707216 0.043908106953661853 0 -0.00072429137574013948 0.042252915753027941 0 -0.00043847352149945971 0.043411181335113243 0 0.00019562729483111856 0.042299223413996452 0 -0.00032683847328686177 0.039992589153240096 0 -0.00072429137574013948 0.042252915753027941 0 0.00019562729483111856 0.042299223413996452 0 -8.0541089567940298e-07 0.039164319455051277 0 -0.00032683847328686177 0.039992589153240096 0 0.00019562729483111856 0.042299223413996452 0 0.00019562729483111856 0.042299223413996452 0 1.0830898217537008e-06 0.04499620931114421 0 0.00026758465191707216 0.043908106953661853 0 -7.1813522744558528e-08 0.04500024046148679 0 3.1070984329760483e-07 0.044998850763760034 0 -5.4952973226472493e-05 0.044931646750038488 0 3.1070984329760483e-07 0.044998850763760034 0 -7.0640457540697158e-05 0.044421200994426938 0 -5.4952973226472493e-05 0.044931646750038488 0 0.00026758465191707216 0.043908106953661853 0 3.1070984329760483e-07 0.044998850763760034 0 -7.0640457540697158e-05 0.044421200994426938 0 -0.00070235752447785885 0.044170910473592985 0 -0.00043847352149945971 0.043411181335113243 0 -7.0640457540697158e-05 0.044421200994426938 0 -0.00070235752447785885 0.044170910473592985 0 -7.0640457540697158e-05 0.044421200994426938 0 -0.00044940499394850893 0.044752789225240557 0 -7.0640457540697158e-05 0.044421200994426938 0 -0.00044940499394850893 0.044752789225240557 0 -5.4952973226472493e-05 0.044931646750038488 0 -0.00044940499394850893 0.044752789225240557 0 -5.4952973226472493e-05 0.044931646750038488 0 -0.00024800177460719032 0.044908878994660686 0 -2.6295033559126383e-05 0.044972821428514262 0 -5.4952973226472493e-05 0.044931646750038488 0 -0.00010990893053173865 0.044971053722784669 0 -0.00039039376553440789 0.044936038308600032 0 -0.00044940499394850893 0.044752789225240557 0 -0.00024800177460719032 0.044908878994660686 0 -0.00094200114125253152 0.043631200740156438 0 -0.00052437995867393001 0.045341006173208458 0 -0.00039039376553440789 0.044936038308600032 0 -0.00024800177460719032 0.044908878994660686 0 -0.00010990893053173865 0.044971053722784669 0 -0.00094200114125253152 0.043631200740156438 0 0.00024418093743000036 0.045336086171005575 0 -5.3401728778122308e-05 0.044946648773238181 0 -5.3420492438170407e-05 0.044978071298496528 0 -0.00010990893053173865 0.044971053722784669 0 -5.4952973226472493e-05 0.044931646750038488 0 -0.00024800177460719032 0.044908878994660686 0 -0.00010990893053173865 0.044971053722784669 0 -0.0030287281664076677 0.01339359241444793 0 -0.0022444684482480892 0.013352883748090044 0 -0.0028136189385590486 0.01306551185939293 0 -0.0030013249308689298 0.013405610122094265 0 -0.0023357219849259587 0.013082861357053142 0 -0.0026616698447231033 0.013164207809420458 0 -0.0022444684482480892 0.013352883748090044 0 -0.0025333170739753443 0.013299634459088249 0 -0.0020296889205275543 0.013387013638468358 0 -0.0023023222904622943 0.013044618841211166 0 -0.0025333170739753443 0.013299634459088249 0 -0.0031604237234993228 0.01299642038542238 0 -0.0028842017014444215 0.012888152750643677 0 -0.0025333170739753443 0.013299634459088249 0 -0.0023023222904622943 0.013044618841211166 0 -0.0028842017014444215 0.012888152750643677 0 -0.0031604237234993228 0.01299642038542238 0 -0.0030013249308689298 0.013405610122094265 0 -0.0033470751477781739 0.013154021878329172 0 -0.0028136189385590486 0.01306551185939293 0 -0.0031604237234993228 0.01299642038542238 0 -0.0030013249308689298 0.013405610122094265 0 -0.0026616698447231033 0.013164207809420458 0 -0.0030755544320951516 0.013063736933903751 0 -0.0030013249308689298 0.013405610122094265 0 -0.0033318251134414564 0.013500952356953628 0 -0.0031284896251246915 0.013876482816695337 0 -0.0030013249308689298 0.013405610122094265 0 -0.0027643633567595357 0.01382190733461869 0 -0.0031284896251246915 0.013876482816695337 0 -0.0030013249308689298 0.013405610122094265 0 -0.0033470751477781739 0.013154021878329172 0 -0.0033318251134414564 0.013500952356953628 0 -0.0030013249308689298 0.013405610122094265 0 -0.0026083071048606118 0.013602899255940024 0 -0.0027643633567595357 0.01382190733461869 0 -0.0030013249308689298 0.013405610122094265 0 -0.0026083071048606118 0.013602899255940024 0 -0.0025431685266917949 0.013342735366716124 0 -0.0026083071048606118 0.013602899255940024 0 -0.0024160992370567589 0.013839991509278044 0 -0.0027643633567595357 0.01382190733461869 0 -0.0024160992370567589 0.013839991509278044 0 -0.0022832824125811864 0.013619425603535301 0 -0.0019852776299091909 0.013894536915702634 0 -0.0026083071048606118 0.013602899255940024 0 -0.0022832824125811864 0.013619425603535301 0 -0.0025431685266917949 0.013342735366716124 0 -0.0026083071048606118 0.013602899255940024 0 -0.0024160992370567589 0.013839991509278044 0 -0.0022832824125811864 0.013619425603535301 0 -0.0019852776299091909 0.013894536915702634 0 -0.001839852386686178 0.013430815086797408 0 -0.001514406532603346 0.013831929658038757 0 -0.0022832824125811864 0.013619425603535301 0 -0.0019852776299091909 0.013894536915702634 0 -0.001839852386686178 0.013430815086797408 0 -0.0014696254219096578 0.013601246577277881 0 -0.001976909881807059 0.013586896599285433 0 -0.0016371565737317577 0.013417456365980608 0 -0.0016555515667463941 0.013537430947639423 0 -0.0022444684482480892 0.013352883748090044 0 -0.0022444684482480892 0.013352883748090044 0 -0.0015659239330973599 0.013314351597969429 0 -0.0020296889205275543 0.013387013638468358 0 -0.0019338110104125876 0.013014470591211896 0 -0.0015621050738058107 0.013215091965030982 0 -0.0022832824125811864 0.013619425603535301 0 -0.001839852386686178 0.013430815086797408 0 -0.0025431685266917949 0.013342735366716124 0 -0.0019338110104125876 0.013014470591211896 0 -0.0015621050738058107 0.013215091965030982 0 -0.001586963729375117 0.012869930400410604 0 -0.0015659239330973599 0.013314351597969429 0 -0.0012424735496741209 0.013184496866568848 0 -0.0014696254219096578 0.013601246577277881 0 -0.0016371565737317577 0.013417456365980608 0 -0.001301145110485732 0.013256442698694098 0 -0.0015621050738058107 0.013215091965030982 0 -0.001586963729375117 0.012869930400410604 0 -0.0011929697051936273 0.013111132475796327 0 -0.001586963729375117 0.012869930400410604 0 -0.0016894558879027078 0.012568999561938401 0 -0.001433551867600191 0.012702041269403714 0 -0.001586963729375117 0.012869930400410604 0 -0.0011929697051936273 0.013111132475796327 0 -0.001240398752644239 0.012836180422890305 0 -0.001586963729375117 0.012869930400410604 0 -0.001240398752644239 0.012836180422890305 0 -0.001433551867600191 0.012702041269403714 0 -0.0019338110104125876 0.013014470591211896 0 -0.001586963729375117 0.012869930400410604 0 -0.002183141388741705 0.012698069177360605 0 -0.001586963729375117 0.012869930400410604 0 -0.002183141388741705 0.012698069177360605 0 -0.0016894558879027078 0.012568999561938401 0 -0.0014667519293111489 0.011011025189264207 0 -0.00035778320173343603 0.010012366703812114 0 -0.00065541755262039339 0.0092223703025992674 0 -0.0013605377304803498 0.0079220593831136211 0 0.00072415409133593509 0.0077799568845197285 0 -0.0019338110104125876 0.013014470591211896 0 -0.002183141388741705 0.012698069177360605 0 -0.0023023222904622943 0.013044618841211166 0 -0.0020296889205275543 0.013387013638468358 0 -0.0019338110104125876 0.013014470591211896 0 -0.0023023222904622943 0.013044618841211166 0 -0.002183141388741705 0.012698069177360605 0 -0.0023023222904622943 0.013044618841211166 0 -0.0028842017014444215 0.012888152750643677 0 -0.0021173112038382967 0.010876451376158102 0 -0.0022126639275919552 0.0091363505773808112 0 -0.0037660740598780239 0.010264099319793798 0 -0.00065541755262039339 0.0092223703025992674 0 -0.0021173112038382967 0.010876451376158102 0 -0.0022126639275919552 0.0091363505773808112 0 -0.0014667519293111489 0.011011025189264207 0 -0.0025443160209781719 0.01190719506473086 0 -0.00065541755262039339 0.0092223703025992674 0 -0.0022126639275919552 0.0091363505773808112 0 -0.0013605377304803498 0.0079220593831136211 0 -0.0065031492313538369 -0.00017723801535559627 0 -0.0051567866199369256 -0.0014594976058172479 0 -0.0022126639275919552 0.0091363505773808112 0 -0.0037660740598780239 0.010264099319793798 0 -0.0032003479498329411 0.0075766728114982779 0 -0.0070068656229935215 -0.0098821661991876711 0 -0.0089054551511067535 -0.011187155341471664 0 -0.0094951512170051867 -0.0079156152489643795 0 -0.0038025447238445981 -0.007960747404757983 0 -0.0051567866199369256 -0.0014594976058172479 0 -0.0070068656229935215 -0.0098821661991876711 0 -0.0069028056362229482 -0.012199141488691662 0 -0.0089054551511067535 -0.011187155341471664 0 -0.0021173112038382967 0.010876451376158102 0 -0.0037660740598780239 0.010264099319793798 0 -0.0036690678917949394 0.012775597931282794 0 -0.0006971250829601297 -0.0047586586404195453 0 0.0015252475740867972 -0.0046268352618658633 0 0.0010097658865912019 -0.0062743455102703283 0 -0.0006971250829601297 -0.0047586586404195453 0 0.0015252475740867972 -0.0046268352618658633 0 6.5945518463751691e-06 -0.0035404482890807275 0 -0.0038025447238445981 -0.007960747404757983 0 -0.0019232930235930942 -0.0090034638869036752 0 -0.0070068656229935215 -0.0098821661991876711 0 -0.0069028056362229482 -0.012199141488691662 0 -0.0047659938645560358 -0.011856097145104815 0 0.0015252475740867972 -0.0046268352618658633 0 0.0010097658865912019 -0.0062743455102703283 0 0.0030496699565253959 -0.0058395884246178233 0 -0.0019232930235930942 -0.0090034638869036752 0 0.00013178899584987159 -0.010505812601904144 0 -0.0047659938645560358 -0.011856097145104815 0 -0.0059324097854313073 -0.013725740138212653 0 -0.0041715742452008856 -0.014614197705123665 0 -0.0047659938645560358 -0.011856097145104815 0 -0.0041715742452008856 -0.014614197705123665 0 -0.0027634562260075452 -0.013774219527748356 0 -0.0069028056362229482 -0.012199141488691662 0 -0.0047659938645560358 -0.011856097145104815 0 -0.0059324097854313073 -0.013725740138212653 0 -0.0059324097854313073 -0.013725740138212653 0 -0.0041715742452008856 -0.014614197705123665 0 -0.0056574640913335302 -0.015659434447794402 0 -0.0059324097854313073 -0.013725740138212653 0 -0.0082046972734732288 -0.014189131419048057 0 -0.0056574640913335302 -0.015659434447794402 0 -0.0041715742452008856 -0.014614197705123665 0 -0.003837627730770198 -0.01619539611013034 0 -0.0056574640913335302 -0.015659434447794402 0 -0.0065031492313538369 -0.00017723801535559627 0 -0.0060498880256382014 -0.00038964553354512652 0 -0.0031604237234993228 0.01299642038542238 0 -0.0028842017014444215 0.012888152750643677 0 -0.0036690678917949394 0.012775597931282794 0 -0.0025443160209781719 0.01190719506473086 0 -0.0036161713853812612 0.012772815647691851 0 -0.0037660740598780239 0.010264099319793798 0 -0.0036690678917949394 0.012775597931282794 0 -0.0039854473710380237 0.013278776030042601 0 -0.0031604237234993228 0.01299642038542238 0 -0.0036690678917949394 0.012775597931282794 0 -0.0033470751477781739 0.013154021878329172 0 -0.0069028056362229482 -0.012199141488691662 0 -0.0059324097854313073 -0.013725740138212653 0 -0.0082046972734732288 -0.014189131419048057 0 -0.0069028056362229482 -0.012199141488691662 0 -0.0089054551511067535 -0.011187155341471664 0 -0.0082046972734732288 -0.014189131419048057 0 -0.0039854473710380237 0.013278776030042601 0 -0.0033318251134414564 0.013500952356953628 0 -0.0035488630791225663 0.013784857267756022 0 -0.0036690678917949394 0.012775597931282794 0 -0.0039854473710380237 0.013278776030042601 0 -0.0033470751477781739 0.013154021878329172 0 -0.0039854473710380237 0.013278776030042601 0 -0.0033470751477781739 0.013154021878329172 0 -0.0033318251134414564 0.013500952356953628 0 -0.0039854473710380237 0.013278776030042601 0 -0.0035488630791225663 0.013784857267756022 0 -0.0039166913781099244 0.014004101804257775 0 -0.0035488630791225663 0.013784857267756022 0 -0.0039166913781099244 0.014004101804257775 0 -0.0034157885886321282 0.014141228263350694 0 -0.0082046972734732288 -0.014189131419048057 0 -0.0075119207016366221 -0.016862543038227682 0 -0.0056574640913335302 -0.015659434447794402 0 -0.0060498880256382014 -0.00038964553354512652 0 -0.0059129902244564282 -0.0021834610094634238 0 -0.0075119207016366221 -0.016862543038227682 0 -0.0060696943545691748 -0.018349656051897052 0 -0.0069078111163100222 -0.019295275834981397 0 -0.0059129902244564282 -0.0021834610094634238 0 -0.003693561607457178 0.0011986336137708882 0 -0.0039166913781099244 0.014004101804257775 0 -0.0035109192804872228 0.014376691323470631 0 -0.0036501800072037023 0.014579832267422054 0 -0.0039166913781099244 0.014004101804257775 0 -0.0035109192804872228 0.014376691323470631 0 -0.0034157885886321282 0.014141228263350694 0 -0.003837627730770198 -0.01619539611013034 0 -0.0045985518234125623 -0.017081448554356733 0 -0.0056574640913335302 -0.015659434447794402 0 -0.003837627730770198 -0.01619539611013034 0 -0.0045985518234125623 -0.017081448554356733 0 -0.0033019029570456175 -0.017459502525640502 0 -0.0075119207016366221 -0.016862543038227682 0 -0.0056574640913335302 -0.015659434447794402 0 -0.0058885999553996878 -0.017101900916788332 0 -0.0045985518234125623 -0.017081448554356733 0 -0.0056574640913335302 -0.015659434447794402 0 -0.0058885999553996878 -0.017101900916788332 0 -0.0075119207016366221 -0.016862543038227682 0 -0.0058885999553996878 -0.017101900916788332 0 -0.0060696943545691748 -0.018349656051897052 0 -0.0058885999553996878 -0.017101900916788332 0 -0.0050133571661305368 -0.018095324405785655 0 -0.0060696943545691748 -0.018349656051897052 0 -0.0045985518234125623 -0.017081448554356733 0 -0.0058885999553996878 -0.017101900916788332 0 -0.0050133571661305368 -0.018095324405785655 0 -0.0045985518234125623 -0.017081448554356733 0 -0.0050133571661305368 -0.018095324405785655 0 -0.0040096491582697616 -0.018057683094481875 0 -0.0050133571661305368 -0.018095324405785655 0 -0.0040096491582697616 -0.018057683094481875 0 -0.0043479539706956132 -0.018752801279816735 0 -0.0045985518234125623 -0.017081448554356733 0 -0.0040096491582697616 -0.018057683094481875 0 -0.0033019029570456175 -0.017459502525640502 0 -0.0041667652980434296 -0.019714780025029775 0 -0.0050483652544083719 -0.019262511873920442 0 -0.0059422996637810057 -0.019567135348034888 0 -0.0041879550805923238 -0.019782518857421157 0 -0.004083042556812206 -0.010418304683228496 0 -0.0037144771057649709 -0.019394672255909101 0 -0.0041667652980434296 -0.019714780025029775 0 -0.0040228162115056552 -0.019162719783390021 0 -0.0041667652980434296 -0.019714780025029775 0 -0.0043971573668946723 -0.01921877100765974 0 -0.0040228162115056552 -0.019162719783390021 0 -0.0037144771057649709 -0.019394672255909101 0 -0.0040228162115056552 -0.019162719783390021 0 -0.0035634335156085393 -0.019075645016869501 0 -0.0040228162115056552 -0.019162719783390021 0 -0.0037349447603603832 -0.018696847491563397 0 -0.0043479539706956132 -0.018752801279816735 0 -0.0040228162115056552 -0.019162719783390021 0 -0.0037349447603603832 -0.018696847491563397 0 -0.0035634335156085393 -0.019075645016869501 0 -0.0040096491582697616 -0.018057683094481875 0 -0.0037349447603603832 -0.018696847491563397 0 -0.0043479539706956132 -0.018752801279816735 0 -0.0043971573668946723 -0.01921877100765974 0 -0.0040228162115056552 -0.019162719783390021 0 -0.0043479539706956132 -0.018752801279816735 0 -0.0050133571661305368 -0.018095324405785655 0 -0.0043479539706956132 -0.018752801279816735 0 -0.0050483652544083719 -0.019262511873920442 0 -0.0041667652980434296 -0.019714780025029775 0 -0.0043971573668946723 -0.01921877100765974 0 -0.0050483652544083719 -0.019262511873920442 0 -0.0043971573668946723 -0.01921877100765974 0 -0.0043479539706956132 -0.018752801279816735 0 -0.0050483652544083719 -0.019262511873920442 0 -0.0050483652544083719 -0.019262511873920442 0 -0.0060696943545691748 -0.018349656051897052 0 -0.0059422996637810057 -0.019567135348034888 0 -0.0050133571661305368 -0.018095324405785655 0 -0.0050483652544083719 -0.019262511873920442 0 -0.0060696943545691748 -0.018349656051897052 0 -0.0060696943545691748 -0.018349656051897052 0 -0.0059422996637810057 -0.019567135348034888 0 -0.0069078111163100222 -0.019295275834981397 0 -0.004083042556812206 -0.010418304683228496 0 -0.0037258232709150609 0.0038978684942822797 0 -0.004083042556812206 -0.010418304683228496 0 -0.003693561607457178 0.0011986336137708882 0 -0.0024918913055444756 -0.0043384552943719146 0 -0.0028143767182729198 -0.0053423020270417015 0 -0.00232660158088175 -0.0053101237721303084 0 -0.0024918913055444756 -0.0043384552943719146 0 -0.0028143767182729198 -0.0053423020270417015 0 -0.0031335943372438643 -0.0047936983898918071 0 -0.004083042556812206 -0.010418304683228496 0 -0.0038465292365528871 -0.012323127186820954 0 -0.0028143767182729198 -0.0053423020270417015 0 -0.0031335943372438643 -0.0047936983898918071 0 -0.0037734500221480428 -0.0052412844501719463 0 -0.0034624761403568988 -0.004248453621787579 0 -0.0031335943372438643 -0.0047936983898918071 0 -0.0037734500221480428 -0.0052412844501719463 0 -0.0037484509474044266 -0.019267704308917565 0 -0.0050297706711877567 -0.01893089487508506 0 -0.0036853311383110189 -0.019529540841871473 0 -0.0040998303964482515 0.014627237916574146 0 -0.0031545326955482755 0.014625438913436426 0 -0.0035715085423811744 0.014678935523679142 0 -0.0035552670191573272 0.014745518710799045 0 -0.0036390200397530192 0.014512412675802949 0 -0.0035109192804872228 0.014376691323470631 0 -0.0036501800072037023 0.014579832267422054 0 -0.003271703693647916 0.014701359738484675 0 -0.0035715085423811744 0.014678935523679142 0 -0.0035552670191573272 0.014745518710799045 0 -0.003271703693647916 0.014701359738484675 0 -0.0032534337892128075 0.015036054689886327 0 -0.0032145610707129337 0.01495202537052456 0 -0.0032292613835639191 0.015013352499217085 0 -0.0039166913781099244 0.014004101804257775 0 -0.0036501800072037023 0.014579832267422054 0 -0.0039706101263825289 0.014522912826725191 0 -0.0040998303964482515 0.014627237916574146 0 -0.003693561607457178 0.0011986336137708882 0 -0.003371318167729025 0.015185361973090844 0 -0.0037258232709150609 0.0038978684942822797 0 -0.0035552670191573272 0.014745518710799045 0 -0.0036401371211873075 0.014512883022109841 0 -0.0036390200397530192 0.014512412675802949 0 -0.002871425406031608 -0.003715257303015823 0 -0.0053885050136779 -0.0035657981245637684 0 -0.0054792797602797845 -0.0030873936735254254 0 -0.0037258232709150609 0.0038978684942822797 0 -0.003693561607457178 0.0011986336137708882 0 -0.0032145610707129337 0.01495202537052456 0 -0.0032158039306931846 0.015013857736100486 0 -0.0032292613835639191 0.015013352499217085 0 -0.0032145610707129337 0.01495202537052456 0 -0.003201616035764437 0.015009792146351057 0 -0.0032158039306931846 0.015013857736100486 0 -0.0031729520360275461 0.015033266963081904 0 -0.0032145610707129337 0.01495202537052456 0 -0.003201616035764437 0.015009792146351057 0 -0.0027817436690756397 0.005453974179294504 0 -0.0037258232709150609 0.0038978684942822797 0 -0.0032121302835942094 0.01500613841902446 0 -0.003201616035764437 0.015009792146351057 0 -0.0032158039306931846 0.015013857736100486 0 -0.0032160735101317488 0.015067149596885984 0 -0.0032121302835942094 0.01500613841902446 0 -0.0032337038070704574 0.015050266813289186 0 -0.0032121302835942094 0.01500613841902446 0 -0.0032158039306931846 0.015013857736100486 0 -0.0032337038070704574 0.015050266813289186 0 -0.0032534337892128075 0.015036054689886327 0 -0.0032292613835639191 0.015013352499217085 0 -0.0032337038070704574 0.015050266813289186 0 -0.0032158039306931846 0.015013857736100486 0 -0.0032292613835639191 0.015013352499217085 0 -0.0032337038070704574 0.015050266813289186 0 -0.0032534337892128075 0.015036054689886327 0 -0.0032337038070704574 0.015050266813289186 0 -0.0032497922423169348 0.015093045484587097 0 -0.0032160735101317488 0.015067149596885984 0 -0.0032337038070704574 0.015050266813289186 0 -0.0032497922423169348 0.015093045484587097 0 -0.0032534337892128075 0.015036054689886327 0 -0.0032497922423169348 0.015093045484587097 0 -0.0031724909475378247 0.014964773035387754 0 -0.0032160735101317488 0.015067149596885984 0 -0.0032565236626435584 0.015213178283115253 0 -0.0032497922423169348 0.015093045484587097 0 -0.0032565236626435584 0.015213178283115253 0 -0.0029573026201106236 0.015167754064066822 0 -0.0031724909475378247 0.014964773035387754 0 -0.0032565236626435584 0.015213178283115253 0 -0.0032497922423169348 0.015093045484587097 0 -0.0031724909475378247 0.014964773035387754 0 -0.0026530442367791751 0.015755524727561043 0 -0.0029573026201106236 0.015167754064066822 0 -0.0026685861618835774 0.01528599712247969 0 -0.0026530442367791751 0.015755524727561043 0 -0.0032565236626435584 0.015213178283115253 0 -0.0029573026201106236 0.015167754064066822 0 -0.0029573026201106236 0.015167754064066822 0 -0.0026685861618835774 0.01528599712247969 0 -0.0027503288931309353 0.015015751146043315 0 -0.0029573026201106236 0.015167754064066822 0 -0.0029397145577759851 0.014826877986552632 0 -0.0031724909475378247 0.014964773035387754 0 -0.0029573026201106236 0.015167754064066822 0 -0.0027503288931309353 0.015015751146043315 0 -0.0029397145577759851 0.014826877986552632 0 -0.0029397145577759851 0.014826877986552632 0 -0.0030983017793112214 0.014674220531608139 0 -0.0029903237749066762 0.014500529494815576 0 -0.0027503288931309353 0.015015751146043315 0 -0.0029397145577759851 0.014826877986552632 0 -0.0026736568411878932 0.014756672922486048 0 -0.0029397145577759851 0.014826877986552632 0 -0.0026736568411878932 0.014756672922486048 0 -0.0027611592552407179 0.014515617308009199 0 -0.0035552670191573272 0.014745518710799045 0 -0.0031724909475378247 0.014964773035387754 0 -0.003271703693647916 0.014701359738484675 0 -0.003371318167729025 0.015185361973090844 0 -0.0031771545620784681 0.014924217436964945 0 -0.0030983017793112214 0.014674220531608139 0 -0.003271703693647916 0.014701359738484675 0 -0.003244694565449356 0.01442156645848687 0 -0.0031724909475378247 0.014964773035387754 0 -0.0030983017793112214 0.014674220531608139 0 -0.003271703693647916 0.014701359738484675 0 -0.0029397145577759851 0.014826877986552632 0 -0.0031724909475378247 0.014964773035387754 0 -0.0030983017793112214 0.014674220531608139 0 -0.0035109192804872228 0.014376691323470631 0 -0.003271703693647916 0.014701359738484675 0 -0.003244694565449356 0.01442156645848687 0 -0.0035109192804872228 0.014376691323470631 0 -0.0034157885886321282 0.014141228263350694 0 -0.003244694565449356 0.01442156645848687 0 -0.0034157885886321282 0.014141228263350694 0 -0.003244694565449356 0.01442156645848687 0 -0.0031289102797723138 0.014221101140219768 0 -0.003244694565449356 0.01442156645848687 0 -0.0031289102797723138 0.014221101140219768 0 -0.0029903237749066762 0.014500529494815576 0 -0.0030983017793112214 0.014674220531608139 0 -0.003244694565449356 0.01442156645848687 0 -0.0029903237749066762 0.014500529494815576 0 -0.0029397145577759851 0.014826877986552632 0 -0.0029903237749066762 0.014500529494815576 0 -0.0027611592552407179 0.014515617308009199 0 -0.0026736568411878932 0.014756672922486048 0 -0.0027611592552407179 0.014515617308009199 0 -0.0025636811401037901 0.014405637152021401 0 -0.0027611592552407179 0.014515617308009199 0 -0.0028682788872860165 0.014165052389675832 0 -0.0025636811401037901 0.014405637152021401 0 -0.0029903237749066762 0.014500529494815576 0 -0.0027611592552407179 0.014515617308009199 0 -0.0028682788872860165 0.014165052389675832 0 -0.0031289102797723138 0.014221101140219768 0 -0.0029903237749066762 0.014500529494815576 0 -0.0028682788872860165 0.014165052389675832 0 -0.0028682788872860165 0.014165052389675832 0 -0.0025870078520563947 0.014078218912232382 0 -0.0025636811401037901 0.014405637152021401 0 -0.0028682788872860165 0.014165052389675832 0 -0.0025870078520563947 0.014078218912232382 0 -0.0027643633567595357 0.01382190733461869 0 -0.0024160992370567589 0.013839991509278044 0 -0.0025870078520563947 0.014078218912232382 0 -0.0027643633567595357 0.01382190733461869 0 -0.0028682788872860165 0.014165052389675832 0 -0.0027643633567595357 0.01382190733461869 0 -0.0031284896251246915 0.013876482816695337 0 -0.0033318251134414564 0.013500952356953628 0 -0.0035488630791225663 0.013784857267756022 0 -0.0031284896251246915 0.013876482816695337 0 -0.0034157885886321282 0.014141228263350694 0 -0.0031289102797723138 0.014221101140219768 0 -0.0031284896251246915 0.013876482816695337 0 -0.0035488630791225663 0.013784857267756022 0 -0.0034157885886321282 0.014141228263350694 0 -0.0031284896251246915 0.013876482816695337 0 -0.0031289102797723138 0.014221101140219768 0 -0.0028682788872860165 0.014165052389675832 0 -0.0031284896251246915 0.013876482816695337 0 -0.0019852776299091909 0.013894536915702634 0 -0.0019607506224792563 0.014269828034694917 0 -0.0015316774162587139 0.014199536141026351 0 -0.0019607506224792563 0.014269828034694917 0 -0.0022830410333523842 0.014159685465069986 0 -0.0021784319844362935 0.014480954836916533 0 -0.0019852776299091909 0.013894536915702634 0 -0.0019607506224792563 0.014269828034694917 0 -0.0022830410333523842 0.014159685465069986 0 -0.0024160992370567589 0.013839991509278044 0 -0.0019852776299091909 0.013894536915702634 0 -0.0022830410333523842 0.014159685465069986 0 -0.0024160992370567589 0.013839991509278044 0 -0.0025870078520563947 0.014078218912232382 0 -0.0022830410333523842 0.014159685465069986 0 -0.0025870078520563947 0.014078218912232382 0 -0.0022830410333523842 0.014159685465069986 0 -0.0025636811401037901 0.014405637152021401 0 -0.0025636811401037901 0.014405637152021401 0 -0.0023557527828050756 0.014760249595600331 0 -0.0021784319844362935 0.014480954836916533 0 -0.0022830410333523842 0.014159685465069986 0 -0.0025636811401037901 0.014405637152021401 0 -0.0021784319844362935 0.014480954836916533 0 -0.0026736568411878932 0.014756672922486048 0 -0.0025636811401037901 0.014405637152021401 0 -0.0023557527828050756 0.014760249595600331 0 -0.00203789531102366 0.014792392495441021 0 -0.0017496690812195247 0.015093439976135907 0 -0.0017629955524412861 0.014601673574803209 0 -0.00203789531102366 0.014792392495441021 0 -0.0021784319844362935 0.014480954836916533 0 -0.0017629955524412861 0.014601673574803209 0 -0.0019607506224792563 0.014269828034694917 0 -0.0021784319844362935 0.014480954836916533 0 -0.0017629955524412861 0.014601673574803209 0 -0.0023557527828050756 0.014760249595600331 0 -0.00203789531102366 0.014792392495441021 0 -0.0021784319844362935 0.014480954836916533 0 -0.00203789531102366 0.014792392495441021 0 -0.0021680148051110579 0.015085547032976175 0 -0.0017496690812195247 0.015093439976135907 0 -0.0021680148051110579 0.015085547032976175 0 -0.0018821443283388254 0.015507860269186997 0 -0.0017496690812195247 0.015093439976135907 0 -0.0023557527828050756 0.014760249595600331 0 -0.00203789531102366 0.014792392495441021 0 -0.0021680148051110579 0.015085547032976175 0 -0.0026736568411878932 0.014756672922486048 0 -0.0023557527828050756 0.014760249595600331 0 -0.0024989464878297611 0.015045187646773777 0 -0.0023557527828050756 0.014760249595600331 0 -0.0021680148051110579 0.015085547032976175 0 -0.0024989464878297611 0.015045187646773777 0 -0.0021680148051110579 0.015085547032976175 0 -0.0024989464878297611 0.015045187646773777 0 -0.0023678795907657898 0.015410647614436758 0 -0.0027503288931309353 0.015015751146043315 0 -0.0026736568411878932 0.014756672922486048 0 -0.0024989464878297611 0.015045187646773777 0 -0.0026685861618835774 0.01528599712247969 0 -0.0027503288931309353 0.015015751146043315 0 -0.0024989464878297611 0.015045187646773777 0 -0.0020860575396452444 0.015916389870107881 0 -0.0026530442367791751 0.015755524727561043 0 -0.0023678795907657898 0.015410647614436758 0 -0.0026685861618835774 0.01528599712247969 0 -0.0024989464878297611 0.015045187646773777 0 -0.0023678795907657898 0.015410647614436758 0 -0.0026530442367791751 0.015755524727561043 0 -0.0026685861618835774 0.01528599712247969 0 -0.0023678795907657898 0.015410647614436758 0 -0.001619003983769821 0.016026338672165453 0 -0.0020860575396452444 0.015916389870107881 0 -0.0018821443283388254 0.015507860269186997 0 -0.0021680148051110579 0.015085547032976175 0 -0.0023678795907657898 0.015410647614436758 0 -0.0018821443283388254 0.015507860269186997 0 -0.0020860575396452444 0.015916389870107881 0 -0.0023678795907657898 0.015410647614436758 0 -0.0018821443283388254 0.015507860269186997 0 -0.001619003983769821 0.016026338672165453 0 -0.0018821443283388254 0.015507860269186997 0 -0.0012990266018385907 0.015509184177405174 0 -0.0017496690812195247 0.015093439976135907 0 -0.0012990266018385907 0.015509184177405174 0 -0.0014242136075215946 0.01495585999805912 0 -0.0018821443283388254 0.015507860269186997 0 -0.0017496690812195247 0.015093439976135907 0 -0.0012990266018385907 0.015509184177405174 0 -0.0012990266018385907 0.015509184177405174 0 -0.0014242136075215946 0.01495585999805912 0 -0.0010345825216028109 0.014878940548157948 0 -0.0011221223239543617 0.01628860335661864 0 -0.001619003983769821 0.016026338672165453 0 -0.0012990266018385907 0.015509184177405174 0 -0.00036568884216222209 0.016332663732809071 0 -0.0011221223239543617 0.01628860335661864 0 -0.00056602726627639631 0.015601124911843085 0 -0.0011221223239543617 0.01628860335661864 0 -0.0012990266018385907 0.015509184177405174 0 -0.00056602726627639631 0.015601124911843085 0 -0.00036568884216222209 0.016332663732809071 0 -0.00056602726627639631 0.015601124911843085 0 9.1017302958839601e-05 0.015891197180159782 0 -0.00056602726627639631 0.015601124911843085 0 -0.00045798019415362962 0.014937183389976457 0 0.00031071247283729714 0.015359306603485475 0 -0.00056602726627639631 0.015601124911843085 0 9.1017302958839601e-05 0.015891197180159782 0 0.00031071247283729714 0.015359306603485475 0 -0.00056602726627639631 0.015601124911843085 0 -0.00045798019415362962 0.014937183389976457 0 -0.0010345825216028109 0.014878940548157948 0 -0.0012990266018385907 0.015509184177405174 0 -0.00056602726627639631 0.015601124911843085 0 -0.0010345825216028109 0.014878940548157948 0 -0.00071012348535439286 0.014615992743046383 0 -0.00045798019415362962 0.014937183389976457 0 -0.00039653452992341053 0.01436004823534341 0 -0.00071012348535439286 0.014615992743046383 0 -0.00094745705274740634 0.014298969098943912 0 -0.0010345825216028109 0.014878940548157948 0 -0.00071012348535439286 0.014615992743046383 0 -0.00045798019415362962 0.014937183389976457 0 -0.0010345825216028109 0.014878940548157948 0 -0.00045798019415362962 0.014937183389976457 0 -0.00039653452992341053 0.01436004823534341 0 2.2011790224541513e-05 0.014699222111184466 0 -0.00045798019415362962 0.014937183389976457 0 0.00031071247283729714 0.015359306603485475 0 2.2011790224541513e-05 0.014699222111184466 0 -0.00071012348535439286 0.014615992743046383 0 -0.00039653452992341053 0.01436004823534341 0 -0.00094745705274740634 0.014298969098943912 0 -0.00039653452992341053 0.01436004823534341 0 -0.00094745705274740634 0.014298969098943912 0 -0.00068957950689372931 0.013956340458762626 0 -0.00094745705274740634 0.014298969098943912 0 -0.0015316774162587139 0.014199536141026351 0 -0.0013401181713777149 0.014588319125111712 0 -0.00094745705274740634 0.014298969098943912 0 -0.0015316774162587139 0.014199536141026351 0 -0.0011386189285689627 0.01398565424882988 0 -0.0019607506224792563 0.014269828034694917 0 -0.0015316774162587139 0.014199536141026351 0 -0.0017629955524412861 0.014601673574803209 0 -0.0015316774162587139 0.014199536141026351 0 -0.0017629955524412861 0.014601673574803209 0 -0.0013401181713777149 0.014588319125111712 0 -0.0017629955524412861 0.014601673574803209 0 -0.0014242136075215946 0.01495585999805912 0 -0.0013401181713777149 0.014588319125111712 0 -0.0017496690812195247 0.015093439976135907 0 -0.0017629955524412861 0.014601673574803209 0 -0.0014242136075215946 0.01495585999805912 0 -0.00094745705274740634 0.014298969098943912 0 -0.0010345825216028109 0.014878940548157948 0 -0.0013401181713777149 0.014588319125111712 0 -0.0014242136075215946 0.01495585999805912 0 -0.0010345825216028109 0.014878940548157948 0 -0.0013401181713777149 0.014588319125111712 0 0.0025866845054688006 0.015893104073830835 0 0.0019735872072390451 0.015394988923854243 0 0.0023855446278764031 0.014937437228878836 0 0.001915010860991247 0.014879163867805576 0 0.0016169629135176493 0.015585290680159977 0 0.0025713062571338283 0.014498862386095367 0 0.0019735872072390451 0.015394988923854243 0 0.0023855446278764031 0.014937437228878836 0 0.0013431079894145595 0.016310782177041482 0 0.0025866845054688006 0.015893104073830835 0 0.0019735872072390451 0.015394988923854243 0 0.0013431079894145595 0.016310782177041482 0 0.0010972232113229479 0.015784378770741771 0 0.00071796747728403729 0.015811411348029648 0 0.0013395532002739951 0.016266547070404928 0 0.0016169629135176493 0.015585290680159977 0 0.0013431079894145595 0.016310782177041482 0 0.0012975504001772051 0.015656767061542013 0 0.0010972232113229479 0.015784378770741771 0 0.0010972232113229479 0.015784378770741771 0 0.00099739070431574843 0.015481702966323676 0 0.00071796747728403729 0.015811411348029648 0 0.0012975504001772051 0.015656767061542013 0 0.0010972232113229479 0.015784378770741771 0 0.00099739070431574843 0.015481702966323676 0 0.0012975504001772051 0.015656767061542013 0 0.00099739070431574843 0.015481702966323676 0 0.001160025884979918 0.015474491704839492 0 0.00099739070431574843 0.015481702966323676 0 0.00071796747728403729 0.015811411348029648 0 0.00031071247283729714 0.015359306603485475 0 0.00031878014212555439 0.016387627524672328 0 0.0013431079894145595 0.016310782177041482 0 0.00071796747728403729 0.015811411348029648 0 0.00071796747728403729 0.015811411348029648 0 9.1017302958839601e-05 0.015891197180159782 0 0.00031071247283729714 0.015359306603485475 0 0.00031878014212555439 0.016387627524672328 0 0.00071796747728403729 0.015811411348029648 0 9.1017302958839601e-05 0.015891197180159782 0 0.00031071247283729714 0.015359306603485475 0 2.2011790224541513e-05 0.014699222111184466 0 0.00047014304286406507 0.014605820319626926 0 0.00032631728617420522 0.015358758281894605 0 0.00060955563438319822 0.01500013644459163 0 2.2011790224541513e-05 0.014699222111184466 0 0.00047014304286406507 0.014605820319626926 0 0.00013156331024410695 0.014177318887094555 0 -0.00039653452992341053 0.01436004823534341 0 2.2011790224541513e-05 0.014699222111184466 0 0.00013156331024410695 0.014177318887094555 0 0.00047014304286406507 0.014605820319626926 0 0.00060232979830844395 0.014111917415980146 0 0.00013156331024410695 0.014177318887094555 0 0.00060955563438319822 0.01500013644459163 0 0.00079037257675685019 0.014629241000231477 0 0.00099739070431574843 0.015481702966323676 0 0.00031071247283729714 0.015359306603485475 0 0.00080967447712319515 0.015291575171724196 0 0.00099739070431574843 0.015481702966323676 0 0.00080967447712319515 0.015291575171724196 0 0.0010579008221083858 0.015393382792059106 0 0.00099739070431574843 0.015481702966323676 0 0.0010579008221083858 0.015393382792059106 0 0.001160025884979918 0.015474491704839492 0 0.00080967447712319515 0.015291575171724196 0 0.0010579008221083858 0.015393382792059106 0 0.0010141555709373188 0.015336576551174605 0 0.0010579008221083858 0.015393382792059106 0 0.0011040354889324984 0.015422872495417066 0 0.0010141555709373188 0.015336576551174605 0 0.0010579008221083858 0.015393382792059106 0 0.0011541589269860692 0.015454521819839362 0 0.0011040354889324984 0.015422872495417066 0 0.0011040354889324984 0.015422872495417066 0 0.0011822580071012983 0.015499072966193213 0 0.0011541917006978818 0.015473550524434358 0 0.0011970949717545552 0.015462132041191535 0 0.0011541589269860692 0.015454521819839362 0 0.0011822580071012983 0.015499072966193213 0 0.0011541589269860692 0.015454521819839362 0 0.0011040354889324984 0.015422872495417066 0 0.0011822580071012983 0.015499072966193213 0 0.0011970949717545552 0.015462132041191535 0 0.0012975504001772051 0.015656767061542013 0 0.001160025884979918 0.015474491704839492 0 0.0011970949717545552 0.015462132041191535 0 0.0011541589269860692 0.015454521819839362 0 0.001160025884979918 0.015474491704839492 0 0.0010579008221083858 0.015393382792059106 0 0.0011541589269860692 0.015454521819839362 0 0.001160025884979918 0.015474491704839492 0 0.0011496949257132634 0.01530429194259156 0 0.0010653848700771717 0.015313869273104403 0 0.0010972939371704637 0.015385472043784191 0 0.0021582116668490475 0.01698059725758919 0 0.0019460754552097731 0.016995977157424805 0 0.0020247527531711078 0.016883084499557197 0 0.0017538658122024336 0.016285296121357776 0 0.0012585935930845625 0.015164108853914081 0 0.0022006313420714595 0.017137313187623689 0 0.0021582116668490475 0.01698059725758919 0 0.0019460754552097731 0.016995977157424805 0 0.0011040354889324984 0.015422872495417066 0 0.0010972939371704637 0.015385472043784191 0 0.0010141555709373188 0.015336576551174605 0 0.0011660152086884871 0.01549098670078582 0 0.0010972939371704637 0.015385472043784191 0 0.0011541917006978818 0.015473550524434358 0 0.0011040354889324984 0.015422872495417066 0 0.0010972939371704637 0.015385472043784191 0 0.0011541917006978818 0.015473550524434358 0 0.0010653848700771717 0.015313869273104403 0 0.0010972939371704637 0.015385472043784191 0 0.0010141555709373188 0.015336576551174605 0 0.00077730873184070164 0.013727106618449699 0 0.00060232979830844395 0.014111917415980146 0 0.00056808621803647482 0.013623353388907279 0 0.0012585935930845625 0.015164108853914081 0 0.00079037257675685019 0.014629241000231477 0 0.00060232979830844395 0.014111917415980146 0 0.00034989003039621072 0.013742039058076722 0 0.00056808621803647482 0.013623353388907279 0 0.0012585935930845625 0.015164108853914081 0 0.00030317922516791951 0.01383353574532223 0 0.0007425419954984353 0.013732916959510587 0 0.00056808621803647482 0.013623353388907279 0 0.00071296643875589456 0.013574309648723701 0 0.00034989003039621072 0.013742039058076722 0 0.00043146646977681638 0.013538173952792245 0 0.00056808621803647482 0.013623353388907279 0 0.00060232979830844395 0.014111917415980146 0 0.00034989003039621072 0.013742039058076722 0 0.00013156331024410695 0.014177318887094555 0 0.00013156331024410695 0.014177318887094555 0 -2.5403109036858932e-05 0.013736044946495683 0 -0.00026476874757061432 0.013954077191540565 0 0.00034989003039621072 0.013742039058076722 0 0.00013156331024410695 0.014177318887094555 0 -2.5403109036858932e-05 0.013736044946495683 0 0.00034989003039621072 0.013742039058076722 0 -2.5403109036858932e-05 0.013736044946495683 0 6.8296448035026286e-05 0.013468808924746029 0 -2.5403109036858932e-05 0.013736044946495683 0 6.8296448035026286e-05 0.013468808924746029 0 -0.000210099209348608 0.013414606147685677 0 6.8296448035026286e-05 0.013468808924746029 0 -5.121885884647251e-06 0.013239392092147488 0 0.00019272413275477226 0.013325023673834533 0 6.8296448035026286e-05 0.013468808924746029 0 -5.121885884647251e-06 0.013239392092147488 0 -0.000210099209348608 0.013414606147685677 0 -5.121885884647251e-06 0.013239392092147488 0 -0.000210099209348608 0.013414606147685677 0 -0.00020908529110167612 0.013086079225540526 0 -1.7234137917607545e-05 0.013047961201903647 0 -5.121885884647251e-06 0.013239392092147488 0 -0.00020908529110167612 0.013086079225540526 0 -1.7234137917607545e-05 0.013047961201903647 0 -0.00020908529110167612 0.013086079225540526 0 -0.00016499611007242564 0.012908121284119511 0 -1.7234137917607545e-05 0.013047961201903647 0 -5.121885884647251e-06 0.013239392092147488 0 0.00012132705997033494 0.013170786780033923 0 0.00012132705997033494 0.013170786780033923 0 0.00030002437334867709 0.013200204282308245 0 0.00019272413275477226 0.013325023673834533 0 -5.121885884647251e-06 0.013239392092147488 0 0.00012132705997033494 0.013170786780033923 0 0.00019272413275477226 0.013325023673834533 0 0.00012132705997033494 0.013170786780033923 0 0.0001720579852200007 0.013054372480173449 0 0.00030002437334867709 0.013200204282308245 0 -1.7234137917607545e-05 0.013047961201903647 0 0.00012132705997033494 0.013170786780033923 0 0.0001720579852200007 0.013054372480173449 0 0.00030153159754244891 0.01306542377357069 0 0.00039361802555133946 0.013119367899294914 0 0.00038728641652566994 0.013010416414935187 0 0.0001720579852200007 0.013054372480173449 0 0.00030153159754244891 0.01306542377357069 0 0.00030002437334867709 0.013200204282308245 0 0.00030153159754244891 0.01306542377357069 0 0.00030002437334867709 0.013200204282308245 0 0.00039361802555133946 0.013119367899294914 0 0.00030002437334867709 0.013200204282308245 0 0.00040277978802489011 0.013200701543923566 0 0.00039361802555133946 0.013119367899294914 0 0.00030002437334867709 0.013200204282308245 0 0.00045208194277606719 0.013288235280601473 0 0.00040277978802489011 0.013200701543923566 0 0.00030002437334867709 0.013200204282308245 0 0.00038881449726665778 0.013393985822995599 0 0.00045208194277606719 0.013288235280601473 0 0.00030002437334867709 0.013200204282308245 0 0.00038881449726665778 0.013393985822995599 0 0.00019272413275477226 0.013325023673834533 0 0.00038881449726665778 0.013393985822995599 0 0.00019272413275477226 0.013325023673834533 0 0.00028756235830490527 0.013482069843415741 0 6.8296448035026286e-05 0.013468808924746029 0 0.00019272413275477226 0.013325023673834533 0 0.00028756235830490527 0.013482069843415741 0 0.00034989003039621072 0.013742039058076722 0 6.8296448035026286e-05 0.013468808924746029 0 0.00028756235830490527 0.013482069843415741 0 0.00038881449726665778 0.013393985822995599 0 0.00028756235830490527 0.013482069843415741 0 0.00043146646977681638 0.013538173952792245 0 0.00034989003039621072 0.013742039058076722 0 0.00028756235830490527 0.013482069843415741 0 0.00043146646977681638 0.013538173952792245 0 0.00043146646977681638 0.013538173952792245 0 0.00056808621803647482 0.013623353388907279 0 0.00055732478230895329 0.01345904304991543 0 0.00056808621803647482 0.013623353388907279 0 0.00071296643875589456 0.013574309648723701 0 0.00055732478230895329 0.01345904304991543 0 0.00055732478230895329 0.01345904304991543 0 0.00057135712422756594 0.013331446912609317 0 0.00072502860425477118 0.013341824382751844 0 0.00071296643875589456 0.013574309648723701 0 0.00055732478230895329 0.01345904304991543 0 0.00072502860425477118 0.013341824382751844 0 0.00055732478230895329 0.01345904304991543 0 0.00045208194277606719 0.013288235280601473 0 0.00057135712422756594 0.013331446912609317 0 0.00038881449726665778 0.013393985822995599 0 0.00043146646977681638 0.013538173952792245 0 0.00055732478230895329 0.01345904304991543 0 0.00038881449726665778 0.013393985822995599 0 0.00055732478230895329 0.01345904304991543 0 0.00045208194277606719 0.013288235280601473 0 0.00045208194277606719 0.013288235280601473 0 0.00057135712422756594 0.013331446912609317 0 0.00051950980001375232 0.013210459430952583 0 0.00045208194277606719 0.013288235280601473 0 0.00040277978802489011 0.013200701543923566 0 0.00051950980001375232 0.013210459430952583 0 0.00051950980001375232 0.013210459430952583 0 0.00047182621501502359 0.013075493205664897 0 0.00039361802555133946 0.013119367899294914 0 0.00040277978802489011 0.013200701543923566 0 0.00051950980001375232 0.013210459430952583 0 0.00039361802555133946 0.013119367899294914 0 0.00051950980001375232 0.013210459430952583 0 0.00047182621501502359 0.013075493205664897 0 0.00058824134118965182 0.013095100421157073 0 0.00047182621501502359 0.013075493205664897 0 0.00039361802555133946 0.013119367899294914 0 0.00038728641652566994 0.013010416414935187 0 0.00058824134118965182 0.013095100421157073 0 0.00072502860425477118 0.013341824382751844 0 0.00080546852382477354 0.013107631158246135 0 0.00051950980001375232 0.013210459430952583 0 0.00058824134118965182 0.013095100421157073 0 0.00072502860425477118 0.013341824382751844 0 0.00057135712422756594 0.013331446912609317 0 0.00051950980001375232 0.013210459430952583 0 0.00072502860425477118 0.013341824382751844 0 0.0010748375058615724 0.01330471366872004 0 0.00072502860425477118 0.013341824382751844 0 0.00080546852382477354 0.013107631158246135 0 0.0023436948787953871 0.02036951454545673 0 0.0022001754450398782 0.019492522130588059 0 0.0030377429818206256 0.025511342395020092 0 0.0035272393212682825 0.025833340649138673 0 0.0031622670191388523 0.026091318117815235 0 0.0023436948787953871 0.02036951454545673 0 0.0019195250032518513 0.015417339369157412 0 0.0010748375058615724 0.01330471366872004 0 0.00072502860425477118 0.013341824382751844 0 0.0008814881140726124 0.01355434844231332 0 0.00071296643875589456 0.013574309648723701 0 0.00072502860425477118 0.013341824382751844 0 0.0008814881140726124 0.01355434844231332 0 0.00098589417859045836 0.01447967263773838 0 0.0019195250032518513 0.015417339369157412 0 0.0012585935930845625 0.015164108853914081 0 0.0019195250032518513 0.015417339369157412 0 0.0007425419954984353 0.013732916959510587 0 0.00071296643875589456 0.013574309648723701 0 0.00086843900539293765 0.01354321567171966 0 -0.0014696254219096578 0.013601246577277881 0 -0.0010055601738779337 0.013624997958285463 0 -0.001301145110485732 0.013256442698694098 0 -0.001839852386686178 0.013430815086797408 0 -0.0010055601738779337 0.013624997958285463 0 -0.001514406532603346 0.013831929658038757 0 -0.0016555515667463941 0.013537430947639423 0 -0.0010460426996456551 0.013603394528012732 0 -0.0019852776299091909 0.013894536915702634 0 -0.0015316774162587139 0.014199536141026351 0 -0.001514406532603346 0.013831929658038757 0 -0.0015316774162587139 0.014199536141026351 0 -0.001514406532603346 0.013831929658038757 0 -0.0011386189285689627 0.01398565424882988 0 -0.00094745705274740634 0.014298969098943912 0 -0.0011386189285689627 0.01398565424882988 0 -0.00068957950689372931 0.013956340458762626 0 -0.0010055601738779337 0.013624997958285463 0 -0.001514406532603346 0.013831929658038757 0 -0.0011386189285689627 0.01398565424882988 0 -0.0010055601738779337 0.013624997958285463 0 -0.0011386189285689627 0.01398565424882988 0 -0.00068957950689372931 0.013956340458762626 0 -0.00039653452992341053 0.01436004823534341 0 -0.00068957950689372931 0.013956340458762626 0 -0.00026476874757061432 0.013954077191540565 0 -0.00039653452992341053 0.01436004823534341 0 0.00013156331024410695 0.014177318887094555 0 -0.00026476874757061432 0.013954077191540565 0 -0.00068957950689372931 0.013956340458762626 0 -0.00026476874757061432 0.013954077191540565 0 -0.00045907784520128825 0.013604355080773942 0 -2.5403109036858932e-05 0.013736044946495683 0 -0.00045907784520128825 0.013604355080773942 0 -0.000210099209348608 0.013414606147685677 0 -2.5403109036858932e-05 0.013736044946495683 0 -0.00026476874757061432 0.013954077191540565 0 -0.00045907784520128825 0.013604355080773942 0 -0.0010055601738779337 0.013624997958285463 0 -0.00068957950689372931 0.013956340458762626 0 -0.00045907784520128825 0.013604355080773942 0 -0.0010055601738779337 0.013624997958285463 0 -0.00045907784520128825 0.013604355080773942 0 -0.00070928799308894144 0.013343415543517506 0 -0.00045907784520128825 0.013604355080773942 0 -0.00070928799308894144 0.013343415543517506 0 -0.00045861675363712088 0.013149956862889492 0 -0.00045907784520128825 0.013604355080773942 0 -0.000210099209348608 0.013414606147685677 0 -0.00045861675363712088 0.013149956862889492 0 -0.00045861675363712088 0.013149956862889492 0 -0.00059248402100342448 0.012866187690994348 0 -0.00035432401370608899 0.012863960409735652 0 -0.000210099209348608 0.013414606147685677 0 -0.00045861675363712088 0.013149956862889492 0 -0.00020908529110167612 0.013086079225540526 0 -0.00045861675363712088 0.013149956862889492 0 -0.00020908529110167612 0.013086079225540526 0 -0.00035432401370608899 0.012863960409735652 0 -0.00045861675363712088 0.013149956862889492 0 -0.00067432293745516036 0.013047415462666729 0 -0.00059248402100342448 0.012866187690994348 0 -0.00070928799308894144 0.013343415543517506 0 -0.00067432293745516036 0.013047415462666729 0 -0.00090558252163485471 0.013078999527978809 0 -0.00070928799308894144 0.013343415543517506 0 -0.00045861675363712088 0.013149956862889492 0 -0.00067432293745516036 0.013047415462666729 0 -0.00067432293745516036 0.013047415462666729 0 -0.00084757774202010115 0.012894406762880038 0 -0.00059248402100342448 0.012866187690994348 0 -0.00067432293745516036 0.013047415462666729 0 -0.00084757774202010115 0.012894406762880038 0 -0.00090558252163485471 0.013078999527978809 0 -0.00084757774202010115 0.012894406762880038 0 -0.00090558252163485471 0.013078999527978809 0 -0.0010517686431221632 0.012929734608317001 0 -0.0010055601738779337 0.013624997958285463 0 -0.00090558252163485471 0.013078999527978809 0 -0.001301145110485732 0.013256442698694098 0 -0.0010055601738779337 0.013624997958285463 0 -0.00070928799308894144 0.013343415543517506 0 -0.00090558252163485471 0.013078999527978809 0 -0.00093385912744583469 0.013074876077613016 0 -0.0012424735496741209 0.013184496866568848 0 -0.00090558252163485471 0.013078999527978809 0 -0.0011929697051936273 0.013111132475796327 0 -0.0010517686431221632 0.012929734608317001 0 -0.0011929697051936273 0.013111132475796327 0 -0.0010517686431221632 0.012929734608317001 0 -0.001240398752644239 0.012836180422890305 0 -0.0010517686431221632 0.012929734608317001 0 -0.001240398752644239 0.012836180422890305 0 -0.0010486404731555963 0.012752087132930265 0 -0.001240398752644239 0.012836180422890305 0 -0.0010486404731555963 0.012752087132930265 0 -0.0012178187524734872 0.012661709490141004 0 -0.0010486404731555963 0.012752087132930265 0 -0.0012178187524734872 0.012661709490141004 0 -0.0010496082826146969 0.012571570484697753 0 -0.0012178187524734872 0.012661709490141004 0 -0.0011947263646016047 0.012556788916337424 0 -0.0013302628280502657 0.012566893299327746 0 -0.0012178187524734872 0.012661709490141004 0 -0.0011947263646016047 0.012556788916337424 0 -0.0010496082826146969 0.012571570484697753 0 -0.0011947263646016047 0.012556788916337424 0 -0.0011269821060484275 0.012502693895635445 0 -0.0010496082826146969 0.012571570484697753 0 -0.0011947263646016047 0.012556788916337424 0 -0.0011783047908453961 0.012490815836574102 0 -0.0011269821060484275 0.012502693895635445 0 -0.0011947263646016047 0.012556788916337424 0 -0.0011783047908453961 0.012490815836574102 0 -0.0012567557081666575 0.012488107174132596 0 -0.0010496082826146969 0.012571570484697753 0 -0.0010706825520417471 0.012446274569849014 0 -0.00095614981779847596 0.012451218433799505 0 -0.0011269821060484275 0.012502693895635445 0 -0.0010496082826146969 0.012571570484697753 0 -0.0010706825520417471 0.012446274569849014 0 -0.0011783047908453961 0.012490815836574102 0 -0.0011322979931270019 0.012422547712132132 0 -0.0012567557081666575 0.012488107174132596 0 -0.0010706825520417471 0.012446274569849014 0 -0.0011322979931270019 0.012422547712132132 0 -0.0011112415519084608 0.012374534422652995 0 -0.0011322979931270019 0.012422547712132132 0 -0.0011669226167373137 0.012350490533965143 0 -0.0012424197762831762 0.012461966103751507 0 -0.0011783047908453961 0.012490815836574102 0 -0.0011269821060484275 0.012502693895635445 0 -0.0011322979931270019 0.012422547712132132 0 -0.0011269821060484275 0.012502693895635445 0 -0.0010706825520417471 0.012446274569849014 0 -0.0011322979931270019 0.012422547712132132 0 -0.00082825106345638046 0.012574244856233855 0 -0.00067553886090094563 0.012534644656603746 0 -0.00081620167272794715 0.012427974864219907 0 -0.0010496082826146969 0.012571570484697753 0 -0.00082825106345638046 0.012574244856233855 0 -0.00095614981779847596 0.012451218433799505 0 -0.00082825106345638046 0.012574244856233855 0 -0.00095614981779847596 0.012451218433799505 0 -0.00081620167272794715 0.012427974864219907 0 -0.0010496082826146969 0.012571570484697753 0 -0.00082825106345638046 0.012574244856233855 0 -0.00082131748613094042 0.012721284544800569 0 -0.00082825106345638046 0.012574244856233855 0 -0.00082131748613094042 0.012721284544800569 0 -0.00058208866095883121 0.012686478376299673 0 -0.0010486404731555963 0.012752087132930265 0 -0.0010496082826146969 0.012571570484697753 0 -0.00082131748613094042 0.012721284544800569 0 -0.00084757774202010115 0.012894406762880038 0 -0.0010517686431221632 0.012929734608317001 0 -0.0010486404731555963 0.012752087132930265 0 -0.00084757774202010115 0.012894406762880038 0 -0.0010486404731555963 0.012752087132930265 0 -0.00082131748613094042 0.012721284544800569 0 -0.00084757774202010115 0.012894406762880038 0 -0.00082131748613094042 0.012721284544800569 0 -0.00059248402100342448 0.012866187690994348 0 -0.00059248402100342448 0.012866187690994348 0 -0.00035432401370608899 0.012863960409735652 0 -0.00058208866095883121 0.012686478376299673 0 -0.00082131748613094042 0.012721284544800569 0 -0.00059248402100342448 0.012866187690994348 0 -0.00058208866095883121 0.012686478376299673 0 -0.00020908529110167612 0.013086079225540526 0 -0.00035432401370608899 0.012863960409735652 0 -0.00016499611007242564 0.012908121284119511 0 -0.00035432401370608899 0.012863960409735652 0 -0.00016499611007242564 0.012908121284119511 0 -0.00014079883177534188 0.012751262974357143 0 -0.00035432401370608899 0.012863960409735652 0 -0.00035219912080800973 0.012698300041798472 0 -0.00014079883177534188 0.012751262974357143 0 -0.00035432401370608899 0.012863960409735652 0 -0.00035219912080800973 0.012698300041798472 0 -0.00058208866095883121 0.012686478376299673 0 -0.00035219912080800973 0.012698300041798472 0 -0.00045578622580893109 0.012579081849364224 0 -0.00026980398587691574 0.012632387450384044 0 -0.00035219912080800973 0.012698300041798472 0 -0.00026980398587691574 0.012632387450384044 0 -0.00014079883177534188 0.012751262974357143 0 -0.00035219912080800973 0.012698300041798472 0 -0.00058208866095883121 0.012686478376299673 0 -0.00045578622580893109 0.012579081849364224 0 -0.00058208866095883121 0.012686478376299673 0 -0.00067553886090094563 0.012534644656603746 0 -0.00045578622580893109 0.012579081849364224 0 -0.00082825106345638046 0.012574244856233855 0 -0.00058208866095883121 0.012686478376299673 0 -0.00067553886090094563 0.012534644656603746 0 -0.00045578622580893109 0.012579081849364224 0 -0.00031843490797295456 0.012507884921563659 0 -0.00068236510880868427 0.012322849909397034 0 -0.00067553886090094563 0.012534644656603746 0 -0.00045578622580893109 0.012579081849364224 0 -0.00068236510880868427 0.012322849909397034 0 -0.00026980398587691574 0.012632387450384044 0 -0.00031843490797295456 0.012507884921563659 0 -8.4352169805294644e-05 0.012662169871195087 0 -0.00045578622580893109 0.012579081849364224 0 -0.00026980398587691574 0.012632387450384044 0 -0.00031843490797295456 0.012507884921563659 0 -0.00027825970793744531 0.012573105652877711 0 -0.00011681058385356394 0.012552900534625298 0 -0.00031843490797295456 0.012507884921563659 0 -0.00047863615648103739 0.012159737816996702 0 -5.7382129512249789e-05 0.012634403247604072 0 -9.1684983387672059e-05 0.012633241243414856 0 -0.00016871463656563523 0.012643518970020959 0 -5.7382129512249789e-05 0.012634403247604072 0 -0.00068236510880868427 0.012322849909397034 0 -0.00047863615648103739 0.012159737816996702 0 -0.00086885977806005804 0.012187689836368795 0 -0.00031843490797295456 0.012507884921563659 0 -0.00068236510880868427 0.012322849909397034 0 -0.00047863615648103739 0.012159737816996702 0 -0.00047863615648103739 0.012159737816996702 0 -0.00086885977806005804 0.012187689836368795 0 -0.00088907634541121009 0.011956421000941218 0 -0.00068236510880868427 0.012322849909397034 0 -0.00086885977806005804 0.012187689836368795 0 -0.00092725510960992388 0.012322840150463811 0 -0.00086885977806005804 0.012187689836368795 0 -0.0011320531153877667 0.012129464915508904 0 -0.001052520717749222 0.012261397123760343 0 -0.0010322157712488653 0.01070063066005269 0 -0.00064748532328502359 0.011026821989084626 0 -0.00086885977806005804 0.012187689836368795 0 -0.0011320531153877667 0.012129464915508904 0 -0.00088907634541121009 0.011956421000941218 0 -0.0011320531153877667 0.012129464915508904 0 -0.001052520717749222 0.012261397123760343 0 -0.0011625493902949738 0.01223947678675928 0 -0.00086885977806005804 0.012187689836368795 0 -0.001052520717749222 0.012261397123760343 0 -0.00092725510960992388 0.012322840150463811 0 -0.001052520717749222 0.012261397123760343 0 -0.0010450509325872763 0.012363515975825821 0 -0.00092725510960992388 0.012322840150463811 0 -0.001052520717749222 0.012261397123760343 0 -0.0011492763416543514 0.012303278070589301 0 -0.0010450509325872763 0.012363515975825821 0 -0.001052520717749222 0.012261397123760343 0 -0.0011492763416543514 0.012303278070589301 0 -0.0011625493902949738 0.01223947678675928 0 -0.0011492763416543514 0.012303278070589301 0 -0.0011112415519084608 0.012374534422652995 0 -0.0010450509325872763 0.012363515975825821 0 -0.0011492763416543514 0.012303278070589301 0 -0.0011112415519084608 0.012374534422652995 0 -0.0011669226167373137 0.012350490533965143 0 -0.0010706825520417471 0.012446274569849014 0 -0.0011112415519084608 0.012374534422652995 0 -0.0010450509325872763 0.012363515975825821 0 -0.0011322979931270019 0.012422547712132132 0 -0.0011112415519084608 0.012374534422652995 0 -0.0011669226167373137 0.012350490533965143 0 -0.00095614981779847596 0.012451218433799505 0 -0.0010450509325872763 0.012363515975825821 0 -0.00092725510960992388 0.012322840150463811 0 -0.0010706825520417471 0.012446274569849014 0 -0.00095614981779847596 0.012451218433799505 0 -0.0010450509325872763 0.012363515975825821 0 -0.00067553886090094563 0.012534644656603746 0 -0.00068236510880868427 0.012322849909397034 0 -0.00081620167272794715 0.012427974864219907 0 -0.00095614981779847596 0.012451218433799505 0 -0.00081620167272794715 0.012427974864219907 0 -0.00092725510960992388 0.012322840150463811 0 -0.00068236510880868427 0.012322849909397034 0 -0.00081620167272794715 0.012427974864219907 0 -0.00092725510960992388 0.012322840150463811 0 0.0030619619690912727 0.026812845321541014 0 0.0033939185837087464 0.026390439581004805 0 0.0036470543226932699 0.026992704740369532 0 0.0030619619690912727 0.026812845321541014 0 0.0029693379448060991 0.026469000384361532 0 0.0033939185837087464 0.026390439581004805 0 0.0029693379448060991 0.026469000384361532 0 0.0031622670191388523 0.026091318117815235 0 0.0033939185837087464 0.026390439581004805 0 0.0035272393212682825 0.025833340649138673 0 0.0031622670191388523 0.026091318117815235 0 0.0033939185837087464 0.026390439581004805 0 0.0035272393212682825 0.025833340649138673 0 0.0033939185837087464 0.026390439581004805 0 0.0039917201581417166 0.02610734653303801 0 0.00058824134118965182 0.013095100421157073 0 0.00080546852382477354 0.013107631158246135 0 0.0004886302709715953 0.012893181484811321 0 0.0022001754450398782 0.019492522130588059 0 0.0016291641930452608 0.018503682042118195 0 0.00047182621501502359 0.013075493205664897 0 0.0004886302709715953 0.012893181484811321 0 0.00038728641652566994 0.013010416414935187 0 0.00047182621501502359 0.013075493205664897 0 0.00058824134118965182 0.013095100421157073 0 0.0004886302709715953 0.012893181484811321 0 0.0004886302709715953 0.012893181484811321 0 0.00038728641652566994 0.013010416414935187 0 0.00026174606097967572 0.012937711969493689 0 -6.9735162334478131e-05 0.012709314096999564 0 -7.1932998963894111e-05 0.01275319308312412 0 -0.00021397118914472742 0.012799352303467 0 0.0033939185837087464 0.026390439581004805 0 0.0039917201581417166 0.02610734653303801 0 0.0036470543226932699 0.026992704740369532 0 0.0016291641930452608 0.018503682042118195 0 0.0017107216580450823 0.020204271925453664 0 -6.9735162334478131e-05 0.012709314096999564 0 -7.1932998963894111e-05 0.01275319308312412 0 3.0937492348195219e-05 0.012737525997490076 0 -7.1932998963894111e-05 0.01275319308312412 0 3.0937492348195219e-05 0.012737525997490076 0 -4.4368601082359084e-05 0.012711406180976484 0 0.0004886302709715953 0.012893181484811321 0 3.0937492348195219e-05 0.012737525997490076 0 0.00026174606097967572 0.012937711969493689 0 0.0016291641930452608 0.018503682042118195 0 -0.0011233678961572332 0.01201913718125156 0 0.0001720579852200007 0.013054372480173449 0 0.00030153159754244891 0.01306542377357069 0 0.00026174606097967572 0.012937711969493689 0 0.00030153159754244891 0.01306542377357069 0 0.00038728641652566994 0.013010416414935187 0 0.00026174606097967572 0.012937711969493689 0 0.0001720579852200007 0.013054372480173449 0 0.00026174606097967572 0.012937711969493689 0 5.4916153480044057e-08 0.012887614719279433 0 -1.7234137917607545e-05 0.013047961201903647 0 0.0001720579852200007 0.013054372480173449 0 5.4916153480044057e-08 0.012887614719279433 0 3.0937492348195219e-05 0.012737525997490076 0 0.00026174606097967572 0.012937711969493689 0 5.4916153480044057e-08 0.012887614719279433 0 3.0937492348195219e-05 0.012737525997490076 0 5.4916153480044057e-08 0.012887614719279433 0 -0.00014079883177534188 0.012751262974357143 0 -1.7234137917607545e-05 0.013047961201903647 0 5.4916153480044057e-08 0.012887614719279433 0 -0.00016499611007242564 0.012908121284119511 0 5.4916153480044057e-08 0.012887614719279433 0 -0.00016499611007242564 0.012908121284119511 0 -0.00014079883177534188 0.012751262974357143 0 3.0937492348195219e-05 0.012737525997490076 0 -0.00014079883177534188 0.012751262974357143 0 -4.4368601082359084e-05 0.012711406180976484 0 -0.00026980398587691574 0.012632387450384044 0 -0.00014079883177534188 0.012751262974357143 0 -0.00013242378023109493 0.012680232370415453 0 -0.00014079883177534188 0.012751262974357143 0 -4.4368601082359084e-05 0.012711406180976484 0 -0.00013242378023109493 0.012680232370415453 0 -0.00031843490797295456 0.012507884921563659 0 -8.4352169805294644e-05 0.012662169871195087 0 -5.7382129512249789e-05 0.012634403247604072 0 -0.00026980398587691574 0.012632387450384044 0 -0.00013242378023109493 0.012680232370415453 0 -8.4352169805294644e-05 0.012662169871195087 0 -4.4368601082359084e-05 0.012711406180976484 0 -0.00013242378023109493 0.012680232370415453 0 -8.4352169805294644e-05 0.012662169871195087 0 -4.4368601082359084e-05 0.012711406180976484 0 -8.4352169805294644e-05 0.012662169871195087 0 -4.6731713799026475e-05 0.012748935993598155 0 -8.4352169805294644e-05 0.012662169871195087 0 -2.5920196734643393e-05 0.012721046105675482 0 -4.6731713799026475e-05 0.012748935993598155 0 -8.4352169805294644e-05 0.012662169871195087 0 -5.7382129512249789e-05 0.012634403247604072 0 -2.5920196734643393e-05 0.012721046105675482 0 -5.7382129512249789e-05 0.012634403247604072 0 -5.1912392122304096e-05 0.012670944415219137 0 3.0660641444645658e-05 0.012774911690382041 0 -9.1684983387672059e-05 0.012633241243414856 0 -5.7382129512249789e-05 0.012634403247604072 0 -5.1912392122304096e-05 0.012670944415219137 0 -5.1912392122304096e-05 0.012670944415219137 0 3.0660641444645658e-05 0.012774911690382041 0 -2.6761883436097107e-05 0.012565486120180174 0 -5.7382129512249789e-05 0.012634403247604072 0 3.0660641444645658e-05 0.012774911690382041 0 -2.5920196734643393e-05 0.012721046105675482 0 3.0660641444645658e-05 0.012774911690382041 0 -2.5920196734643393e-05 0.012721046105675482 0 -5.7050581651976899e-05 0.012824211915336267 0 3.0660641444645658e-05 0.012774911690382041 0 -5.7050581651976899e-05 0.012824211915336267 0 -5.1065673750650817e-05 0.013094311135938399 0 -5.7050581651976899e-05 0.012824211915336267 0 -0.00015876728037139215 0.012909659947120022 0 -5.1065673750650817e-05 0.013094311135938399 0 -5.7050581651976899e-05 0.012824211915336267 0 -4.6731713799026475e-05 0.012748935993598155 0 -0.00015876728037139215 0.012909659947120022 0 -7.1932998963894111e-05 0.01275319308312412 0 -4.6731713799026475e-05 0.012748935993598155 0 -0.00015876728037139215 0.012909659947120022 0 -2.5920196734643393e-05 0.012721046105675482 0 -5.7050581651976899e-05 0.012824211915336267 0 -4.6731713799026475e-05 0.012748935993598155 0 -7.1932998963894111e-05 0.01275319308312412 0 -4.4368601082359084e-05 0.012711406180976484 0 -4.6731713799026475e-05 0.012748935993598155 0 -7.1932998963894111e-05 0.01275319308312412 0 -0.00021397118914472742 0.012799352303467 0 -0.00015876728037139215 0.012909659947120022 0 -0.00021397118914472742 0.012799352303467 0 -0.00015876728037139215 0.012909659947120022 0 -0.0004486059384861321 0.013056470773373966 0 -0.00015876728037139215 0.012909659947120022 0 -0.0004486059384861321 0.013056470773373966 0 -0.00023237677035517975 0.013256516967645288 0 0.0017107216580450823 0.020204271925453664 0 0.0013683177175020007 0.01968905204746985 0 0.0029154811410261796 0.027316744211473488 0 0.0036470543226932699 0.026992704740369532 0 0.0032927595388241269 0.027689557042061875 0 0.0030619619690912727 0.026812845321541014 0 0.0029154811410261796 0.027316744211473488 0 0.0036470543226932699 0.026992704740369532 0 0.0025816258702887171 0.024215199233278736 0 0.00071623102423624377 0.022842191836176966 0 0.0037226435197479837 0.029172252254814127 0 0.0035840737591449055 0.02966120852217121 0 0.0041209933424430573 0.029552448268861109 0 -0.00063567947315625929 0.013527632425475665 0 -0.00046664848699649267 0.01366245872787928 0 -0.00041068865254185365 0.013395357424527686 0 0.0025816258702887171 0.024215199233278736 0 0.0013683177175020007 0.01968905204746985 0 -0.00063567947315625929 0.013527632425475665 0 -0.0004486059384861321 0.013056470773373966 0 -0.00041068865254185365 0.013395357424527686 0 -0.0004486059384861321 0.013056470773373966 0 -0.00041068865254185365 0.013395357424527686 0 -0.00023237677035517975 0.013256516967645288 0 -0.00023237677035517975 0.013256516967645288 0 -0.00026268864598240642 0.013524010136875398 0 -3.5147426376389932e-05 0.013606735216584358 0 -0.00026268864598240642 0.013524010136875398 0 -3.5147426376389932e-05 0.013606735216584358 0 -0.00037403167227082292 0.013746411048352206 0 -0.00041068865254185365 0.013395357424527686 0 -0.00023237677035517975 0.013256516967645288 0 -0.00026268864598240642 0.013524010136875398 0 -0.00046664848699649267 0.01366245872787928 0 -0.00041068865254185365 0.013395357424527686 0 -0.00026268864598240642 0.013524010136875398 0 -0.00046664848699649267 0.01366245872787928 0 -0.00026268864598240642 0.013524010136875398 0 -0.00037403167227082292 0.013746411048352206 0 -0.00023237677035517975 0.013256516967645288 0 -3.5147426376389932e-05 0.013606735216584358 0 -5.1065673750650817e-05 0.013094311135938399 0 -3.5147426376389932e-05 0.013606735216584358 0 -5.1065673750650817e-05 0.013094311135938399 0 0.00025460108176763023 0.013181642052480468 0 -0.00015876728037139215 0.012909659947120022 0 -0.00023237677035517975 0.013256516967645288 0 -5.1065673750650817e-05 0.013094311135938399 0 5.2445818513124104e-05 0.012792017096838554 0 9.1706932532272626e-05 0.012862042243505657 0 3.0660641444645658e-05 0.012774911690382041 0 -5.1065673750650817e-05 0.013094311135938399 0 0.00025460108176763023 0.013181642052480468 0 -9.1684983387672059e-05 0.012633241243414856 0 -5.1912392122304096e-05 0.012670944415219137 0 -2.6761883436097107e-05 0.012565486120180174 0 -3.5147426376389932e-05 0.013606735216584358 0 0.00025460108176763023 0.013181642052480468 0 0.00037677776160646384 0.013484063363181245 0 9.1706932532272626e-05 0.012862042243505657 0 -0.00033499240730163805 0.013290538553567625 0 -0.00010908595369261933 0.015036790129524632 0 -0.00033499240730163805 0.013290538553567625 0 -0.00037105713119348234 0.016829793507663733 0 0.00013220526453771569 0.016804316358848864 0 4.9460825583089499e-05 0.017241471178330907 0 0.00013220526453771569 0.016804316358848864 0 4.9460825583089499e-05 0.017241471178330907 0 6.5434149987478394e-05 0.01701494523754778 0 4.9460825583089499e-05 0.017241471178330907 0 1.1520642222422552e-06 0.016923184526197232 0 6.5434149987478394e-05 0.01701494523754778 0 4.9460825583089499e-05 0.017241471178330907 0 1.1520642222422552e-06 0.016923184526197232 0 -1.174454152275311e-06 0.018302693954124639 0 4.9460825583089499e-05 0.017241471178330907 0 -1.174454152275311e-06 0.018302693954124639 0 -0.0006975800528166013 0.017485644567130237 0 -1.3363855560054843e-06 0.018307980877872682 0 -0.00018901962686265276 0.0208650293745542 0 4.8617133633633772e-07 0.020479520295050953 0 1.0756117372593719e-08 0.018306306751083995 0 -0.00030016869590135771 0.019211559362243766 0 -0.00037105713119348234 0.016829793507663733 0 4.9460825583089499e-05 0.017241471178330907 0 -0.0006975800528166013 0.017485644567130237 0 -0.00010908595369261933 0.015036790129524632 0 -0.00045588174801866523 0.019208530271730816 0 -0.00037105713119348234 0.016829793507663733 0 -0.0006975800528166013 0.017485644567130237 0 -0.0011803237283185839 0.017027904926441666 0 -0.00018901962686265276 0.0208650293745542 0 5.8288042096331515e-05 0.021928494099876978 0 0.00016624540400846769 0.021675568212132602 0 -0.00030016869590135771 0.019211559362243766 0 -0.00045588174801866523 0.019208530271730816 0 -0.00018901962686265276 0.0208650293745542 0 4.8617133633633772e-07 0.020479520295050953 0 0.00016624540400846769 0.021675568212132602 0 5.4240592299614397e-07 0.022652918959781138 0 0.00016624540400846769 0.021675568212132602 0 0.00019006434991611731 0.022192501905600692 0 5.4240592299614397e-07 0.022652918959781138 0 4.8617133633633772e-07 0.020479520295050953 0 0.00016624540400846769 0.021675568212132602 0 5.8288042096331515e-05 0.021928494099876978 0 0.00016624540400846769 0.021675568212132602 0 0.00019006434991611731 0.022192501905600692 0 0.00060823196024364478 0.02284890071598069 0 0.00072016730399588507 0.022943452566582218 0 0.00046533442384951291 0.023042602611037584 0 -0.00045588174801866523 0.019208530271730816 0 0.00035673425747043586 0.022654423724880694 0 0.00071623102423624377 0.022842191836176966 0 -0.00045588174801866523 0.019208530271730816 0 8.7648019842569331e-05 0.01027385347358691 0 0.00027644578518912222 0.0094818648008531542 0 -0.0005504577096129427 0.010033953216594392 0 8.7648019842569331e-05 0.01027385347358691 0 -0.0005504577096129427 0.010033953216594392 0 -0.00012493636149720513 0.011676305203797907 0 8.7648019842569331e-05 0.01027385347358691 0 0.0002488736538110289 0.0094834430919159031 0 0.00022888293823276567 0.010337714513815209 0 8.7648019842569331e-05 0.01027385347358691 0 0.0002488736538110289 0.0094834430919159031 0 0.00027644578518912222 0.0094818648008531542 0 -0.0004152814628186985 0.0092068304826332728 0 -0.00064748532328502359 0.011026821989084626 0 -0.00090190244548504675 0.0091440425356123615 0 -0.00087887204190017002 0.0090736067480886515 0 -0.000823895463062624 0.009105312432295844 0 -0.00027825970793744531 0.012573105652877711 0 -0.00064748532328502359 0.011026821989084626 0 -0.0004152814628186985 0.0092068304826332728 0 -0.00054959993531307992 0.010586357255272127 0 -0.00045219485112534474 0.010170363619456568 0 -0.00055194118165141485 0.010138283534355358 0 -0.00068086387689104846 0.010235446403415406 0 -0.00064748532328502359 0.011026821989084626 0 -0.00054959993531307992 0.010586357255272127 0 -0.00016871463656563523 0.012643518970020959 0 -0.00034082374756566809 0.012566204881967236 0 -0.00022791725892567374 0.012500155196936001 0 -0.00016871463656563523 0.012643518970020959 0 -0.00011557744605235729 0.012565307881791573 0 -0.00022791725892567374 0.012500155196936001 0 -9.1684983387672059e-05 0.012633241243414856 0 -2.6761883436097107e-05 0.012565486120180174 0 -0.00011557744605235729 0.012565307881791573 0 -9.1684983387672059e-05 0.012633241243414856 0 -0.00016871463656563523 0.012643518970020959 0 -0.00011557744605235729 0.012565307881791573 0 -2.6761883436097107e-05 0.012565486120180174 0 -6.2118996227015247e-05 0.012479168715249872 0 -0.00011557744605235729 0.012565307881791573 0 -6.2118996227015247e-05 0.012479168715249872 0 -0.00011557744605235729 0.012565307881791573 0 -0.00022791725892567374 0.012500155196936001 0 -0.00033499240730163805 0.013290538553567625 0 -0.00054959993531307992 0.010586357255272127 0 -0.0028189521566832454 0.010503412176701674 0 -0.001664574210372983 0.010978523418519402 0 -7.3878703186945372e-05 0.009872157346108185 0 -0.0013921428601763436 0.010727709423628549 0 -0.00054959993531307992 0.010586357255272127 0 -0.001664574210372983 0.010978523418519402 0 -0.0005504577096129427 0.010033953216594392 0 -0.00092108660029809508 0.011797775181851589 0 -0.0005504577096129427 0.010033953216594392 0 -0.00092108660029809508 0.011797775181851589 0 -0.00012493636149720513 0.011676305203797907 0 -0.00033499240730163805 0.013290538553567625 0 -0.0010051836437405992 0.014707308580270351 0 -0.0028189521566832454 0.010503412176701674 0 -0.001664574210372983 0.010978523418519402 0 -0.0021354846774673327 0.012475622648739347 0 -0.001664574210372983 0.010978523418519402 0 -0.00092108660029809508 0.011797775181851589 0 -0.0021354846774673327 0.012475622648739347 0 1.1520642222422552e-06 0.016923184526197232 0 6.5434149987478394e-05 0.01701494523754778 0 -1.1241641178377701e-06 0.01554336177498713 0 -0.0010051836437405992 0.014707308580270351 0 -4.3312799185959522e-07 0.015540396650113435 0 -0.00092108660029809508 0.011797775181851589 0 -0.0021354846774673327 0.012475622648739347 0 -4.5467634819614597e-06 0.015535630510386485 0 -4.5467634819614597e-06 0.015535630510386485 0 1.4055792854546827e-06 0.01316095700808036 0 -0.00012493636149720513 0.011676305203797907 0 -0.00092108660029809508 0.011797775181851589 0 -4.5467634819614597e-06 0.015535630510386485 0 -0.00012493636149720513 0.011676305203797907 0 1.4055792854546827e-06 0.01316095700808036 0 -0.00012493636149720513 0.011676305203797907 0 0.00022888293823276567 0.010337714513815209 0 8.7648019842569331e-05 0.01027385347358691 0 -0.00012493636149720513 0.011676305203797907 0 0.00022888293823276567 0.010337714513815209 0 1.4055792854546827e-06 0.01316095700808036 0 0.00022888293823276567 0.010337714513815209 0 1.677300404596209e-07 0.010780821413069124 0 0.00022888293823276567 0.010337714513815209 0 1.677300404596209e-07 0.010780821413069124 0 0.00021214041365228166 0.0089464808114584366 0 0.00021214041365228166 0.0089464808114584366 0 3.4709470071949882e-07 0.008402088076805354 0 9.4245777684985355e-05 0.0071543967745604509 0 1.677300404596209e-07 0.010780821413069124 0 0.00021214041365228166 0.0089464808114584366 0 3.4709470071949882e-07 0.008402088076805354 0 0.00021214041365228166 0.0089464808114584366 0 0.00026081257012222918 0.0090545382165538469 0 0.00029721260173065953 0.0080502172935002416 0 0.00021214041365228166 0.0089464808114584366 0 9.4245777684985355e-05 0.0071543967745604509 0 0.00029721260173065953 0.0080502172935002416 0 0.00022888293823276567 0.010337714513815209 0 0.00021214041365228166 0.0089464808114584366 0 0.00026081257012222918 0.0090545382165538469 0 0.0002488736538110289 0.0094834430919159031 0 0.00022888293823276567 0.010337714513815209 0 0.00026081257012222918 0.0090545382165538469 0 -2.1308998449959613e-08 0.0060215931580587627 0 -4.9509232876511237e-05 0.0063941411363683488 0 3.4709470071949882e-07 0.008402088076805354 0 -2.1308998449959613e-08 0.0060215931580587627 0 -4.9509232876511237e-05 0.0063941411363683488 0 -0.00026555029252429827 0.0049669237015050093 0 -4.9509232876511237e-05 0.0063941411363683488 0 3.4709470071949882e-07 0.008402088076805354 0 9.4245777684985355e-05 0.0071543967745604509 0 -4.9509232876511237e-05 0.0063941411363683488 0 9.4245777684985355e-05 0.0071543967745604509 0 -0.00032911443300098889 0.0057062586122445949 0 -4.9509232876511237e-05 0.0063941411363683488 0 -0.00032911443300098889 0.0057062586122445949 0 -0.00026555029252429827 0.0049669237015050093 0 9.4245777684985355e-05 0.0071543967745604509 0 -0.00032911443300098889 0.0057062586122445949 0 -0.00016635094355678523 0.0063135424971342627 0 -0.00016635094355678523 0.0063135424971342627 0 -0.00019343548604856486 0.0072904478726531019 0 -0.00081618407653518646 0.005092872844495961 0 -0.00012365027150758678 0.0064359829644313488 0 -0.00080694761299398318 0.0054157943296626928 0 -0.00032911443300098889 0.0057062586122445949 0 -0.00016635094355678523 0.0063135424971342627 0 -0.00081618407653518646 0.005092872844495961 0 -0.00016635094355678523 0.0063135424971342627 0 0.00010070631775329092 0.0071179257288920767 0 -0.00019343548604856486 0.0072904478726531019 0 0.00010070631775329092 0.0071179257288920767 0 0.00029040082980089993 0.0076046537196700842 0 0.00020344865868727216 0.0075066208685642165 0 -0.00016635094355678523 0.0063135424971342627 0 0.00010070631775329092 0.0071179257288920767 0 0.00015694304220502747 0.0071909246668164228 0 0.00010070631775329092 0.0071179257288920767 0 0.00015694304220502747 0.0071909246668164228 0 0.00029040082980089993 0.0076046537196700842 0 9.4245777684985355e-05 0.0071543967745604509 0 -0.00016635094355678523 0.0063135424971342627 0 0.00015694304220502747 0.0071909246668164228 0 9.4245777684985355e-05 0.0071543967745604509 0 0.00015694304220502747 0.0071909246668164228 0 0.00029721260173065953 0.0080502172935002416 0 0.00015694304220502747 0.0071909246668164228 0 0.00029040082980089993 0.0076046537196700842 0 0.00029721260173065953 0.0080502172935002416 0 0.00029040082980089993 0.0076046537196700842 0 0.00020344865868727216 0.0075066208685642165 0 0.00033700161996852511 0.0077804148749083916 0 0.00028399163558030202 0.0078091571298931507 0 0.00020344865868727216 0.0075066208685642165 0 0.00033700161996852511 0.0077804148749083916 0 -0.00099869580793341133 0.0066758181766686788 0 -0.00012365027150758678 0.0064359829644313488 0 0.00028399163558030202 0.0078091571298931507 0 0.00020344865868727216 0.0075066208685642165 0 -0.00019343548604856486 0.0072904478726531019 0 -0.00010163771058410568 0.005849216069570084 0 -0.00042242537292606723 0.0055713891508108416 0 -0.00033462858134523119 0.0059038256629580094 0 0.00010070631775329092 0.0071179257288920767 0 0.00020344865868727216 0.0075066208685642165 0 -0.00019343548604856486 0.0072904478726531019 0 -0.0032941099397874895 0.0020914063014722648 0 -0.0048084144243705097 0.00073913292005735364 0 -0.0026359776330825342 0.00020918118034060203 0 -0.00042242537292606723 0.0055713891508108416 0 -0.00071345523949279104 0.0056136564296682748 0 -0.00033462858134523119 0.0059038256629580094 0 -0.0019068463391555934 0.0038360222548320931 0 -0.0026479341302768412 0.0032888781062201892 0 -0.00042242537292606723 0.0055713891508108416 0 -0.00071345523949279104 0.0056136564296682748 0 -0.00081618407653518646 0.005092872844495961 0 0.0002488736538110289 0.0094834430919159031 0 0.00027644578518912222 0.0094818648008531542 0 0.00025415569414190432 0.0085359372864429878 0 0.0002488736538110289 0.0094834430919159031 0 0.00026081257012222918 0.0090545382165538469 0 0.00025415569414190432 0.0085359372864429878 0 0.00026081257012222918 0.0090545382165538469 0 0.00025415569414190432 0.0085359372864429878 0 0.00029721260173065953 0.0080502172935002416 0 0.00029040082980089993 0.0076046537196700842 0 0.00029721260173065953 0.0080502172935002416 0 0.00034183080954039294 0.0080429461997924851 0 0.00025415569414190432 0.0085359372864429878 0 0.00029721260173065953 0.0080502172935002416 0 0.00034183080954039294 0.0080429461997924851 0 0.00028399163558030202 0.0078091571298931507 0 0.00033700161996852511 0.0077804148749083916 0 0.00027700454223473397 0.0078866433318216349 0 0.00025415569414190432 0.0085359372864429878 0 0.00034183080954039294 0.0080429461997924851 0 0.00027700454223473397 0.0078866433318216349 0 -0.00099869580793341133 0.0066758181766686788 0 -0.00036553991303170272 0.0085812196854387884 0 0.00029040082980089993 0.0076046537196700842 0 0.00034183080954039294 0.0080429461997924851 0 0.00033700161996852511 0.0077804148749083916 0 0.00034183080954039294 0.0080429461997924851 0 0.00033700161996852511 0.0077804148749083916 0 0.00027700454223473397 0.0078866433318216349 0 -0.00078662808785207082 0.0081567123070827516 0 0.00025415569414190432 0.0085359372864429878 0 0.00027700454223473397 0.0078866433318216349 0 -0.00090190244548504675 0.0091440425356123615 0 -0.00087887204190017002 0.0090736067480886515 0 -0.00098172070982508277 0.009076166754458749 0 -0.0004152814628186985 0.0092068304826332728 0 0.00028753868325466161 0.0085791312354294592 0 -0.0004152814628186985 0.0092068304826332728 0 -0.00036553991303170272 0.0085812196854387884 0 -0.0011320531153877667 0.012129464915508904 0 -0.0011625493902949738 0.01223947678675928 0 -0.001291616427151274 0.012248006529506247 0 -0.00090190244548504675 0.0091440425356123615 0 -0.00098172070982508277 0.009076166754458749 0 -0.00098334579835674079 0.0091893595257837978 0 -0.0010322157712488653 0.01070063066005269 0 -0.0015618140277820717 0.0094413969656575638 0 -0.0011492763416543514 0.012303278070589301 0 -0.0011669226167373137 0.012350490533965143 0 -0.001291616427151274 0.012248006529506247 0 -0.0015245440864568591 0.012225088791302036 0 -0.0019447905491441647 0.012041211371315952 0 -0.0012864857699512924 0.012634370281335506 0 -0.0011492763416543514 0.012303278070589301 0 -0.0011625493902949738 0.01223947678675928 0 -0.001291616427151274 0.012248006529506247 0 -0.0011669226167373137 0.012350490533965143 0 -0.0016659609859256122 0.01183974025032811 0 -0.0015245440864568591 0.012225088791302036 0 -0.0007971022026590465 0.012774376685175549 0 -0.0015618140277820717 0.0094413969656575638 0 -0.0011669226167373137 0.012350490533965143 0 -0.0015245440864568591 0.012225088791302036 0 -0.001317953349843219 0.012390249020740393 0 -0.00092820924885533374 0.0062301679241176392 0 -0.0014218892457840571 0.0065692544143436471 0 -0.0022020861797976288 0.0058799270252899889 0 -0.0016659609859256122 0.01183974025032811 0 -0.0015245440864568591 0.012225088791302036 0 -0.0019447905491441647 0.012041211371315952 0 -0.0015618140277820717 0.0094413969656575638 0 -0.0012158768721996524 0.0055850902296647213 0 -0.0012158768721996524 0.0055850902296647213 0 -0.0037736494379431757 0.0024513095133184282 0 -0.0023768187786001155 0.0050603220998128133 0 -0.00092820924885533374 0.0062301679241176392 0 -0.0022020861797976288 0.0058799270252899889 0 -0.00099869580793341133 0.0066758181766686788 0 -0.0015618140277820717 0.0094413969656575638 0 -0.0010900254352024462 0.0090802899243086713 0 -0.00098172070982508277 0.009076166754458749 0 -0.00098334579835674079 0.0091893595257837978 0 -0.0043593114368919916 -0.00015432743474911247 0 -0.003488569489164373 -9.6825440375428569e-05 0 -0.0031617307626097229 -0.00072251564402116936 0 -0.00099869580793341133 0.0066758181766686788 0 -0.0026479341302768412 0.0032888781062201892 0 -0.0023768187786001155 0.0050603220998128133 0 -0.0022020861797976288 0.0058799270252899889 0 -0.002979186143807044 0.0051939121569080987 0 -0.0037736494379431757 0.0024513095133184282 0 -0.0026479341302768412 0.0032888781062201892 0 -0.0043593114368919916 -0.00015432743474911247 0 -0.0035104228141277305 0.00058944600499439539 0 -0.003488569489164373 -9.6825440375428569e-05 0 -0.0026479341302768412 0.0032888781062201892 0 -0.00259217247950559 0.00021312536945439412 0 -0.0035104228141277305 0.00058944600499439539 0 -0.0029141928127219209 -9.8526048453123212e-05 0 -0.0022276897423742928 0.00027357784391929436 0 -0.003488569489164373 -9.6825440375428569e-05 0 -0.0029141928127219209 -9.8526048453123212e-05 0 -0.0031617307626097229 -0.00072251564402116936 0 -0.0035104228141277305 0.00058944600499439539 0 -0.003488569489164373 -9.6825440375428569e-05 0 -0.0029141928127219209 -9.8526048453123212e-05 0 -0.0029141928127219209 -9.8526048453123212e-05 0 -0.0031617307626097229 -0.00072251564402116936 0 -0.0019822449699153145 -0.00053429658377738241 0 -0.0031617307626097229 -0.00072251564402116936 0 -0.0026493946188471205 -0.0019796167135162817 0 -0.0018688721946494341 -0.0015345608767285874 0 -0.0051860994315409805 -0.00086307316257809108 0 -0.0043593114368919916 -0.00015432743474911247 0 -0.0036892587929612743 -0.0020412150668892956 0 -0.0043593114368919916 -0.00015432743474911247 0 -0.0031617307626097229 -0.00072251564402116936 0 -0.0036892587929612743 -0.0020412150668892956 0 -0.0012158768721996524 0.0055850902296647213 0 -0.0022048675614137888 0.002110489659303866 0 -0.0036892587929612743 -0.0020412150668892956 0 -0.0026493946188471205 -0.0019796167135162817 0 -0.002268438059397547 -0.002924012095724795 0 -0.0031617307626097229 -0.00072251564402116936 0 -0.0036892587929612743 -0.0020412150668892956 0 -0.0026493946188471205 -0.0019796167135162817 0 -0.0022048675614137888 0.002110489659303866 0 -0.0051567866199369256 -0.0014594976058172479 0 -0.0022126639275919552 0.0091363505773808112 0 -0.0013605377304803498 0.0079220593831136211 0 -0.0032003479498329411 0.0075766728114982779 0 -0.0036892587929612743 -0.0020412150668892956 0 -0.0022127017252501625 -0.00328522036699724 0 -0.002268438059397547 -0.002924012095724795 0 -0.0012087483039188317 0.0063382642245908829 0 -0.0013605377304803498 0.0079220593831136211 0 -0.0032003479498329411 0.0075766728114982779 0 -0.0012087483039188317 0.0063382642245908829 0 -0.0013605377304803498 0.0079220593831136211 0 0.00072415409133593509 0.0077799568845197285 0 -0.0016894558879027078 0.012568999561938401 0 -0.001433551867600191 0.012702041269403714 0 -0.0013302628280502657 0.012566893299327746 0 -0.00035778320173343603 0.010012366703812114 0 -0.00013289531634683502 0.010397100907433289 0 -0.0016894558879027078 0.012568999561938401 0 -0.0013302628280502657 0.012566893299327746 0 -0.0012900597703238423 0.012454094296712986 0 -0.001240398752644239 0.012836180422890305 0 -0.0012178187524734872 0.012661709490141004 0 -0.001433551867600191 0.012702041269403714 0 -0.0012178187524734872 0.012661709490141004 0 -0.001433551867600191 0.012702041269403714 0 -0.0013302628280502657 0.012566893299327746 0 -0.0012158768721996524 0.0055850902296647213 0 -0.00013289531634683502 0.010397100907433289 0 -0.0013302628280502657 0.012566893299327746 0 -0.0012900597703238423 0.012454094296712986 0 -0.0012567557081666575 0.012488107174132596 0 -0.0011947263646016047 0.012556788916337424 0 -0.0013302628280502657 0.012566893299327746 0 -0.0012567557081666575 0.012488107174132596 0 -0.00013289531634683502 0.010397100907433289 0 -0.00014326546172253605 0.010589021456979229 0 -0.0015245440864568591 0.012225088791302036 0 -0.0012864857699512924 0.012634370281335506 0 -0.001317953349843219 0.012390249020740393 0 -0.0011322979931270019 0.012422547712132132 0 -0.0012781965340681596 0.012466301734898082 0 -0.0012567557081666575 0.012488107174132596 0 -0.0012864857699512924 0.012634370281335506 0 -0.001317953349843219 0.012390249020740393 0 -0.0012424197762831762 0.012461966103751507 0 -0.0015270160258117674 0.012331858215490391 0 -0.00013289531634683502 0.010397100907433289 0 -0.0011322979931270019 0.012422547712132132 0 -0.0012864857699512924 0.012634370281335506 0 -0.0012424197762831762 0.012461966103751507 0 -0.0011669226167373137 0.012350490533965143 0 -0.001317953349843219 0.012390249020740393 0 -0.0012424197762831762 0.012461966103751507 0 0.00072415409133593509 0.0077799568845197285 0 0.0020738061021992171 0.0064501520511511829 0 0.00055280885050836101 0.0064228742824992023 0 -0.0012087483039188317 0.0063382642245908829 0 0.00072415409133593509 0.0077799568845197285 0 0.00055280885050836101 0.0064228742824992023 0 0.00059388373739727889 0.0051307158196018873 0 0.0020738061021992171 0.0064501520511511829 0 0.00055280885050836101 0.0064228742824992023 0 0.00059388373739727889 0.0051307158196018873 0 -0.0012087483039188317 0.0063382642245908829 0 0.00055280885050836101 0.0064228742824992023 0 0.0002753171107716717 -0.00135843779412363 0 -0.00042674273003344827 -0.0017413765670062228 0 5.2048118494322543e-06 -0.00083941727311666748 0 0.0002753171107716717 -0.00135843779412363 0 0.00033694561741271482 -0.0017387131439556532 0 -0.00042674273003344827 -0.0017413765670062228 0 0.00068283995856375243 -0.0024175488940834443 0 -0.000515985407526935 -0.0019908902582412595 0 0.0002753171107716717 -0.00135843779412363 0 0.00033694561741271482 -0.0017387131439556532 0 0.0006269637528123626 -0.0013542418395206708 0 0.00033694561741271482 -0.0017387131439556532 0 0.0006269637528123626 -0.0013542418395206708 0 0.00062667911885282623 -0.0016050032645548965 0 0.0015252475740867972 -0.0046268352618658633 0 0.0010677206229733741 -0.0030083372239272663 0 6.5945518463751691e-06 -0.0035404482890807275 0 0.00068283995856375243 -0.0024175488940834443 0 0.0018680368349015309 -0.0023313986199457984 0 0.0015252475740867972 -0.0046268352618658633 0 0.0010677206229733741 -0.0030083372239272663 0 0.0027727640757411482 -0.0037487694061942695 0 0.0010677206229733741 -0.0030083372239272663 0 6.5945518463751691e-06 -0.0035404482890807275 0 -0.00049810850126422006 -0.0022964159994706664 0 6.5945518463751691e-06 -0.0035404482890807275 0 -0.0012643325931323717 -0.0030916021450681105 0 -0.00049810850126422006 -0.0022964159994706664 0 -0.0006971250829601297 -0.0047586586404195453 0 -0.0012643325931323717 -0.0030916021450681105 0 -0.0022344304680596869 -0.0033302637711037715 0 -0.0006971250829601297 -0.0047586586404195453 0 6.5945518463751691e-06 -0.0035404482890807275 0 -0.0012643325931323717 -0.0030916021450681105 0 -0.0012643325931323717 -0.0030916021450681105 0 -0.002268438059397547 -0.002924012095724795 0 -0.0017028880488626141 -0.0023624985708998523 0 -0.0012643325931323717 -0.0030916021450681105 0 -0.0022344304680596869 -0.0033302637711037715 0 -0.002268438059397547 -0.002924012095724795 0 -0.0051567866199369256 -0.0014594976058172479 0 -0.0043391609752727539 -0.002649066992841296 0 -0.0026493946188471205 -0.0019796167135162817 0 -0.002268438059397547 -0.002924012095724795 0 -0.0017028880488626141 -0.0023624985708998523 0 -0.0026493946188471205 -0.0019796167135162817 0 -0.0017028880488626141 -0.0023624985708998523 0 -0.0018688721946494341 -0.0015345608767285874 0 -0.0018688721946494341 -0.0015345608767285874 0 -0.00042674273003344827 -0.0017413765670062228 0 -0.00083209830412454822 -0.0010757843280857771 0 -0.0017848645885141727 -0.0015491666181849894 0 -0.000515985407526935 -0.0019908902582412595 0 -0.0017028880488626141 -0.0023624985708998523 0 -0.0018688721946494341 -0.0015345608767285874 0 -0.00049810850126422006 -0.0022964159994706664 0 -0.0012643325931323717 -0.0030916021450681105 0 -0.0017028880488626141 -0.0023624985708998523 0 -0.00049810850126422006 -0.0022964159994706664 0 -0.00083209830412454822 -0.0010757843280857771 0 -0.0019822449699153145 -0.00053429658377738241 0 -0.00090244985338306771 -0.00012117671734933319 0 -0.00083209830412454822 -0.0010757843280857771 0 -0.00090244985338306771 -0.00012117671734933319 0 5.2048118494322543e-06 -0.00083941727311666748 0 -0.00042674273003344827 -0.0017413765670062228 0 -0.00083209830412454822 -0.0010757843280857771 0 5.2048118494322543e-06 -0.00083941727311666748 0 -0.0018688721946494341 -0.0015345608767285874 0 -0.00083209830412454822 -0.0010757843280857771 0 -0.0019822449699153145 -0.00053429658377738241 0 -0.0031617307626097229 -0.00072251564402116936 0 -0.0018688721946494341 -0.0015345608767285874 0 -0.0019822449699153145 -0.00053429658377738241 0 -0.0019822449699153145 -0.00053429658377738241 0 -0.0022276897423742928 0.00027357784391929436 0 -0.00090244985338306771 -0.00012117671734933319 0 -0.00259217247950559 0.00021312536945439412 0 -0.0010141188506554864 -9.1672903157553315e-05 0 -0.0026359776330825342 0.00020918118034060203 0 -0.00090244985338306771 -0.00012117671734933319 0 -0.001504578875177917 0.001404375028473211 0 -0.0029141928127219209 -9.8526048453123212e-05 0 -0.0019822449699153145 -0.00053429658377738241 0 -0.0022276897423742928 0.00027357784391929436 0 -0.00090244985338306771 -0.00012117671734933319 0 1.6428617321031291e-05 0.0003496915646733529 0 -0.00060227810281349289 0.001023180257826096 0 -0.00090244985338306771 -0.00012117671734933319 0 -0.001504578875177917 0.001404375028473211 0 -0.00060227810281349289 0.001023180257826096 0 1.6428617321031291e-05 0.0003496915646733529 0 5.2048118494322543e-06 -0.00083941727311666748 0 0.00066212047525620146 -0.00058454371843960379 0 -0.00090244985338306771 -0.00012117671734933319 0 1.6428617321031291e-05 0.0003496915646733529 0 5.2048118494322543e-06 -0.00083941727311666748 0 0.0002753171107716717 -0.00135843779412363 0 5.2048118494322543e-06 -0.00083941727311666748 0 0.00052100428767139033 -0.0010708762543149522 0 0.00052100428767139033 -0.0010708762543149522 0 0.00066212047525620146 -0.00058454371843960379 0 0.00078657669300941189 -0.0010552001595098782 0 5.2048118494322543e-06 -0.00083941727311666748 0 0.00052100428767139033 -0.0010708762543149522 0 0.00066212047525620146 -0.00058454371843960379 0 0.0002753171107716717 -0.00135843779412363 0 0.00052100428767139033 -0.0010708762543149522 0 0.0006269637528123626 -0.0013542418395206708 0 0.00051225359767297551 0.00022831586938914969 0 0.00049551271003105059 0.0011136753208089096 0 0.00083712289396895077 -0.00088367306683872972 0 0.00066212047525620146 -0.00058454371843960379 0 0.00051225359767297551 0.00022831586938914969 0 0.00083712289396895077 -0.00088367306683872972 0 1.6428617321031291e-05 0.0003496915646733529 0 0.00066212047525620146 -0.00058454371843960379 0 0.00051225359767297551 0.00022831586938914969 0 1.6428617321031291e-05 0.0003496915646733529 0 0.00012234418701988182 0.0014696730111921237 0 -0.00033318907426108097 0.001964663791668644 0 1.6428617321031291e-05 0.0003496915646733529 0 0.00051225359767297551 0.00022831586938914969 0 0.00012234418701988182 0.0014696730111921237 0 0.00012234418701988182 0.0014696730111921237 0 -0.00021299603732200255 0.0026297131788168421 0 -0.00033318907426108097 0.001964663791668644 0 -0.00021299603732200255 0.0026297131788168421 0 -0.00031369862892923313 0.0034906196357328357 0 1.9937521352755634e-05 0.0025054599836853261 0 0.00012234418701988182 0.0014696730111921237 0 -0.00021299603732200255 0.0026297131788168421 0 1.9937521352755634e-05 0.0025054599836853261 0 0.00012234418701988182 0.0014696730111921237 0 0.00049551271003105059 0.0011136753208089096 0 1.9937521352755634e-05 0.0025054599836853261 0 0.00051225359767297551 0.00022831586938914969 0 0.00012234418701988182 0.0014696730111921237 0 0.00049551271003105059 0.0011136753208089096 0 -0.0032941099397874895 0.0020914063014722648 0 -0.0026359776330825342 0.00020918118034060203 0 -0.001504578875177917 0.001404375028473211 0 -0.0032941099397874895 0.0020914063014722648 0 -0.001504578875177917 0.001404375028473211 0 -0.0011236194873970064 0.0040443846261405143 0 -0.001504578875177917 0.001404375028473211 0 -0.00074756488755476106 0.0024306044134901421 0 -0.0011236194873970064 0.0040443846261405143 0 -0.0019068463391555934 0.0038360222548320931 0 -0.0012275512279242853 0.0041418709849495271 0 -0.001504578875177917 0.001404375028473211 0 -0.00074756488755476106 0.0024306044134901421 0 -0.00060227810281349289 0.001023180257826096 0 1.6428617321031291e-05 0.0003496915646733529 0 -0.00060227810281349289 0.001023180257826096 0 -0.00033318907426108097 0.001964663791668644 0 -0.00074756488755476106 0.0024306044134901421 0 -0.00060227810281349289 0.001023180257826096 0 -0.00033318907426108097 0.001964663791668644 0 -0.00021299603732200255 0.0026297131788168421 0 -0.00033318907426108097 0.001964663791668644 0 -0.00061501042033295782 0.0035001665571819805 0 -0.00021299603732200255 0.0026297131788168421 0 -0.00061501042033295782 0.0035001665571819805 0 -0.00031369862892923313 0.0034906196357328357 0 -0.00074756488755476106 0.0024306044134901421 0 -0.00033318907426108097 0.001964663791668644 0 -0.00061501042033295782 0.0035001665571819805 0 -0.00074756488755476106 0.0024306044134901421 0 -0.00061501042033295782 0.0035001665571819805 0 -0.0011236194873970064 0.0040443846261405143 0 -0.00061501042033295782 0.0035001665571819805 0 -0.00072974234216390248 0.0047000636352314169 0 -0.00044585443178905284 0.004209314630226617 0 -0.00061501042033295782 0.0035001665571819805 0 -0.0011236194873970064 0.0040443846261405143 0 -0.00072974234216390248 0.0047000636352314169 0 -0.00032911443300098889 0.0057062586122445949 0 -0.00072974234216390248 0.0047000636352314169 0 -0.00081618407653518646 0.005092872844495961 0 -0.0011236194873970064 0.0040443846261405143 0 -0.00072974234216390248 0.0047000636352314169 0 -0.00081618407653518646 0.005092872844495961 0 -0.00071345523949279104 0.0056136564296682748 0 -0.0011236194873970064 0.0040443846261405143 0 -0.00081618407653518646 0.005092872844495961 0 -0.00032911443300098889 0.0057062586122445949 0 -0.00072974234216390248 0.0047000636352314169 0 -0.00026555029252429827 0.0049669237015050093 0 -0.00072974234216390248 0.0047000636352314169 0 -0.00026555029252429827 0.0049669237015050093 0 -0.00044585443178905284 0.004209314630226617 0 -0.00026555029252429827 0.0049669237015050093 0 -0.00044585443178905284 0.004209314630226617 0 -0.00023296301778945509 0.0038864060209092863 0 -0.00061501042033295782 0.0035001665571819805 0 -0.00044585443178905284 0.004209314630226617 0 -0.00031369862892923313 0.0034906196357328357 0 -0.00031369862892923313 0.0034906196357328357 0 -0.00023296301778945509 0.0038864060209092863 0 -0.00014383233100308157 0.0033404407478898278 0 -0.00044585443178905284 0.004209314630226617 0 -0.00031369862892923313 0.0034906196357328357 0 -0.00023296301778945509 0.0038864060209092863 0 -0.00026555029252429827 0.0049669237015050093 0 -0.00023296301778945509 0.0038864060209092863 0 -1.099898433464916e-06 0.0036470324168691162 0 -0.00023296301778945509 0.0038864060209092863 0 -1.099898433464916e-06 0.0036470324168691162 0 0.0001071822386680853 0.0033977536001919915 0 -2.1308998449959613e-08 0.0060215931580587627 0 -0.00026555029252429827 0.0049669237015050093 0 -1.099898433464916e-06 0.0036470324168691162 0 1.9907059235902808e-05 0.0016635865585963483 0 0.00050361429827760682 -0.00079133080136158519 0 -0.00030732563026931293 8.419769382186775e-05 0 9.0388874054922775e-05 -0.0010131684339296321 0 0.00015066341266697746 -0.0023279077861076223 0 0.00049551271003105059 0.0011136753208089096 0 0.0001071822386680853 0.0033977536001919915 0 0.0010912234472474835 0.0007239704952583918 0 0.00049551271003105059 0.0011136753208089096 0 1.9937521352755634e-05 0.0025054599836853261 0 0.0001071822386680853 0.0033977536001919915 0 -0.00023296301778945509 0.0038864060209092863 0 -0.00014383233100308157 0.0033404407478898278 0 0.0001071822386680853 0.0033977536001919915 0 -0.00031369862892923313 0.0034906196357328357 0 1.9937521352755634e-05 0.0025054599836853261 0 -0.00014383233100308157 0.0033404407478898278 0 1.9937521352755634e-05 0.0025054599836853261 0 -0.00014383233100308157 0.0033404407478898278 0 0.0001071822386680853 0.0033977536001919915 0 2.4789802756695672e-07 0.0036424531724579888 0 1.9907059235902808e-05 0.0016635865585963483 0 -1.1045978153133552e-06 0.0036414090453727212 0 -0.00030732563026931293 8.419769382186775e-05 0 -1.8365772364600513e-07 0.0011074502152300725 0 -0.00030732563026931293 8.419769382186775e-05 0 -1.8365772364600513e-07 0.0011074502152300725 0 9.0388874054922775e-05 -0.0010131684339296321 0 -1.8365772364600513e-07 0.0011074502152300725 0 9.0388874054922775e-05 -0.0010131684339296321 0 5.8783605040155335e-07 -0.0014271783616947419 0 9.0388874054922775e-05 -0.0010131684339296321 0 0.00015066341266697746 -0.0023279077861076223 0 0.00035298105194379393 -0.0030877900112423291 0 0.00035298105194379393 -0.0030877900112423291 0 5.8783605040155335e-07 -0.0014271783616947419 0 6.729071768495997e-07 -0.003961490204538491 0 9.0388874054922775e-05 -0.0010131684339296321 0 0.00035298105194379393 -0.0030877900112423291 0 5.8783605040155335e-07 -0.0014271783616947419 0 6.729071768495997e-07 -0.003961490204538491 0 0.0002507674998307709 -0.0053049260051923567 0 4.6537837846892474e-07 -0.0064959049877646698 0 6.729071768495997e-07 -0.003961490204538491 0 0.0002507674998307709 -0.0053049260051923567 0 0.00035975741958862366 -0.0045173932047762018 0 0.0002507674998307709 -0.0053049260051923567 0 0.00035975741958862366 -0.0045173932047762018 0 0.00043699946223245688 -0.0058244434039229501 0 0.00035975741958862366 -0.0045173932047762018 0 0.00043699946223245688 -0.0058244434039229501 0 0.00053254007490805553 -0.0051740187244036636 0 0.00035298105194379393 -0.0030877900112423291 0 0.00035975741958862366 -0.0045173932047762018 0 0.00041068477292366466 -0.0037171424871068029 0 0.00035298105194379393 -0.0030877900112423291 0 6.729071768495997e-07 -0.003961490204538491 0 0.00035975741958862366 -0.0045173932047762018 0 0.00041068477292366466 -0.0037171424871068029 0 0.00050723397613277156 -0.0043531487219541972 0 0.00047582970207541564 -0.0029818760475065942 0 0.00035298105194379393 -0.0030877900112423291 0 0.00041068477292366466 -0.0037171424871068029 0 0.00047582970207541564 -0.0029818760475065942 0 0.00035975741958862366 -0.0045173932047762018 0 0.00050723397613277156 -0.0043531487219541972 0 0.00053254007490805553 -0.0051740187244036636 0 0.00035975741958862366 -0.0045173932047762018 0 0.00041068477292366466 -0.0037171424871068029 0 0.00050723397613277156 -0.0043531487219541972 0 0.00050723397613277156 -0.0043531487219541972 0 0.00073876804911175893 -0.0056264412100248433 0 0.00066325987928750145 -0.0050655034747053998 0 0.00050723397613277156 -0.0043531487219541972 0 0.00053254007490805553 -0.0051740187244036636 0 0.00073876804911175893 -0.0056264412100248433 0 0.00050723397613277156 -0.0043531487219541972 0 0.00046567445147335367 -0.0038881329261171052 0 0.00066325987928750145 -0.0050655034747053998 0 0.00050723397613277156 -0.0043531487219541972 0 0.00046567445147335367 -0.0038881329261171052 0 0.00047582970207541564 -0.0029818760475065942 0 0.00046567445147335367 -0.0038881329261171052 0 0.00025855686414946526 -0.0025571235295032461 0 0.00047582970207541564 -0.0029818760475065942 0 0.00025855686414946526 -0.0025571235295032461 0 0.00083712289396895077 -0.00088367306683872972 0 0.00047582970207541564 -0.0029818760475065942 0 0.00025855686414946526 -0.0025571235295032461 0 0.00083712289396895077 -0.00088367306683872972 0 0.00083554132405646978 -0.0012626535763771351 0 0.0010912234472474835 0.0007239704952583918 0 0.00083712289396895077 -0.00088367306683872972 0 0.00047582970207541564 -0.0029818760475065942 0 0.00049551271003105059 0.0011136753208089096 0 0.0010912234472474835 0.0007239704952583918 0 0.00083712289396895077 -0.00088367306683872972 0 0.00050361429827760682 -0.00079133080136158519 0 0.00048117187235648855 -0.002608524375939494 0 0.00015066341266697746 -0.0023279077861076223 0 0.00035298105194379393 -0.0030877900112423291 0 0.00047582970207541564 -0.0029818760475065942 0 0.00023625830122745695 -0.0086109121437100058 0 0.00044558041761058733 -0.0072764605664232132 0 -0.00049857277132383702 -0.0081404409687778519 0 0.00023625830122745695 -0.0086109121437100058 0 1.6446730601238333e-06 -0.0090309724881690468 0 -2.8425974203700222e-06 -0.011561894535053107 0 0.00023625830122745695 -0.0086109121437100058 0 -2.8425974203700222e-06 -0.011561894535053107 0 -0.00049857277132383702 -0.0081404409687778519 0 0.00023625830122745695 -0.0086109121437100058 0 1.6446730601238333e-06 -0.0090309724881690468 0 0.00041394699108531998 -0.007280999460436326 0 0.00023625830122745695 -0.0086109121437100058 0 0.00041394699108531998 -0.007280999460436326 0 0.00044558041761058733 -0.0072764605664232132 0 0.00041394699108531998 -0.007280999460436326 0 0.00057093944086487284 -0.0065512088986302269 0 0.00044558041761058733 -0.0072764605664232132 0 0.00041394699108531998 -0.007280999460436326 0 0.00043699946223245688 -0.0058244434039229501 0 0.00057093944086487284 -0.0065512088986302269 0 1.6446730601238333e-06 -0.0090309724881690468 0 0.00041394699108531998 -0.007280999460436326 0 4.6537837846892474e-07 -0.0064959049877646698 0 0.00041394699108531998 -0.007280999460436326 0 4.6537837846892474e-07 -0.0064959049877646698 0 0.00043699946223245688 -0.0058244434039229501 0 0.0002507674998307709 -0.0053049260051923567 0 4.6537837846892474e-07 -0.0064959049877646698 0 0.00043699946223245688 -0.0058244434039229501 0 0.00043699946223245688 -0.0058244434039229501 0 0.00053254007490805553 -0.0051740187244036636 0 0.00063192977072298992 -0.0058793366857852738 0 0.00053254007490805553 -0.0051740187244036636 0 0.00063192977072298992 -0.0058793366857852738 0 0.00073876804911175893 -0.0056264412100248433 0 0.00063192977072298992 -0.0058793366857852738 0 0.00073876804911175893 -0.0056264412100248433 0 0.00074045576682640446 -0.0064286222294658744 0 0.00074045576682640446 -0.0064286222294658744 0 0.00057093944086487284 -0.0065512088986302269 0 0.00060936028418404574 -0.0069933297415723057 0 0.00063192977072298992 -0.0058793366857852738 0 0.00074045576682640446 -0.0064286222294658744 0 0.00057093944086487284 -0.0065512088986302269 0 0.00043699946223245688 -0.0058244434039229501 0 0.00063192977072298992 -0.0058793366857852738 0 0.00057093944086487284 -0.0065512088986302269 0 0.00057093944086487284 -0.0065512088986302269 0 0.00044558041761058733 -0.0072764605664232132 0 0.00060936028418404574 -0.0069933297415723057 0 0.00074045576682640446 -0.0064286222294658744 0 0.00060936028418404574 -0.0069933297415723057 0 0.00087318221151754492 -0.0070541760083802493 0 0.00060936028418404574 -0.0069933297415723057 0 0.00072492326592781973 -0.0077600039921667955 0 0.00087318221151754492 -0.0070541760083802493 0 0.00072492326592781973 -0.0077600039921667955 0 0.0012505423538759131 -0.0091164637286000657 0 0.00049014634286879358 -0.0071902221373956448 0 0.00060936028418404574 -0.0069933297415723057 0 0.00072492326592781973 -0.0077600039921667955 0 0.00049014634286879358 -0.0071902221373956448 0 0.0011939869605148087 -0.0092805436615983703 0 0.000828686532613092 -0.010130838707338073 0 0.00044558041761058733 -0.0072764605664232132 0 0.00049014634286879358 -0.0071902221373956448 0 -0.00049857277132383702 -0.0081404409687778519 0 0.00044558041761058733 -0.0072764605664232132 0 0.00060936028418404574 -0.0069933297415723057 0 0.00049014634286879358 -0.0071902221373956448 0 0.0010608893870623531 -0.0073559537547766311 0 0.0010156662505840948 -0.0075632559782712605 0 0.0010570852712781641 -0.0075165323963097231 0 0.0010608893870623531 -0.0073559537547766311 0 0.0010156662505840948 -0.0075632559782712605 0 0.0010503762197650664 -0.0076879276270653968 0 0.0010156662505840948 -0.0075632559782712605 0 0.0010503762197650664 -0.0076879276270653968 0 0.0010143308981991554 -0.0076689671474008255 0 0.0012505423538759131 -0.0091164637286000657 0 0.0010503762197650664 -0.0076879276270653968 0 0.00092231915407048717 -0.010028338698236912 0 0.0012521305962822837 -0.0079213682972895522 0 0.00095491337362738472 -0.0088585420105138073 0 0.00072492326592781973 -0.0077600039921667955 0 0.0012505423538759131 -0.0091164637286000657 0 0.0010503762197650664 -0.0076879276270653968 0 0.0010503762197650664 -0.0076879276270653968 0 0.00087318221151754492 -0.0070541760083802493 0 0.0010271109194966131 -0.0071774897869083844 0 0.00072492326592781973 -0.0077600039921667955 0 0.0010503762197650664 -0.0076879276270653968 0 0.00087318221151754492 -0.0070541760083802493 0 0.00087318221151754492 -0.0070541760083802493 0 0.0010271109194966131 -0.0071774897869083844 0 0.00095166341256646683 -0.0066342778007268208 0 0.0010608893870623531 -0.0073559537547766311 0 0.0010271109194966131 -0.0071774897869083844 0 0.0010572665735351775 -0.0070830121362129347 0 0.0010608893870623531 -0.0073559537547766311 0 0.0010503762197650664 -0.0076879276270653968 0 0.0010271109194966131 -0.0071774897869083844 0 0.0010271109194966131 -0.0071774897869083844 0 0.0010572665735351775 -0.0070830121362129347 0 0.00095166341256646683 -0.0066342778007268208 0 0.0010572665735351775 -0.0070830121362129347 0 0.00095166341256646683 -0.0066342778007268208 0 0.00098238264577907232 -0.0067667982001625984 0 0.00073876804911175893 -0.0056264412100248433 0 0.00074045576682640446 -0.0064286222294658744 0 0.00095166341256646683 -0.0066342778007268208 0 0.00074045576682640446 -0.0064286222294658744 0 0.00087318221151754492 -0.0070541760083802493 0 0.00095166341256646683 -0.0066342778007268208 0 0.00073876804911175893 -0.0056264412100248433 0 0.00085359916450638857 -0.0061111021319155646 0 0.00066325987928750145 -0.0050655034747053998 0 0.00073876804911175893 -0.0056264412100248433 0 0.00095166341256646683 -0.0066342778007268208 0 0.00085359916450638857 -0.0061111021319155646 0 0.00095166341256646683 -0.0066342778007268208 0 0.00085359916450638857 -0.0061111021319155646 0 0.00098238264577907232 -0.0067667982001625984 0 0.00085359916450638857 -0.0061111021319155646 0 0.00098238264577907232 -0.0067667982001625984 0 0.00078254001407269101 -0.0064766463901359903 0 0.00098238264577907232 -0.0067667982001625984 0 0.0010564496481996529 -0.0071613310992818301 0 0.00081340400130853194 -0.0068970846533793692 0 0.00098238264577907232 -0.0067667982001625984 0 0.00078254001407269101 -0.0064766463901359903 0 0.00081340400130853194 -0.0068970846533793692 0 0.00076427399606600571 -0.0074419310824104237 0 0.00037711539756887265 -0.0072449494530384614 0 0.00058662417097497181 -0.0076682541269683787 0 0.00092332737580540583 -0.0073091931040321304 0 0.00056550801312374845 -0.0070736849101988653 0 0.00037711539756887265 -0.0072449494530384614 0 0.00028081125596240324 -0.007597368612121843 0 0.00058662417097497181 -0.0076682541269683787 0 0.0010572665735351775 -0.0070830121362129347 0 0.00098238264577907232 -0.0067667982001625984 0 0.0010564496481996529 -0.0071613310992818301 0 0.0010572665735351775 -0.0070830121362129347 0 0.0010564496481996529 -0.0071613310992818301 0 0.0010608549195095377 -0.0073259927405253233 0 0.0010608893870623531 -0.0073559537547766311 0 0.0010572665735351775 -0.0070830121362129347 0 0.0010608549195095377 -0.0073259927405253233 0 0.00092332737580540583 -0.0073091931040321304 0 0.0010631140633718783 -0.0075009389475085607 0 0.0010564496481996529 -0.0071613310992818301 0 0.0010608549195095377 -0.0073259927405253233 0 0.0010518732229971282 -0.0075326893428491999 0 0.00076427399606600571 -0.0074419310824104237 0 0.0010518732229971282 -0.0075326893428491999 0 0.00088302347304913473 -0.0077712912118309205 0 0.0010608549195095377 -0.0073259927405253233 0 0.0010518732229971282 -0.0075326893428491999 0 0.0010570852712781641 -0.0075165323963097231 0 0.0010608893870623531 -0.0073559537547766311 0 0.0010608549195095377 -0.0073259927405253233 0 0.0010570852712781641 -0.0075165323963097231 0 0.00060198557253060515 -0.0010404551054610208 0 0.0010066219000057571 -0.0014058431984960294 0 0.00078874354858186413 -0.0012443744113280733 0 0.00060198557253060515 -0.0010404551054610208 0 0.00078657669300941189 -0.0010552001595098782 0 0.00078874354858186413 -0.0012443744113280733 0 7.4552848206120684e-05 -0.0033255628512020258 0 0.00025524439496559811 -0.0039261265137792668 0 -0.00059287542210711204 -0.0054418028983597485 0 -9.2549777614308554e-05 -0.0061638569599323876 0 -0.00045954542633633435 -0.0068089931266029557 0 0.00052100428767139033 -0.0010708762543149522 0 0.00078657669300941189 -0.0010552001595098782 0 0.0006269637528123626 -0.0013542418395206708 0 0.00078657669300941189 -0.0010552001595098782 0 0.00078874354858186413 -0.0012443744113280733 0 0.0006269637528123626 -0.0013542418395206708 0 0.00060198557253060515 -0.0010404551054610208 0 0.00078657669300941189 -0.0010552001595098782 0 0.00083554132405646978 -0.0012626535763771351 0 0.00066212047525620146 -0.00058454371843960379 0 0.00083712289396895077 -0.00088367306683872972 0 0.00083554132405646978 -0.0012626535763771351 0 0.00066212047525620146 -0.00058454371843960379 0 0.00078657669300941189 -0.0010552001595098782 0 0.00083554132405646978 -0.0012626535763771351 0 0.00018910148000075784 -0.0026856663818823913 0 7.4552848206120684e-05 -0.0033255628512020258 0 0.00025855686414946526 -0.0025571235295032461 0 -0.00059287542210711204 -0.0054418028983597485 0 0.00040026860395573656 -0.005035779494752834 0 0.00025855686414946526 -0.0025571235295032461 0 0.00060198557253060515 -0.0010404551054610208 0 0.00083554132405646978 -0.0012626535763771351 0 0.00046567445147335367 -0.0038881329261171052 0 0.00040026860395573656 -0.005035779494752834 0 0.00066325987928750145 -0.0050655034747053998 0 0.00046567445147335367 -0.0038881329261171052 0 0.00025855686414946526 -0.0025571235295032461 0 0.00040026860395573656 -0.005035779494752834 0 0.00040026860395573656 -0.005035779494752834 0 0.00066325987928750145 -0.0050655034747053998 0 0.00055138450512486645 -0.0059108634779543156 0 0.00085359916450638857 -0.0061111021319155646 0 0.00066325987928750145 -0.0050655034747053998 0 0.00055138450512486645 -0.0059108634779543156 0 0.00085359916450638857 -0.0061111021319155646 0 0.00055138450512486645 -0.0059108634779543156 0 0.00078254001407269101 -0.0064766463901359903 0 0.00055138450512486645 -0.0059108634779543156 0 0.00078254001407269101 -0.0064766463901359903 0 0.00041338755636548713 -0.0064792386088899099 0 0.00040026860395573656 -0.005035779494752834 0 0.00055138450512486645 -0.0059108634779543156 0 -9.2549777614308554e-05 -0.0061638569599323876 0 -0.00059287542210711204 -0.0054418028983597485 0 0.00040026860395573656 -0.005035779494752834 0 -9.2549777614308554e-05 -0.0061638569599323876 0 0.00055138450512486645 -0.0059108634779543156 0 -9.2549777614308554e-05 -0.0061638569599323876 0 0.00041338755636548713 -0.0064792386088899099 0 -9.2549777614308554e-05 -0.0061638569599323876 0 -0.00023575263816224301 -0.0068806101389507768 0 -0.00045954542633633435 -0.0068089931266029557 0 -9.2549777614308554e-05 -0.0061638569599323876 0 -0.00023575263816224301 -0.0068806101389507768 0 0.00041338755636548713 -0.0064792386088899099 0 -0.00023575263816224301 -0.0068806101389507768 0 -0.00024562465306478281 -0.0072378197490139502 0 -0.00045954542633633435 -0.0068089931266029557 0 -0.00023575263816224301 -0.0068806101389507768 0 0.00041338755636548713 -0.0064792386088899099 0 0.00081340400130853194 -0.0068970846533793692 0 -0.00021342121325223763 -0.0068919007939395038 0 0.00056550801312374845 -0.0070736849101988653 0 0.00078254001407269101 -0.0064766463901359903 0 0.00041338755636548713 -0.0064792386088899099 0 0.00081340400130853194 -0.0068970846533793692 0 0.00037711539756887265 -0.0072449494530384614 0 1.8298893297426898e-05 -0.0073775225775778138 0 0.00028081125596240324 -0.007597368612121843 0 -0.00023575263816224301 -0.0068806101389507768 0 0.00037711539756887265 -0.0072449494530384614 0 1.8298893297426898e-05 -0.0073775225775778138 0 -0.00023575263816224301 -0.0068806101389507768 0 -0.00024562465306478281 -0.0072378197490139502 0 1.8298893297426898e-05 -0.0073775225775778138 0 -0.00024562465306478281 -0.0072378197490139502 0 1.8298893297426898e-05 -0.0073775225775778138 0 -0.00015140943212284713 -0.0074837865944667971 0 -0.00024562465306478281 -0.0072378197490139502 0 -0.00015140943212284713 -0.0074837865944667971 0 -0.00036825237745042742 -0.0075448911217589924 0 0.00090653490562397985 -0.0018129128153629764 0 0.00092854896513653391 -0.0016353580501237413 0 0.0011133284841063787 -0.0019736783838950312 0 0.00025524439496559811 -0.0039261265137792668 0 0.00022683380329944266 -0.0056283679991396005 0 0.0018680368349015309 -0.0023313986199457984 0 0.00083586337025632121 -0.0087343388714315028 0 7.4772687936668617e-05 -0.0028565547959377917 0 0.00022683380329944266 -0.0056283679991396005 0 0.00092854896513653391 -0.0016353580501237413 0 0.0010066219000057571 -0.0014058431984960294 0 0.0011133284841063787 -0.0019736783838950312 0 -0.00024562465306478281 -0.0072378197490139502 0 -0.00045954542633633435 -0.0068089931266029557 0 -0.00036825237745042742 -0.0075448911217589924 0 0.00090653490562397985 -0.0018129128153629764 0 0.0010670798238509526 -0.0020558672332020322 0 0.0010667028697694391 -0.0019721774311304702 0 0.00090653490562397985 -0.0018129128153629764 0 0.00069361252627971027 -0.0017996917976397485 0 0.0010670798238509526 -0.0020558672332020322 0 0.00090653490562397985 -0.0018129128153629764 0 0.00092854896513653391 -0.0016353580501237413 0 0.00076893833087379878 -0.0015487679053991248 0 0.00092854896513653391 -0.0016353580501237413 0 0.0010066219000057571 -0.0014058431984960294 0 0.00087823385484446384 -0.0014568788784493434 0 0.00092854896513653391 -0.0016353580501237413 0 0.00087823385484446384 -0.0014568788784493434 0 0.00076893833087379878 -0.0015487679053991248 0 0.00087823385484446384 -0.0014568788784493434 0 0.00078874354858186413 -0.0012443744113280733 0 0.00076893833087379878 -0.0015487679053991248 0 0.0010066219000057571 -0.0014058431984960294 0 0.00087823385484446384 -0.0014568788784493434 0 0.00078874354858186413 -0.0012443744113280733 0 0.00078874354858186413 -0.0012443744113280733 0 0.0006269637528123626 -0.0013542418395206708 0 0.00076893833087379878 -0.0015487679053991248 0 0.0006269637528123626 -0.0013542418395206708 0 0.00076893833087379878 -0.0015487679053991248 0 0.00062667911885282623 -0.0016050032645548965 0 0.00033694561741271482 -0.0017387131439556532 0 0.00062667911885282623 -0.0016050032645548965 0 0.00069361252627971027 -0.0017996917976397485 0 0.00090653490562397985 -0.0018129128153629764 0 0.00076893833087379878 -0.0015487679053991248 0 0.00069361252627971027 -0.0017996917976397485 0 0.00076893833087379878 -0.0015487679053991248 0 0.00062667911885282623 -0.0016050032645548965 0 0.00069361252627971027 -0.0017996917976397485 0 0.0015252475740867972 -0.0046268352618658633 0 0.003324434809580736 -0.0046840332384348879 0 0.0030496699565253959 -0.0058395884246178233 0 0.0015252475740867972 -0.0046268352618658633 0 0.0027727640757411482 -0.0037487694061942695 0 0.003324434809580736 -0.0046840332384348879 0 0.0027727640757411482 -0.0037487694061942695 0 0.003324434809580736 -0.0046840332384348879 0 0.0045812058000497856 -0.0045244950546052577 0 0.003324434809580736 -0.0046840332384348879 0 0.0045812058000497856 -0.0045244950546052577 0 0.0030496699565253959 -0.0058395884246178233 0 0.00083586337025632121 -0.0087343388714315028 0 0.00022683380329944266 -0.0056283679991396005 0 0.00083586337025632121 -0.0087343388714315028 0 0.0023069754610183153 -0.012832288076906791 0 0.0030496699565253959 -0.0058395884246178233 0 0.00288280517935589 -0.0078465349823854322 0 0.0047659662036581658 -0.0069149223743118406 0 0.0045812058000497856 -0.0045244950546052577 0 0.0030496699565253959 -0.0058395884246178233 0 0.0047659662036581658 -0.0069149223743118406 0 0.0010097658865912019 -0.0062743455102703283 0 0.0030496699565253959 -0.0058395884246178233 0 0.00288280517935589 -0.0078465349823854322 0 0.00288280517935589 -0.0078465349823854322 0 0.0049032352974807724 -0.009428528757519726 0 0.0047659662036581658 -0.0069149223743118406 0 -0.0027634562260075452 -0.013774219527748356 0 -0.00088140616156094154 -0.015727005121184023 0 -0.0024047793174385248 -0.01632515412694116 0 0.00013178899584987159 -0.010505812601904144 0 0.0011123032421935177 -0.014765669159666889 0 -0.0041715742452008856 -0.014614197705123665 0 -0.0027634562260075452 -0.013774219527748356 0 -0.0024047793174385248 -0.01632515412694116 0 -0.0041715742452008856 -0.014614197705123665 0 -0.003837627730770198 -0.01619539611013034 0 -0.0024047793174385248 -0.01632515412694116 0 5.0286168422840127e-05 -0.019107720912488978 0 -0.00040977364389943322 -0.018625128787674236 0 0.00045498281639734371 -0.020072489341815981 0 -0.00045078071635881278 -0.018543463171735153 0 0.00015970933367450628 -0.018933008746406785 0 0.00045498281639734371 -0.020072489341815981 0 0.00015970933367450628 -0.018933008746406785 0 0.0006804545666077227 -0.019188437384080177 0 -0.00046092238609143666 -0.01815455595245417 0 -0.00038466638598336157 -0.018452797440939101 0 -0.00045078071635881278 -0.018543463171735153 0 0.0011123032421935177 -0.014765669159666889 0 0.0023069754610183153 -0.012832288076906791 0 -0.00038466638598336157 -0.018452797440939101 0 -0.00045078071635881278 -0.018543463171735153 0 -0.00068468191677044377 -0.018309686631938375 0 -0.00045078071635881278 -0.018543463171735153 0 -0.00016998460876463265 -0.018399234039799504 0 0.00015970933367450628 -0.018933008746406785 0 -0.00045078071635881278 -0.018543463171735153 0 -0.00016998460876463265 -0.018399234039799504 0 -0.00068468191677044377 -0.018309686631938375 0 -0.00016998460876463265 -0.018399234039799504 0 0.00034463246981660521 -0.018665316348369057 0 0.00023396111779817004 -0.018133706671582518 0 -0.00016998460876463265 -0.018399234039799504 0 0.00015970933367450628 -0.018933008746406785 0 0.00034463246981660521 -0.018665316348369057 0 0.0006804545666077227 -0.019188437384080177 0 0.00034463246981660521 -0.018665316348369057 0 0.00089122245138429127 -0.018651318296277579 0 0.00015970933367450628 -0.018933008746406785 0 0.0006804545666077227 -0.019188437384080177 0 0.00034463246981660521 -0.018665316348369057 0 0.00034463246981660521 -0.018665316348369057 0 0.00023396111779817004 -0.018133706671582518 0 0.00089122245138429127 -0.018651318296277579 0 0.00023396111779817004 -0.018133706671582518 0 0.00084504078282033246 -0.017994117470160432 0 0.00089122245138429127 -0.018651318296277579 0 -0.00041969042112283454 -0.013457067179465695 0 0.0002792958070427609 -0.019474196998730726 0 0.00023396111779817004 -0.018133706671582518 0 -0.00026454012889369136 -0.017152061706707279 0 0.00084504078282033246 -0.017994117470160432 0 -0.0026033292345031263 -0.017826457397189917 0 -0.00042706887659923315 -0.018911019575900925 0 -0.00025196841294984883 -0.019703279663161152 0 -0.00016998460876463265 -0.018399234039799504 0 0.00023396111779817004 -0.018133706671582518 0 -0.00018506736455625432 -0.017972476700982579 0 0.00023396111779817004 -0.018133706671582518 0 -0.00018506736455625432 -0.017972476700982579 0 -0.00026454012889369136 -0.017152061706707279 0 -0.00018506736455625432 -0.017972476700982579 0 -0.00050485936851413487 -0.017574199274466292 0 -0.00026454012889369136 -0.017152061706707279 0 -0.00092647285378562522 -0.01682560502770343 0 -0.00068468191677044377 -0.018309686631938375 0 -0.00050485936851413487 -0.017574199274466292 0 -0.00068468191677044377 -0.018309686631938375 0 -0.00018506736455625432 -0.017972476700982579 0 -0.00050485936851413487 -0.017574199274466292 0 -0.00016998460876463265 -0.018399234039799504 0 -0.00068468191677044377 -0.018309686631938375 0 -0.00018506736455625432 -0.017972476700982579 0 -0.00092647285378562522 -0.01682560502770343 0 -0.00050485936851413487 -0.017574199274466292 0 -0.00026454012889369136 -0.017152061706707279 0 1.8298893297426898e-05 -0.0073775225775778138 0 -0.00015140943212284713 -0.0074837865944667971 0 -2.8285667526830884e-05 -0.0077488088721655848 0 -0.00015140943212284713 -0.0074837865944667971 0 -0.00036825237745042742 -0.0075448911217589924 0 -2.8285667526830884e-05 -0.0077488088721655848 0 0.00083586337025632121 -0.0087343388714315028 0 -0.00041969042112283454 -0.013457067179465695 0 0.00022683380329944266 -0.0056283679991396005 0 -0.00041969042112283454 -0.013457067179465695 0 -0.00050348992563371765 -0.0097825659144224596 0 -0.00053105216386707134 -0.0093093556679458775 0 0.0010604354931780238 -0.010474079695402429 0 -2.8285667526830884e-05 -0.0077488088721655848 0 0.00028081125596240324 -0.007597368612121843 0 0.00039024579839000694 -0.0078921566811318879 0 -0.00041969042112283454 -0.013457067179465695 0 -0.00017044629638168605 -0.013339768050983554 0 1.8298893297426898e-05 -0.0073775225775778138 0 -2.8285667526830884e-05 -0.0077488088721655848 0 0.00028081125596240324 -0.007597368612121843 0 0.00028081125596240324 -0.007597368612121843 0 0.00058662417097497181 -0.0076682541269683787 0 0.00039024579839000694 -0.0078921566811318879 0 0.00058662417097497181 -0.0076682541269683787 0 0.00069259862570961303 -0.0080000593312049527 0 0.00088302347304913473 -0.0077712912118309205 0 0.00076427399606600571 -0.0074419310824104237 0 0.00058662417097497181 -0.0076682541269683787 0 0.00088302347304913473 -0.0077712912118309205 0 0.0016338732869320663 -0.019959179912750778 0 -0.00025196841294984883 -0.019703279663161152 0 0.0019825315021030823 -0.021330075127263717 0 0.00092969406970305367 -0.01359049822509154 0 -0.00017044629638168605 -0.013339768050983554 0 0.0016338732869320663 -0.019959179912750778 0 -0.00042706887659923315 -0.018911019575900925 0 -0.00025196841294984883 -0.019703279663161152 0 0.00058662417097497181 -0.0076682541269683787 0 0.00069259862570961303 -0.0080000593312049527 0 0.00039024579839000694 -0.0078921566811318879 0 0.0010518732229971282 -0.0075326893428491999 0 0.00088302347304913473 -0.0077712912118309205 0 0.0011206394918248752 -0.0078718400117741075 0 0.00092969406970305367 -0.01359049822509154 0 0.002595864429759012 -0.018159317871365679 0 0.00069259862570961303 -0.0080000593312049527 0 0.00088302347304913473 -0.0077712912118309205 0 0.00094133945072829878 -0.0081079056479799166 0 0.002595864429759012 -0.018159317871365679 0 0.0024665414625200501 -0.014366078761566283 0 0.00088302347304913473 -0.0077712912118309205 0 0.00094133945072829878 -0.0081079056479799166 0 0.0011206394918248752 -0.0078718400117741075 0 0.0036153596517013767 -0.022044943091588207 0 0.0032853729334581605 -0.021875190489875452 0 0.003640314904804876 -0.02166132723460695 0 0.003982975974555587 -0.022118746230521708 0 0.002595864429759012 -0.018159317871365679 0 0.0038232539435257193 -0.021788909702894276 0 0.0033289400783694883 -0.021585516504453957 0 0.0031736884049873158 -0.021062409502593957 0 0.0033289400783694883 -0.021585516504453957 0 0.0029294471112551743 -0.021137958588153639 0 0.0019825315021030823 -0.021330075127263717 0 0.0016338732869320663 -0.019959179912750778 0 0.003255622064290243 -0.020920166706023587 0 0.0029294471112551743 -0.021137958588153639 0 0.0033289400783694883 -0.021585516504453957 0 0.0031736884049873158 -0.021062409502593957 0 0.0029294471112551743 -0.021137958588153639 0 0.002595864429759012 -0.018159317871365679 0 0.002269538702007654 -0.019061899245006227 0 0.0032459116238997246 -0.0205032573995402 0 0.0022613491647974458 -0.020200303158682421 0 0.0025501694698777692 -0.021029855662207355 0 0.0032459116238997246 -0.0205032573995402 0 0.0021925983607643438 -0.019165966957613023 0 0.0022613491647974458 -0.020200303158682421 0 0.0033336138214745824 -0.021305244307600568 0 0.0020406278528082552 -0.020124339911802319 0 0.0033289400783694883 -0.021585516504453957 0 0.0035146260595063897 -0.022079468858495693 0 0.0019825315021030823 -0.021330075127263717 0 0.0038232539435257193 -0.021788909702894276 0 0.0035146260595063897 -0.022079468858495693 0 0.0039454735130570878 -0.02212730894420005 0 0.0038232539435257193 -0.021788909702894276 0 0.0033289400783694883 -0.021585516504453957 0 0.0035146260595063897 -0.022079468858495693 0 0.00084504078282033246 -0.017994117470160432 0 0.00089122245138429127 -0.018651318296277579 0 0.0021925983607643438 -0.019165966957613023 0 0.0011544782492673678 -0.019172411721409856 0 0.00089122245138429127 -0.018651318296277579 0 0.0021925983607643438 -0.019165966957613023 0 0.0002792958070427609 -0.019474196998730726 0 0.0020406278528082552 -0.020124339911802319 0 0.0006804545666077227 -0.019188437384080177 0 0.0011544782492673678 -0.019172411721409856 0 0.00089122245138429127 -0.018651318296277579 0 0.0016338732869320663 -0.019959179912750778 0 0.0029294471112551743 -0.021137958588153639 0 0.0019825315021030823 -0.021330075127263717 0 0.0011544782492673678 -0.019172411721409856 0 0.0021925983607643438 -0.019165966957613023 0 0.0017231554629715301 -0.019704607030944416 0 0.0021925983607643438 -0.019165966957613023 0 0.0017231554629715301 -0.019704607030944416 0 0.0022613491647974458 -0.020200303158682421 0 0.0022613491647974458 -0.020200303158682421 0 0.001777848502441532 -0.020161876074725287 0 0.0019695315136386816 -0.020636500577702822 0 0.001777848502441532 -0.020161876074725287 0 0.0014358166888174036 -0.020366165280370725 0 0.0019695315136386816 -0.020636500577702822 0 0.0017231554629715301 -0.019704607030944416 0 0.0022613491647974458 -0.020200303158682421 0 0.001777848502441532 -0.020161876074725287 0 0.001777848502441532 -0.020161876074725287 0 0.0014358166888174036 -0.020366165280370725 0 0.0011978785647265935 -0.019793703149826165 0 0.00045498281639734371 -0.020072489341815981 0 0.0014358166888174036 -0.020366165280370725 0 0.0011978785647265935 -0.019793703149826165 0 0.0017231554629715301 -0.019704607030944416 0 0.001777848502441532 -0.020161876074725287 0 0.0011978785647265935 -0.019793703149826165 0 0.0011544782492673678 -0.019172411721409856 0 0.0017231554629715301 -0.019704607030944416 0 0.0011978785647265935 -0.019793703149826165 0 0.0006804545666077227 -0.019188437384080177 0 0.0011544782492673678 -0.019172411721409856 0 0.0011978785647265935 -0.019793703149826165 0 0.00045498281639734371 -0.020072489341815981 0 0.0006804545666077227 -0.019188437384080177 0 0.0011978785647265935 -0.019793703149826165 0 -0.00046092238609143666 -0.01815455595245417 0 -0.00019522832088962402 -0.018542727494226783 0 0.00059212683286624537 -0.018617650874250328 0 0.00045498281639734371 -0.020072489341815981 0 0.0014358166888174036 -0.020366165280370725 0 0.0016954515500172806 -0.021156519651787897 0 5.0286168422840127e-05 -0.019107720912488978 0 0.0011251115010970775 -0.019956041442126118 0 -0.00019522832088962402 -0.018542727494226783 0 0.00059212683286624537 -0.018617650874250328 0 -2.0739098657280881e-05 -0.019308398994525137 0 0.0014358166888174036 -0.020366165280370725 0 0.0019695315136386816 -0.020636500577702822 0 0.0016954515500172806 -0.021156519651787897 0 0.0019695315136386816 -0.020636500577702822 0 0.0016954515500172806 -0.021156519651787897 0 0.0025501694698777692 -0.021029855662207355 0 0.0022613491647974458 -0.020200303158682421 0 0.0019695315136386816 -0.020636500577702822 0 0.0025501694698777692 -0.021029855662207355 0 0.0011251115010970775 -0.019956041442126118 0 0.0024624532047617374 -0.021401878085252204 0 0.0016954515500172806 -0.021156519651787897 0 0.0025501694698777692 -0.021029855662207355 0 0.0025726168030715175 -0.0216098525901131 0 0.00059212683286624537 -0.018617650874250328 0 0.0025726168030715175 -0.0216098525901131 0 0.00069878648424799973 -0.021107289428795049 0 -0.00022702896466092961 -0.019141208112875292 0 -2.0739098657280881e-05 -0.019308398994525137 0 -0.00019288679013114627 -0.019281990331014798 0 0.00059212683286624537 -0.018617650874250328 0 -2.0739098657280881e-05 -0.019308398994525137 0 0.00069878648424799973 -0.021107289428795049 0 -0.00022702896466092961 -0.019141208112875292 0 -2.0739098657280881e-05 -0.019308398994525137 0 -0.00032949706014442708 -0.018745873290569353 0 -0.00019522832088962402 -0.018542727494226783 0 -2.0739098657280881e-05 -0.019308398994525137 0 -0.00032949706014442708 -0.018745873290569353 0 0.0032459116238997246 -0.0205032573995402 0 0.0032433668405486555 -0.02163066420323399 0 0.0039454735130570878 -0.02212730894420005 0 0.0033336138214745824 -0.021305244307600568 0 0.00390087572566181 -0.022014312570284522 0 0.0032459116238997246 -0.0205032573995402 0 0.0032433668405486555 -0.02163066420323399 0 0.0025501694698777692 -0.021029855662207355 0 0.0032433668405486555 -0.02163066420323399 0 0.0025501694698777692 -0.021029855662207355 0 0.0025726168030715175 -0.0216098525901131 0 0.0032433668405486555 -0.02163066420323399 0 0.0025726168030715175 -0.0216098525901131 0 0.0036520958524860611 -0.022509547743596862 0 0.0025726168030715175 -0.0216098525901131 0 0.0025199283355401996 -0.023263966599190059 0 0.0016113929052253353 -0.022141692191527146 0 0.0025726168030715175 -0.0216098525901131 0 0.0025199283355401996 -0.023263966599190059 0 0.0036520958524860611 -0.022509547743596862 0 0.0025199283355401996 -0.023263966599190059 0 0.0036520958524860611 -0.022509547743596862 0 0.0035757336366224247 -0.023503066443781816 0 0.00126749229629538 -0.024488495412730734 0 0.0019284568603951642 -0.024317736636493469 0 -1.135124378404938e-05 -0.018931671420726121 0 -0.00020010587291415273 -0.022176762813929086 0 -2.0739098657280881e-05 -0.019308398994525137 0 -0.00021404829657005944 -0.019370935239266064 0 -0.00019288679013114627 -0.019281990331014798 0 -2.0739098657280881e-05 -0.019308398994525137 0 -0.00017308639393856452 -0.022838709835463003 0 0.00069878648424799973 -0.021107289428795049 0 0.00064403737884198282 -0.022285924758886824 0 -0.00017308639393856452 -0.022838709835463003 0 0.00069878648424799973 -0.021107289428795049 0 -0.00021404829657005944 -0.019370935239266064 0 -0.00022939442921664376 -0.019349546910970804 0 -0.00019288679013114627 -0.019281990331014798 0 -0.00021404829657005944 -0.019370935239266064 0 -0.00022939442921664376 -0.019349546910970804 0 -0.00024196570457321687 -0.019390694477917327 0 -0.00025783892051024575 -0.01939281002253785 0 -0.00026807084827240233 -0.01933676246784603 0 -0.00031511924483696238 -0.019432654153824596 0 -0.00022939442921664376 -0.019349546910970804 0 -0.00025783892051024575 -0.01939281002253785 0 -0.00024196570457321687 -0.019390694477917327 0 -0.00022939442921664376 -0.019349546910970804 0 -0.00025783892051024575 -0.01939281002253785 0 -0.00026807084827240233 -0.01933676246784603 0 -0.00022939442921664376 -0.019349546910970804 0 -0.00026807084827240233 -0.01933676246784603 0 -0.00019288679013114627 -0.019281990331014798 0 -0.00026807084827240233 -0.01933676246784603 0 -0.00019288679013114627 -0.019281990331014798 0 -0.0002828519565505911 -0.019229691082610474 0 -0.00022702896466092961 -0.019141208112875292 0 -0.00019288679013114627 -0.019281990331014798 0 -0.0002828519565505911 -0.019229691082610474 0 0.0025726168030715175 -0.0216098525901131 0 0.00069878648424799973 -0.021107289428795049 0 0.0016113929052253353 -0.022141692191527146 0 0.0025199283355401996 -0.023263966599190059 0 0.00064403737884198282 -0.022285924758886824 0 0.0016113929052253353 -0.022141692191527146 0 0.00064403737884198282 -0.022285924758886824 0 0.00069878648424799973 -0.021107289428795049 0 0.0016113929052253353 -0.022141692191527146 0 0.0025199283355401996 -0.023263966599190059 0 0.00064403737884198282 -0.022285924758886824 0 -0.00017308639393856452 -0.022838709835463003 0 2.2954965843695269e-05 -0.025156839540969977 0 -0.00030626418005500204 -0.024973450326442589 0 -0.00017577517425921513 -0.025162745267921265 0 0.00126749229629538 -0.024488495412730734 0 -0.00020010587291415273 -0.022176762813929086 0 -0.00030626418005500204 -0.024973450326442589 0 -0.00017577517425921513 -0.025162745267921265 0 -0.0002623767296043525 -0.025165424801984075 0 -0.00030626418005500204 -0.024973450326442589 0 -0.0002623767296043525 -0.025165424801984075 0 -0.00033443957972125582 -0.025276105262062702 0 -0.00021404829657005944 -0.019370935239266064 0 -0.00026286709804218056 -0.019467801659866384 0 -0.0002237460353675543 -0.019650968831329961 0 -0.00021404829657005944 -0.019370935239266064 0 -0.0002237460353675543 -0.019650968831329961 0 -0.0002072541641706338 -0.019716015729686225 0 -0.00020010587291415273 -0.022176762813929086 0 -0.00027725988520736024 -0.022487884443901242 0 -0.00025783892051024575 -0.01939281002253785 0 -0.00024196570457321687 -0.019390694477917327 0 -0.00026286709804218056 -0.019467801659866384 0 -0.00025783892051024575 -0.01939281002253785 0 -0.00026286709804218056 -0.019467801659866384 0 -0.00031511924483696238 -0.019432654153824596 0 -0.00021404829657005944 -0.019370935239266064 0 -0.00024196570457321687 -0.019390694477917327 0 -0.00026286709804218056 -0.019467801659866384 0 -0.00026286709804218056 -0.019467801659866384 0 -0.00033552626422278254 -0.019502285878949466 0 -0.00031511924483696238 -0.019432654153824596 0 -0.00026286709804218056 -0.019467801659866384 0 -0.00031108517919735369 -0.019546455151136073 0 -0.00033552626422278254 -0.019502285878949466 0 -0.00026286709804218056 -0.019467801659866384 0 -0.00031108517919735369 -0.019546455151136073 0 -0.0002237460353675543 -0.019650968831329961 0 -0.00015689410591202216 -0.020321192998081671 0 -0.00048319125751211499 -0.019514261616019164 0 -0.00047286404127487407 -0.019563718252009001 0 -0.00091254662287622616 -0.019906316010948995 0 -0.0002237460353675543 -0.019650968831329961 0 -0.00031108517919735369 -0.019546455151136073 0 -0.00047286404127487407 -0.019563718252009001 0 -0.0002237460353675543 -0.019650968831329961 0 -0.00047286404127487407 -0.019563718252009001 0 -0.00040843697150356984 -0.019329919811861215 0 -0.00075297199952607992 -0.01936245120275519 0 -0.00047286404127487407 -0.019563718252009001 0 -0.00075297199952607992 -0.01936245120275519 0 -0.00091254662287622616 -0.019906316010948995 0 -0.00047286404127487407 -0.019563718252009001 0 -0.00031511924483696238 -0.019432654153824596 0 -0.00040843697150356984 -0.019329919811861215 0 -0.00033552626422278254 -0.019502285878949466 0 -0.00047286404127487407 -0.019563718252009001 0 -0.00031511924483696238 -0.019432654153824596 0 -0.00031108517919735369 -0.019546455151136073 0 -0.00033552626422278254 -0.019502285878949466 0 -0.00047286404127487407 -0.019563718252009001 0 -0.00026807084827240233 -0.01933676246784603 0 -0.00031511924483696238 -0.019432654153824596 0 -0.00040843697150356984 -0.019329919811861215 0 -0.00026807084827240233 -0.01933676246784603 0 -0.00040843697150356984 -0.019329919811861215 0 -0.0002828519565505911 -0.019229691082610474 0 -0.00040843697150356984 -0.019329919811861215 0 -0.00050438474190970877 -0.018973025732159244 0 -0.00075297199952607992 -0.01936245120275519 0 -0.00022702896466092961 -0.019141208112875292 0 -0.00050438474190970877 -0.018973025732159244 0 -0.0002828519565505911 -0.019229691082610474 0 -0.00040843697150356984 -0.019329919811861215 0 -0.00050438474190970877 -0.018973025732159244 0 -0.0002828519565505911 -0.019229691082610474 0 -0.0011963967964649465 -0.018775211352577332 0 -0.0012165091868028021 -0.019147036585276375 0 -0.0016068264894384652 -0.018749792739186737 0 -0.0011963967964649465 -0.018775211352577332 0 -0.00088823925367924968 -0.01902060341864098 0 -0.0012165091868028021 -0.019147036585276375 0 -0.00050438474190970877 -0.018973025732159244 0 -0.00088823925367924968 -0.01902060341864098 0 -0.00075297199952607992 -0.01936245120275519 0 -0.00050438474190970877 -0.018973025732159244 0 -0.00088823925367924968 -0.01902060341864098 0 -0.00088996993563316047 -0.018708231590575265 0 -0.0011963967964649465 -0.018775211352577332 0 -0.00088823925367924968 -0.01902060341864098 0 -0.00088996993563316047 -0.018708231590575265 0 -0.00088823925367924968 -0.01902060341864098 0 -0.00075297199952607992 -0.01936245120275519 0 -0.0012165091868028021 -0.019147036585276375 0 -0.00075297199952607992 -0.01936245120275519 0 -0.0012165091868028021 -0.019147036585276375 0 -0.0012317501982487022 -0.019464591546512738 0 -0.0012165091868028021 -0.019147036585276375 0 -0.0012317501982487022 -0.019464591546512738 0 -0.001645194977621708 -0.019245702237037015 0 -0.0012317501982487022 -0.019464591546512738 0 -0.00091254662287622616 -0.019906316010948995 0 -0.0016940013519437824 -0.019582239346921416 0 -0.00075297199952607992 -0.01936245120275519 0 -0.0012317501982487022 -0.019464591546512738 0 -0.00091254662287622616 -0.019906316010948995 0 -0.00015689410591202216 -0.020321192998081671 0 -0.002799311498780886 -0.014898613722583099 0 -0.00027455336646400684 -0.019552801415786972 0 -0.00022656904682291897 -0.019491663828401624 0 -0.00024000909874605179 -0.019503030143054004 0 -0.00091254662287622616 -0.019906316010948995 0 -0.0022656159890548874 -0.019888860392745188 0 -0.0016940013519437824 -0.019582239346921416 0 -0.0022656159890548874 -0.019888860392745188 0 -0.0021864365913536552 -0.019546670346974514 0 -0.0016940013519437824 -0.019582239346921416 0 -0.002799311498780886 -0.014898613722583099 0 -0.0032487596797043969 -0.018767019297708788 0 -0.0023754454164533275 -0.019999447024282194 0 -0.0021864365913536552 -0.019546670346974514 0 -0.0024994492303833642 -0.019541705820778264 0 -0.0038465292365528871 -0.012323127186820954 0 -0.002799311498780886 -0.014898613722583099 0 -0.0036853311383110189 -0.019529540841871473 0 -0.0023754454164533275 -0.019999447024282194 0 -0.0024994492303833642 -0.019541705820778264 0 -0.0037734500221480428 -0.0052412844501719463 0 -0.0047689366779222406 -0.0051116861221801955 0 -0.0044020161550774855 -0.0039370724298499913 0 -0.0037484509474044266 -0.019267704308917565 0 -0.0036853311383110189 -0.019529540841871473 0 -0.0024994492303833642 -0.019541705820778264 0 -0.0041879550805923238 -0.019782518857421157 0 -0.0025904599984517313 -0.019515628181822342 0 -0.0041667652980434296 -0.019714780025029775 0 -0.0024994492303833642 -0.019541705820778264 0 -0.0031846188771054024 -0.019395426181845601 0 -0.0037144771057649709 -0.019394672255909101 0 -0.0041667652980434296 -0.019714780025029775 0 -0.0031846188771054024 -0.019395426181845601 0 -0.0037144771057649709 -0.019394672255909101 0 -0.0035634335156085393 -0.019075645016869501 0 -0.0034409481261960455 -0.019297193037702869 0 -0.0037144771057649709 -0.019394672255909101 0 -0.0034409481261960455 -0.019297193037702869 0 -0.0031846188771054024 -0.019395426181845601 0 -0.0035634335156085393 -0.019075645016869501 0 -0.0034409481261960455 -0.019297193037702869 0 -0.0032314090051059562 -0.019136944903836037 0 -0.0031846188771054024 -0.019395426181845601 0 -0.0032314090051059562 -0.019136944903836037 0 -0.0027949070912207099 -0.019122528388801539 0 -0.0034409481261960455 -0.019297193037702869 0 -0.0031846188771054024 -0.019395426181845601 0 -0.0032314090051059562 -0.019136944903836037 0 -0.0024994492303833642 -0.019541705820778264 0 -0.0031846188771054024 -0.019395426181845601 0 -0.0027193468181352719 -0.019347053703746703 0 -0.0031846188771054024 -0.019395426181845601 0 -0.0027949070912207099 -0.019122528388801539 0 -0.0027193468181352719 -0.019347053703746703 0 -0.0024994492303833642 -0.019541705820778264 0 -0.0027193468181352719 -0.019347053703746703 0 -0.0024152491639563901 -0.019330996629012991 0 -0.0027949070912207099 -0.019122528388801539 0 -0.0027193468181352719 -0.019347053703746703 0 -0.0024152491639563901 -0.019330996629012991 0 -0.0027949070912207099 -0.019122528388801539 0 -0.0024152491639563901 -0.019330996629012991 0 -0.0023210901010083194 -0.019009974793168929 0 -0.0027949070912207099 -0.019122528388801539 0 -0.0027206014211606563 -0.018691271044800426 0 -0.0023210901010083194 -0.019009974793168929 0 -0.0027949070912207099 -0.019122528388801539 0 -0.0027206014211606563 -0.018691271044800426 0 -0.003214616091444657 -0.018845277210128179 0 -0.0032314090051059562 -0.019136944903836037 0 -0.0027949070912207099 -0.019122528388801539 0 -0.003214616091444657 -0.018845277210128179 0 -0.0035634335156085393 -0.019075645016869501 0 -0.0032314090051059562 -0.019136944903836037 0 -0.003214616091444657 -0.018845277210128179 0 -0.0027206014211606563 -0.018691271044800426 0 -0.003214616091444657 -0.018845277210128179 0 -0.003296947801281314 -0.018299086382009149 0 -0.0037349447603603832 -0.018696847491563397 0 -0.003214616091444657 -0.018845277210128179 0 -0.003296947801281314 -0.018299086382009149 0 -0.0037349447603603832 -0.018696847491563397 0 -0.0035634335156085393 -0.019075645016869501 0 -0.003214616091444657 -0.018845277210128179 0 -0.0012317501982487022 -0.019464591546512738 0 -0.0016940013519437824 -0.019582239346921416 0 -0.001645194977621708 -0.019245702237037015 0 -0.001645194977621708 -0.019245702237037015 0 -0.0020142394529079665 -0.019288608479768796 0 -0.0019264857450330083 -0.018955899216963668 0 -0.0016940013519437824 -0.019582239346921416 0 -0.001645194977621708 -0.019245702237037015 0 -0.0020142394529079665 -0.019288608479768796 0 -0.0021864365913536552 -0.019546670346974514 0 -0.0016940013519437824 -0.019582239346921416 0 -0.0020142394529079665 -0.019288608479768796 0 -0.0021864365913536552 -0.019546670346974514 0 -0.0024994492303833642 -0.019541705820778264 0 -0.0024152491639563901 -0.019330996629012991 0 -0.0021864365913536552 -0.019546670346974514 0 -0.0024152491639563901 -0.019330996629012991 0 -0.0020142394529079665 -0.019288608479768796 0 -0.0024152491639563901 -0.019330996629012991 0 -0.0020142394529079665 -0.019288608479768796 0 -0.0023210901010083194 -0.019009974793168929 0 -0.0020142394529079665 -0.019288608479768796 0 -0.0019264857450330083 -0.018955899216963668 0 -0.0023210901010083194 -0.019009974793168929 0 -0.0027206014211606563 -0.018691271044800426 0 -0.0023210901010083194 -0.019009974793168929 0 -0.0022359443075723696 -0.018495722885732209 0 -0.0019264857450330083 -0.018955899216963668 0 -0.0016068264894384652 -0.018749792739186737 0 -0.0022359443075723696 -0.018495722885732209 0 -0.0019264857450330083 -0.018955899216963668 0 -0.0023210901010083194 -0.019009974793168929 0 -0.0022359443075723696 -0.018495722885732209 0 -0.001645194977621708 -0.019245702237037015 0 -0.0019264857450330083 -0.018955899216963668 0 -0.0016068264894384652 -0.018749792739186737 0 -0.0012165091868028021 -0.019147036585276375 0 -0.001645194977621708 -0.019245702237037015 0 -0.0016068264894384652 -0.018749792739186737 0 -0.0016068264894384652 -0.018749792739186737 0 -0.0017464427018710784 -0.018215788145690873 0 -0.0022359443075723696 -0.018495722885732209 0 -0.0016068264894384652 -0.018749792739186737 0 -0.0017464427018710784 -0.018215788145690873 0 -0.001243336379152767 -0.01831985611093916 0 -0.0022359443075723696 -0.018495722885732209 0 -0.0023048602630024971 -0.017763959901735869 0 -0.0028060741477944082 -0.018060172518659771 0 -0.0017464427018710784 -0.018215788145690873 0 -0.0022359443075723696 -0.018495722885732209 0 -0.0023048602630024971 -0.017763959901735869 0 -0.0017464427018710784 -0.018215788145690873 0 -0.0023048602630024971 -0.017763959901735869 0 -0.0015559649086728795 -0.017709540477916594 0 -0.0017464427018710784 -0.018215788145690873 0 -0.0015559649086728795 -0.017709540477916594 0 -0.001243336379152767 -0.01831985611093916 0 -0.003296947801281314 -0.018299086382009149 0 -0.0028060741477944082 -0.018060172518659771 0 -0.0033019029570456175 -0.017459502525640502 0 -0.0040096491582697616 -0.018057683094481875 0 -0.0037349447603603832 -0.018696847491563397 0 -0.003296947801281314 -0.018299086382009149 0 -0.0040096491582697616 -0.018057683094481875 0 -0.003296947801281314 -0.018299086382009149 0 -0.0033019029570456175 -0.017459502525640502 0 -0.0027206014211606563 -0.018691271044800426 0 -0.003296947801281314 -0.018299086382009149 0 -0.0028060741477944082 -0.018060172518659771 0 -0.0027206014211606563 -0.018691271044800426 0 -0.0022359443075723696 -0.018495722885732209 0 -0.0028060741477944082 -0.018060172518659771 0 -0.0023048602630024971 -0.017763959901735869 0 -0.0028060741477944082 -0.018060172518659771 0 -0.0033019029570456175 -0.017459502525640502 0 -0.003837627730770198 -0.01619539611013034 0 -0.0033019029570456175 -0.017459502525640502 0 -0.0024047793174385248 -0.01632515412694116 0 -0.0023048602630024971 -0.017763959901735869 0 -0.0033019029570456175 -0.017459502525640502 0 -0.0024047793174385248 -0.01632515412694116 0 -0.0024047793174385248 -0.01632515412694116 0 -0.0015559649086728795 -0.017709540477916594 0 -0.0010168076241569557 -0.017315238687622865 0 -0.00088140616156094154 -0.015727005121184023 0 -0.0024047793174385248 -0.01632515412694116 0 -0.0010168076241569557 -0.017315238687622865 0 -0.0023048602630024971 -0.017763959901735869 0 -0.0024047793174385248 -0.01632515412694116 0 -0.0015559649086728795 -0.017709540477916594 0 -0.0010388683885913404 -0.016817661802679334 0 -0.0010168076241569557 -0.017315238687622865 0 -0.00080564008987760551 -0.017738117534221116 0 0.0011123032421935177 -0.014765669159666889 0 -0.00047561010770528789 -0.01735746112029737 0 0.0011123032421935177 -0.014765669159666889 0 -0.0008420476614578907 -0.018682584665167971 0 -0.0010388683885913404 -0.016817661802679334 0 -0.00080564008987760551 -0.017738117534221116 0 -0.00043775071106858009 -0.018157607515584647 0 -0.0015559649086728795 -0.017709540477916594 0 -0.0010168076241569557 -0.017315238687622865 0 -0.0010038203221530595 -0.017950493717207069 0 -0.0010168076241569557 -0.017315238687622865 0 -0.00080564008987760551 -0.017738117534221116 0 -0.0010038203221530595 -0.017950493717207069 0 -0.00080564008987760551 -0.017738117534221116 0 -0.0010038203221530595 -0.017950493717207069 0 -0.00069377428980725868 -0.018370563581982882 0 -0.00046092238609143666 -0.01815455595245417 0 -0.00038466638598336157 -0.018452797440939101 0 -0.00043775071106858009 -0.018157607515584647 0 -0.00046092238609143666 -0.01815455595245417 0 -0.00019522832088962402 -0.018542727494226783 0 -0.00043775071106858009 -0.018157607515584647 0 -0.00019522832088962402 -0.018542727494226783 0 -0.00043775071106858009 -0.018157607515584647 0 -0.00032949706014442708 -0.018745873290569353 0 -0.00080564008987760551 -0.017738117534221116 0 -0.00043775071106858009 -0.018157607515584647 0 -0.00069377428980725868 -0.018370563581982882 0 -0.00043775071106858009 -0.018157607515584647 0 -0.00032949706014442708 -0.018745873290569353 0 -0.00069377428980725868 -0.018370563581982882 0 -0.00022702896466092961 -0.019141208112875292 0 -0.00050438474190970877 -0.018973025732159244 0 -0.00032949706014442708 -0.018745873290569353 0 -0.00050438474190970877 -0.018973025732159244 0 -0.00032949706014442708 -0.018745873290569353 0 -0.00069377428980725868 -0.018370563581982882 0 -0.00088996993563316047 -0.018708231590575265 0 -0.001243336379152767 -0.01831985611093916 0 -0.00069377428980725868 -0.018370563581982882 0 -0.00050438474190970877 -0.018973025732159244 0 -0.00088996993563316047 -0.018708231590575265 0 -0.00069377428980725868 -0.018370563581982882 0 -0.0011963967964649465 -0.018775211352577332 0 -0.00088996993563316047 -0.018708231590575265 0 -0.001243336379152767 -0.01831985611093916 0 -0.0011963967964649465 -0.018775211352577332 0 -0.0016068264894384652 -0.018749792739186737 0 -0.001243336379152767 -0.01831985611093916 0 -0.0015559649086728795 -0.017709540477916594 0 -0.001243336379152767 -0.01831985611093916 0 -0.0010038203221530595 -0.017950493717207069 0 -0.001243336379152767 -0.01831985611093916 0 -0.0010038203221530595 -0.017950493717207069 0 -0.00069377428980725868 -0.018370563581982882 0 0.0052089925615935199 -0.026891053755459797 0 0.0066416989710976768 -0.026420985573324725 0 0.0062653951387199687 -0.028888312422575672 0 0.0066416989710976768 -0.026420985573324725 0 0.0079250951173660666 -0.027814630258807763 0 0.0062653951387199687 -0.028888312422575672 0 0.0052089925615935199 -0.026891053755459797 0 0.0028045387399323056 -0.027527819026148512 0 0.0062653951387199687 -0.028888312422575672 0 0.0052089925615935199 -0.026891053755459797 0 0.0066416989710976768 -0.026420985573324725 0 0.0050845639208089155 -0.024414123306142038 0 0.0052089925615935199 -0.026891053755459797 0 0.0028045387399323056 -0.027527819026148512 0 0.0050845639208089155 -0.024414123306142038 0 0.0039421231160020193 -0.025500866137049341 0 0.0049286856300643075 -0.024401301195488993 0 0.0047026268014342988 -0.023398331527977805 0 0.0047830852714329112 -0.023659846730182791 0 0.0050845639208089155 -0.024414123306142038 0 0.0039421231160020193 -0.025500866137049341 0 0.0033194957201370407 -0.026945288914171393 0 0.0047026268014342988 -0.023398331527977805 0 0.0047830852714329112 -0.023659846730182791 0 0.0045902913457140605 -0.023230183212724263 0 0.0047830852714329112 -0.023659846730182791 0 0.0047860824268161828 -0.02333990077464625 0 0.0050845639208089155 -0.024414123306142038 0 0.0047830852714329112 -0.023659846730182791 0 0.0047860824268161828 -0.02333990077464625 0 0.0045902913457140605 -0.023230183212724263 0 0.0047860824268161828 -0.02333990077464625 0 0.0050845639208089155 -0.024414123306142038 0 0.0053636751091068226 -0.023359129566455847 0 0.0066416989710976768 -0.026420985573324725 0 0.0050845639208089155 -0.024414123306142038 0 0.007922158528225148 -0.024824419090288544 0 0.0050845639208089155 -0.024414123306142038 0 0.007922158528225148 -0.024824419090288544 0 0.0053636751091068226 -0.023359129566455847 0 0.0090947575315301309 -0.027915898135040279 0 0.0091389651598592237 -0.028441809932800436 0 0.010674890965971098 -0.031173644848652503 0 0.0086826749874973925 -0.030619233991967924 0 0.0090146614219553615 -0.032215301353469623 0 0.010674890965971098 -0.031173644848652503 0 0.0086826749874973925 -0.030619233991967924 0 0.0090750073580453342 -0.028608265729342816 0 0.0086826749874973925 -0.030619233991967924 0 0.0090146614219553615 -0.032215301353469623 0 0.0074140078891145765 -0.031261683499734925 0 0.0090750073580453342 -0.028608265729342816 0 0.0090365184669666167 -0.028554526487014075 0 0.0077166141316063119 -0.029392590307440538 0 0.0086826749874973925 -0.030619233991967924 0 0.0090750073580453342 -0.028608265729342816 0 0.0077166141316063119 -0.029392590307440538 0 0.0090750073580453342 -0.028608265729342816 0 0.0079250951173660666 -0.027814630258807763 0 0.0090365184669666167 -0.028554526487014075 0 0.007922158528225148 -0.024824419090288544 0 0.0090750073580453342 -0.028608265729342816 0 0.0079250951173660666 -0.027814630258807763 0 0.0066416989710976768 -0.026420985573324725 0 0.007922158528225148 -0.024824419090288544 0 0.0079250951173660666 -0.027814630258807763 0 0.0079250951173660666 -0.027814630258807763 0 0.0090365184669666167 -0.028554526487014075 0 0.0062653951387199687 -0.028888312422575672 0 0.0028867218762909678 -0.028811798137229637 0 0.0030202601476821949 -0.028692425595375583 0 0.0031195762463106609 -0.028972709829137081 0 0.005878409184639514 -0.028738860268056776 0 0.0045358853227530542 -0.029136184588375046 0 0.0028212484551066079 -0.028939148505362857 0 0.0028867218762909678 -0.028811798137229637 0 0.0031195762463106609 -0.028972709829137081 0 0.0028212484551066079 -0.028939148505362857 0 0.0027213692498619779 -0.0288055922997318 0 0.0028867218762909678 -0.028811798137229637 0 0.0027213692498619779 -0.0288055922997318 0 0.0028118834593037468 -0.028675059311880951 0 0.0026698192406573078 -0.028625598410359505 0 0.0027213692498619779 -0.0288055922997318 0 0.0028118834593037468 -0.028675059311880951 0 0.0028867218762909678 -0.028811798137229637 0 0.0028118834593037468 -0.028675059311880951 0 0.0028867218762909678 -0.028811798137229637 0 0.0030202601476821949 -0.028692425595375583 0 0.0028118834593037468 -0.028675059311880951 0 0.0030202601476821949 -0.028692425595375583 0 0.0028560529618342797 -0.028550168453914396 0 0.0030202601476821949 -0.028692425595375583 0 0.0033598358947166049 -0.028793737877395923 0 0.0033891000183699145 -0.028551159504812913 0 0.0030202601476821949 -0.028692425595375583 0 0.0031195762463106609 -0.028972709829137081 0 0.0033598358947166049 -0.028793737877395923 0 0.0045358853227530542 -0.029136184588375046 0 0.0033194957201370407 -0.026945288914171393 0 0.0031195762463106609 -0.028972709829137081 0 0.0033598358947166049 -0.028793737877395923 0 0.0035013617416116017 -0.028962565714974731 0 0.0028045387399323056 -0.027527819026148512 0 0.0062653951387199687 -0.028888312422575672 0 0.0018326191361708441 -0.028828812076254512 0 0.0033598358947166049 -0.028793737877395923 0 0.0035013617416116017 -0.028962565714974731 0 0.0035840763870667934 -0.028837364637396605 0 0.0033598358947166049 -0.028793737877395923 0 0.0035840763870667934 -0.028837364637396605 0 0.0033891000183699145 -0.028551159504812913 0 0.0035304169633698849 -0.025479635583950243 0 0.002611332555365913 -0.027586065763238622 0 0.0018102856284726455 -0.025966402216252134 0 0.0016912122021134806 -0.025962853974263789 0 0.0018080131226833277 -0.025819694775576805 0 0.0018102856284726455 -0.025966402216252134 0 0.0018080131226833277 -0.025819694775576805 0 0.0019403019493995147 -0.026008294418590532 0 0.0031518768833467999 -0.02441804617051662 0 0.0035304169633698849 -0.025479635583950243 0 0.0043249198015026125 -0.023036912799068599 0 0.0044174314126568933 -0.023243981842933383 0 0.0044754833973050133 -0.023043642980897259 0 0.0043249198015026125 -0.023036912799068599 0 0.0044174314126568933 -0.023243981842933383 0 0.0042465015058088763 -0.023355460080977219 0 0.0043249198015026125 -0.023036912799068599 0 0.0041480467403795318 -0.022698040558707028 0 0.0043747377747330703 -0.022974010339012023 0 0.0043249198015026125 -0.023036912799068599 0 0.0044754833973050133 -0.023043642980897259 0 0.0043747377747330703 -0.022974010339012023 0 0.0046629499113669138 -0.023376110454832465 0 0.0045537790546321009 -0.023545254832740021 0 0.0045750536284692687 -0.023221986373150157 0 0.0035304169633698849 -0.025479635583950243 0 0.0043527484783391513 -0.022488911183611512 0 0.0045537790546321009 -0.023545254832740021 0 0.0045750536284692687 -0.023221986373150157 0 0.0043747377747330703 -0.022974010339012023 0 0.0033194957201370407 -0.026945288914171393 0 0.0035304169633698849 -0.025479635583950243 0 0.0040755016118708695 -0.023200193826943001 0 0.0036520958524860611 -0.022509547743596862 0 0.0035757336366224247 -0.023503066443781816 0 0.0043249198015026125 -0.023036912799068599 0 0.0040755016118708695 -0.023200193826943001 0 0.0042465015058088763 -0.023355460080977219 0 0.0043249198015026125 -0.023036912799068599 0 0.0040755016118708695 -0.023200193826943001 0 0.0041480467403795318 -0.022698040558707028 0 0.0040755016118708695 -0.023200193826943001 0 0.0036520958524860611 -0.022509547743596862 0 0.0041480467403795318 -0.022698040558707028 0 0.0036520958524860611 -0.022509547743596862 0 0.0041480467403795318 -0.022698040558707028 0 0.0039454735130570878 -0.02212730894420005 0 0.0032433668405486555 -0.02163066420323399 0 0.0036520958524860611 -0.022509547743596862 0 0.0039454735130570878 -0.02212730894420005 0 0.0041480467403795318 -0.022698040558707028 0 0.0039454735130570878 -0.02212730894420005 0 0.0042218037838378745 -0.022598469767579156 0 0.0039454735130570878 -0.02212730894420005 0 0.0042218037838378745 -0.022598469767579156 0 0.0039541180819113626 -0.022133322320688688 0 0.0045750536284692687 -0.023221986373150157 0 0.0043747377747330703 -0.022974010339012023 0 0.0045902913457140605 -0.023230183212724263 0 0.0047026268014342988 -0.023398331527977805 0 0.0045750536284692687 -0.023221986373150157 0 0.0045902913457140605 -0.023230183212724263 0 0.0047026268014342988 -0.023398331527977805 0 0.0046629499113669138 -0.023376110454832465 0 0.0045750536284692687 -0.023221986373150157 0 0.0041480467403795318 -0.022698040558707028 0 0.0043747377747330703 -0.022974010339012023 0 0.0042218037838378745 -0.022598469767579156 0 0.0043747377747330703 -0.022974010339012023 0 0.0042218037838378745 -0.022598469767579156 0 0.0045902913457140605 -0.023230183212724263 0 0.0047860824268161828 -0.02333990077464625 0 0.0045902913457140605 -0.023230183212724263 0 0.0045476243911288369 -0.022795559847517188 0 0.0042218037838378745 -0.022598469767579156 0 0.0045902913457140605 -0.023230183212724263 0 0.0045476243911288369 -0.022795559847517188 0 0.0045476243911288369 -0.022795559847517188 0 0.0043032558311921383 -0.022328573937018984 0 0.0046919056251379437 -0.022408591294324293 0 0.0045476243911288369 -0.022795559847517188 0 0.0046919056251379437 -0.022408591294324293 0 0.0050423511920628349 -0.022757071793307267 0 0.0042218037838378745 -0.022598469767579156 0 0.0045476243911288369 -0.022795559847517188 0 0.0043032558311921383 -0.022328573937018984 0 0.0043032558311921383 -0.022328573937018984 0 0.0040595697784568075 -0.021918091531394186 0 0.0045521275912612739 -0.022077535364085805 0 0.0046919056251379437 -0.022408591294324293 0 0.0045521275912612739 -0.022077535364085805 0 0.0052256004839294082 -0.022089992462816021 0 0.0043032558311921383 -0.022328573937018984 0 0.0046919056251379437 -0.022408591294324293 0 0.0045521275912612739 -0.022077535364085805 0 0.0038232539435257193 -0.021788909702894276 0 0.0039454735130570878 -0.02212730894420005 0 0.0039541180819113626 -0.022133322320688688 0 0.0042218037838378745 -0.022598469767579156 0 0.0043032558311921383 -0.022328573937018984 0 0.0039541180819113626 -0.022133322320688688 0 0.0039541180819113626 -0.022133322320688688 0 0.0038273432371617416 -0.021946580972382234 0 0.0040595697784568075 -0.021918091531394186 0 0.0043032558311921383 -0.022328573937018984 0 0.0039541180819113626 -0.022133322320688688 0 0.0040595697784568075 -0.021918091531394186 0 0.003982975974555587 -0.022118746230521708 0 0.0038097691665955015 -0.022033121684230446 0 0.0036153596517013767 -0.022044943091588207 0 0.0038273432371617416 -0.021946580972382234 0 0.003640314904804876 -0.02166132723460695 0 0.0036153596517013767 -0.022044943091588207 0 0.0039541180819113626 -0.022133322320688688 0 0.0038273432371617416 -0.021946580972382234 0 0.0038273432371617416 -0.021946580972382234 0 0.003640314904804876 -0.02166132723460695 0 0.0040595697784568075 -0.021918091531394186 0 0.0040595697784568075 -0.021918091531394186 0 0.0039574918217066442 -0.021387813078977427 0 0.0043002607532785534 -0.021602211880973866 0 0.003640314904804876 -0.02166132723460695 0 0.0040595697784568075 -0.021918091531394186 0 0.0039574918217066442 -0.021387813078977427 0 0.0011206394918248752 -0.0078718400117741075 0 0.0011378123759281718 -0.007737716215375768 0 0.0011039251474971544 -0.0076176059330685837 0 0.0010518732229971282 -0.0075326893428491999 0 0.0011206394918248752 -0.0078718400117741075 0 0.0011039251474971544 -0.0076176059330685837 0 0.0024665414625200501 -0.014366078761566283 0 0.0023597762507775806 -0.014454590284615479 0 0.0045521275912612739 -0.022077535364085805 0 0.004708535549046761 -0.021647776977096658 0 0.00528855672133338 -0.022053501754094113 0 0.004708535549046761 -0.021647776977096658 0 0.0051439750261500642 -0.021459937885282283 0 0.00528855672133338 -0.022053501754094113 0 0.0040595697784568075 -0.021918091531394186 0 0.0045521275912612739 -0.022077535364085805 0 0.0043002607532785534 -0.021602211880973866 0 0.0045521275912612739 -0.022077535364085805 0 0.0043002607532785534 -0.021602211880973866 0 0.004708535549046761 -0.021647776977096658 0 0.0039574918217066442 -0.021387813078977427 0 0.0043002607532785534 -0.021602211880973866 0 0.0044098094377561644 -0.021161930268603316 0 0.0045342319588230033 -0.021416558242521189 0 0.0043002607532785534 -0.021602211880973866 0 0.0044098094377561644 -0.021161930268603316 0 0.0039574918217066442 -0.021387813078977427 0 0.0044098094377561644 -0.021161930268603316 0 0.0044399943605226014 -0.020915671632308348 0 0.0023597762507775806 -0.014454590284615479 0 0.0041263965021310269 -0.016013908659453908 0 0.0045342319588230033 -0.021416558242521189 0 0.0043002607532785534 -0.021602211880973866 0 0.004708535549046761 -0.021647776977096658 0 0.0045342319588230033 -0.021416558242521189 0 0.0044098094377561644 -0.021161930268603316 0 0.0047389211802095661 -0.021237093100577965 0 0.0045342319588230033 -0.021416558242521189 0 0.0047389211802095661 -0.021237093100577965 0 0.004708535549046761 -0.021647776977096658 0 0.0047389211802095661 -0.021237093100577965 0 0.004708535549046761 -0.021647776977096658 0 0.0051439750261500642 -0.021459937885282283 0 0.0047389211802095661 -0.021237093100577965 0 0.0051439750261500642 -0.021459937885282283 0 0.0050826065325148741 -0.021151132608345388 0 0.0051439750261500642 -0.021459937885282283 0 0.0050826065325148741 -0.021151132608345388 0 0.0054227050244735385 -0.021170199921431574 0 0.0054227050244735385 -0.021170199921431574 0 0.0056783599887175393 -0.021622797476757608 0 0.0058682178634281244 -0.021048989904471453 0 0.0051439750261500642 -0.021459937885282283 0 0.0056783599887175393 -0.021622797476757608 0 0.00528855672133338 -0.022053501754094113 0 0.0051439750261500642 -0.021459937885282283 0 0.0054227050244735385 -0.021170199921431574 0 0.0056783599887175393 -0.021622797476757608 0 0.0056783599887175393 -0.021622797476757608 0 0.0063685906897761142 -0.021970238202356086 0 0.0058682178634281244 -0.021048989904471453 0 0.0093688443721925176 -0.035917647307840708 0 0.0094981307213844613 -0.03564147456957089 0 0.0095144836806304155 -0.036187452716755185 0 0.0076266328883201184 -0.028039161919431264 0 0.0072879072170625682 -0.030386617610251371 0 0.009318545112718235 -0.036253198059329576 0 0.0093688443721925176 -0.035917647307840708 0 0.0089862314544340866 -0.036033677947200277 0 0.009318545112718235 -0.036253198059329576 0 0.0093688443721925176 -0.035917647307840708 0 0.0095023625469889249 -0.036266745152704429 0 0.010585283574785866 -0.037154295327888685 0 0.0072879072170625682 -0.030386617610251371 0 0.0093688443721925176 -0.035917647307840708 0 0.0091776242970028916 -0.035727872516175999 0 0.0089862314544340866 -0.036033677947200277 0 0.0076266328883201184 -0.028039161919431264 0 0.010401222174946222 -0.031104133322537864 0 0.0094981307213844613 -0.03564147456957089 0 0.0093663750931195604 -0.034681827896891518 0 0.0091365992806920326 -0.035309295125264317 0 0.0063685906897761142 -0.021970238202356086 0 0.0058729624101148065 -0.02231392520936926 0 0.0069592324380547176 -0.023357408146042501 0 0.0091776242970028916 -0.035727872516175999 0 0.0094981307213844613 -0.03564147456957089 0 0.0091365992806920326 -0.035309295125264317 0 0.0093688443721925176 -0.035917647307840708 0 0.0091776242970028916 -0.035727872516175999 0 0.0094981307213844613 -0.03564147456957089 0 0.0045521275912612739 -0.022077535364085805 0 0.00528855672133338 -0.022053501754094113 0 0.0056945491674877053 -0.0226254423569947 0 0.0056783599887175393 -0.021622797476757608 0 0.00528855672133338 -0.022053501754094113 0 0.0058729624101148065 -0.02231392520936926 0 0.0056783599887175393 -0.021622797476757608 0 0.0063685906897761142 -0.021970238202356086 0 0.0058729624101148065 -0.02231392520936926 0 0.0048477827254943227 -0.021612276701587812 0 0.0065307239485335863 -0.025304852882046029 0 0.00528855672133338 -0.022053501754094113 0 0.0058729624101148065 -0.02231392520936926 0 0.0058563770908722492 -0.023047750049622354 0 0.0040513556144143705 -0.021278380907433916 0 0.0065307239485335863 -0.025304852882046029 0 0.0046919056251379437 -0.022408591294324293 0 0.0052256004839294082 -0.022089992462816021 0 0.0050423511920628349 -0.022757071793307267 0 0.0065307239485335863 -0.025304852882046029 0 0.010401222174946222 -0.031104133322537864 0 0.011800302214462688 -0.033508201442890996 0 0.011340242440463874 -0.033473893372985862 0 0.011550967842234073 -0.032970514647989273 0 0.0058729624101148065 -0.02231392520936926 0 0.0058563770908722492 -0.023047750049622354 0 0.0069592324380547176 -0.023357408146042501 0 0.0052256004839294082 -0.022089992462816021 0 0.0061683276083593043 -0.022707986357685617 0 0.0050423511920628349 -0.022757071793307267 0 0.0065307239485335863 -0.025304852882046029 0 0.0092633954757024191 -0.028348300627332578 0 0.011340242440463874 -0.033473893372985862 0 0.011550967842234073 -0.032970514647989273 0 0.01117502453367775 -0.033240281209551317 0 0.010401222174946222 -0.031104133322537864 0 0.011261989972249569 -0.033476786277795635 0 0.007922158528225148 -0.024824419090288544 0 0.0061683276083593043 -0.022707986357685617 0 0.0053636751091068226 -0.023359129566455847 0 0.0061683276083593043 -0.022707986357685617 0 0.0053636751091068226 -0.023359129566455847 0 0.0050423511920628349 -0.022757071793307267 0 0.0047860824268161828 -0.02333990077464625 0 0.0045476243911288369 -0.022795559847517188 0 0.0050423511920628349 -0.022757071793307267 0 0.0047860824268161828 -0.02333990077464625 0 0.0053636751091068226 -0.023359129566455847 0 0.0050423511920628349 -0.022757071793307267 0 0.0090146614219553615 -0.032215301353469623 0 0.01049070504432403 -0.032698948742363683 0 0.0096620259950219688 -0.033864327536568373 0 0.0090146614219553615 -0.032215301353469623 0 0.0096620259950219688 -0.033864327536568373 0 0.0075655431910454903 -0.033685129120361146 0 0.010674890965971098 -0.031173644848652503 0 0.011550967842234073 -0.032970514647989273 0 0.01049070504432403 -0.032698948742363683 0 0.0090947575315301309 -0.027915898135040279 0 0.0092633954757024191 -0.028348300627332578 0 0.010674890965971098 -0.031173644848652503 0 0.0090146614219553615 -0.032215301353469623 0 0.01049070504432403 -0.032698948742363683 0 0.011550967842234073 -0.032970514647989273 0 0.01117502453367775 -0.033240281209551317 0 0.01049070504432403 -0.032698948742363683 0 0.01117502453367775 -0.033240281209551317 0 0.01049070504432403 -0.032698948742363683 0 0.0096620259950219688 -0.033864327536568373 0 0.011476834137443291 -0.034083456147948034 0 0.01117502453367775 -0.033240281209551317 0 0.0096620259950219688 -0.033864327536568373 0 0.0093663750931195604 -0.034681827896891518 0 0.0088578214469869597 -0.034906150830630908 0 0.008558730322859821 -0.03432488650930697 0 0.010401222174946222 -0.031104133322537864 0 0.009157700516026138 -0.034185148636846317 0 0.0093663750931195604 -0.034681827896891518 0 0.0088578214469869597 -0.034906150830630908 0 0.0091365992806920326 -0.035309295125264317 0 0.0088578214469869597 -0.034906150830630908 0 0.0078632853285675545 -0.035054589636871331 0 0.008558730322859821 -0.03432488650930697 0 0.009157700516026138 -0.034185148636846317 0 0.0076273359404692579 -0.033707811132814097 0 0.0078632853285675545 -0.035054589636871331 0 0.008558730322859821 -0.03432488650930697 0 0.0075655431910454903 -0.033685129120361146 0 0.0088578214469869597 -0.034906150830630908 0 0.0078632853285675545 -0.035054589636871331 0 0.008727289817268313 -0.035593441422859667 0 0.0078632853285675545 -0.035054589636871331 0 0.008727289817268313 -0.035593441422859667 0 0.0079198903353302538 -0.036317628825542458 0 0.0088578214469869597 -0.034906150830630908 0 0.0091365992806920326 -0.035309295125264317 0 0.008727289817268313 -0.035593441422859667 0 0.0091776242970028916 -0.035727872516175999 0 0.008727289817268313 -0.035593441422859667 0 0.0089862314544340866 -0.036033677947200277 0 0.0091776242970028916 -0.035727872516175999 0 0.0091365992806920326 -0.035309295125264317 0 0.008727289817268313 -0.035593441422859667 0 0.0066556471293653966 -0.036456267788517537 0 0.0073495289456319644 -0.03700744829523156 0 0.0089862314544340866 -0.036033677947200277 0 0.0079198903353302538 -0.036317628825542458 0 0.0090582441083600293 -0.036374581529352454 0 0.008727289817268313 -0.035593441422859667 0 0.0089862314544340866 -0.036033677947200277 0 0.0079198903353302538 -0.036317628825542458 0 0.009318545112718235 -0.036253198059329576 0 0.0089862314544340866 -0.036033677947200277 0 0.0090582441083600293 -0.036374581529352454 0 0.005637575233711398 -0.036779591645624145 0 0.0053530361236969097 -0.036805131092237223 0 0.0053373109284274058 -0.036937974551653464 0 0.005637575233711398 -0.036779591645624145 0 0.0053530361236969097 -0.036805131092237223 0 0.0053475666676325905 -0.037087490214309494 0 0.0053530361236969097 -0.036805131092237223 0 0.0053373109284274058 -0.036937974551653464 0 0.0052339455442816886 -0.036703685269017398 0 0.0053530361236969097 -0.036805131092237223 0 0.005045294863788562 -0.036491263272259648 0 0.0052339455442816886 -0.036703685269017398 0 0.0053530361236969097 -0.036805131092237223 0 0.005045294863788562 -0.036491263272259648 0 0.0051690194986065852 -0.03662791025482362 0 0.005045294863788562 -0.036491263272259648 0 0.0049164078610047113 -0.036425244592832612 0 0.0048285415862536546 -0.036406402103066733 0 0.005045294863788562 -0.036491263272259648 0 0.0049164078610047113 -0.036425244592832612 0 0.0051690194986065852 -0.03662791025482362 0 0.0049164078610047113 -0.036425244592832612 0 0.0051690194986065852 -0.03662791025482362 0 0.0047332474101437908 -0.036310542046902448 0 0.0053530361236969097 -0.036805131092237223 0 0.0051690194986065852 -0.03662791025482362 0 0.0053475666676325905 -0.037087490214309494 0 0.0051690194986065852 -0.03662791025482362 0 0.0053475666676325905 -0.037087490214309494 0 0.0047332474101437908 -0.036310542046902448 0 0.0073495289456319644 -0.03700744829523156 0 0.0053462873708531389 -0.03445153875636809 0 0.009318545112718235 -0.036253198059329576 0 0.0090582441083600293 -0.036374581529352454 0 0.0095876110005209455 -0.036507562057515965 0 0.0053475666676325905 -0.037087490214309494 0 0.0047332474101437908 -0.036310542046902448 0 0.0024875344010333233 -0.035988182176800255 0 0.009318545112718235 -0.036253198059329576 0 0.0095023625469889249 -0.036266745152704429 0 0.0095876110005209455 -0.036507562057515965 0 0.0064824079793587459 -0.031801396579785993 0 0.0058476538393924284 -0.030096722677010058 0 0.0046995234048924622 -0.029496766166430214 0 0.0072879072170625682 -0.030386617610251371 0 0.0035924087748877035 -0.027961322214079338 0 0.0052668058417004076 -0.020762700345108513 0 0.0058682178634281244 -0.021048989904471453 0 0.0052357116180889157 -0.020266655080977945 0 0.0054227050244735385 -0.021170199921431574 0 0.0052668058417004076 -0.020762700345108513 0 0.0058682178634281244 -0.021048989904471453 0 0.0050826065325148741 -0.021151132608345388 0 0.0054227050244735385 -0.021170199921431574 0 0.0052668058417004076 -0.020762700345108513 0 0.0072879072170625682 -0.030386617610251371 0 0.0053462873708531389 -0.03445153875636809 0 0.0024875344010333233 -0.035988182176800255 0 0.0016411891055258976 -0.033890552686779915 0 0.0040550857140452959 -0.031836833096279452 0 0.0053462873708531389 -0.03445153875636809 0 0.0035924087748877035 -0.027961322214079338 0 0.0024029182928420826 -0.035966659548726257 0 0.00071038842302898072 -0.035091853632926856 0 0.0016411891055258976 -0.033890552686779915 0 0.0053462873708531389 -0.03445153875636809 0 0.0026273681292517579 -0.034104991423887787 0 0.0049164078610047113 -0.036425244592832612 0 0.0047332474101437908 -0.036310542046902448 0 0.0048285415862536546 -0.036406402103066733 0 0.0047332474101437908 -0.036310542046902448 0 0.0024875344010333233 -0.035988182176800255 0 0.0040550857140452959 -0.031836833096279452 0 0.0045219296492421063 -0.035408069292724921 0 0.0049778548792958361 -0.035864753161841581 0 0.0016411891055258976 -0.033890552686779915 0 0.0040550857140452959 -0.031836833096279452 0 0.0010434412951015189 -0.030379225454248471 0 0.0010434412951015189 -0.030379225454248471 0 -0.0011443294013542022 -0.027243359343423913 0 0.002671161183853109 -0.026790355673515818 0 0.0040550857140452959 -0.031836833096279452 0 0.0010434412951015189 -0.030379225454248471 0 0.002671161183853109 -0.026790355673515818 0 0.0049778548792958361 -0.035864753161841581 0 0.0010990360336445445 -0.023996353794932864 0 -0.0012000223583605834 -0.016158364020454567 0 0.0010990360336445445 -0.023996353794932864 0 0.0049565985216476422 -0.03633832307326907 0 0.004981553468892062 -0.03616611722902395 0 0.0046765632086428321 -0.036062457029773461 0 0.0048285415862536546 -0.036406402103066733 0 0.0049565985216476422 -0.03633832307326907 0 0.0046765632086428321 -0.036062457029773461 0 0.0049565985216476422 -0.03633832307326907 0 0.0051012303527140047 -0.036426157066436773 0 0.004981553468892062 -0.03616611722902395 0 0.005045294863788562 -0.036491263272259648 0 0.0051012303527140047 -0.036426157066436773 0 0.0052339455442816886 -0.036703685269017398 0 0.005045294863788562 -0.036491263272259648 0 0.0049565985216476422 -0.03633832307326907 0 0.0051012303527140047 -0.036426157066436773 0 0.005045294863788562 -0.036491263272259648 0 0.0048285415862536546 -0.036406402103066733 0 0.0049565985216476422 -0.03633832307326907 0 0.0010570852712781641 -0.0075165323963097231 0 0.0011039251474971544 -0.0076176059330685837 0 0.0010681709436056517 -0.0076596924364878485 0 0.0010518732229971282 -0.0075326893428491999 0 0.0010570852712781641 -0.0075165323963097231 0 0.0011039251474971544 -0.0076176059330685837 0 0.0011378123759281718 -0.007737716215375768 0 0.0011039251474971544 -0.0076176059330685837 0 0.0010952412214782644 -0.0077293225365505386 0 0.0011039251474971544 -0.0076176059330685837 0 0.0010681709436056517 -0.0076596924364878485 0 0.0010952412214782644 -0.0077293225365505386 0 0.0010570852712781641 -0.0075165323963097231 0 0.0010681709436056517 -0.0076596924364878485 0 0.0010375778219373138 -0.0076534210896035968 0 0.0010681709436056517 -0.0076596924364878485 0 0.0010952412214782644 -0.0077293225365505386 0 0.0010060926607888599 -0.0077601476642419438 0 0.0041263965021310269 -0.016013908659453908 0 0.0020063173945644641 -0.01695824574946151 0 0.0038006136646409486 -0.020737554378073991 0 0.0041263965021310269 -0.016013908659453908 0 0.0044098094377561644 -0.021161930268603316 0 0.0047389211802095661 -0.021237093100577965 0 0.0044472207941474119 -0.020824685918658752 0 0.0041263965021310269 -0.016013908659453908 0 0.0041053613526713245 -0.020668481160298499 0 0.0044472207941474119 -0.020824685918658752 0 0.0048979600581785495 -0.020828754140069905 0 0.0049372571621413485 -0.020433356810306121 0 0.0047389211802095661 -0.021237093100577965 0 0.0044472207941474119 -0.020824685918658752 0 0.0048979600581785495 -0.020828754140069905 0 0.0047389211802095661 -0.021237093100577965 0 0.0050826065325148741 -0.021151132608345388 0 0.0048979600581785495 -0.020828754140069905 0 0.0050826065325148741 -0.021151132608345388 0 0.0052668058417004076 -0.020762700345108513 0 0.0048979600581785495 -0.020828754140069905 0 0.0052668058417004076 -0.020762700345108513 0 0.0052357116180889157 -0.020266655080977945 0 0.0050839186003997913 -0.02058538888616674 0 0.0048979600581785495 -0.020828754140069905 0 0.0049372571621413485 -0.020433356810306121 0 0.0050839186003997913 -0.02058538888616674 0 0.0052668058417004076 -0.020762700345108513 0 0.0048979600581785495 -0.020828754140069905 0 0.0050839186003997913 -0.02058538888616674 0 0.0052357116180889157 -0.020266655080977945 0 0.0049372571621413485 -0.020433356810306121 0 0.0050839186003997913 -0.02058538888616674 0 0.0043547693602898176 -0.020792826695648137 0 0.0049372571621413485 -0.020433356810306121 0 0.0045772064131818484 -0.019501394135011133 0 0.00071038842302898072 -0.035091853632926856 0 0.0016411891055258976 -0.033890552686779915 0 -0.001999966055870204 -0.031994925281672255 0 0.0035924087748877035 -0.027961322214079338 0 0.0020063173945644641 -0.01695824574946151 0 0.0052357116180889157 -0.020266655080977945 0 0.0049372571621413485 -0.020433356810306121 0 0.0045772064131818484 -0.019501394135011133 0 0.0016411891055258976 -0.033890552686779915 0 0.0010434412951015189 -0.030379225454248471 0 -0.001999966055870204 -0.031994925281672255 0 0.0010434412951015189 -0.030379225454248471 0 -0.001999966055870204 -0.031994925281672255 0 -0.0011443294013542022 -0.027243359343423913 0 0.0020063173945644641 -0.01695824574946151 0 -0.0012000223583605834 -0.016158364020454567 0 -0.00060724198217937018 -0.013030536747785364 0 -6.5503539842519536e-05 -0.012141443883971564 0 -0.00018076128214256483 -0.012830208328189253 0 0.0019108731537695379 -0.0077176009204133799 0 0.0010178948261223423 -0.0078556311089337857 0 0.00096490505442711337 -0.0077810408793396249 0 0.001728230751867536 -0.0089484161383074062 0 0.0019108731537695379 -0.0077176009204133799 0 0.0010178948261223423 -0.0078556311089337857 0 -0.0012000223583605834 -0.016158364020454567 0 0.0010237243294505464 -0.0093749434101022839 0 -6.5503539842519536e-05 -0.012141443883971564 0 -2.821911312461973e-05 -0.012449569669137529 0 -0.00018076128214256483 -0.012830208328189253 0 0.0020063173945644641 -0.01695824574946151 0 -1.585107820456886e-05 -0.0049781443900591407 0 0.0010681709436056517 -0.0076596924364878485 0 0.0010060926607888599 -0.0077601476642419438 0 0.0010347958103918992 -0.0077268980621983206 0 0.0010060926607888599 -0.0077601476642419438 0 0.0010178948261223423 -0.0078556311089337857 0 0.0010347958103918992 -0.0077268980621983206 0 0.0010681709436056517 -0.0076596924364878485 0 0.0010347958103918992 -0.0077268980621983206 0 0.0010375778219373138 -0.0076534210896035968 0 0.0010375778219373138 -0.0076534210896035968 0 0.0010114748997151731 -0.0077257589146513695 0 0.0010273849902709227 -0.0076291390761735883 0 0.0010347958103918992 -0.0077268980621983206 0 0.0010375778219373138 -0.0076534210896035968 0 0.0010114748997151731 -0.0077257589146513695 0 0.0010178948261223423 -0.0078556311089337857 0 0.0010347958103918992 -0.0077268980621983206 0 0.0010114748997151731 -0.0077257589146513695 0 0.0010178948261223423 -0.0078556311089337857 0 0.00096490505442711337 -0.0077810408793396249 0 0.0010114748997151731 -0.0077257589146513695 0 -6.5503539842519536e-05 -0.012141443883971564 0 0.00039918344997727192 -0.011458621216828301 0 0.00092231915407048717 -0.010028338698236912 0 0.0010237243294505464 -0.0093749434101022839 0 0.00095491337362738472 -0.0088585420105138073 0 0.00096490505442711337 -0.0077810408793396249 0 0.0010114748997151731 -0.0077257589146513695 0 0.0010143308981991554 -0.0076689671474008255 0 -6.5503539842519536e-05 -0.012141443883971564 0 0.00039918344997727192 -0.011458621216828301 0 0.00011626951325707723 -0.012134190399448089 0 -6.5503539842519536e-05 -0.012141443883971564 0 0.00011626951325707723 -0.012134190399448089 0 -2.821911312461973e-05 -0.012449569669137529 0 0.0010114748997151731 -0.0077257589146513695 0 0.0010143308981991554 -0.0076689671474008255 0 0.0010273849902709227 -0.0076291390761735883 0 0.00039918344997727192 -0.011458621216828301 0 0.00092231915407048717 -0.010028338698236912 0 0.00073976757802932482 -0.011046329746076316 0 0.0012505423538759131 -0.0091164637286000657 0 0.00092231915407048717 -0.010028338698236912 0 0.00073976757802932482 -0.011046329746076316 0 0.0010156662505840948 -0.0075632559782712605 0 0.0010143308981991554 -0.0076689671474008255 0 0.0010273849902709227 -0.0076291390761735883 0 0.0010570852712781641 -0.0075165323963097231 0 0.0010375778219373138 -0.0076534210896035968 0 0.0010273849902709227 -0.0076291390761735883 0 0.0010156662505840948 -0.0075632559782712605 0 0.0010570852712781641 -0.0075165323963097231 0 0.0010273849902709227 -0.0076291390761735883 0 0.0013658146244911323 -0.013046740913974762 0 0.00049861493624752307 -0.013581601686484587 0 0.00019488624798304519 -0.013776471943041185 0 0.0013658146244911323 -0.013046740913974762 0 0.00049861493624752307 -0.013581601686484587 0 0.00030165853239565979 -0.012340287837820216 0 0.000828686532613092 -0.010130838707338073 0 2.3023765834956524e-06 -0.010903261342910527 0 0.0013658146244911323 -0.013046740913974762 0 0.00073976757802932482 -0.011046329746076316 0 0.00030165853239565979 -0.012340287837820216 0 0.0012505423538759131 -0.0091164637286000657 0 0.0013658146244911323 -0.013046740913974762 0 0.00073976757802932482 -0.011046329746076316 0 0.00039918344997727192 -0.011458621216828301 0 0.00073976757802932482 -0.011046329746076316 0 0.00030165853239565979 -0.012340287837820216 0 0.00039918344997727192 -0.011458621216828301 0 0.00030165853239565979 -0.012340287837820216 0 0.00011626951325707723 -0.012134190399448089 0 0.00030165853239565979 -0.012340287837820216 0 0.00011626951325707723 -0.012134190399448089 0 4.1866512216566771e-05 -0.012745522874846597 0 0.00011626951325707723 -0.012134190399448089 0 4.1866512216566771e-05 -0.012745522874846597 0 -2.821911312461973e-05 -0.012449569669137529 0 4.1866512216566771e-05 -0.012745522874846597 0 0.00016852461057122363 -0.013266364313484102 0 3.6096172675121321e-05 -0.013585166617331005 0 0.00030165853239565979 -0.012340287837820216 0 4.1866512216566771e-05 -0.012745522874846597 0 0.00016852461057122363 -0.013266364313484102 0 0.00016852461057122363 -0.013266364313484102 0 0.00017651205606224594 -0.014049625175327748 0 3.6096172675121321e-05 -0.013585166617331005 0 0.00049861493624752307 -0.013581601686484587 0 0.00016852461057122363 -0.013266364313484102 0 0.00017651205606224594 -0.014049625175327748 0 0.00049861493624752307 -0.013581601686484587 0 0.00030165853239565979 -0.012340287837820216 0 0.00016852461057122363 -0.013266364313484102 0 0.00017651205606224594 -0.014049625175327748 0 -0.00010694862976801831 -0.014568072376897213 0 3.6096172675121321e-05 -0.013585166617331005 0 -0.00010694862976801831 -0.014568072376897213 0 3.6096172675121321e-05 -0.013585166617331005 0 -0.00013577771447870334 -0.013291636856976721 0 4.1866512216566771e-05 -0.012745522874846597 0 3.6096172675121321e-05 -0.013585166617331005 0 -0.00013577771447870334 -0.013291636856976721 0 4.1866512216566771e-05 -0.012745522874846597 0 -0.00018076128214256483 -0.012830208328189253 0 -0.00013577771447870334 -0.013291636856976721 0 4.1866512216566771e-05 -0.012745522874846597 0 -2.821911312461973e-05 -0.012449569669137529 0 -0.00018076128214256483 -0.012830208328189253 0 -0.00018076128214256483 -0.012830208328189253 0 -0.00013577771447870334 -0.013291636856976721 0 -0.00035486106006766302 -0.013464019234419249 0 -0.00010694862976801831 -0.014568072376897213 0 -0.00013577771447870334 -0.013291636856976721 0 -0.00035486106006766302 -0.013464019234419249 0 -0.00010694862976801831 -0.014568072376897213 0 -0.00035486106006766302 -0.013464019234419249 0 -0.00049349288756614775 -0.014016070037613204 0 -0.00024585040910030277 -0.012704103146685752 0 -0.00049349288756614775 -0.014016070037613204 0 -0.0023832889794221392 -0.012982430734939163 0 -0.00060724198217937018 -0.013030536747785364 0 -0.00018076128214256483 -0.012830208328189253 0 -0.00035486106006766302 -0.013464019234419249 0 -0.00060724198217937018 -0.013030536747785364 0 -0.00035486106006766302 -0.013464019234419249 0 -0.00049349288756614775 -0.014016070037613204 0 -0.0012000223583605834 -0.016158364020454567 0 -0.0003984151362564574 -0.012999878331615814 0 -0.00010694862976801831 -0.014568072376897213 0 -0.00049349288756614775 -0.014016070037613204 0 -0.00068392372926645508 -0.016422956810582451 0 -0.00010694862976801831 -0.014568072376897213 0 -0.00023854183355375493 -0.015701222875891731 0 -0.00068392372926645508 -0.016422956810582451 0 -0.00023854183355375493 -0.015701222875891731 0 7.0591642929315773e-05 -0.015134597365705082 0 -0.00018974728300418214 -0.016605264765310424 0 -0.00010694862976801831 -0.014568072376897213 0 -0.00023854183355375493 -0.015701222875891731 0 7.0591642929315773e-05 -0.015134597365705082 0 -0.00023854183355375493 -0.015701222875891731 0 -0.00068392372926645508 -0.016422956810582451 0 -0.00018974728300418214 -0.016605264765310424 0 -2.1583809521945377e-07 -0.016140440571623674 0 7.0591642929315773e-05 -0.015134597365705082 0 -0.00018974728300418214 -0.016605264765310424 0 -2.1583809521945377e-07 -0.016140440571623674 0 7.0591642929315773e-05 -0.015134597365705082 0 1.0085480555817794e-06 -0.013852724384359015 0 0.00017651205606224594 -0.014049625175327748 0 -0.00010694862976801831 -0.014568072376897213 0 7.0591642929315773e-05 -0.015134597365705082 0 0.00049861493624752307 -0.013581601686484587 0 0.00017651205606224594 -0.014049625175327748 0 0.00034438255700259754 -0.014025121024723971 0 0.00017651205606224594 -0.014049625175327748 0 7.0591642929315773e-05 -0.015134597365705082 0 0.00034438255700259754 -0.014025121024723971 0 7.0591642929315773e-05 -0.015134597365705082 0 0.00034438255700259754 -0.014025121024723971 0 1.0085480555817794e-06 -0.013852724384359015 0 0.00034438255700259754 -0.014025121024723971 0 1.0085480555817794e-06 -0.013852724384359015 0 -8.9639702947536191e-07 -0.011570813658015103 0 0.00034438255700259754 -0.014025121024723971 0 -8.9639702947536191e-07 -0.011570813658015103 0 0.00019488624798304519 -0.013776471943041185 0 -1.0937508446314032e-07 -0.011565949869883961 0 2.3023765834956524e-06 -0.010903261342910527 0 0.00049861493624752307 -0.013581601686484587 0 0.00034438255700259754 -0.014025121024723971 0 0.00019488624798304519 -0.013776471943041185 0 1.8198504372949389e-05 -0.018646380527569274 0 0.00015918488621586188 -0.018052308516151513 0 0.00013326034949809226 -0.018914336039780846 0 1.8198504372949389e-05 -0.018646380527569274 0 0.00013326034949809226 -0.018914336039780846 0 -0.00017031731907444765 -0.019283870265719615 0 1.8198504372949389e-05 -0.018646380527569274 0 -0.00017031731907444765 -0.019283870265719615 0 -0.00039345959655142846 -0.018822536160359945 0 1.8198504372949389e-05 -0.018646380527569274 0 -0.00039345959655142846 -0.018822536160359945 0 -0.00048031120484462583 -0.018759041732201654 0 0.0027538452810483027 -0.027858262431179032 0 0.0024388868932972521 -0.026956847503492597 0 0.0051012303527140047 -0.036426157066436773 0 0.004981553468892062 -0.03616611722902395 0 0.0051639590726314964 -0.036258667265816967 0 1.8198504372949389e-05 -0.018646380527569274 0 0.00021456642589173111 -0.018441863235497145 0 -0.00048031120484462583 -0.018759041732201654 0 1.8198504372949389e-05 -0.018646380527569274 0 0.00021456642589173111 -0.018441863235497145 0 0.00015918488621586188 -0.018052308516151513 0 0.0027538452810483027 -0.027858262431179032 0 0.0010990360336445445 -0.023996353794932864 0 0.00021456642589173111 -0.018441863235497145 0 -0.00036273884784418861 -0.018556150685280402 0 0.00015918488621586188 -0.018052308516151513 0 0.0010990360336445445 -0.023996353794932864 0 -0.0018551390238395885 -0.012808465390394723 0 -0.00049349288756614775 -0.014016070037613204 0 -0.0023832889794221392 -0.012982430734939163 0 -0.00068392372926645508 -0.016422956810582451 0 -0.00036273884784418861 -0.018556150685280402 0 -0.00068392372926645508 -0.016422956810582451 0 0.00015918488621586188 -0.018052308516151513 0 -0.00068392372926645508 -0.016422956810582451 0 0.00015918488621586188 -0.018052308516151513 0 3.3511145975283969e-05 -0.018025285097893032 0 0.00015918488621586188 -0.018052308516151513 0 3.3511145975283969e-05 -0.018025285097893032 0 0.00013326034949809226 -0.018914336039780846 0 -0.00068392372926645508 -0.016422956810582451 0 3.3511145975283969e-05 -0.018025285097893032 0 -0.00018974728300418214 -0.016605264765310424 0 3.3511145975283969e-05 -0.018025285097893032 0 -0.00018974728300418214 -0.016605264765310424 0 -1.8375392299338499e-07 -0.018426354703720487 0 -2.1583809521945377e-07 -0.016140440571623674 0 -0.00018974728300418214 -0.016605264765310424 0 -1.8375392299338499e-07 -0.018426354703720487 0 3.3511145975283969e-05 -0.018025285097893032 0 -1.8375392299338499e-07 -0.018426354703720487 0 1.2745356116034082e-06 -0.020713918269756836 0 1.2745356116034082e-06 -0.020713918269756836 0 0.00013326034949809226 -0.018914336039780846 0 2.8407191868497843e-05 -0.020406869150983178 0 3.3511145975283969e-05 -0.018025285097893032 0 1.2745356116034082e-06 -0.020713918269756836 0 0.00013326034949809226 -0.018914336039780846 0 0.00013326034949809226 -0.018914336039780846 0 -0.00017031731907444765 -0.019283870265719615 0 2.8407191868497843e-05 -0.020406869150983178 0 -0.00017031731907444765 -0.019283870265719615 0 2.8407191868497843e-05 -0.020406869150983178 0 -0.0005371747283046493 -0.020313824011617947 0 1.2745356116034082e-06 -0.020713918269756836 0 2.8407191868497843e-05 -0.020406869150983178 0 -3.3092206915667949e-06 -0.022996381598837146 0 2.8407191868497843e-05 -0.020406869150983178 0 -3.3092206915667949e-06 -0.022996381598837146 0 -0.0005371747283046493 -0.020313824011617947 0 -3.3092206915667949e-06 -0.022996381598837146 0 -0.001712687278063015 -0.020428463966476674 0 -0.0005371747283046493 -0.020313824011617947 0 -3.3092206915667949e-06 -0.022996381598837146 0 -0.0026613414045986595 -0.021435937430670023 0 -0.001712687278063015 -0.020428463966476674 0 2.8997941659465049e-07 -0.023001729338344726 0 -0.0013584260450426803 -0.023397444031238841 0 -6.8833723671205847e-07 -0.023002784807083888 0 1.0175348585928128e-05 -0.025637618105492258 0 3.8233257123820093e-07 -0.025701206063711454 0 -0.001712687278063015 -0.020428463966476674 0 -0.00094612664193785795 -0.019581478590971053 0 -0.0023525631953458079 -0.019271269846908953 0 -0.0026613414045986595 -0.021435937430670023 0 -0.0028795874529950688 -0.020340135072234776 0 -0.001712687278063015 -0.020428463966476674 0 -0.0028795874529950688 -0.020340135072234776 0 -0.001712687278063015 -0.020428463966476674 0 -0.0023525631953458079 -0.019271269846908953 0 -0.001712687278063015 -0.020428463966476674 0 -0.0005371747283046493 -0.020313824011617947 0 -0.00094612664193785795 -0.019581478590971053 0 -0.00017031731907444765 -0.019283870265719615 0 -0.0005371747283046493 -0.020313824011617947 0 -0.00094612664193785795 -0.019581478590971053 0 -0.00053872740110784271 -0.019019641338157728 0 -0.0016407919278117803 -0.018908793058473896 0 -0.00017031731907444765 -0.019283870265719615 0 -0.00094612664193785795 -0.019581478590971053 0 -0.00039345959655142846 -0.018822536160359945 0 -0.00094612664193785795 -0.019581478590971053 0 -0.00039345959655142846 -0.018822536160359945 0 -0.0023525631953458079 -0.019271269846908953 0 -0.00039345959655142846 -0.018822536160359945 0 -0.00085774770655506539 -0.01958925636084154 0 -0.00076598491469195525 -0.019274731471679223 0 -0.00085774770655506539 -0.01958925636084154 0 -0.00076598491469195525 -0.019274731471679223 0 -0.00085398930706546636 -0.019677028243627558 0 0.0051639590726314964 -0.036258667265816967 0 0.0054260245182284547 -0.036251492848038427 0 0.0052468851059344337 -0.036572814666092759 0 0.0024388868932972521 -0.026956847503492597 0 0.0018933528389102922 -0.031122452477706123 0 -0.00076598491469195525 -0.019274731471679223 0 -0.00048031120484462583 -0.018759041732201654 0 -0.00098874717567150783 -0.019347926792757091 0 -0.00039345959655142846 -0.018822536160359945 0 -0.00076598491469195525 -0.019274731471679223 0 -0.00048031120484462583 -0.018759041732201654 0 0.0018933528389102922 -0.031122452477706123 0 0.001472675927775711 -0.031368889848873732 0 0.0039728843913184389 -0.042654779638587277 0 0.0027192275123593258 -0.04284820463971676 0 0.0030141510024458132 -0.041901756659378682 0 -0.00085774770655506539 -0.01958925636084154 0 -0.00085398930706546636 -0.019677028243627558 0 -0.00065176686489550257 -0.019693339200733316 0 -0.00085882649203530305 -0.020261531757729077 0 -0.00085398930706546636 -0.019677028243627558 0 -0.00053278462829550082 -0.019976595281509631 0 0.0018933528389102922 -0.031122452477706123 0 -0.00080026871873203431 -0.017134198756299499 0 -0.00076598491469195525 -0.019274731471679223 0 -0.00098874717567150783 -0.019347926792757091 0 -0.00085398930706546636 -0.019677028243627558 0 -0.00085398930706546636 -0.019677028243627558 0 -0.00065176686489550257 -0.019693339200733316 0 -0.00053278462829550082 -0.019976595281509631 0 -0.00065176686489550257 -0.019693339200733316 0 -0.00053278462829550082 -0.019976595281509631 0 -0.00030663229945604323 -0.019875539353790408 0 -0.00085882649203530305 -0.020261531757729077 0 -0.00053278462829550082 -0.019976595281509631 0 -4.9538092303957052e-05 -0.020329807168232215 0 -0.00053278462829550082 -0.019976595281509631 0 -0.00030663229945604323 -0.019875539353790408 0 -4.9538092303957052e-05 -0.020329807168232215 0 -0.0015801886767930708 -0.024024189760012218 0 -0.0011528619797435407 -0.024345658172287704 0 -0.0028924662965821102 -0.029789473995199347 0 -0.0020468936025849279 -0.029422907830075985 0 -0.0016786363004185866 -0.030477559563497243 0 -0.00030663229945604323 -0.019875539353790408 0 -0.00059548249565048435 -0.01951428780538297 0 0.00015368611354250222 -0.019836511898068902 0 -0.00065176686489550257 -0.019693339200733316 0 -0.00030663229945604323 -0.019875539353790408 0 -0.00059548249565048435 -0.01951428780538297 0 -0.0015801886767930708 -0.024024189760012218 0 -0.0015058742934377471 -0.029365574925445063 0 -0.00085774770655506539 -0.01958925636084154 0 -0.00065176686489550257 -0.019693339200733316 0 -0.00059548249565048435 -0.01951428780538297 0 -0.0026613414045986595 -0.021435937430670023 0 -0.0028795874529950688 -0.020340135072234776 0 -0.0046360288266109146 -0.020334314098070291 0 -0.0028795874529950688 -0.020340135072234776 0 -0.0023525631953458079 -0.019271269846908953 0 -0.0046360288266109146 -0.020334314098070291 0 -0.0013584260450426803 -0.023397444031238841 0 -0.0015801886767930708 -0.024024189760012218 0 -0.0016407919278117803 -0.018908793058473896 0 -0.0015801886767930708 -0.024024189760012218 0 1.0175348585928128e-05 -0.025637618105492258 0 -6.083852799443231e-05 -0.026300893590207836 0 5.2467799589467582e-06 -0.026445575203771547 0 1.0175348585928128e-05 -0.025637618105492258 0 3.8233257123820093e-07 -0.025701206063711454 0 5.2467799589467582e-06 -0.026445575203771547 0 5.2467799589467582e-06 -0.026445575203771547 0 1.5690164074958435e-07 -0.028400605196637823 0 -1.3695691864091066e-06 -0.028123630835924052 0 -6.083852799443231e-05 -0.026300893590207836 0 5.2467799589467582e-06 -0.026445575203771547 0 -0.00022868838819925844 -0.026390316822096863 0 0.00033812408065099264 -0.026476518242415731 0 -0.0015058742934377471 -0.029365574925445063 0 3.8233257123820093e-07 -0.025701206063711454 0 5.2467799589467582e-06 -0.026445575203771547 0 1.5690164074958435e-07 -0.028400605196637823 0 1.5690164074958435e-07 -0.028400605196637823 0 -1.3695691864091066e-06 -0.028123630835924052 0 -2.226643631646192e-05 -0.029199671699296992 0 -0.0015058742934377471 -0.029365574925445063 0 -0.0011304689022864616 -0.030791692540225124 0 -0.0039207813600367356 -0.033045903736114969 0 -0.0022585564836390491 -0.032257542550492915 0 -0.0018728750257649908 -0.033947508294423959 0 -0.0022585564836390491 -0.032257542550492915 0 -3.6660425918559422e-06 -0.03110584074486817 0 -0.00063240722878862539 -0.033339681502250584 0 -0.0011304689022864616 -0.030791692540225124 0 -1.0032535963725545e-08 -0.031100366164706732 0 1.5690164074958435e-07 -0.028400605196637823 0 -2.226643631646192e-05 -0.029199671699296992 0 -4.9742253009755001e-07 -0.031099370849639884 0 -0.0022585564836390491 -0.032257542550492915 0 -0.0018728750257649908 -0.033947508294423959 0 -0.00063240722878862539 -0.033339681502250584 0 -0.0018728750257649908 -0.033947508294423959 0 -0.00063240722878862539 -0.033339681502250584 0 -0.00040078515387092345 -0.034646614406366287 0 -0.0015593218773808457 -0.032031679305127798 0 -0.00010255285324205599 -0.032384194552352981 0 -0.0015058742934377471 -0.029365574925445063 0 -0.0015593218773808457 -0.032031679305127798 0 -0.0020468936025849279 -0.029422907830075985 0 -0.00092059216392442094 -0.029949360076739588 0 -0.0016786363004185866 -0.030477559563497243 0 -3.6660425918559422e-06 -0.03110584074486817 0 7.8935674815701259e-05 -0.034362688063436751 0 1.795965522714321e-06 -0.034282051856767262 0 -3.6660425918559422e-06 -0.03110584074486817 0 -0.00063240722878862539 -0.033339681502250584 0 7.8935674815701259e-05 -0.034362688063436751 0 -0.00063240722878862539 -0.033339681502250584 0 -0.00040078515387092345 -0.034646614406366287 0 7.8935674815701259e-05 -0.034362688063436751 0 -0.00040078515387092345 -0.034646614406366287 0 7.8935674815701259e-05 -0.034362688063436751 0 2.7754453404368455e-05 -0.035369858915466124 0 -0.00075931204063776881 -0.041728295406180844 0 -0.00077279343964569824 -0.041778742493044203 0 -0.00091461407405876249 -0.041628866513076283 0 -0.00010255285324205599 -0.032384194552352981 0 -0.00016927095720926897 -0.03666813799986289 0 -0.00075931204063776881 -0.041728295406180844 0 -0.00074911481260630023 -0.04174404760845242 0 -0.00077279343964569824 -0.041778742493044203 0 -0.00016927095720926897 -0.03666813799986289 0 2.560059275696774e-06 -0.037070183156944277 0 0.00021592382635240927 -0.030506169932689432 0 0.0013365945312846968 -0.031056235017161 0 -0.00043345174045015682 -0.031192819630514138 0 -0.00016927095720926897 -0.03666813799986289 0 0.00040178583175944852 -0.033770897914669161 0 -0.00080509857335435181 -0.041810859764811657 0 -0.00077279343964569824 -0.041778742493044203 0 -0.00091461407405876249 -0.041628866513076283 0 0.0011576117770957712 -0.042198740379115432 0 0.00058200064763468606 -0.0424551686817628 0 0.0014571848782303594 -0.042956695625315247 0 0.00026961998962946325 -0.043195842535060529 0 0.00040178583175944852 -0.033770897914669161 0 -0.00080509857335435181 -0.041810859764811657 0 -0.00077279343964569824 -0.041778742493044203 0 -0.00069172459318914278 -0.041959802992629136 0 0.00026961998962946325 -0.043195842535060529 0 -0.00048816732934141532 -0.041864244047291249 0 -4.9538092303957052e-05 -0.020329807168232215 0 0.00015368611354250222 -0.019836511898068902 0 0.00096880848347966324 -0.020440582542928638 0 0.001472675927775711 -0.031368889848873732 0 0.00040178583175944852 -0.033770897914669161 0 -0.00030663229945604323 -0.019875539353790408 0 -4.9538092303957052e-05 -0.020329807168232215 0 0.00015368611354250222 -0.019836511898068902 0 -0.00092059216392442094 -0.029949360076739588 0 0.00021592382635240927 -0.030506169932689432 0 -0.00043345174045015682 -0.031192819630514138 0 -0.0011528619797435407 -0.024345658172287704 0 0.00040178583175944852 -0.033770897914669161 0 -0.00092059216392442094 -0.029949360076739588 0 -0.0016786363004185866 -0.030477559563497243 0 -0.00043345174045015682 -0.031192819630514138 0 0.0027192275123593258 -0.04284820463971676 0 0.0014571848782303594 -0.042956695625315247 0 0.0019650395099623909 -0.042128448432019433 0 0.0011576117770957712 -0.042198740379115432 0 0.0014571848782303594 -0.042956695625315247 0 0.0019650395099623909 -0.042128448432019433 0 0.0027192275123593258 -0.04284820463971676 0 0.0019650395099623909 -0.042128448432019433 0 0.0030141510024458132 -0.041901756659378682 0 0.0019650395099623909 -0.042128448432019433 0 0.0022227731137439409 -0.041195524750784827 0 0.0030141510024458132 -0.041901756659378682 0 0.0019650395099623909 -0.042128448432019433 0 0.0013192541540336397 -0.04164502506424226 0 0.0022227731137439409 -0.041195524750784827 0 0.0011576117770957712 -0.042198740379115432 0 0.0019650395099623909 -0.042128448432019433 0 0.0013192541540336397 -0.04164502506424226 0 0.0013192541540336397 -0.04164502506424226 0 0.0022227731137439409 -0.041195524750784827 0 0.0014015891238598074 -0.040802719175119795 0 0.0022227731137439409 -0.041195524750784827 0 0.0030141510024458132 -0.041901756659378682 0 0.0031665544251198371 -0.040901379891493887 0 0.00058200064763468606 -0.0424551686817628 0 0.0005881655600603054 -0.041839593905837434 0 -3.6207669320785429e-05 -0.04206570160456418 0 0.0005881655600603054 -0.041839593905837434 0 -3.6207669320785429e-05 -0.04206570160456418 0 0.0001893241753902393 -0.041477134690201214 0 0.0011576117770957712 -0.042198740379115432 0 0.00058200064763468606 -0.0424551686817628 0 0.0005881655600603054 -0.041839593905837434 0 0.0011576117770957712 -0.042198740379115432 0 0.0013192541540336397 -0.04164502506424226 0 0.0005881655600603054 -0.041839593905837434 0 0.0013192541540336397 -0.04164502506424226 0 0.00061133623826454641 -0.041052606666257395 0 0.0014015891238598074 -0.040802719175119795 0 0.0013192541540336397 -0.04164502506424226 0 0.0005881655600603054 -0.041839593905837434 0 0.00061133623826454641 -0.041052606666257395 0 0.0005881655600603054 -0.041839593905837434 0 0.00061133623826454641 -0.041052606666257395 0 0.0001893241753902393 -0.041477134690201214 0 0.00061133623826454641 -0.041052606666257395 0 0.0001893241753902393 -0.041477134690201214 0 0.00013227511583624056 -0.040992783708810668 0 0.00061133623826454641 -0.041052606666257395 0 0.0004020456208456407 -0.0405030265770355 0 0.00013227511583624056 -0.040992783708810668 0 0.0004020456208456407 -0.0405030265770355 0 0.00013227511583624056 -0.040992783708810668 0 9.6744097747661942e-05 -0.040664900310685211 0 0.00061133623826454641 -0.041052606666257395 0 0.00079781499453192338 -0.040169435257998723 0 0.0004020456208456407 -0.0405030265770355 0 0.00061133623826454641 -0.041052606666257395 0 0.00079781499453192338 -0.040169435257998723 0 0.0014015891238598074 -0.040802719175119795 0 0.00079781499453192338 -0.040169435257998723 0 0.001112619922049964 -0.038979736843978915 0 0.00035252313912951828 -0.040040097054940139 0 0.0004020456208456407 -0.0405030265770355 0 9.6744097747661942e-05 -0.040664900310685211 0 0.00035252313912951828 -0.040040097054940139 0 0.00079781499453192338 -0.040169435257998723 0 0.0004020456208456407 -0.0405030265770355 0 0.00035252313912951828 -0.040040097054940139 0 0.0022227731137439409 -0.041195524750784827 0 0.0014015891238598074 -0.040802719175119795 0 0.0023226868564803164 -0.039808102060250254 0 0.0022227731137439409 -0.041195524750784827 0 0.0023226868564803164 -0.039808102060250254 0 0.0031665544251198371 -0.040901379891493887 0 0.00079781499453192338 -0.040169435257998723 0 0.0014015891238598074 -0.040802719175119795 0 0.0023226868564803164 -0.039808102060250254 0 0.00079781499453192338 -0.040169435257998723 0 0.0023226868564803164 -0.039808102060250254 0 0.001112619922049964 -0.038979736843978915 0 0.0023226868564803164 -0.039808102060250254 0 0.0042612078477800609 -0.040197966382288987 0 0.0044522357953003652 -0.037648982314878593 0 0.0023226868564803164 -0.039808102060250254 0 0.0042612078477800609 -0.040197966382288987 0 0.0031665544251198371 -0.040901379891493887 0 0.0046422128168312569 -0.038149233613695224 0 0.0045195964389397247 -0.037828562006251558 0 0.0052460452762904909 -0.037124516510566398 0 0.0053046590750568659 -0.037166053864057531 0 0.0044522357953003652 -0.037648982314878593 0 0.0053046590750568659 -0.037166053864057531 0 0.0053373109284274058 -0.036937974551653464 0 0.0052798466433076983 -0.036907585129519617 0 0.005637575233711398 -0.036779591645624145 0 0.0053046590750568659 -0.037166053864057531 0 0.0053373109284274058 -0.036937974551653464 0 0.0053373109284274058 -0.036937974551653464 0 0.0052339455442816886 -0.036703685269017398 0 0.0052798466433076983 -0.036907585129519617 0 0.0052460452762904909 -0.037124516510566398 0 0.0053046590750568659 -0.037166053864057531 0 0.0052798466433076983 -0.036907585129519617 0 0.0052798466433076983 -0.036907585129519617 0 0.0052468851059344337 -0.036572814666092759 0 0.005456071199324215 -0.036643991139626859 0 0.0052339455442816886 -0.036703685269017398 0 0.0052798466433076983 -0.036907585129519617 0 0.0052468851059344337 -0.036572814666092759 0 0.0051012303527140047 -0.036426157066436773 0 0.0052339455442816886 -0.036703685269017398 0 0.0052468851059344337 -0.036572814666092759 0 0.0051012303527140047 -0.036426157066436773 0 0.0051639590726314964 -0.036258667265816967 0 0.0052468851059344337 -0.036572814666092759 0 0.0018933528389102922 -0.031122452477706123 0 0.0051379089949755829 -0.040971967083750865 0 0.0054260245182284547 -0.036251492848038427 0 0.0052468851059344337 -0.036572814666092759 0 0.005456071199324215 -0.036643991139626859 0 0.0039728843913184389 -0.042654779638587277 0 0.0039666273294655455 -0.041590249740690761 0 0.0030141510024458132 -0.041901756659378682 0 0.0039666273294655455 -0.041590249740690761 0 0.0030141510024458132 -0.041901756659378682 0 0.0031665544251198371 -0.040901379891493887 0 0.0042612078477800609 -0.040197966382288987 0 0.0039666273294655455 -0.041590249740690761 0 0.0031665544251198371 -0.040901379891493887 0 0.0052460452762904909 -0.037124516510566398 0 0.0052798466433076983 -0.036907585129519617 0 0.005456071199324215 -0.036643991139626859 0 0.0046422128168312569 -0.038149233613695224 0 0.0051379089949755829 -0.040971967083750865 0 8.8876056499484131e-07 -0.044997656920452156 0 0.00018905131721935007 -0.04303619661895023 0 -7.1228936886489668e-07 -0.044993568587973674 0 8.8876056499484131e-07 -0.044997656920452156 0 0.00018905131721935007 -0.04303619661895023 0 -7.1568699350796801e-07 -0.038745048027186514 0 3.4556448814864274e-05 -0.043645784016387051 0 0.00018905131721935007 -0.04303619661895023 0 -7.1228936886489668e-07 -0.044993568587973674 0 0.00018905131721935007 -0.04303619661895023 0 -0.00010954354076331808 -0.040882578983962269 0 -7.1568699350796801e-07 -0.038745048027186514 0 0.00018905131721935007 -0.04303619661895023 0 -0.00010954354076331808 -0.040882578983962269 0 -2.018850210849765e-05 -0.042229397739070619 0 -0.00010954354076331808 -0.040882578983962269 0 -2.018850210849765e-05 -0.042229397739070619 0 -0.00045528822182696585 -0.042090739275493595 0 0.00018905131721935007 -0.04303619661895023 0 -2.018850210849765e-05 -0.042229397739070619 0 -4.3487196753468348e-05 -0.042861120756870277 0 3.4556448814864274e-05 -0.043645784016387051 0 -4.3487196753468348e-05 -0.042861120756870277 0 -5.2526921802091552e-05 -0.043152898733357342 0 3.4556448814864274e-05 -0.043645784016387051 0 0.00018905131721935007 -0.04303619661895023 0 -4.3487196753468348e-05 -0.042861120756870277 0 -2.018850210849765e-05 -0.042229397739070619 0 -0.00025782318679426789 -0.042557097864807221 0 -0.00045528822182696585 -0.042090739275493595 0 -2.018850210849765e-05 -0.042229397739070619 0 -4.3487196753468348e-05 -0.042861120756870277 0 -0.00025782318679426789 -0.042557097864807221 0 -0.00045528822182696585 -0.042090739275493595 0 -0.00060388949114300867 -0.042007621531875546 0 -0.00045360975978452842 -0.042319940029708986 0 -0.00025782318679426789 -0.042557097864807221 0 -0.00045528822182696585 -0.042090739275493595 0 -0.00045360975978452842 -0.042319940029708986 0 -0.00060388949114300867 -0.042007621531875546 0 -0.00060715332657490593 -0.041938190985668838 0 -0.00044836744779113834 -0.042005449822765849 0 -0.00045528822182696585 -0.042090739275493595 0 -0.00060388949114300867 -0.042007621531875546 0 -0.00069523631801634048 -0.041650489291318885 0 -0.00060388949114300867 -0.042007621531875546 0 -0.00069523631801634048 -0.041650489291318885 0 -0.00069637021422480898 -0.041771120965541551 0 3.0412829688148954e-05 -0.040660305518979298 0 -0.00015227468552467304 -0.039948540966452832 0 -0.00010954354076331808 -0.040882578983962269 0 -0.00045528822182696585 -0.042090739275493595 0 -0.00069523631801634048 -0.041650489291318885 0 -0.00010954354076331808 -0.040882578983962269 0 4.8622246565963328e-05 -0.03827092978590943 0 -7.1568699350796801e-07 -0.038745048027186514 0 4.8622246565963328e-05 -0.03827092978590943 0 -7.1568699350796801e-07 -0.038745048027186514 0 1.795965522714321e-06 -0.034282051856767262 0 7.8935674815701259e-05 -0.034362688063436751 0 1.795965522714321e-06 -0.034282051856767262 0 0.00012935825957631611 -0.036423097426170184 0 4.8622246565963328e-05 -0.03827092978590943 0 1.795965522714321e-06 -0.034282051856767262 0 0.00012935825957631611 -0.036423097426170184 0 7.8935674815701259e-05 -0.034362688063436751 0 2.7754453404368455e-05 -0.035369858915466124 0 0.00012935825957631611 -0.036423097426170184 0 -0.00074911481260630023 -0.04174404760845242 0 -0.00069637021422480898 -0.041771120965541551 0 -0.00070622450898061881 -0.041834302773608396 0 -0.00016927095720926897 -0.03666813799986289 0 -0.00027566668004309647 -0.039295428153505688 0 -0.00075471764560533213 -0.041735335207934508 0 -0.00074911481260630023 -0.04174404760845242 0 -0.00069637021422480898 -0.041771120965541551 0 -0.00074911481260630023 -0.04174404760845242 0 -0.00077279343964569824 -0.041778742493044203 0 -0.00070622450898061881 -0.041834302773608396 0 -0.00015227468552467304 -0.039948540966452832 0 -0.00027566668004309647 -0.039295428153505688 0 -0.00060388949114300867 -0.042007621531875546 0 -0.00069637021422480898 -0.041771120965541551 0 -0.00060715332657490593 -0.041938190985668838 0 -0.00069637021422480898 -0.041771120965541551 0 -0.00060715332657490593 -0.041938190985668838 0 -0.00070622450898061881 -0.041834302773608396 0 -0.00077279343964569824 -0.041778742493044203 0 -0.00070622450898061881 -0.041834302773608396 0 -0.00069172459318914278 -0.041959802992629136 0 -0.00060715332657490593 -0.041938190985668838 0 -0.00070622450898061881 -0.041834302773608396 0 -0.00069172459318914278 -0.041959802992629136 0 -0.00060715332657490593 -0.041938190985668838 0 -0.00069172459318914278 -0.041959802992629136 0 -0.00044836744779113834 -0.042005449822765849 0 -0.00048816732934141532 -0.041864244047291249 0 -0.00039582844275983762 -0.042042215624584246 0 -3.6207669320785429e-05 -0.04206570160456418 0 -0.00017884143228303755 -0.041445609746230662 0 -0.00044836744779113834 -0.042005449822765849 0 -0.00017884143228303755 -0.041445609746230662 0 0.0001893241753902393 -0.041477134690201214 0 0.00013227511583624056 -0.040992783708810668 0 -3.6207669320785429e-05 -0.04206570160456418 0 -0.00017884143228303755 -0.041445609746230662 0 0.0001893241753902393 -0.041477134690201214 0 -0.00017884143228303755 -0.041445609746230662 0 0.00013227511583624056 -0.040992783708810668 0 -0.00013448033162985268 -0.041046056073820877 0 0.00013227511583624056 -0.040992783708810668 0 9.6744097747661942e-05 -0.040664900310685211 0 -0.00013448033162985268 -0.041046056073820877 0 9.6744097747661942e-05 -0.040664900310685211 0 -0.00013448033162985268 -0.041046056073820877 0 -0.00016445231775065268 -0.040760131545422761 0 9.6744097747661942e-05 -0.040664900310685211 0 -0.00016445231775065268 -0.040760131545422761 0 0.00035252313912951828 -0.040040097054940139 0 -0.00013448033162985268 -0.041046056073820877 0 -0.00031540232311810156 -0.041278815464966555 0 -0.00016445231775065268 -0.040760131545422761 0 -0.00017884143228303755 -0.041445609746230662 0 -0.00013448033162985268 -0.041046056073820877 0 -0.00031540232311810156 -0.041278815464966555 0 -0.00017884143228303755 -0.041445609746230662 0 -0.0004194905126115358 -0.041766407341416623 0 -0.00031540232311810156 -0.041278815464966555 0 -0.0004194905126115358 -0.041766407341416623 0 -0.00031540232311810156 -0.041278815464966555 0 -0.00046437042111819731 -0.041465231221523652 0 -0.00060304063376405751 -0.041068819919349145 0 -0.0010251563987142501 -0.040644143100525928 0 -0.00031540232311810156 -0.041278815464966555 0 -0.00056164564939692593 -0.041150537943596098 0 -0.00046437042111819731 -0.041465231221523652 0 -0.00031540232311810156 -0.041278815464966555 0 -0.00056164564939692593 -0.041150537943596098 0 -0.00016445231775065268 -0.040760131545422761 0 -0.00056164564939692593 -0.041150537943596098 0 -0.00054688342675886258 -0.041420825522830516 0 -0.00062559379340461102 -0.041309917512104444 0 -0.00056164564939692593 -0.041150537943596098 0 -0.00054688342675886258 -0.041420825522830516 0 -0.00046437042111819731 -0.041465231221523652 0 -0.00054688342675886258 -0.041420825522830516 0 -0.00049382837591009567 -0.041708526515579741 0 -0.00046437042111819731 -0.041465231221523652 0 -0.00054688342675886258 -0.041420825522830516 0 -0.00049382837591009567 -0.041708526515579741 0 -0.00057664207480239164 -0.041600504371195099 0 -0.0004194905126115358 -0.041766407341416623 0 -0.00049382837591009567 -0.041708526515579741 0 -0.0004700341189709605 -0.042114190351676503 0 -0.0004194905126115358 -0.041766407341416623 0 -0.00049382837591009567 -0.041708526515579741 0 -0.00046437042111819731 -0.041465231221523652 0 -0.00049382837591009567 -0.041708526515579741 0 -0.0004700341189709605 -0.042114190351676503 0 -0.00055096244754997137 -0.041852996461225186 0 -0.0004700341189709605 -0.042114190351676503 0 -0.0004487894910403186 -0.042188313755285145 0 -0.00045399853529573206 -0.042411492945973142 0 -0.0004194905126115358 -0.041766407341416623 0 -0.0004700341189709605 -0.042114190351676503 0 -0.0004487894910403186 -0.042188313755285145 0 -0.0004487894910403186 -0.042188313755285145 0 -0.00042278251001448065 -0.042390255163373039 0 -0.00045399853529573206 -0.042411492945973142 0 -0.0004194905126115358 -0.041766407341416623 0 -0.0004487894910403186 -0.042188313755285145 0 -0.00044836744779113834 -0.042005449822765849 0 -0.00017884143228303755 -0.041445609746230662 0 -0.0004194905126115358 -0.041766407341416623 0 -0.00044836744779113834 -0.042005449822765849 0 -0.0004487894910403186 -0.042188313755285145 0 -0.00044836744779113834 -0.042005449822765849 0 -0.00045360975978452842 -0.042319940029708986 0 -0.00060388949114300867 -0.042007621531875546 0 -0.00044836744779113834 -0.042005449822765849 0 -0.00045360975978452842 -0.042319940029708986 0 -0.0004487894910403186 -0.042188313755285145 0 -0.00045360975978452842 -0.042319940029708986 0 -0.00042278251001448065 -0.042390255163373039 0 -0.00045360975978452842 -0.042319940029708986 0 -0.00042278251001448065 -0.042390255163373039 0 -0.0003471304511537003 -0.042595013339766619 0 -0.0003471304511537003 -0.042595013339766619 0 -0.00023867340388186313 -0.042821736554478206 0 -0.00032466916260725647 -0.042731209683571955 0 -0.00025782318679426789 -0.042557097864807221 0 -0.00045360975978452842 -0.042319940029708986 0 -0.0003471304511537003 -0.042595013339766619 0 -4.3487196753468348e-05 -0.042861120756870277 0 -0.00025782318679426789 -0.042557097864807221 0 -0.00023867340388186313 -0.042821736554478206 0 -0.00025782318679426789 -0.042557097864807221 0 -0.0003471304511537003 -0.042595013339766619 0 -0.00023867340388186313 -0.042821736554478206 0 -4.3487196753468348e-05 -0.042861120756870277 0 -5.2526921802091552e-05 -0.043152898733357342 0 -0.00023867340388186313 -0.042821736554478206 0 -5.2526921802091552e-05 -0.043152898733357342 0 -0.00013762910706146468 -0.043038593581343113 0 -3.1509691577222531e-05 -0.043436108021762711 0 -0.00023867340388186313 -0.042821736554478206 0 -0.00030843292641265853 -0.042802372107264161 0 -0.00032466916260725647 -0.042731209683571955 0 -5.2526921802091552e-05 -0.043152898733357342 0 -0.00013762910706146468 -0.043038593581343113 0 -0.00023867340388186313 -0.042821736554478206 0 -0.00013762910706146468 -0.043038593581343113 0 -0.00023867340388186313 -0.042821736554478206 0 -0.00030843292641265853 -0.042802372107264161 0 -0.00030843292641265853 -0.042802372107264161 0 -0.00019127516604858813 -0.042966095763272628 0 -0.00030530256802960434 -0.042835368879612305 0 -0.00030843292641265853 -0.042802372107264161 0 -0.00041885608024544918 -0.042698079458588237 0 -0.00030530256802960434 -0.042835368879612305 0 -0.00013762910706146468 -0.043038593581343113 0 -0.00019127516604858813 -0.042966095763272628 0 -9.4789828756594713e-05 -0.04318674166039415 0 -0.00013762910706146468 -0.043038593581343113 0 -0.00030843292641265853 -0.042802372107264161 0 -0.00019127516604858813 -0.042966095763272628 0 -0.00019127516604858813 -0.042966095763272628 0 -0.00015526855450038671 -0.042990480163837601 0 -9.4789828756594713e-05 -0.04318674166039415 0 -0.00015526855450038671 -0.042990480163837601 0 -0.00030530256802960434 -0.042835368879612305 0 -0.00016018511204028823 -0.043154891230471421 0 -0.00019127516604858813 -0.042966095763272628 0 -0.00015526855450038671 -0.042990480163837601 0 -0.00030530256802960434 -0.042835368879612305 0 -0.00030530256802960434 -0.042835368879612305 0 -0.00055689392986283932 -0.042656011670496811 0 -0.00016018511204028823 -0.043154891230471421 0 -0.00041885608024544918 -0.042698079458588237 0 -0.00030530256802960434 -0.042835368879612305 0 -0.00055689392986283932 -0.042656011670496811 0 -0.00074575046138178271 -0.042365323812251263 0 -0.00055689392986283932 -0.042656011670496811 0 -0.0012932906638640131 -0.04189841411200583 0 -0.00057210197351608132 -0.042398722210841136 0 -0.00055689392986283932 -0.042656011670496811 0 -0.00050219964592461679 -0.042482154841116081 0 -0.00074575046138178271 -0.042365323812251263 0 -0.00057210197351608132 -0.042398722210841136 0 -0.00055689392986283932 -0.042656011670496811 0 -0.00050219964592461679 -0.042482154841116081 0 -0.00048710530971726263 -0.042255492989661664 0 -0.00055551897625799216 -0.042247044838661728 0 -0.00057210197351608132 -0.042398722210841136 0 -0.00050219964592461679 -0.042482154841116081 0 -0.00055551897625799216 -0.042247044838661728 0 -0.00050219964592461679 -0.042482154841116081 0 -0.00048502909873343115 -0.042614118185736696 0 -0.0004262271946729325 -0.042621887664327451 0 -0.00050219964592461679 -0.042482154841116081 0 -0.0004262271946729325 -0.042621887664327451 0 -0.00045399853529573206 -0.042411492945973142 0 -0.00055689392986283932 -0.042656011670496811 0 -0.00050219964592461679 -0.042482154841116081 0 -0.00048502909873343115 -0.042614118185736696 0 -0.00041885608024544918 -0.042698079458588237 0 -0.00055689392986283932 -0.042656011670496811 0 -0.00048502909873343115 -0.042614118185736696 0 -0.00041885608024544918 -0.042698079458588237 0 -0.00048502909873343115 -0.042614118185736696 0 -0.0004262271946729325 -0.042621887664327451 0 -0.0003471304511537003 -0.042595013339766619 0 -0.0004262271946729325 -0.042621887664327451 0 -0.00032466916260725647 -0.042731209683571955 0 -0.00030843292641265853 -0.042802372107264161 0 -0.00041885608024544918 -0.042698079458588237 0 -0.0004262271946729325 -0.042621887664327451 0 -0.00030843292641265853 -0.042802372107264161 0 -0.0004262271946729325 -0.042621887664327451 0 -0.00032466916260725647 -0.042731209683571955 0 -0.0003471304511537003 -0.042595013339766619 0 -0.0004262271946729325 -0.042621887664327451 0 -0.00045399853529573206 -0.042411492945973142 0 -0.00042278251001448065 -0.042390255163373039 0 -0.0003471304511537003 -0.042595013339766619 0 -0.00045399853529573206 -0.042411492945973142 0 -0.0004700341189709605 -0.042114190351676503 0 -0.00045399853529573206 -0.042411492945973142 0 -0.00048710530971726263 -0.042255492989661664 0 -0.00050219964592461679 -0.042482154841116081 0 -0.00045399853529573206 -0.042411492945973142 0 -0.00048710530971726263 -0.042255492989661664 0 -0.0004700341189709605 -0.042114190351676503 0 -0.00048710530971726263 -0.042255492989661664 0 -0.00053307107245240495 -0.042112210880733039 0 -0.0004700341189709605 -0.042114190351676503 0 -0.00053307107245240495 -0.042112210880733039 0 -0.00055096244754997137 -0.041852996461225186 0 -0.00048710530971726263 -0.042255492989661664 0 -0.00053307107245240495 -0.042112210880733039 0 -0.00055551897625799216 -0.042247044838661728 0 -0.00053307107245240495 -0.042112210880733039 0 -0.00063371506944353618 -0.04200086239617639 0 -0.00055096244754997137 -0.041852996461225186 0 -0.00074575046138178271 -0.042365323812251263 0 -0.00067212664341611205 -0.042185235180515146 0 -0.00084008607889274865 -0.041975959622338042 0 -0.00074575046138178271 -0.042365323812251263 0 -0.00057210197351608132 -0.042398722210841136 0 -0.00067212664341611205 -0.042185235180515146 0 -0.00057210197351608132 -0.042398722210841136 0 -0.00067212664341611205 -0.042185235180515146 0 -0.00055551897625799216 -0.042247044838661728 0 -0.00053307107245240495 -0.042112210880733039 0 -0.00055551897625799216 -0.042247044838661728 0 -0.00063371506944353618 -0.04200086239617639 0 -0.00067212664341611205 -0.042185235180515146 0 -0.00055551897625799216 -0.042247044838661728 0 -0.00063371506944353618 -0.04200086239617639 0 -0.00067212664341611205 -0.042185235180515146 0 -0.00063371506944353618 -0.04200086239617639 0 -0.00084008607889274865 -0.041975959622338042 0 -0.00063371506944353618 -0.04200086239617639 0 -0.00069630164142443958 -0.041752368273080348 0 -0.00084008607889274865 -0.041975959622338042 0 -0.00063371506944353618 -0.04200086239617639 0 -0.00069630164142443958 -0.041752368273080348 0 -0.00055096244754997137 -0.041852996461225186 0 -0.00069630164142443958 -0.041752368273080348 0 -0.00055096244754997137 -0.041852996461225186 0 -0.00057664207480239164 -0.041600504371195099 0 -0.00049382837591009567 -0.041708526515579741 0 -0.00055096244754997137 -0.041852996461225186 0 -0.00057664207480239164 -0.041600504371195099 0 -0.00069630164142443958 -0.041752368273080348 0 -0.00062559379340461102 -0.041309917512104444 0 -0.0011150264523727489 -0.041798053399653888 0 -7.2616656541241482e-05 -0.040879568245343278 0 -0.00042842664982027933 -0.041866946988813727 0 -0.00069630164142443958 -0.041752368273080348 0 -0.00057664207480239164 -0.041600504371195099 0 -0.00062559379340461102 -0.041309917512104444 0 -0.00054688342675886258 -0.041420825522830516 0 -0.00057664207480239164 -0.041600504371195099 0 -0.00062559379340461102 -0.041309917512104444 0 0.0003073842728895404 -0.040703896438759733 0 0.00075316571250222896 -0.04064268362818764 0 0.00079033177371270937 -0.041096187426970819 0 0.00075316571250222896 -0.04064268362818764 0 0.0010696574948128141 -0.040420693700935262 0 0.00079033177371270937 -0.041096187426970819 0 0.00011484124958848902 -0.043076630551086327 0 0.00038694821278432241 -0.042409724087028408 0 0.0003073842728895404 -0.040703896438759733 0 0.00075316571250222896 -0.04064268362818764 0 0.0009209517530861306 -0.040184487296069854 0 -0.00013429354966862931 -0.043938008372550075 0 -7.800916085114812e-05 -0.044047732580141566 0 -0.00018092480718577889 -0.044048106134044196 0 0.00075316571250222896 -0.04064268362818764 0 0.0010696574948128141 -0.040420693700935262 0 0.0009209517530861306 -0.040184487296069854 0 0.00011484124958848902 -0.043076630551086327 0 -0.00012689069278691106 -0.044033599223068938 0 -0.00014862467798031507 -0.042818201216204908 0 -0.00015632497020319681 -0.043002688548439222 0 -0.00027049287307379869 -0.043065082241196186 0 0.00011484124958848902 -0.043076630551086327 0 -0.00042842664982027933 -0.041866946988813727 0 -0.00014862467798031507 -0.042818201216204908 0 -3.476448016565542e-05 -0.042996887066609014 0 -0.00015632497020319681 -0.043002688548439222 0 -3.476448016565542e-05 -0.042996887066609014 0 -0.00015632497020319681 -0.043002688548439222 0 -0.00017141851862736705 -0.04313077834167043 0 -0.00042842664982027933 -0.041866946988813727 0 -0.000570117876148763 -0.042830034946415761 0 -0.00015632497020319681 -0.043002688548439222 0 -0.00017141851862736705 -0.04313077834167043 0 -0.00027049287307379869 -0.043065082241196186 0 -0.00069630164142443958 -0.041752368273080348 0 -0.0011150264523727489 -0.041798053399653888 0 -0.00084008607889274865 -0.041975959622338042 0 -0.00074575046138178271 -0.042365323812251263 0 -0.0011150264523727489 -0.041798053399653888 0 -0.00084008607889274865 -0.041975959622338042 0 -0.00055689392986283932 -0.042656011670496811 0 -0.0012932906638640131 -0.04189841411200583 0 -0.0022297249800460029 -0.04157342761628946 0 -0.00091000589608472636 -0.041972437696258719 0 -0.00042842664982027933 -0.041866946988813727 0 -0.00084407386461047152 -0.042509786343877823 0 -0.000570117876148763 -0.042830034946415761 0 -0.00074575046138178271 -0.042365323812251263 0 -0.0016291395487684471 -0.040999747743419405 0 -0.0012932906638640131 -0.04189841411200583 0 -0.0016291395487684471 -0.040999747743419405 0 -0.0012932906638640131 -0.04189841411200583 0 -0.0022297249800460029 -0.04157342761628946 0 -0.000570117876148763 -0.042830034946415761 0 -0.00012689069278691106 -0.044033599223068938 0 -0.00012689069278691106 -0.044033599223068938 0 -0.00019117599699964986 -0.043791423911227638 0 -6.7130273276054119e-05 -0.044934818520647089 0 -5.5033112160058889e-05 -0.044905598541924968 0 -1.264901371748758e-05 -0.044954133060482571 0 -0.000570117876148763 -0.042830034946415761 0 -0.00019117599699964986 -0.043791423911227638 0 -0.00015906220462151688 -0.043382052639925069 0 -0.00026433219218387389 -0.043311916632879484 0 -0.00042485274594300678 -0.043641927253291198 0 6.4970162703556308e-07 -0.044994174737735836 0 -2.9789603866978851e-07 -0.044989504016258022 0 1.104348396707952e-06 -0.044990726552154948 0 6.4970162703556308e-07 -0.044994174737735836 0 -2.9789603866978851e-07 -0.044989504016258022 0 6.8950414517773613e-07 -0.044996622385655882 0 -0.00012689069278691106 -0.044033599223068938 0 7.05691362237586e-05 -0.045040924247787419 0 0.00011484124958848902 -0.043076630551086327 0 7.4152993215125959e-06 -0.044725610468178419 0 -6.7130273276054119e-05 -0.044934818520647089 0 -1.264901371748758e-05 -0.044954133060482571 0 -2.9312932759309925e-05 -0.044990106209806285 0 5.0715393659970611e-11 -0.045000000339750872 0 6.8950414517773613e-07 -0.044996622385655882 0 1.4906161615183095e-09 -0.044999986939692038 0 1.4193553652869027e-08 -0.044999922069454912 0 -1.264901371748758e-05 -0.044954133060482571 0 -6.1972558161492707e-06 -0.044997687881098529 0 -8.1841002131794375e-08 -0.044999932837537122 0 7.05691362237586e-05 -0.045040924247787419 0 6.4970162703556308e-07 -0.044994174737735836 0 6.8950414517773613e-07 -0.044996622385655882 0 1.4906161615183095e-09 -0.044999986939692038 0 6.4970162703556308e-07 -0.044994174737735836 0 1.4906161615183095e-09 -0.044999986939692038 0 6.7733572413897868e-07 -0.044995575121095983 0 1.4906161615183095e-09 -0.044999986939692038 0 8.4350057977114402e-07 -0.044996404422646262 0 6.7733572413897868e-07 -0.044995575121095983 0 1.4906161615183095e-09 -0.044999986939692038 0 8.4350057977114402e-07 -0.044996404422646262 0 1.8648917828591001e-10 -0.044999998113976349 0 6.4970162703556308e-07 -0.044994174737735836 0 6.7733572413897868e-07 -0.044995575121095983 0 1.104348396707952e-06 -0.044990726552154948 0 8.4350057977114402e-07 -0.044996404422646262 0 6.7733572413897868e-07 -0.044995575121095983 0 1.104348396707952e-06 -0.044990726552154948 0 -0.00015526855450038671 -0.042990480163837601 0 -0.00016018511204028823 -0.043154891230471421 0 -0.00012340152479488391 -0.043062273838448004 0 -0.00015526855450038671 -0.042990480163837601 0 -0.00012340152479488391 -0.043062273838448004 0 -9.4789828756594713e-05 -0.04318674166039415 0 -0.00012340152479488391 -0.043062273838448004 0 -9.4789828756594713e-05 -0.04318674166039415 0 -7.9955263941833859e-05 -0.043544077559943155 0 2.0930794838289195e-05 -0.044396130967805501 0 -0.00019117599699964986 -0.043791423911227638 0 -0.00019117599699964986 -0.043791423911227638 0 -3.6203028801356196e-05 -0.043361256835141783 0 -4.7526785350415171e-05 -0.043725667486296867 0 -0.00010922948707729455 -0.043428380907645094 0 -7.9955263941833859e-05 -0.043544077559943155 0 -4.7526785350415171e-05 -0.043725667486296867 0 -7.9955263941833859e-05 -0.043544077559943155 0 -3.1509691577222531e-05 -0.043436108021762711 0 3.4556448814864274e-05 -0.043645784016387051 0 -4.7526785350415171e-05 -0.043725667486296867 0 -3.1509691577222531e-05 -0.043436108021762711 0 -0.00013762910706146468 -0.043038593581343113 0 -9.4789828756594713e-05 -0.04318674166039415 0 -3.1509691577222531e-05 -0.043436108021762711 0 -9.4789828756594713e-05 -0.04318674166039415 0 -7.9955263941833859e-05 -0.043544077559943155 0 -3.1509691577222531e-05 -0.043436108021762711 0 3.4556448814864274e-05 -0.043645784016387051 0 -5.2526921802091552e-05 -0.043152898733357342 0 -3.1509691577222531e-05 -0.043436108021762711 0 3.4556448814864274e-05 -0.043645784016387051 0 -4.7526785350415171e-05 -0.043725667486296867 0 -7.1228936886489668e-07 -0.044993568587973674 0 2.0930794838289195e-05 -0.044396130967805501 0 6.4036482836862537e-08 -0.044999546936904597 0 -6.9542906019525955e-08 -0.04500001144097944 0 -1.2302592451261361e-05 -0.044675760167621321 0 6.7021127570218121e-06 -0.044686819946867351 0 -6.9542906019525955e-08 -0.04500001144097944 0 -1.2302592451261361e-05 -0.044675760167621321 0 3.5936880765119134e-07 -0.044998584284571895 0 -1.2302592451261361e-05 -0.044675760167621321 0 -0.00016313131875577956 -0.044224859693156399 0 -6.4868374806970877e-05 -0.044357047287124619 0 -1.2302592451261361e-05 -0.044675760167621321 0 -6.4868374806970877e-05 -0.044357047287124619 0 6.7021127570218121e-06 -0.044686819946867351 0 -5.1203658732360208e-05 -0.044523807984460102 0 5.4730492680399718e-06 -0.044275908229644639 0 -0.00016313131875577956 -0.044224859693156399 0 -1.2302592451261361e-05 -0.044675760167621321 0 -5.1203658732360208e-05 -0.044523807984460102 0 -0.00016313131875577956 -0.044224859693156399 0 -1.2302592451261361e-05 -0.044675760167621321 0 -5.1203658732360208e-05 -0.044523807984460102 0 3.5936880765119134e-07 -0.044998584284571895 0 -5.1203658732360208e-05 -0.044523807984460102 0 3.5936880765119134e-07 -0.044998584284571895 0 5.4730492680399718e-06 -0.044275908229644639 0 2.1614786468887171e-08 -0.04499985568283639 0 -4.2733243164124299e-05 -0.044604587859281196 0 4.2989712992307684e-09 -0.044999990371270379 0 -4.6208627827941992e-06 -0.045002481174092585 0 -1.0816085309953512e-08 -0.045000024883265759 0 -4.6208627827941992e-06 -0.045002481174092585 0 -1.0816085309953512e-08 -0.045000024883265759 0 -6.1972558161492707e-06 -0.044997687881098529 0 1.4193553652869027e-08 -0.044999922069454912 0 -1.0816085309953512e-08 -0.045000024883265759 0 -6.1972558161492707e-06 -0.044997687881098529 0 -4.6208627827941992e-06 -0.045002481174092585 0 -6.1972558161492707e-06 -0.044997687881098529 0 -2.9312932759309925e-05 -0.044990106209806285 0 5.4730492680399718e-06 -0.044275908229644639 0 -7.800916085114812e-05 -0.044047732580141566 0 -0.00015227762394106589 -0.044118750935592775 0 -4.2733243164124299e-05 -0.044604587859281196 0 7.4152993215125959e-06 -0.044725610468178419 0 -1.264901371748758e-05 -0.044954133060482571 0 -6.1972558161492707e-06 -0.044997687881098529 0 -2.9312932759309925e-05 -0.044990106209806285 0 5.4730492680399718e-06 -0.044275908229644639 0 -0.00015227762394106589 -0.044118750935592775 0 -0.00016313131875577956 -0.044224859693156399 0 -0.00015227762394106589 -0.044118750935592775 0 -0.00017702115856997459 -0.044016096368568153 0 -0.00016313131875577956 -0.044224859693156399 0 -7.800916085114812e-05 -0.044047732580141566 0 -0.00015227762394106589 -0.044118750935592775 0 -0.00018092480718577889 -0.044048106134044196 0 -0.00015227762394106589 -0.044118750935592775 0 -0.00018092480718577889 -0.044048106134044196 0 -0.00017702115856997459 -0.044016096368568153 0 0.00038694821278432241 -0.042409724087028408 0 0.00010959951374130765 -0.043060905260841401 0 0.0003073842728895404 -0.040703896438759733 0 0.00019857791053106127 -0.041308536832527575 0 -0.00053453153064271584 -0.041332291745205703 0 0.00079033177371270937 -0.041096187426970819 0 0.00019857791053106127 -0.041308536832527575 0 0.00049588571095060129 -0.042016602389602108 0 0.0003073842728895404 -0.040703896438759733 0 0.00079033177371270937 -0.041096187426970819 0 0.00019857791053106127 -0.041308536832527575 0 0.00049588571095060129 -0.042016602389602108 0 -0.00016374702163315577 -0.043424255289248287 0 -0.0003180323839593882 -0.041932632718655202 0 0.00019857791053106127 -0.041308536832527575 0 0.00049588571095060129 -0.042016602389602108 0 -0.0003180323839593882 -0.041932632718655202 0 0.00010959951374130765 -0.043060905260841401 0 -0.00011613903454336436 -0.04340022248324301 0 -0.00017702115856997459 -0.044016096368568153 0 -0.00016374702163315577 -0.043424255289248287 0 -0.00015277438521366863 -0.043952794234095711 0 -0.00017702115856997459 -0.044016096368568153 0 -0.00016313131875577956 -0.044224859693156399 0 -0.00015277438521366863 -0.043952794234095711 0 -0.00016313131875577956 -0.044224859693156399 0 -0.00015277438521366863 -0.043952794234095711 0 -6.4868374806970877e-05 -0.044357047287124619 0 -6.4868374806970877e-05 -0.044357047287124619 0 -0.00017205434182426327 -0.044155346398021038 0 -5.2606411811948621e-05 -0.044480335094276534 0 -0.00015277438521366863 -0.043952794234095711 0 -6.4868374806970877e-05 -0.044357047287124619 0 -0.00017205434182426327 -0.044155346398021038 0 -0.00016374702163315577 -0.043424255289248287 0 -0.00017205434182426327 -0.044155346398021038 0 -0.00042578549951143425 -0.04385573949549737 0 -0.00016374702163315577 -0.043424255289248287 0 -0.00015277438521366863 -0.043952794234095711 0 -0.00017205434182426327 -0.044155346398021038 0 -0.00016374702163315577 -0.043424255289248287 0 -0.00042578549951143425 -0.04385573949549737 0 -0.00074612800343091948 -0.043171796258544302 0 -0.00042578549951143425 -0.04385573949549737 0 -0.00081695613428739802 -0.043622012606115743 0 -0.00074612800343091948 -0.043171796258544302 0 -0.00081695613428739802 -0.043622012606115743 0 -0.0012814318900278134 -0.043405515896525186 0 -0.0011516023090651854 -0.043107298530854828 0 -0.0012814318900278134 -0.043405515896525186 0 -0.0015893220832500186 -0.043253574898866207 0 -0.0013538305763834322 -0.043570894118249687 0 -0.0012814318900278134 -0.043405515896525186 0 -0.0014565337893376177 -0.043092692188675785 0 -0.0015893220832500186 -0.043253574898866207 0 -0.0014565337893376177 -0.043092692188675785 0 -0.0011516023090651854 -0.043107298530854828 0 -0.0014813156191467445 -0.042712386104029471 0 -0.0012814318900278134 -0.043405515896525186 0 -0.0014565337893376177 -0.043092692188675785 0 -0.0011516023090651854 -0.043107298530854828 0 -0.00081695613428739802 -0.043622012606115743 0 -0.0011516023090651854 -0.043107298530854828 0 -0.00074612800343091948 -0.043171796258544302 0 -0.0011320114986226217 -0.042533737167310841 0 -0.0013211716180224686 -0.041948441571227402 0 -0.0014813156191467445 -0.042712386104029471 0 -0.0011516023090651854 -0.043107298530854828 0 -0.0011320114986226217 -0.042533737167310841 0 -0.00074612800343091948 -0.043171796258544302 0 -0.0011516023090651854 -0.043107298530854828 0 -0.0011320114986226217 -0.042533737167310841 0 -0.0014813156191467445 -0.042712386104029471 0 -0.0011320114986226217 -0.042533737167310841 0 -0.00074612800343091948 -0.043171796258544302 0 -0.00082228276711168106 -0.04234653978776641 0 -0.0011320114986226217 -0.042533737167310841 0 -0.00082228276711168106 -0.04234653978776641 0 -0.0013211716180224686 -0.041948441571227402 0 -0.00016374702163315577 -0.043424255289248287 0 -0.00082228276711168106 -0.04234653978776641 0 -0.0003180323839593882 -0.041932632718655202 0 -0.00016374702163315577 -0.043424255289248287 0 -0.00074612800343091948 -0.043171796258544302 0 -0.00082228276711168106 -0.04234653978776641 0 -0.00082228276711168106 -0.04234653978776641 0 -0.0003180323839593882 -0.041932632718655202 0 -0.00088116250141935071 -0.041604341698976845 0 -0.0003180323839593882 -0.041932632718655202 0 -0.00053453153064271584 -0.041332291745205703 0 -0.00088116250141935071 -0.041604341698976845 0 -0.00056164564939692593 -0.041150537943596098 0 -0.00062559379340461102 -0.041309917512104444 0 -0.00053453153064271584 -0.041332291745205703 0 0.00019857791053106127 -0.041308536832527575 0 -0.0003180323839593882 -0.041932632718655202 0 -0.00053453153064271584 -0.041332291745205703 0 -7.2616656541241482e-05 -0.040879568245343278 0 -0.00055684744141747849 -0.041369440520101004 0 -0.00056164564939692593 -0.041150537943596098 0 -0.00053453153064271584 -0.041332291745205703 0 -0.00099282526931375697 -0.041200279242535512 0 -0.00099282526931375697 -0.041200279242535512 0 -0.001325882187925734 -0.04128352664087432 0 -0.0018760783514030527 -0.040491005940157317 0 -0.00056164564939692593 -0.041150537943596098 0 -0.00099282526931375697 -0.041200279242535512 0 -0.0018760783514030527 -0.040491005940157317 0 -0.00053453153064271584 -0.041332291745205703 0 -0.00099282526931375697 -0.041200279242535512 0 -0.00088116250141935071 -0.041604341698976845 0 -0.00099282526931375697 -0.041200279242535512 0 -0.001325882187925734 -0.04128352664087432 0 -0.00088116250141935071 -0.041604341698976845 0 -0.001325882187925734 -0.04128352664087432 0 -0.00088116250141935071 -0.041604341698976845 0 -0.0013211716180224686 -0.041948441571227402 0 -0.00082228276711168106 -0.04234653978776641 0 -0.00088116250141935071 -0.041604341698976845 0 -0.0013211716180224686 -0.041948441571227402 0 -0.0013211716180224686 -0.041948441571227402 0 -0.0017871050309259042 -0.041149994704906503 0 -0.0018541204414013422 -0.042056529591886375 0 -0.001325882187925734 -0.04128352664087432 0 -0.0013211716180224686 -0.041948441571227402 0 -0.0017871050309259042 -0.041149994704906503 0 -0.001325882187925734 -0.04128352664087432 0 -0.0017871050309259042 -0.041149994704906503 0 -0.0018760783514030527 -0.040491005940157317 0 -0.0017871050309259042 -0.041149994704906503 0 -0.0018760783514030527 -0.040491005940157317 0 -0.0021280469080926507 -0.040730575081145186 0 -0.0010251563987142501 -0.040644143100525928 0 -0.00099225358392104066 -0.040004697970424129 0 -0.0018760783514030527 -0.040491005940157317 0 -0.0024987364050869576 -0.040082520455061221 0 -0.0026926149223874775 -0.040026141263379694 0 -0.0018760783514030527 -0.040491005940157317 0 -0.0021280469080926507 -0.040730575081145186 0 -0.0026926149223874775 -0.040026141263379694 0 -0.0021280469080926507 -0.040730575081145186 0 -0.0022507849380562837 -0.041467191934586804 0 -0.0026926149223874775 -0.040026141263379694 0 -0.0017871050309259042 -0.041149994704906503 0 -0.0022507849380562837 -0.041467191934586804 0 -0.0018541204414013422 -0.042056529591886375 0 -0.0017871050309259042 -0.041149994704906503 0 -0.0021280469080926507 -0.040730575081145186 0 -0.0022507849380562837 -0.041467191934586804 0 -0.0022507849380562837 -0.041467191934586804 0 -0.0023617411372765687 -0.042441155216145547 0 -0.0018541204414013422 -0.042056529591886375 0 -0.0023617411372765687 -0.042441155216145547 0 -0.0018541204414013422 -0.042056529591886375 0 -0.0019639300830312117 -0.042583277007622163 0 -0.0013211716180224686 -0.041948441571227402 0 -0.0018541204414013422 -0.042056529591886375 0 -0.0014813156191467445 -0.042712386104029471 0 -0.0018541204414013422 -0.042056529591886375 0 -0.0014813156191467445 -0.042712386104029471 0 -0.0019639300830312117 -0.042583277007622163 0 -0.0019639300830312117 -0.042583277007622163 0 -0.0017572395337841563 -0.042936924057687335 0 -0.0021197813159561599 -0.042839187278293257 0 -0.0014813156191467445 -0.042712386104029471 0 -0.0019639300830312117 -0.042583277007622163 0 -0.0017572395337841563 -0.042936924057687335 0 -0.0014565337893376177 -0.043092692188675785 0 -0.0014813156191467445 -0.042712386104029471 0 -0.0017572395337841563 -0.042936924057687335 0 -0.0014565337893376177 -0.043092692188675785 0 -0.0017572395337841563 -0.042936924057687335 0 -0.0015893220832500186 -0.043253574898866207 0 -0.0017572395337841563 -0.042936924057687335 0 -0.0017538535966289842 -0.043117842361281619 0 -0.0015893220832500186 -0.043253574898866207 0 -0.0017538535966289842 -0.043117842361281619 0 -0.0015893220832500186 -0.043253574898866207 0 -0.0017687005121269186 -0.043195802046879589 0 -0.0017572395337841563 -0.042936924057687335 0 -0.0019169236306598048 -0.043060347651147413 0 -0.0021197813159561599 -0.042839187278293257 0 -0.0017572395337841563 -0.042936924057687335 0 -0.0017538535966289842 -0.043117842361281619 0 -0.0019169236306598048 -0.043060347651147413 0 -0.0017538535966289842 -0.043117842361281619 0 -0.0019169236306598048 -0.043060347651147413 0 -0.0017687005121269186 -0.043195802046879589 0 -0.0019169236306598048 -0.043060347651147413 0 -0.0021197813159561599 -0.042839187278293257 0 -0.0021581044203648923 -0.043076261009319418 0 -0.0023617411372765687 -0.042441155216145547 0 -0.0021197813159561599 -0.042839187278293257 0 -0.0024186577187396245 -0.042877962919640494 0 -0.0021197813159561599 -0.042839187278293257 0 -0.0021581044203648923 -0.043076261009319418 0 -0.0024186577187396245 -0.042877962919640494 0 -0.0023617411372765687 -0.042441155216145547 0 -0.0019639300830312117 -0.042583277007622163 0 -0.0021197813159561599 -0.042839187278293257 0 -0.002045545772553213 -0.043204749984499399 0 -0.0021826548682095811 -0.043168695779578867 0 -0.0020953992733306758 -0.043338943421506897 0 -0.002045545772553213 -0.043204749984499399 0 -0.0021826548682095811 -0.043168695779578867 0 -0.0021581044203648923 -0.043076261009319418 0 -0.0021826548682095811 -0.043168695779578867 0 -0.0021581044203648923 -0.043076261009319418 0 -0.0024259390041778944 -0.043063055851404554 0 -0.0021826548682095811 -0.043168695779578867 0 -0.0020953992733306758 -0.043338943421506897 0 -0.0024259390041778944 -0.043063055851404554 0 -0.0021581044203648923 -0.043076261009319418 0 -0.0024186577187396245 -0.042877962919640494 0 -0.0024259390041778944 -0.043063055851404554 0 -0.0019169236306598048 -0.043060347651147413 0 -0.0021581044203648923 -0.043076261009319418 0 -0.0019608049651687587 -0.043160338497443024 0 -0.002045545772553213 -0.043204749984499399 0 -0.0021581044203648923 -0.043076261009319418 0 -0.0019608049651687587 -0.043160338497443024 0 -0.0018423875396464595 -0.043262295678632372 0 -0.0020953992733306758 -0.043338943421506897 0 -0.0016248462036613186 -0.043333144610629967 0 -0.0019608049651687587 -0.043160338497443024 0 -0.0017687005121269186 -0.043195802046879589 0 -0.0018423875396464595 -0.043262295678632372 0 -0.0019169236306598048 -0.043060347651147413 0 -0.0019608049651687587 -0.043160338497443024 0 -0.0017687005121269186 -0.043195802046879589 0 -0.0016993730250630795 -0.043260621107498967 0 -0.0017687005121269186 -0.043195802046879589 0 -0.0018423875396464595 -0.043262295678632372 0 -0.0015893220832500186 -0.043253574898866207 0 -0.0016993730250630795 -0.043260621107498967 0 -0.0017687005121269186 -0.043195802046879589 0 -0.0016993730250630795 -0.043260621107498967 0 -0.0018423875396464595 -0.043262295678632372 0 -0.0016248462036613186 -0.043333144610629967 0 -0.002045545772553213 -0.043204749984499399 0 -0.0018423875396464595 -0.043262295678632372 0 -0.0020953992733306758 -0.043338943421506897 0 -0.002045545772553213 -0.043204749984499399 0 -0.0019608049651687587 -0.043160338497443024 0 -0.0018423875396464595 -0.043262295678632372 0 -0.0026047327677495638 -0.042416171268849862 0 -0.0026964264221753182 -0.042419774917715709 0 -0.0025169922859714384 -0.042402908612204665 0 -0.0026047327677495638 -0.042416171268849862 0 -0.0026874106181198221 -0.042441431139543996 0 -0.0025169922859714384 -0.042402908612204665 0 -0.0023467193649832703 -0.042119448371773463 0 -0.0016552180567459963 -0.042178594687399845 0 -0.0013977334482723693 -0.041573741970275462 0 -0.0026047327677495638 -0.042416171268849862 0 -0.0026874106181198221 -0.042441431139543996 0 -0.0026964264221753182 -0.042419774917715709 0 -0.0023467193649832703 -0.042119448371773463 0 -0.0024595174485547641 -0.042059146741175953 0 -0.0013977334482723693 -0.041573741970275462 0 -0.0024530018031983735 -0.042857617044361779 0 -0.0017510408991146815 -0.042994976843114166 0 -0.0025503081875660823 -0.042122979516268276 0 -0.0017510408991146815 -0.042994976843114166 0 -0.0023467193649832703 -0.042119448371773463 0 -0.0015824752838862911 -0.04262953020518416 0 -0.0016552180567459963 -0.042178594687399845 0 -0.0026874106181198221 -0.042441431139543996 0 -0.002673459701651228 -0.042414443241913805 0 -0.0026703475351983457 -0.042357789313661923 0 -0.0025503081875660823 -0.042122979516268276 0 -0.0024911567960630848 -0.042206697326537798 0 -0.0023467193649832703 -0.042119448371773463 0 -0.0024595174485547641 -0.042059146741175953 0 -0.0023936865248447791 -0.042063282127677827 0 -0.0024530018031983735 -0.042857617044361779 0 -0.0025565922225262807 -0.042707134277653248 0 -0.0026964264221753182 -0.042419774917715709 0 -0.002673459701651228 -0.042414443241913805 0 -0.0026268447352341554 -0.042440566969114232 0 -0.0026874106181198221 -0.042441431139543996 0 -0.0026964264221753182 -0.042419774917715709 0 -0.002673459701651228 -0.042414443241913805 0 -0.0024595174485547641 -0.042059146741175953 0 -0.0023791377960702565 -0.04203738095331138 0 -0.0023178431421442217 -0.042035704607499731 0 -0.0024595174485547641 -0.042059146741175953 0 -0.0023791377960702565 -0.04203738095331138 0 -0.0023936865248447791 -0.042063282127677827 0 -0.0023791377960702565 -0.04203738095331138 0 -0.0023936865248447791 -0.042063282127677827 0 -0.002375431741959868 -0.042015804940592011 0 -0.0023936865248447791 -0.042063282127677827 0 -0.002375431741959868 -0.042015804940592011 0 -0.0023899208265896824 -0.042010307296450305 0 -0.002375431741959868 -0.042015804940592011 0 -0.0023694239161110718 -0.041956236845534789 0 -0.0023899208265896824 -0.042010307296450305 0 -0.0023791377960702565 -0.04203738095331138 0 -0.002375431741959868 -0.042015804940592011 0 -0.002346586293398175 -0.041999213835654914 0 -0.002375431741959868 -0.042015804940592011 0 -0.0023694239161110718 -0.041956236845534789 0 -0.002346586293398175 -0.041999213835654914 0 -0.0023694239161110718 -0.041956236845534789 0 -0.002346586293398175 -0.041999213835654914 0 -0.0023351529534872892 -0.041950653488927771 0 -0.0023694239161110718 -0.041956236845534789 0 -0.0024027008713573515 -0.041937193568840077 0 -0.0023822584142018321 -0.041888241838340709 0 -0.0023694239161110718 -0.041956236845534789 0 -0.0023351529534872892 -0.041950653488927771 0 -0.0023515987714693943 -0.041893436784282076 0 -0.0023694239161110718 -0.041956236845534789 0 -0.0023515987714693943 -0.041893436784282076 0 -0.0023822584142018321 -0.041888241838340709 0 -0.0024027008713573515 -0.041937193568840077 0 -0.0024514671373518991 -0.041973831164728977 0 -0.0024165470036050202 -0.041883101289970956 0 -0.0024027008713573515 -0.041937193568840077 0 -0.0024165470036050202 -0.041883101289970956 0 -0.0023822584142018321 -0.041888241838340709 0 -0.0023694239161110718 -0.041956236845534789 0 -0.0024027008713573515 -0.041937193568840077 0 -0.0023899208265896824 -0.042010307296450305 0 -0.0024027008713573515 -0.041937193568840077 0 -0.0024514671373518991 -0.041973831164728977 0 -0.0023899208265896824 -0.042010307296450305 0 -0.002334790816930994 -0.042165217990967833 0 -0.0020630737747153239 -0.042623633024388673 0 -0.0023467193649832703 -0.042119448371773463 0 -0.0024514671373518991 -0.041973831164728977 0 -0.0023899208265896824 -0.042010307296450305 0 -0.0023467193649832703 -0.042119448371773463 0 -0.0016972691218304498 -0.043288820566307444 0 -0.0015824752838862911 -0.04262953020518416 0 -0.0023467193649832703 -0.042119448371773463 0 -0.0023936865248447791 -0.042063282127677827 0 -0.0023899208265896824 -0.042010307296450305 0 -0.0010871391481740383 -0.043296288070885543 0 -0.00075760162313947882 -0.044071930939068645 0 -0.0015824752838862911 -0.04262953020518416 0 -0.0010090391235440899 -0.042465374831135667 0 -0.0016552180567459963 -0.042178594687399845 0 -0.0010090391235440899 -0.042465374831135667 0 -0.001146528433015362 -0.043105588763177202 0 -0.00062850833960052344 -0.043499475825612297 0 -0.0015824752838862911 -0.04262953020518416 0 -0.0010090391235440899 -0.042465374831135667 0 -0.001146528433015362 -0.043105588763177202 0 -0.0016972691218304498 -0.043288820566307444 0 -0.0015824752838862911 -0.04262953020518416 0 -0.001146528433015362 -0.043105588763177202 0 -0.0020630737747153239 -0.042623633024388673 0 -0.0017071960162360765 -0.043153894946928062 0 -0.0024514671373518991 -0.041973831164728977 0 -0.0024590787028831657 -0.041862670622743729 0 -0.0024165470036050202 -0.041883101289970956 0 -0.0016972691218304498 -0.043288820566307444 0 -0.001146528433015362 -0.043105588763177202 0 -0.00078278491891695958 -0.043573244767314834 0 -0.0016972691218304498 -0.043288820566307444 0 -0.00078278491891695958 -0.043573244767314834 0 -0.00091259968241359964 -0.044424492957712565 0 -0.001146528433015362 -0.043105588763177202 0 -0.00078278491891695958 -0.043573244767314834 0 -0.00062850833960052344 -0.043499475825612297 0 -0.00047725085589708685 -0.044563923789481104 0 -0.00055776901193370766 -0.044516810171712586 0 -0.00049863089180289012 -0.044674319323832326 0 -0.00075760162313947882 -0.044071930939068645 0 -0.00047974543863260599 -0.044663661179763177 0 -0.00078278491891695958 -0.043573244767314834 0 -0.00064503219393614213 -0.043522049505649196 0 -0.00091259968241359964 -0.044424492957712565 0 -0.0007173774237031785 -0.044015596308498793 0 -0.00075760162313947882 -0.044071930939068645 0 -0.00075760162313947882 -0.044071930939068645 0 -0.00061595987993731433 -0.04445226208040421 0 -0.00047725085589708685 -0.044563923789481104 0 -0.00055776901193370766 -0.044516810171712586 0 -0.00044776400301206083 -0.044469975485900683 0 -0.0010203815818122831 -0.044541901220927563 0 -0.00093705422027597735 -0.044324918320239201 0 -0.00071666483074430255 -0.044407881180481938 0 -0.0011542614654431117 -0.044188381900777937 0 -0.0010203815818122831 -0.044541901220927563 0 -0.00093705422027597735 -0.044324918320239201 0 -0.0011542614654431117 -0.044188381900777937 0 -0.00093705422027597735 -0.044324918320239201 0 -0.00085808487001319219 -0.044160603476053613 0 -0.00093705422027597735 -0.044324918320239201 0 -0.00085808487001319219 -0.044160603476053613 0 -0.00071666483074430255 -0.044407881180481938 0 -0.00085808487001319219 -0.044160603476053613 0 -0.0008346941583596407 -0.04385450042255231 0 -0.0011104172211016832 -0.043892294010868915 0 -0.0011542614654431117 -0.044188381900777937 0 -0.00085808487001319219 -0.044160603476053613 0 -0.0011104172211016832 -0.043892294010868915 0 -0.0010090391235440899 -0.042465374831135667 0 -0.0016552180567459963 -0.042178594687399845 0 -0.0013977334482723693 -0.041573741970275462 0 -0.0010871391481740383 -0.043296288070885543 0 -0.0017510408991146815 -0.042994976843114166 0 -0.0011542614654431117 -0.044188381900777937 0 -0.0011104172211016832 -0.043892294010868915 0 -0.0012916733115938509 -0.043835589081591499 0 -0.0011104172211016832 -0.043892294010868915 0 -0.0012352330412818892 -0.043811911999259996 0 -0.0012916733115938509 -0.043835589081591499 0 -0.0011104172211016832 -0.043892294010868915 0 -0.0011860691539307762 -0.043803120217750319 0 -0.0011672107689895241 -0.043689825317186133 0 -0.0012814318900278134 -0.043405515896525186 0 -0.0008346941583596407 -0.04385450042255231 0 -0.0011672107689895241 -0.043689825317186133 0 -0.0014985014893690671 -0.04351612761763108 0 -0.0017510408991146815 -0.042994976843114166 0 -0.0015893220832500186 -0.043253574898866207 0 -0.0016993730250630795 -0.043260621107498967 0 -0.0016248462036613186 -0.043333144610629967 0 -0.0015893220832500186 -0.043253574898866207 0 -0.0013301780894597866 -0.043924242205243942 0 -0.0013538305763834322 -0.043570894118249687 0 -0.0015365473286245396 -0.043179955664118745 0 -0.0015947925620140929 -0.043145214987939356 0 -0.0011104172211016832 -0.043892294010868915 0 -0.0011860691539307762 -0.043803120217750319 0 -0.0012352330412818892 -0.043811911999259996 0 -0.0012482935189693657 -0.043853870514169051 0 -0.0012379269980950169 -0.04377591200121593 0 -0.0012938394242363665 -0.043757477902396785 0 -0.0011860691539307762 -0.043803120217750319 0 -0.0012482935189693657 -0.043853870514169051 0 -0.0012379269980950169 -0.04377591200121593 0 -0.0012379269980950169 -0.04377591200121593 0 -0.0012617127292855949 -0.043696662019728411 0 -0.0011672107689895241 -0.043689825317186133 0 -0.0012617127292855949 -0.043696662019728411 0 -0.0011672107689895241 -0.043689825317186133 0 -0.0013538305763834322 -0.043570894118249687 0 -0.0011860691539307762 -0.043803120217750319 0 -0.0012379269980950169 -0.04377591200121593 0 -0.0011672107689895241 -0.043689825317186133 0 -0.0012379269980950169 -0.04377591200121593 0 -0.0012617127292855949 -0.043696662019728411 0 -0.0012938394242363665 -0.043757477902396785 0 -0.0013301780894597866 -0.043924242205243942 0 -0.0012938394242363665 -0.043757477902396785 0 -0.0013538305763834322 -0.043570894118249687 0 -0.0012482935189693657 -0.043853870514169051 0 -0.0013301780894597866 -0.043924242205243942 0 -0.0012938394242363665 -0.043757477902396785 0 -0.0015947925620140929 -0.043145214987939356 0 -0.0017510408991146815 -0.042994976843114166 0 -0.0012617127292855949 -0.043696662019728411 0 -0.0012938394242363665 -0.043757477902396785 0 -0.0013538305763834322 -0.043570894118249687 0 -0.0012814318900278134 -0.043405515896525186 0 -0.0011672107689895241 -0.043689825317186133 0 -0.0013538305763834322 -0.043570894118249687 0 -0.0012474060766868276 -0.043475334071557528 0 -0.00068313856609940478 -0.044154654291844703 0 -0.00042578549951143425 -0.04385573949549737 0 -0.00081695613428739802 -0.043622012606115743 0 -0.00050869186207919083 -0.04453227109608289 0 -0.00081695613428739802 -0.043622012606115743 0 -0.0012814318900278134 -0.043405515896525186 0 -0.00050869186207919083 -0.04453227109608289 0 -0.0008346941583596407 -0.04385450042255231 0 -0.0011104172211016832 -0.043892294010868915 0 -0.0011672107689895241 -0.043689825317186133 0 -0.00042578549951143425 -0.04385573949549737 0 -0.00050869186207919083 -0.04453227109608289 0 -0.00025092977199388478 -0.044377390090580567 0 -0.00017205434182426327 -0.044155346398021038 0 -0.00025092977199388478 -0.044377390090580567 0 -0.00010226396322911418 -0.044555228308350119 0 -0.00025092977199388478 -0.044377390090580567 0 -0.00010226396322911418 -0.044555228308350119 0 -0.0001927390349445763 -0.044601722866579319 0 -0.00017205434182426327 -0.044155346398021038 0 -0.00042578549951143425 -0.04385573949549737 0 -0.00025092977199388478 -0.044377390090580567 0 -0.00017205434182426327 -0.044155346398021038 0 -5.2606411811948621e-05 -0.044480335094276534 0 -0.00010226396322911418 -0.044555228308350119 0 -5.2606411811948621e-05 -0.044480335094276534 0 -0.00010226396322911418 -0.044555228308350119 0 -4.9722187344643951e-06 -0.044651591958679508 0 -0.00010226396322911418 -0.044555228308350119 0 -6.2326926189686902e-05 -0.044673798735000478 0 -0.0001927390349445763 -0.044601722866579319 0 -6.2326926189686902e-05 -0.044673798735000478 0 -0.00013384935952080241 -0.044818992985134594 0 2.6558969759128237e-05 -0.044705309030000293 0 -6.2326926189686902e-05 -0.044673798735000478 0 -0.0001927390349445763 -0.044601722866579319 0 -0.00013384935952080241 -0.044818992985134594 0 -0.00010226396322911418 -0.044555228308350119 0 -6.2326926189686902e-05 -0.044673798735000478 0 -4.9722187344643951e-06 -0.044651591958679508 0 -0.00050869186207919083 -0.04453227109608289 0 -0.00025092977199388478 -0.044377390090580567 0 -0.0001927390349445763 -0.044601722866579319 0 -0.00050869186207919083 -0.04453227109608289 0 -0.0001927390349445763 -0.044601722866579319 0 -0.00013384935952080241 -0.044818992985134594 0 -0.00068313856609940478 -0.044154654291844703 0 -0.00023856166381417952 -0.044615350319169307 0 -0.00085808487001319219 -0.044160603476053613 0 -0.0008346941583596407 -0.04385450042255231 0 -0.00040938661776707266 -0.044272135899634295 0 -0.00085808487001319219 -0.044160603476053613 0 -0.00071666483074430255 -0.044407881180481938 0 -0.00040938661776707266 -0.044272135899634295 0 -0.00061595987993731433 -0.04445226208040421 0 -0.00023856166381417952 -0.044615350319169307 0 -0.00047725085589708685 -0.044563923789481104 0 -0.00044776400301206083 -0.044469975485900683 0 -0.00040216973935002344 -0.044598986150279754 0 -0.00044776400301206083 -0.044469975485900683 0 -0.00040216973935002344 -0.044598986150279754 0 -0.00033742859374096457 -0.044422662907760035 0 -0.00040216973935002344 -0.044598986150279754 0 -0.00026453258028351627 -0.044493996423212064 0 -0.00033742859374096457 -0.044422662907760035 0 -0.00023924542576718102 -0.044808671498405568 0 -0.00010806204528434013 -0.044869713649919818 0 -9.2126966378387894e-05 -0.044789812947356365 0 -0.00035166915916137937 -0.044691891935628933 0 -7.3370881005185211e-05 -0.044795950243886135 0 -0.00010806204528434013 -0.044869713649919818 0 -9.2126966378387894e-05 -0.044789812947356365 0 -1.3613861153086179e-05 -0.044928819922783636 0 -0.00023856166381417952 -0.044615350319169307 0 4.0712620828603416e-05 -0.044886747069347456 0 -4.3404346716851117e-06 -0.044980091089304328 0 -3.8802696202292167e-06 -0.044980174273627382 0 -3.6648206947416434e-06 -0.044987438890894432 0 -7.3370881005185211e-05 -0.044795950243886135 0 -0.00023856166381417952 -0.044615350319169307 0 -7.3370881005185211e-05 -0.044795950243886135 0 -1.5179794882012919e-06 -0.045003834444964481 0 3.2154413391504687e-05 -0.044967858483200493 0 -1.5097746288101836e-06 -0.044994208225152786 0 1.4563361649173979e-06 -0.044969242422476324 0 -4.3404346716851117e-06 -0.044980091089304328 0 -4.290338119307374e-06 -0.044986185781406486 0 -3.6648206947416434e-06 -0.044987438890894432 0 -1.5097746288101836e-06 -0.044994208225152786 0 1.4563361649173979e-06 -0.044969242422476324 0 -4.4901718107551492e-06 -0.044983122649651472 0 1.4563361649173979e-06 -0.044969242422476324 0 -1.3613861153086179e-05 -0.044928819922783636 0 -4.4901718107551492e-06 -0.044983122649651472 0 3.2154413391504687e-05 -0.044967858483200493 0 1.4563361649173979e-06 -0.044969242422476324 0 -1.3613861153086179e-05 -0.044928819922783636 0 -7.3370881005185211e-05 -0.044795950243886135 0 6.9675176073348692e-06 -0.044938935620320898 0 -1.3613861153086179e-05 -0.044928819922783636 0 -2.9404271617130342e-08 -0.044999945883616353 0 1.6594721270015966e-08 -0.044999960064901763 0 -1.3613861153086179e-05 -0.044928819922783636 0 -2.9404271617130342e-08 -0.044999945883616353 0 -4.4901718107551492e-06 -0.044983122649651472 0 -2.9404271617130342e-08 -0.044999945883616353 0 -4.4901718107551492e-06 -0.044983122649651472 0 -3.3043449192432203e-06 -0.044994409960017891 0 -2.9404271617130342e-08 -0.044999945883616353 0 -3.3043449192432203e-06 -0.044994409960017891 0 -9.0349421691311835e-07 -0.044998227758508279 0 -1.5097746288101836e-06 -0.044994208225152786 0 -4.4901718107551492e-06 -0.044983122649651472 0 -3.3043449192432203e-06 -0.044994409960017891 0 -1.5097746288101836e-06 -0.044994208225152786 0 -3.3043449192432203e-06 -0.044994409960017891 0 -9.0349421691311835e-07 -0.044998227758508279 0 -1.5179794882012919e-06 -0.045003834444964481 0 2.4329756697668939e-08 -0.044993367323879124 0 6.0994252836567959e-08 -0.044999379368538636 0 2.6558969759128237e-05 -0.044705309030000293 0 1.1411959394334775e-05 -0.04483901157594166 0 -2.9404271617130342e-08 -0.044999945883616353 0 6.4880107463953579e-09 -0.045000008206677336 0 -9.0349421691311835e-07 -0.044998227758508279 0 6.4880107463953579e-09 -0.045000008206677336 0 -9.0349421691311835e-07 -0.044998227758508279 0 -3.6648206947416434e-06 -0.044987438890894432 0 2.501997546578499e-08 -0.044999905669496403 0 4.0712620828603416e-05 -0.044886747069347456 0 -4.290338119307374e-06 -0.044986185781406486 0 -9.0349421691311835e-07 -0.044998227758508279 0 -3.6648206947416434e-06 -0.044987438890894432 0 2.6558969759128237e-05 -0.044705309030000293 0 1.2017619709160156e-05 -0.044737596728840492 0 -4.9722187344643951e-06 -0.044651591958679508 0 -6.2326926189686902e-05 -0.044673798735000478 0 2.6558969759128237e-05 -0.044705309030000293 0 -4.9722187344643951e-06 -0.044651591958679508 0 2.6558969759128237e-05 -0.044705309030000293 0 1.2017619709160156e-05 -0.044737596728840492 0 1.1411959394334775e-05 -0.04483901157594166 0 1.2017619709160156e-05 -0.044737596728840492 0 -4.9722187344643951e-06 -0.044651591958679508 0 6.7021127570218121e-06 -0.044686819946867351 0 1.2017619709160156e-05 -0.044737596728840492 0 6.7021127570218121e-06 -0.044686819946867351 0 1.1411959394334775e-05 -0.04483901157594166 0 -5.2606411811948621e-05 -0.044480335094276534 0 -4.9722187344643951e-06 -0.044651591958679508 0 6.7021127570218121e-06 -0.044686819946867351 0 -6.4868374806970877e-05 -0.044357047287124619 0 -5.2606411811948621e-05 -0.044480335094276534 0 6.7021127570218121e-06 -0.044686819946867351 0 -6.9542906019525955e-08 -0.04500001144097944 0 6.7021127570218121e-06 -0.044686819946867351 0 1.1411959394334775e-05 -0.04483901157594166 0 -6.9542906019525955e-08 -0.04500001144097944 0 6.0994252836567959e-08 -0.044999379368538636 0 1.1411959394334775e-05 -0.04483901157594166 0 0.0049574310032220086 -0.033941382168065339 0 0.006153450775086446 -0.034470694672244943 0 0.0043531110707387532 -0.03570924453129326 0 0.0032465405470633217 -0.033878978325325083 0 0.0049574310032220086 -0.033941382168065339 0 0.0043531110707387532 -0.03570924453129326 0 0.0032465405470633217 -0.033878978325325083 0 0.0043531110707387532 -0.03570924453129326 0 0.0025556150086618124 -0.035638548254339202 0 0.0032465405470633217 -0.033878978325325083 0 0.0015323051791672035 -0.032581890053430228 0 0.0032215799437336468 -0.03228752637048167 0 0.0032465405470633217 -0.033878978325325083 0 0.0044950314353777495 -0.032507996514183915 0 0.0032215799437336468 -0.03228752637048167 0 0.0049574310032220086 -0.033941382168065339 0 0.0044950314353777495 -0.032507996514183915 0 0.0060130737591054806 -0.032783347846582656 0 0.0032465405470633217 -0.033878978325325083 0 0.0049574310032220086 -0.033941382168065339 0 0.0044950314353777495 -0.032507996514183915 0 0.0049574310032220086 -0.033941382168065339 0 0.0060130737591054806 -0.032783347846582656 0 0.006153450775086446 -0.034470694672244943 0 0.0060130737591054806 -0.032783347846582656 0 0.0075655431910454903 -0.033685129120361146 0 0.0074140078891145765 -0.031261683499734925 0 0.0060130737591054806 -0.032783347846582656 0 0.0075655431910454903 -0.033685129120361146 0 0.006153450775086446 -0.034470694672244943 0 0.0090146614219553615 -0.032215301353469623 0 0.0075655431910454903 -0.033685129120361146 0 0.0074140078891145765 -0.031261683499734925 0 0.0078632853285675545 -0.035054589636871331 0 0.006153450775086446 -0.034470694672244943 0 0.0057973779220979434 -0.036051397263474408 0 0.0078632853285675545 -0.035054589636871331 0 0.0075655431910454903 -0.033685129120361146 0 0.006153450775086446 -0.034470694672244943 0 0.006153450775086446 -0.034470694672244943 0 0.0057973779220979434 -0.036051397263474408 0 0.0043531110707387532 -0.03570924453129326 0 0.0078632853285675545 -0.035054589636871331 0 0.0079198903353302538 -0.036317628825542458 0 0.0057973779220979434 -0.036051397263474408 0 0.0066556471293653966 -0.036456267788517537 0 0.0058148969579713159 -0.036063684414987654 0 0.005637575233711398 -0.036779591645624145 0 0.0053046590750568659 -0.037166053864057531 0 0.0057973779220979434 -0.036051397263474408 0 0.0053046590750568659 -0.037166053864057531 0 0.0057973779220979434 -0.036051397263474408 0 0.0044522357953003652 -0.037648982314878593 0 0.0057973779220979434 -0.036051397263474408 0 0.0044522357953003652 -0.037648982314878593 0 0.0043531110707387532 -0.03570924453129326 0 0.0043531110707387532 -0.03570924453129326 0 0.002709019469254067 -0.037509710702803796 0 0.0025556150086618124 -0.035638548254339202 0 0.0023226868564803164 -0.039808102060250254 0 0.0044522357953003652 -0.037648982314878593 0 0.002709019469254067 -0.037509710702803796 0 0.0044522357953003652 -0.037648982314878593 0 0.0043531110707387532 -0.03570924453129326 0 0.002709019469254067 -0.037509710702803796 0 0.0023226868564803164 -0.039808102060250254 0 0.002709019469254067 -0.037509710702803796 0 0.001112619922049964 -0.038979736843978915 0 0.002709019469254067 -0.037509710702803796 0 0.001112619922049964 -0.038979736843978915 0 0.0006705226294134659 -0.036366895232004738 0 0.001112619922049964 -0.038979736843978915 0 0.0006705226294134659 -0.036366895232004738 0 -0.0013022838905922555 -0.03827319112881334 0 0.002709019469254067 -0.037509710702803796 0 0.0006705226294134659 -0.036366895232004738 0 0.0025556150086618124 -0.035638548254339202 0 -0.0024987364050869576 -0.040082520455061221 0 -0.0026926149223874775 -0.040026141263379694 0 -0.0013022838905922555 -0.03827319112881334 0 0.0010020909365765301 -0.039137527721907178 0 -0.00099225358392104066 -0.040004697970424129 0 0.001112619922049964 -0.038979736843978915 0 -0.0024987364050869576 -0.040082520455061221 0 -0.0013022838905922555 -0.03827319112881334 0 0.0006705226294134659 -0.036366895232004738 0 -0.0013022838905922555 -0.03827319112881334 0 -0.0019748104737289229 -0.036030163395120933 0 -0.0022507849380562837 -0.041467191934586804 0 -0.0026926149223874775 -0.040026141263379694 0 -0.0031101416714527487 -0.042012038586350393 0 -0.00269313441573107 -0.039867988308205711 0 -0.0024623708247888216 -0.038997728987241742 0 -0.0026926149223874775 -0.040026141263379694 0 -0.0013022838905922555 -0.03827319112881334 0 -0.0019748104737289229 -0.036030163395120933 0 -0.0022507849380562837 -0.041467191934586804 0 -0.0023617411372765687 -0.042441155216145547 0 -0.0031101416714527487 -0.042012038586350393 0 -0.0023617411372765687 -0.042441155216145547 0 -0.0031101416714527487 -0.042012038586350393 0 -0.0026891920973733364 -0.042652400255354772 0 0.0006705226294134659 -0.036366895232004738 0 -0.0019748104737289229 -0.036030163395120933 0 -0.00078490608468850288 -0.03331546414069033 0 -0.0024623708247888216 -0.038997728987241742 0 -0.001791634818691054 -0.038043365510147628 0 -0.0027886200292740844 -0.042819387610259538 0 -0.0026891920973733364 -0.042652400255354772 0 -0.0026198066972446055 -0.042878739786497817 0 -0.0031101416714527487 -0.042012038586350393 0 -0.0027886200292740844 -0.042819387610259538 0 -0.0026891920973733364 -0.042652400255354772 0 -0.0023617411372765687 -0.042441155216145547 0 -0.0026891920973733364 -0.042652400255354772 0 -0.0024186577187396245 -0.042877962919640494 0 -0.0026891920973733364 -0.042652400255354772 0 -0.0024186577187396245 -0.042877962919640494 0 -0.0026198066972446055 -0.042878739786497817 0 0.0032465405470633217 -0.033878978325325083 0 0.0014624729854124067 -0.034383667917928774 0 0.0025556150086618124 -0.035638548254339202 0 0.0006705226294134659 -0.036366895232004738 0 0.0014624729854124067 -0.034383667917928774 0 0.0025556150086618124 -0.035638548254339202 0 0.0006705226294134659 -0.036366895232004738 0 -0.00078490608468850288 -0.03331546414069033 0 0.0014624729854124067 -0.034383667917928774 0 -0.00078490608468850288 -0.03331546414069033 0 0.0014624729854124067 -0.034383667917928774 0 0.0015323051791672035 -0.032581890053430228 0 0.0032465405470633217 -0.033878978325325083 0 0.0014624729854124067 -0.034383667917928774 0 0.0015323051791672035 -0.032581890053430228 0 0.0024457746406720228 -0.031216758935851623 0 0.0015323051791672035 -0.032581890053430228 0 0.0032215799437336468 -0.03228752637048167 0 0.0024457746406720228 -0.031216758935851623 0 0.0014278037669959687 -0.031391064651264233 0 0.0015323051791672035 -0.032581890053430228 0 -0.00078490608468850288 -0.03331546414069033 0 0.0015323051791672035 -0.032581890053430228 0 0.00031016616598663059 -0.030950589885496111 0 0.0014278037669959687 -0.031391064651264233 0 0.0015323051791672035 -0.032581890053430228 0 0.00031016616598663059 -0.030950589885496111 0 -0.001791634818691054 -0.038043365510147628 0 -0.00097191183059892894 -0.036806230728969429 0 -0.0023369536871749759 -0.042816718082224398 0 -0.0022930466349029839 -0.042462064664262132 0 -0.0019439744372412046 -0.042149053608210411 0 0.0014278037669959687 -0.031391064651264233 0 0.00031016616598663059 -0.030950589885496111 0 0.0016561712266303815 -0.03066794768322284 0 -0.00097191183059892894 -0.036806230728969429 0 -0.00037794113108538654 -0.035935734658346846 0 0.00031016616598663059 -0.030950589885496111 0 0.0016194079935210159 -0.029932921021245364 0 0.001545352904164492 -0.029057957533331985 0 -0.0023369536871749759 -0.042816718082224398 0 -0.0022930466349029839 -0.042462064664262132 0 -0.0024887898023990928 -0.042817829924167952 0 0.0016194079935210159 -0.029932921021245364 0 0.0023584143288333781 -0.030115616334368746 0 0.0020122615907493262 -0.029156670658668154 0 0.0016194079935210159 -0.029932921021245364 0 0.0023584143288333781 -0.030115616334368746 0 0.0016561712266303815 -0.03066794768322284 0 0.0024457746406720228 -0.031216758935851623 0 0.0023584143288333781 -0.030115616334368746 0 0.0016561712266303815 -0.03066794768322284 0 0.0024457746406720228 -0.031216758935851623 0 0.0014278037669959687 -0.031391064651264233 0 0.0016561712266303815 -0.03066794768322284 0 0.00031016616598663059 -0.030950589885496111 0 0.0016194079935210159 -0.029932921021245364 0 0.0016561712266303815 -0.03066794768322284 0 -0.0024186577187396245 -0.042877962919640494 0 -0.0024259390041778944 -0.043063055851404554 0 -0.0026198066972446055 -0.042878739786497817 0 -0.0024259390041778944 -0.043063055851404554 0 -0.0026198066972446055 -0.042878739786497817 0 -0.0026162789453912385 -0.042930953128435874 0 -0.0027886200292740844 -0.042819387610259538 0 -0.0026198066972446055 -0.042878739786497817 0 -0.0026162789453912385 -0.042930953128435874 0 -0.0027886200292740844 -0.042819387610259538 0 -0.0023369536871749759 -0.042816718082224398 0 -0.0026162789453912385 -0.042930953128435874 0 -0.0022948174430164705 -0.042498059867457007 0 -0.0025565922225262807 -0.042707134277653248 0 -0.0022930466349029839 -0.042462064664262132 0 -0.0024887898023990928 -0.042817829924167952 0 -0.002613583799694074 -0.042997074055613572 0 -0.0023369536871749759 -0.042816718082224398 0 -0.0026162789453912385 -0.042930953128435874 0 -0.0024887898023990928 -0.042817829924167952 0 -0.0022930466349029839 -0.042462064664262132 0 -0.0026268447352341554 -0.042440566969114232 0 -0.0024657056536826023 -0.04234340577329665 0 -0.0026162789453912385 -0.042930953128435874 0 -0.0024887898023990928 -0.042817829924167952 0 -0.002613583799694074 -0.042997074055613572 0 -0.0020953992733306758 -0.043338943421506897 0 -0.0024259390041778944 -0.043063055851404554 0 -0.002613583799694074 -0.042997074055613572 0 -0.0024259390041778944 -0.043063055851404554 0 -0.0026162789453912385 -0.042930953128435874 0 -0.002613583799694074 -0.042997074055613572 0 -0.002673459701651228 -0.042414443241913805 0 -0.0026268447352341554 -0.042440566969114232 0 -0.0026703475351983457 -0.042357789313661923 0 -0.002346586293398175 -0.041999213835654914 0 -0.0023178431421442217 -0.042035704607499731 0 -0.0023222005411195879 -0.041995303763507054 0 -0.0023791377960702565 -0.04203738095331138 0 -0.002346586293398175 -0.041999213835654914 0 -0.0023178431421442217 -0.042035704607499731 0 -0.0026268447352341554 -0.042440566969114232 0 -0.0026703475351983457 -0.042357789313661923 0 -0.0024657056536826023 -0.04234340577329665 0 -0.0023178431421442217 -0.042035704607499731 0 -0.0023031655130856788 -0.042013272356235982 0 -0.0023222005411195879 -0.041995303763507054 0 -0.0026703475351983457 -0.042357789313661923 0 -0.0024657056536826023 -0.04234340577329665 0 -0.0022832787288669834 -0.042077384441116458 0 -0.0023178431421442217 -0.042035704607499731 0 -0.0023031655130856788 -0.042013272356235982 0 -0.0022832787288669834 -0.042077384441116458 0 -0.0024911567960630848 -0.042206697326537798 0 -0.0022844203062508568 -0.042080582969578388 0 -0.0022930466349029839 -0.042462064664262132 0 -0.0024657056536826023 -0.04234340577329665 0 -0.0022832787288669834 -0.042077384441116458 0 -0.0022680765491220499 -0.041951066693102702 0 -0.0023031655130856788 -0.042013272356235982 0 -0.0022832787288669834 -0.042077384441116458 0 -0.0022680765491220499 -0.041951066693102702 0 -0.0023091661478818822 -0.041951694145428056 0 -0.0022857319928424992 -0.041891257667355686 0 -0.0022680765491220499 -0.041951066693102702 0 -0.0023031655130856788 -0.042013272356235982 0 -0.0023091661478818822 -0.041951694145428056 0 -0.0023222005411195879 -0.041995303763507054 0 -0.0023091661478818822 -0.041951694145428056 0 -0.0023351529534872892 -0.041950653488927771 0 -0.0023031655130856788 -0.042013272356235982 0 -0.0023222005411195879 -0.041995303763507054 0 -0.0023091661478818822 -0.041951694145428056 0 -0.0023091661478818822 -0.041951694145428056 0 -0.0023351529534872892 -0.041950653488927771 0 -0.0023214691048793938 -0.041894164374978941 0 -0.0023091661478818822 -0.041951694145428056 0 -0.0023214691048793938 -0.041894164374978941 0 -0.0022857319928424992 -0.041891257667355686 0 -0.0023351529534872892 -0.041950653488927771 0 -0.0023214691048793938 -0.041894164374978941 0 -0.0023515987714693943 -0.041893436784282076 0 -0.002346586293398175 -0.041999213835654914 0 -0.0023222005411195879 -0.041995303763507054 0 -0.0023351529534872892 -0.041950653488927771 0 0.0016194079935210159 -0.029932921021245364 0 0.001545352904164492 -0.029057957533331985 0 0.0020122615907493262 -0.029156670658668154 0 -0.0022930466349029839 -0.042462064664262132 0 -0.0019439744372412046 -0.042149053608210411 0 -0.0021610317099897951 -0.04217310013848688 0 -0.0022930466349029839 -0.042462064664262132 0 -0.0022832787288669834 -0.042077384441116458 0 -0.0021610317099897951 -0.04217310013848688 0 -0.0019439744372412046 -0.042149053608210411 0 -0.0021610317099897951 -0.04217310013848688 0 -0.002115112580189784 -0.041931078193962287 0 -0.0022832787288669834 -0.042077384441116458 0 -0.0021610317099897951 -0.04217310013848688 0 -0.002115112580189784 -0.041931078193962287 0 -0.0022680765491220499 -0.041951066693102702 0 -0.0022832787288669834 -0.042077384441116458 0 -0.002115112580189784 -0.041931078193962287 0 -0.0022680765491220499 -0.041951066693102702 0 -0.002115112580189784 -0.041931078193962287 0 -0.0022154789351372926 -0.041825724880279004 0 -0.00037794113108538654 -0.035935734658346846 0 0.00076535550118235712 -0.033848701860044531 0 -0.0019439744372412046 -0.042149053608210411 0 -0.002115112580189784 -0.041931078193962287 0 -0.0018612496166403418 -0.041789908396826392 0 0.001545352904164492 -0.029057957533331985 0 0.0020122615907493262 -0.029156670658668154 0 0.002021431993355154 -0.028569355269307914 0 0.0023331692671358898 -0.028920953302162575 0 0.0022655160082978442 -0.029074182885183424 0 0.0021267981051005147 -0.028800884096222373 0 0.0023098543248318494 -0.027086730557032583 0 0.00076535550118235712 -0.033848701860044531 0 0.0023709883183437187 -0.028808586467516963 0 0.0023331692671358898 -0.028920953302162575 0 0.0021267981051005147 -0.028800884096222373 0 0.0023709883183437187 -0.028808586467516963 0 0.0024803957417411683 -0.028879791316186638 0 0.0025058289932405353 -0.02870348082665021 0 0.0023709883183437187 -0.028808586467516963 0 0.0023331692671358898 -0.028920953302162575 0 0.0024803957417411683 -0.028879791316186638 0 0.0044236418315015159 -0.028845481696538108 0 0.0044922940211228135 -0.030169388454671361 0 0.0068601759900086745 -0.028476530064205686 0 0.0023331692671358898 -0.028920953302162575 0 0.0024123267635636756 -0.029049197291605378 0 0.0024803957417411683 -0.028879791316186638 0 0.0023331692671358898 -0.028920953302162575 0 0.0024123267635636756 -0.029049197291605378 0 0.0022655160082978442 -0.029074182885183424 0 0.0044236418315015159 -0.028845481696538108 0 0.0031669361542064505 -0.029618077406863483 0 0.0038683154122909251 -0.02962753266801648 0 0.0020122615907493262 -0.029156670658668154 0 0.0024123267635636756 -0.029049197291605378 0 0.0022655160082978442 -0.029074182885183424 0 0.0020122615907493262 -0.029156670658668154 0 0.0044236418315015159 -0.028845481696538108 0 0.0031669361542064505 -0.029618077406863483 0 0.0021071214240828483 -0.029114182061867888 0 0.0034123363190551336 -0.028947935900729162 0 0.0020122615907493262 -0.029156670658668154 0 0.0022655160082978442 -0.029074182885183424 0 0.002021431993355154 -0.028569355269307914 0 0.0023584143288333781 -0.030115616334368746 0 0.0020122615907493262 -0.029156670658668154 0 0.0031669361542064505 -0.029618077406863483 0 0.0023584143288333781 -0.030115616334368746 0 0.0032347216003118877 -0.030291515176425081 0 0.0031669361542064505 -0.029618077406863483 0 0.0024457746406720228 -0.031216758935851623 0 0.0032347216003118877 -0.030291515176425081 0 0.0039291771574696526 -0.03121147379743892 0 0.0024457746406720228 -0.031216758935851623 0 0.0023584143288333781 -0.030115616334368746 0 0.0032347216003118877 -0.030291515176425081 0 0.0032347216003118877 -0.030291515176425081 0 0.0031669361542064505 -0.029618077406863483 0 0.0038683154122909251 -0.02962753266801648 0 0.0032347216003118877 -0.030291515176425081 0 0.0038683154122909251 -0.02962753266801648 0 0.0044922940211228135 -0.030169388454671361 0 0.0044236418315015159 -0.028845481696538108 0 0.0038683154122909251 -0.02962753266801648 0 0.0044922940211228135 -0.030169388454671361 0 0.0044922940211228135 -0.030169388454671361 0 0.0039291771574696526 -0.03121147379743892 0 0.0057035405732010543 -0.030824935798442799 0 0.0032347216003118877 -0.030291515176425081 0 0.0044922940211228135 -0.030169388454671361 0 0.0039291771574696526 -0.03121147379743892 0 0.0044950314353777495 -0.032507996514183915 0 0.0039291771574696526 -0.03121147379743892 0 0.0057035405732010543 -0.030824935798442799 0 0.0044950314353777495 -0.032507996514183915 0 0.0039291771574696526 -0.03121147379743892 0 0.0032215799437336468 -0.03228752637048167 0 0.0024457746406720228 -0.031216758935851623 0 0.0039291771574696526 -0.03121147379743892 0 0.0032215799437336468 -0.03228752637048167 0 0.0086826749874973925 -0.030619233991967924 0 0.0074140078891145765 -0.031261683499734925 0 0.0077166141316063119 -0.029392590307440538 0 0.0074140078891145765 -0.031261683499734925 0 0.0057035405732010543 -0.030824935798442799 0 0.0077166141316063119 -0.029392590307440538 0 0.0060130737591054806 -0.032783347846582656 0 0.0074140078891145765 -0.031261683499734925 0 0.0057035405732010543 -0.030824935798442799 0 0.0044950314353777495 -0.032507996514183915 0 0.0060130737591054806 -0.032783347846582656 0 0.0057035405732010543 -0.030824935798442799 0 0.0044922940211228135 -0.030169388454671361 0 0.0057035405732010543 -0.030824935798442799 0 0.0068601759900086745 -0.028476530064205686 0 0.0057035405732010543 -0.030824935798442799 0 0.0077166141316063119 -0.029392590307440538 0 0.0068601759900086745 -0.028476530064205686 0 0.0090365184669666167 -0.028554526487014075 0 0.0077166141316063119 -0.029392590307440538 0 0.0068601759900086745 -0.028476530064205686 0 0.0028212484551066079 -0.028939148505362857 0 0.0027213692498619779 -0.0288055922997318 0 0.0026131934125440208 -0.028960193802118117 0 0.005878409184639514 -0.028738860268056776 0 0.0047546522609784592 -0.028743250785841577 0 0.0024123267635636756 -0.029049197291605378 0 0.0026131934125440208 -0.028960193802118117 0 0.0024803957417411683 -0.028879791316186638 0 0.0034123363190551336 -0.028947935900729162 0 0.0047546522609784592 -0.028743250785841577 0 0.0024803957417411683 -0.028879791316186638 0 0.0026009834861507254 -0.028786799141219312 0 0.0025058289932405353 -0.02870348082665021 0 0.0026131934125440208 -0.028960193802118117 0 0.0024803957417411683 -0.028879791316186638 0 0.0026009834861507254 -0.028786799141219312 0 0.0027213692498619779 -0.0288055922997318 0 0.0026131934125440208 -0.028960193802118117 0 0.0026009834861507254 -0.028786799141219312 0 0.0027213692498619779 -0.0288055922997318 0 0.0026009834861507254 -0.028786799141219312 0 0.0026698192406573078 -0.028625598410359505 0 0.0026698192406573078 -0.028625598410359505 0 0.0025058289932405353 -0.02870348082665021 0 0.002601225134598525 -0.028548766302826573 0 0.0026009834861507254 -0.028786799141219312 0 0.0026698192406573078 -0.028625598410359505 0 0.0025058289932405353 -0.02870348082665021 0 0.0025058289932405353 -0.02870348082665021 0 0.0024682720866702696 -0.028552388554956298 0 0.002601225134598525 -0.028548766302826573 0 0.0026698192406573078 -0.028625598410359505 0 0.002601225134598525 -0.028548766302826573 0 0.0026938656694276155 -0.028464786365082716 0 0.002601225134598525 -0.028548766302826573 0 0.0026938656694276155 -0.028464786365082716 0 0.0025627414632296906 -0.02836941954421825 0 0.0026938656694276155 -0.028464786365082716 0 0.0025627414632296906 -0.02836941954421825 0 0.0027234196630877721 -0.028396238554751589 0 0.0019393308556526639 -0.030714362729165175 0 0.0013564384421451978 -0.032087371196509527 0 0.0024682720866702696 -0.028552388554956298 0 0.002601225134598525 -0.028548766302826573 0 0.0025627414632296906 -0.02836941954421825 0 0.0024682720866702696 -0.028552388554956298 0 0.0025627414632296906 -0.02836941954421825 0 0.0023209698678780086 -0.028460544267080022 0 0.00094027229436955838 -0.033278792549117218 0 0.00080832456500471263 -0.03320142850585505 0 0.00071164060220201084 -0.033342385343881682 0 0.00094027229436955838 -0.033278792549117218 0 0.00080832456500471263 -0.03320142850585505 0 0.00090002629602247341 -0.03305953674052501 0 0.0025627414632296906 -0.02836941954421825 0 0.0027234196630877721 -0.028396238554751589 0 0.0027369596859683361 -0.028318725185576744 0 0.00094027229436955838 -0.033278792549117218 0 0.0010266062415252122 -0.033120804973440346 0 0.0011694771692670127 -0.033148794943675869 0 0.0019393308556526639 -0.030714362729165175 0 0.00125200967748639 -0.03019211788842785 0 0.00051551327261693748 -0.033305459899904299 0 0.00032301902420811909 -0.033208994764242571 0 0.00066546528009327189 -0.03311558759037108 0 0.00051551327261693748 -0.033305459899904299 0 0.00071164060220201084 -0.033342385343881682 0 0.00053540950330285928 -0.033422279827653827 0 0.00051551327261693748 -0.033305459899904299 0 0.00039482162728262982 -0.033345556625784381 0 0.00053540950330285928 -0.033422279827653827 0 0.00051551327261693748 -0.033305459899904299 0 0.00039482162728262982 -0.033345556625784381 0 0.00032301902420811909 -0.033208994764242571 0 0.00051551327261693748 -0.033305459899904299 0 0.00068216603932211187 -0.033240158673782681 0 0.00066546528009327189 -0.03311558759037108 0 0.00080832456500471263 -0.03320142850585505 0 0.00068216603932211187 -0.033240158673782681 0 0.00066546528009327189 -0.03311558759037108 0 0.00080832456500471263 -0.03320142850585505 0 0.00068216603932211187 -0.033240158673782681 0 0.00071164060220201084 -0.033342385343881682 0 0.00051551327261693748 -0.033305459899904299 0 0.00068216603932211187 -0.033240158673782681 0 0.00071164060220201084 -0.033342385343881682 0 0.00062896901699345845 -0.033523147641211185 0 0.0013564384421451978 -0.032087371196509527 0 0.00071164060220201084 -0.033342385343881682 0 0.00065018230560673926 -0.033515622074370845 0 0.00053540950330285928 -0.033422279827653827 0 0.00094027229436955838 -0.033278792549117218 0 0.00071164060220201084 -0.033342385343881682 0 0.00067063989803323469 -0.033431001824018355 0 0.0013564384421451978 -0.032087371196509527 0 -4.6228393770234967e-06 -0.034123799493654343 0 0.00065018230560673926 -0.033515622074370845 0 0.00053540950330285928 -0.033422279827653827 0 0.0004051410577780158 -0.033509091500318604 0 0.00065018230560673926 -0.033515622074370845 0 0.0004051410577780158 -0.033509091500318604 0 0.00025542652283958023 -0.033731655907189302 0 0.00039482162728262982 -0.033345556625784381 0 0.00053540950330285928 -0.033422279827653827 0 0.0004051410577780158 -0.033509091500318604 0 0.0023209698678780086 -0.028460544267080022 0 0.0022321587155543412 -0.028619356784528489 0 0.0023547506542458624 -0.028676527918938603 0 0.0010537696211971744 -0.033377246243961788 0 0.00075786788033461029 -0.033961343553085749 0 0.00025542652283958023 -0.033731655907189302 0 0.0013564384421451978 -0.032087371196509527 0 0.0017473809243146344 -0.030688219821680827 0 0.0024682720866702696 -0.028552388554956298 0 0.0023209698678780086 -0.028460544267080022 0 0.0023547506542458624 -0.028676527918938603 0 0.0025058289932405353 -0.02870348082665021 0 0.0024682720866702696 -0.028552388554956298 0 0.0023547506542458624 -0.028676527918938603 0 0.0023709883183437187 -0.028808586467516963 0 0.0025058289932405353 -0.02870348082665021 0 0.0023547506542458624 -0.028676527918938603 0 0.0017473809243146344 -0.030688219821680827 0 0.00076535550118235712 -0.033848701860044531 0 0.0023709883183437187 -0.028808586467516963 0 0.0023547506542458624 -0.028676527918938603 0 0.0021267981051005147 -0.028800884096222373 0 0.0022321587155543412 -0.028619356784528489 0 0.0023547506542458624 -0.028676527918938603 0 0.0021267981051005147 -0.028800884096222373 0 -0.0018612496166403418 -0.041789908396826392 0 -0.0020864603442411786 -0.04177534863541766 0 -0.0020411592523174988 -0.041649807295184513 0 0.00076535550118235712 -0.033848701860044531 0 -0.001025047014530249 -0.038729347820902538 0 -0.002115112580189784 -0.041931078193962287 0 -0.0018612496166403418 -0.041789908396826392 0 -0.0020864603442411786 -0.04177534863541766 0 -0.002115112580189784 -0.041931078193962287 0 -0.0020864603442411786 -0.04177534863541766 0 -0.0022154789351372926 -0.041825724880279004 0 -0.0020864603442411786 -0.04177534863541766 0 -0.0021833627393550948 -0.041709922982329659 0 -0.0022154789351372926 -0.041825724880279004 0 -0.0020864603442411786 -0.04177534863541766 0 -0.0021833627393550948 -0.041709922982329659 0 -0.0020411592523174988 -0.041649807295184513 0 -0.0021833627393550948 -0.041709922982329659 0 -0.0022041172309662698 -0.041648581826689852 0 -0.0021475898847329155 -0.041565319235646402 0 -0.0021833627393550948 -0.041709922982329659 0 -0.0020411592523174988 -0.041649807295184513 0 -0.0021475898847329155 -0.041565319235646402 0 0.00075786788033461029 -0.033961343553085749 0 0.00047996156023007874 -0.034488299954211828 0 0.00025542652283958023 -0.033731655907189302 0 0.00047996156023007874 -0.034488299954211828 0 0.00010188113383873856 -0.033789489240151509 0 0.00025542652283958023 -0.033731655907189302 0 -0.0023338967673503463 -0.041838683061260165 0 -0.0023116996153712335 -0.04180011315105716 0 -0.0023494590514929938 -0.041806779767294168 0 -0.0023338967673503463 -0.041838683061260165 0 -0.0023214691048793938 -0.041894164374978941 0 -0.0023515987714693943 -0.041893436784282076 0 -0.0023338967673503463 -0.041838683061260165 0 -0.0023214691048793938 -0.041894164374978941 0 -0.0023005246344177002 -0.041833613825412785 0 -0.0023214691048793938 -0.041894164374978941 0 -0.0023005246344177002 -0.041833613825412785 0 -0.0022857319928424992 -0.041891257667355686 0 -0.0023338967673503463 -0.041838683061260165 0 -0.0023005246344177002 -0.041833613825412785 0 -0.0023116996153712335 -0.04180011315105716 0 -0.0023005246344177002 -0.041833613825412785 0 -0.002274043878868448 -0.041761901266539822 0 -0.0023116996153712335 -0.04180011315105716 0 -0.0023005246344177002 -0.041833613825412785 0 -0.0022154789351372926 -0.041825724880279004 0 -0.002274043878868448 -0.041761901266539822 0 -0.0023005246344177002 -0.041833613825412785 0 -0.0022857319928424992 -0.041891257667355686 0 -0.0022154789351372926 -0.041825724880279004 0 -0.0022680765491220499 -0.041951066693102702 0 -0.0022857319928424992 -0.041891257667355686 0 -0.0022154789351372926 -0.041825724880279004 0 -0.0021833627393550948 -0.041709922982329659 0 -0.0022154789351372926 -0.041825724880279004 0 -0.002274043878868448 -0.041761901266539822 0 -0.0021833627393550948 -0.041709922982329659 0 -0.002274043878868448 -0.041761901266539822 0 -0.0022562856805324054 -0.041683940636506232 0 -0.0021833627393550948 -0.041709922982329659 0 -0.0022562856805324054 -0.041683940636506232 0 -0.0022041172309662698 -0.041648581826689852 0 -0.002274043878868448 -0.041761901266539822 0 -0.0022991460578167555 -0.041728794945163468 0 -0.0022562856805324054 -0.041683940636506232 0 -0.002274043878868448 -0.041761901266539822 0 -0.0023116996153712335 -0.04180011315105716 0 -0.0023258162783738466 -0.041770236839609336 0 -0.002274043878868448 -0.041761901266539822 0 -0.0022991460578167555 -0.041728794945163468 0 -0.0023258162783738466 -0.041770236839609336 0 -0.0023258162783738466 -0.041770236839609336 0 -0.002341551572462899 -0.04175362092073534 0 -0.0023635507182140957 -0.041787553124170464 0 -0.0022991460578167555 -0.041728794945163468 0 -0.0023258162783738466 -0.041770236839609336 0 -0.002341551572462899 -0.04175362092073534 0 -0.0023116996153712335 -0.04180011315105716 0 -0.0023258162783738466 -0.041770236839609336 0 -0.0023494590514929938 -0.041806779767294168 0 -0.0023258162783738466 -0.041770236839609336 0 -0.0023494590514929938 -0.041806779767294168 0 -0.0023635507182140957 -0.041787553124170464 0 -0.0023286937232115472 -0.04172073909593367 0 -0.0023021332330545037 -0.041703640334456761 0 -0.0023046369845292005 -0.041692053614718422 0 -0.0023286937232115472 -0.04172073909593367 0 -0.002341551572462899 -0.04175362092073534 0 -0.0023021332330545037 -0.041703640334456761 0 -0.0022991460578167555 -0.041728794945163468 0 -0.002341551572462899 -0.04175362092073534 0 -0.0023021332330545037 -0.041703640334456761 0 -0.0022991460578167555 -0.041728794945163468 0 -0.0023021332330545037 -0.041703640334456761 0 -0.0022562856805324054 -0.041683940636506232 0 -0.0023021332330545037 -0.041703640334456761 0 -0.0023046369845292005 -0.041692053614718422 0 -0.0022873218215175677 -0.0416764624212837 0 -0.0023046369845292005 -0.041692053614718422 0 -0.0022873218215175677 -0.0416764624212837 0 -0.0022878998065687492 -0.041666552152787244 0 -0.0021118665478615187 -0.040236821686863281 0 -0.0021112598080519074 -0.041882872812812486 0 -0.0022530161379326077 -0.04165809876042588 0 -0.0022041172309662698 -0.041648581826689852 0 -0.0021475898847329155 -0.041565319235646402 0 -0.002395677892494731 -0.041374379900457184 0 -0.0021475898847329155 -0.041565319235646402 0 -0.0021911793863601688 -0.041324292459243496 0 -0.0022530161379326077 -0.04165809876042588 0 -0.0022878998065687492 -0.041666552152787244 0 -0.0021475898847329155 -0.041565319235646402 0 -0.0023021332330545037 -0.041703640334456761 0 -0.0022873218215175677 -0.0416764624212837 0 -0.0022530161379326077 -0.04165809876042588 0 -0.0022873218215175677 -0.0416764624212837 0 -0.0022530161379326077 -0.04165809876042588 0 -0.0022878998065687492 -0.041666552152787244 0 -0.0023021332330545037 -0.041703640334456761 0 -0.0022530161379326077 -0.04165809876042588 0 -0.0022562856805324054 -0.041683940636506232 0 -0.0022530161379326077 -0.04165809876042588 0 -0.0022562856805324054 -0.041683940636506232 0 -0.0022041172309662698 -0.041648581826689852 0 -0.0021118665478615187 -0.040236821686863281 0 -0.0010639777754356493 -0.036321924844868542 0 -0.0015056321872584763 -0.036315807703838347 0 -0.0014331024133387479 -0.036248613516135585 0 -0.0016261874357240457 -0.036296986803873672 0 -0.0010639777754356493 -0.036321924844868542 0 -0.0014809144571940112 -0.036267814996977739 0 -0.0015056321872584763 -0.036315807703838347 0 -0.0016261874357240457 -0.036296986803873672 0 -0.0015713294722414779 -0.036409852990354902 0 -0.0014451719646410512 -0.036346871650198474 0 -0.0015056321872584763 -0.036315807703838347 0 -0.0015713294722414779 -0.036409852990354902 0 -0.0014451719646410512 -0.036346871650198474 0 -0.0013636343783872691 -0.03644514815641807 0 -0.0015713294722414779 -0.036409852990354902 0 -0.0014417275629973756 -0.036278901204162335 0 -0.0015056321872584763 -0.036315807703838347 0 -0.0014331024133387479 -0.036248613516135585 0 -0.0014451719646410512 -0.036346871650198474 0 -0.0014417275629973756 -0.036278901204162335 0 -0.0013312261309131853 -0.036282111984040757 0 -0.0014451719646410512 -0.036346871650198474 0 -0.0014417275629973756 -0.036278901204162335 0 -0.0015056321872584763 -0.036315807703838347 0 -0.0019045747837242812 -0.038788997957935202 0 -0.0014616046058716129 -0.038042824198221595 0 -0.0013312261309131853 -0.036282111984040757 0 -0.0013636343783872691 -0.03644514815641807 0 -0.0010076445145684072 -0.036447985049481102 0 -0.0021118665478615187 -0.040236821686863281 0 -0.0019045747837242812 -0.038788997957935202 0 -0.0014417275629973756 -0.036278901204162335 0 -0.0014331024133387479 -0.036248613516135585 0 -0.0013542348548259938 -0.036316919456881432 0 -0.0023046369845292005 -0.041692053614718422 0 -0.0022878998065687492 -0.041666552152787244 0 -0.0023054685846435282 -0.041678159502138962 0 -0.0016587093976581275 -0.037727520517741218 0 -0.0019045747837242812 -0.038788997957935202 0 -0.0014451719646410512 -0.036346871650198474 0 -0.0013312261309131853 -0.036282111984040757 0 -0.0013636343783872691 -0.03644514815641807 0 -0.0023286937232115472 -0.04172073909593367 0 -0.0023046369845292005 -0.041692053614718422 0 -0.0023054685846435282 -0.041678159502138962 0 0.00039482162728262982 -0.033345556625784381 0 0.0004051410577780158 -0.033509091500318604 0 0.00030964841507703317 -0.033449556851743889 0 0.0004051410577780158 -0.033509091500318604 0 0.00030964841507703317 -0.033449556851743889 0 0.00028850835581671245 -0.033553633566135117 0 0.00018144291099689031 -0.03352514568326416 0 0.00030964841507703317 -0.033449556851743889 0 0.00028850835581671245 -0.033553633566135117 0 0.0004051410577780158 -0.033509091500318604 0 0.00025542652283958023 -0.033731655907189302 0 0.00028850835581671245 -0.033553633566135117 0 0.00025542652283958023 -0.033731655907189302 0 0.00018144291099689031 -0.03352514568326416 0 0.00028850835581671245 -0.033553633566135117 0 0.00010188113383873856 -0.033789489240151509 0 0.00025542652283958023 -0.033731655907189302 0 0.00018144291099689031 -0.03352514568326416 0 0.00010188113383873856 -0.033789489240151509 0 0.00018144291099689031 -0.03352514568326416 0 -0.00012584924778812103 -0.033355954351256219 0 -0.0020411592523174988 -0.041649807295184513 0 -0.0021475898847329155 -0.041565319235646402 0 -0.0021911793863601688 -0.041324292459243496 0 -0.001025047014530249 -0.038729347820902538 0 -0.0010639777754356493 -0.036321924844868542 0 -0.0010639777754356493 -0.036321924844868542 0 -0.00064838371140958043 -0.03428613955678262 0 -0.0016487085632540283 -0.03627030723126741 0 -0.0019630504987654279 -0.03636683452671851 0 -0.0017737086662886193 -0.03645508695918781 0 -0.0016487085632540283 -0.03627030723126741 0 -0.0017737086662886193 -0.03645508695918781 0 -0.0015713294722414779 -0.036409852990354902 0 0.00018144291099689031 -0.03352514568326416 0 -0.00012584924778812103 -0.033355954351256219 0 0.00027685321858554417 -0.03328941134866982 0 -0.00012584924778812103 -0.033355954351256219 0 0.00027685321858554417 -0.03328941134866982 0 0.00031818826094795558 -0.033209104138706445 0 0.00018144291099689031 -0.03352514568326416 0 0.00030964841507703317 -0.033449556851743889 0 0.00027685321858554417 -0.03328941134866982 0 0.00039482162728262982 -0.033345556625784381 0 0.00030964841507703317 -0.033449556851743889 0 0.00027685321858554417 -0.03328941134866982 0 0.00039482162728262982 -0.033345556625784381 0 0.00027685321858554417 -0.03328941134866982 0 0.00032301902420811909 -0.033208994764242571 0 -0.00015905173652696689 -0.033544966708840378 0 -0.00064838371140958043 -0.03428613955678262 0 -0.0019630504987654279 -0.03636683452671851 0 -0.0019568056033640985 -0.036510392009786966 0 -0.0017737086662886193 -0.03645508695918781 0 -0.0019568056033640985 -0.036510392009786966 0 -0.0017737086662886193 -0.03645508695918781 0 -0.0018035310888353327 -0.03658968469103685 0 -0.0017737086662886193 -0.03645508695918781 0 -0.0016484653501900805 -0.036569201268284626 0 -0.0015713294722414779 -0.036409852990354902 0 -0.0017737086662886193 -0.03645508695918781 0 -0.0016484653501900805 -0.036569201268284626 0 -0.0018035310888353327 -0.03658968469103685 0 -0.0018035310888353327 -0.03658968469103685 0 -0.0017012227738763845 -0.036691516608486303 0 -0.0017959553372509673 -0.036742015626445794 0 -0.0016484653501900805 -0.036569201268284626 0 -0.0018035310888353327 -0.03658968469103685 0 -0.0017012227738763845 -0.036691516608486303 0 -0.0016484653501900805 -0.036569201268284626 0 -0.0017012227738763845 -0.036691516608486303 0 -0.0015735874494517787 -0.036758892228223185 0 -0.0017012227738763845 -0.036691516608486303 0 -0.0015735874494517787 -0.036758892228223185 0 -0.0016963526936513737 -0.036875002704815515 0 -0.0017012227738763845 -0.036691516608486303 0 -0.0017959553372509673 -0.036742015626445794 0 -0.0016963526936513737 -0.036875002704815515 0 -0.0017959553372509673 -0.036742015626445794 0 -0.0019043531775866259 -0.036634395995770362 0 -0.0018952577017667452 -0.036865905079579035 0 -0.0020318093116733047 -0.036560045449348939 0 -0.0020434893080080517 -0.036541594223314516 0 -0.0019043531775866259 -0.036634395995770362 0 -0.0018952577017667452 -0.036865905079579035 0 -0.0020482037289997895 -0.036522137630099573 0 -0.0019568056033640985 -0.036510392009786966 0 -0.0019043531775866259 -0.036634395995770362 0 -0.0020482037289997895 -0.036522137630099573 0 -0.0019568056033640985 -0.036510392009786966 0 -0.0018035310888353327 -0.03658968469103685 0 -0.0019043531775866259 -0.036634395995770362 0 -0.0018035310888353327 -0.03658968469103685 0 -0.0017959553372509673 -0.036742015626445794 0 -0.0019043531775866259 -0.036634395995770362 0 -0.0012692878257633921 -0.036617881849572355 0 -0.0013636343783872691 -0.03644514815641807 0 -0.0010076445145684072 -0.036447985049481102 0 -0.0012692878257633921 -0.036617881849572355 0 -0.0013636343783872691 -0.03644514815641807 0 -0.0014677968323051724 -0.036600775193262887 0 -0.0013636343783872691 -0.03644514815641807 0 -0.0014677968323051724 -0.036600775193262887 0 -0.0015713294722414779 -0.036409852990354902 0 -0.0016484653501900805 -0.036569201268284626 0 -0.0014677968323051724 -0.036600775193262887 0 -0.0015713294722414779 -0.036409852990354902 0 -0.0016484653501900805 -0.036569201268284626 0 -0.0014677968323051724 -0.036600775193262887 0 -0.0015735874494517787 -0.036758892228223185 0 -0.0015735874494517787 -0.036758892228223185 0 -0.0013626375119952289 -0.036822707271802334 0 -0.0015237833153286041 -0.036936249044901198 0 -0.0014677968323051724 -0.036600775193262887 0 -0.0015735874494517787 -0.036758892228223185 0 -0.0013626375119952289 -0.036822707271802334 0 -0.0012692878257633921 -0.036617881849572355 0 -0.0013626375119952289 -0.036822707271802334 0 -0.001025959625220832 -0.036841063158643043 0 -0.0012692878257633921 -0.036617881849572355 0 -0.0014677968323051724 -0.036600775193262887 0 -0.0013626375119952289 -0.036822707271802334 0 -0.0013626375119952289 -0.036822707271802334 0 -0.0012926802707738082 -0.037117919219791816 0 -0.0015237833153286041 -0.036936249044901198 0 -0.0013626375119952289 -0.036822707271802334 0 -0.0012926802707738082 -0.037117919219791816 0 -0.001025959625220832 -0.036841063158643043 0 -0.0012926802707738082 -0.037117919219791816 0 -0.0015237833153286041 -0.036936249044901198 0 -0.0016939544240665578 -0.037098453261133021 0 -0.0015735874494517787 -0.036758892228223185 0 -0.0015237833153286041 -0.036936249044901198 0 -0.0016963526936513737 -0.036875002704815515 0 -0.0018068777095771539 -0.037490157326570739 0 -0.0022984133002985309 -0.036814748426942975 0 -0.0018846824182849658 -0.035644290175874505 0 -0.0014244420790461448 -0.036011503144359594 0 -0.0016772454647643008 -0.035978166456198973 0 -0.0022984133002985309 -0.036814748426942975 0 -0.0020178028458755115 -0.037215038582642863 0 -0.0022397929604877696 -0.037685070883837213 0 -0.0032159535031570704 -0.037818763236381045 0 -0.0025231620007623171 -0.038466697954380548 0 -0.0022397929604877696 -0.037685070883837213 0 -0.0018729412582137856 -0.038107477278140928 0 -0.0025231620007623171 -0.038466697954380548 0 -0.0021400604847944061 -0.036133815517595043 0 -0.0022180161774577674 -0.036258090135290355 0 -0.0020539343914440919 -0.036248544073210195 0 -0.0022180161774577674 -0.036258090135290355 0 -0.0020539343914440919 -0.036248544073210195 0 -0.0020482037289997895 -0.036522137630099573 0 -0.0021400604847944061 -0.036133815517595043 0 -0.0022180161774577674 -0.036258090135290355 0 -0.0022022203449476156 -0.036078215233234227 0 -0.0021400604847944061 -0.036133815517595043 0 -0.0021021916341327812 -0.036075948641230919 0 -0.0020539343914440919 -0.036248544073210195 0 -0.0017959553372509673 -0.036742015626445794 0 -0.0018952577017667452 -0.036865905079579035 0 -0.0016963526936513737 -0.036875002704815515 0 -0.0015237833153286041 -0.036936249044901198 0 -0.0016963526936513737 -0.036875002704815515 0 -0.0016939544240665578 -0.037098453261133021 0 -0.0022180161774577674 -0.036258090135290355 0 -0.0023876429016507468 -0.036058573547295761 0 -0.0022022203449476156 -0.036078215233234227 0 -0.0020318093116733047 -0.036560045449348939 0 -0.0022984133002985309 -0.036814748426942975 0 -0.0018952577017667452 -0.036865905079579035 0 -0.0016963526936513737 -0.036875002704815515 0 -0.0016939544240665578 -0.037098453261133021 0 -0.0022538902813341068 -0.036038348430628447 0 -0.0023876429016507468 -0.036058573547295761 0 -0.0022022203449476156 -0.036078215233234227 0 -0.0020907152533439451 -0.035675986026255602 0 -0.0018846824182849658 -0.035644290175874505 0 -0.0016772454647643008 -0.035978166456198973 0 -0.0021169822550696315 -0.035986491400852361 0 -0.0022984133002985309 -0.036814748426942975 0 -0.0021225122508672541 -0.035942750830863054 0 -0.0019638446613249919 -0.03594412488783906 0 -0.0017805910832124569 -0.035896308854015922 0 -0.0021169822550696315 -0.035986491400852361 0 -0.0017266926516934225 -0.035926382470409378 0 -0.0021225122508672541 -0.035942750830863054 0 -0.0021028916860675994 -0.035963337899350981 0 -0.0021746254938158683 -0.035995032111805374 0 -0.0021028916860675994 -0.035963337899350981 0 -0.0020983378610401043 -0.035969855277235369 0 -0.0019638446613249919 -0.03594412488783906 0 -0.0021225122508672541 -0.035942750830863054 0 -0.0021028916860675994 -0.035963337899350981 0 -0.0019638446613249919 -0.03594412488783906 0 -0.0020983378610401043 -0.035969855277235369 0 -0.0021356646125819086 -0.035986326564688857 0 -0.0021319513913689771 -0.035997098793861447 0 -0.0021356646125819086 -0.035986326564688857 0 -0.0021452364192128997 -0.036038282015104471 0 -0.0021319513913689771 -0.035997098793861447 0 -0.0021028916860675994 -0.035963337899350981 0 -0.0020983378610401043 -0.035969855277235369 0 -0.0021356646125819086 -0.035986326564688857 0 -0.0021028916860675994 -0.035963337899350981 0 -0.0021356646125819086 -0.035986326564688857 0 -0.0021746254938158683 -0.035995032111805374 0 -0.0021356646125819086 -0.035986326564688857 0 -0.0021746254938158683 -0.035995032111805374 0 -0.0021452364192128997 -0.036038282015104471 0 -0.0021400604847944061 -0.036133815517595043 0 -0.0021452364192128997 -0.036038282015104471 0 -0.0022022203449476156 -0.036078215233234227 0 -0.0021746254938158683 -0.035995032111805374 0 -0.0021452364192128997 -0.036038282015104471 0 -0.0022022203449476156 -0.036078215233234227 0 -0.0022445798192515837 -0.036005041697568185 0 -0.0021746254938158683 -0.035995032111805374 0 -0.0022022203449476156 -0.036078215233234227 0 -0.0021169822550696315 -0.035986491400852361 0 -0.0021301160633787411 -0.035987713866542037 0 -0.0021169822550696315 -0.035986491400852361 0 -0.002141988407216766 -0.035995538892283102 0 -0.0021400604847944061 -0.036133815517595043 0 -0.0021452364192128997 -0.036038282015104471 0 -0.0021021916341327812 -0.036075948641230919 0 -0.0021452364192128997 -0.036038282015104471 0 -0.0021319513913689771 -0.035997098793861447 0 -0.0021021916341327812 -0.036075948641230919 0 -0.0021319513913689771 -0.035997098793861447 0 -0.0021021916341327812 -0.036075948641230919 0 -0.0021260446576469375 -0.035986770254962788 0 -0.0020328687295734678 -0.036063132220232809 0 -0.0021021916341327812 -0.036075948641230919 0 -0.0020539343914440919 -0.036248544073210195 0 -0.0020328687295734678 -0.036063132220232809 0 -0.0021021916341327812 -0.036075948641230919 0 -0.0021260446576469375 -0.035986770254962788 0 -0.0020328687295734678 -0.036063132220232809 0 -0.0020539343914440919 -0.036248544073210195 0 -0.0019203153172221471 -0.036196768530240252 0 -0.0020539343914440919 -0.036248544073210195 0 -0.0019203153172221471 -0.036196768530240252 0 -0.0020110362532372314 -0.036540512369670791 0 -0.00091424777038528321 -0.034473691787526038 0 -0.0012053479148000955 -0.034614985395694062 0 -0.0011410420430893831 -0.034419768139704841 0 -0.00091424777038528321 -0.034473691787526038 0 -0.0011410420430893831 -0.034419768139704841 0 -0.00099691656933539202 -0.034129459728008238 0 -0.0020328687295734678 -0.036063132220232809 0 -0.0019203153172221471 -0.036196768530240252 0 -0.0018565618133812591 -0.036036015427616197 0 -0.00091424777038528321 -0.034473691787526038 0 -0.0012053479148000955 -0.034614985395694062 0 -0.0011099527572049064 -0.034877920690718794 0 -0.0013939816031568646 -0.035305654488595413 0 -0.0014929524464908658 -0.03545492147038868 0 -0.0012053479148000955 -0.034614985395694062 0 -0.0014680580170104624 -0.034771791914452128 0 -0.0013395725559459538 -0.034461661360376664 0 -0.0012053479148000955 -0.034614985395694062 0 -0.0014680580170104624 -0.034771791914452128 0 -0.0011099527572049064 -0.034877920690718794 0 -0.0014680580170104624 -0.034771791914452128 0 -0.0015061015007468146 -0.034422979738397023 0 -0.0013395725559459538 -0.034461661360376664 0 -0.0014680580170104624 -0.034771791914452128 0 -0.0015061015007468146 -0.034422979738397023 0 -0.0016123118670833257 -0.034552665164252573 0 -0.0013395725559459538 -0.034461661360376664 0 -0.001420653801639495 -0.034292541089493325 0 -0.0012277768194470305 -0.034234126339641305 0 -0.0015061015007468146 -0.034422979738397023 0 -0.0013395725559459538 -0.034461661360376664 0 -0.001420653801639495 -0.034292541089493325 0 -0.0015061015007468146 -0.034422979738397023 0 -0.001420653801639495 -0.034292541089493325 0 -0.0015295035012110405 -0.034294952338560745 0 -0.0012053479148000955 -0.034614985395694062 0 -0.0013395725559459538 -0.034461661360376664 0 -0.0011410420430893831 -0.034419768139704841 0 -0.0013395725559459538 -0.034461661360376664 0 -0.0011410420430893831 -0.034419768139704841 0 -0.0012277768194470305 -0.034234126339641305 0 -0.0012277768194470305 -0.034234126339641305 0 -0.0014172263759782094 -0.034148156578317428 0 -0.0012354039089338643 -0.033986340637075223 0 -0.0011410420430893831 -0.034419768139704841 0 -0.0012277768194470305 -0.034234126339641305 0 -0.00099691656933539202 -0.034129459728008238 0 -0.0012277768194470305 -0.034234126339641305 0 -0.0012354039089338643 -0.033986340637075223 0 -0.00099691656933539202 -0.034129459728008238 0 -0.0014172263759782094 -0.034148156578317428 0 -0.0012354039089338643 -0.033986340637075223 0 -0.0015589133449214986 -0.034076722802714648 0 -0.001420653801639495 -0.034292541089493325 0 -0.0014984929383521329 -0.034208618484411646 0 -0.0014172263759782094 -0.034148156578317428 0 -0.001420653801639495 -0.034292541089493325 0 -0.0015295035012110405 -0.034294952338560745 0 -0.0014984929383521329 -0.034208618484411646 0 -0.001420653801639495 -0.034292541089493325 0 -0.0012277768194470305 -0.034234126339641305 0 -0.0014172263759782094 -0.034148156578317428 0 -0.0014172263759782094 -0.034148156578317428 0 -0.0015589133449214986 -0.034076722802714648 0 -0.0015503305327609961 -0.034097128328868138 0 -0.0014984929383521329 -0.034208618484411646 0 -0.0014172263759782094 -0.034148156578317428 0 -0.0015503305327609961 -0.034097128328868138 0 -0.00011873493673437531 -0.033463145144296352 0 -0.00051793234465394202 -0.034185548361676962 0 0.0010266062415252122 -0.033120804973440346 0 0.00090002629602247341 -0.03305953674052501 0 0.0010873849050078838 -0.03300460766152287 0 0.00094027229436955838 -0.033278792549117218 0 0.0010266062415252122 -0.033120804973440346 0 0.00090002629602247341 -0.03305953674052501 0 0.00080832456500471263 -0.03320142850585505 0 0.00090002629602247341 -0.03305953674052501 0 0.00066546528009327189 -0.03311558759037108 0 -0.0012354039089338643 -0.033986340637075223 0 -0.00090086659532214179 -0.033905120146398647 0 -0.00099691656933539202 -0.034129459728008238 0 -0.00011873493673437531 -0.033463145144296352 0 -9.3838854308468686e-06 -0.033427838783556679 0 -0.00090086659532214179 -0.033905120146398647 0 -0.00083854074863899783 -0.034023669693184835 0 -0.00099691656933539202 -0.034129459728008238 0 -0.00064838371140958043 -0.03428613955678262 0 -9.3838854308468686e-06 -0.033427838783556679 0 -0.0019630504987654279 -0.03636683452671851 0 -0.0019568056033640985 -0.036510392009786966 0 -0.0020110362532372314 -0.036540512369670791 0 -0.00064838371140958043 -0.03428613955678262 0 -0.0015024596485031627 -0.035516244985070528 0 -0.00058674513658538651 -0.033823457033003421 0 -0.00083854074863899783 -0.034023669693184835 0 -0.00075114504479620412 -0.034138780758396048 0 -0.00058674513658538651 -0.033823457033003421 0 -0.00090086659532214179 -0.033905120146398647 0 -0.00083854074863899783 -0.034023669693184835 0 -0.0020539343914440919 -0.036248544073210195 0 -0.0020110362532372314 -0.036540512369670791 0 -0.0020482037289997895 -0.036522137630099573 0 -0.0013939816031568646 -0.035305654488595413 0 -0.0015024596485031627 -0.035516244985070528 0 -0.0019568056033640985 -0.036510392009786966 0 -0.0020110362532372314 -0.036540512369670791 0 -0.0020482037289997895 -0.036522137630099573 0 -0.00091424777038528321 -0.034473691787526038 0 -0.00075114504479620412 -0.034138780758396048 0 -0.00099691656933539202 -0.034129459728008238 0 -0.00083854074863899783 -0.034023669693184835 0 -0.00075114504479620412 -0.034138780758396048 0 -0.00099691656933539202 -0.034129459728008238 0 -1.8763208003370451e-05 -0.044983166774670645 0 -1.2353927722217278e-08 -0.044999974365738611 0 -1.3677130516551412e-08 -0.044999985072246944 0 -5.7806954332959373e-05 -0.044982657726466077 0 -1.8763208003370451e-05 -0.044983166774670645 0 -7.7704344187455921e-05 -0.044945965803830125 0 -5.7806954332959373e-05 -0.044982657726466077 0 -1.8763208003370451e-05 -0.044983166774670645 0 -2.2494809441716076e-05 -0.045002630694248348 0 -1.8763208003370451e-05 -0.044983166774670645 0 -4.4573046556925322e-05 -0.044911139930900831 0 -1.511175118775342e-06 -0.044993700568441271 0 -1.8763208003370451e-05 -0.044983166774670645 0 -4.4573046556925322e-05 -0.044911139930900831 0 -7.7704344187455921e-05 -0.044945965803830125 0 -9.8507040390833606e-05 -0.044961445942352539 0 7.0651586888053731e-06 -0.044994608187713878 0 -3.8194738604115431e-05 -0.045046297656849234 0 -1.511175118775342e-06 -0.044993700568441271 0 -6.0245352187300841e-06 -0.045003015852079005 0 -1.8763208003370451e-05 -0.044983166774670645 0 -1.2353927722217278e-08 -0.044999974365738611 0 -1.511175118775342e-06 -0.044993700568441271 0 -1.2353927722217278e-08 -0.044999974365738611 0 -1.511175118775342e-06 -0.044993700568441271 0 -6.0245352187300841e-06 -0.045003015852079005 0 -6.0245352187300841e-06 -0.045003015852079005 0 1.6594721270015966e-08 -0.044999960064901763 0 -2.2185710986106952e-05 -0.044976883623264845 0 -1.2353927722217278e-08 -0.044999974365738611 0 -6.0245352187300841e-06 -0.045003015852079005 0 1.6594721270015966e-08 -0.044999960064901763 0 -1.3613861153086179e-05 -0.044928819922783636 0 1.6594721270015966e-08 -0.044999960064901763 0 -2.2185710986106952e-05 -0.044976883623264845 0 -1.3613861153086179e-05 -0.044928819922783636 0 -2.2185710986106952e-05 -0.044976883623264845 0 -0.00010310962395422915 -0.044947552670573959 0 -3.8194738604115431e-05 -0.045046297656849234 0 -2.2185710986106952e-05 -0.044976883623264845 0 -0.00010310962395422915 -0.044947552670573959 0 -3.8194738604115431e-05 -0.045046297656849234 0 -6.0245352187300841e-06 -0.045003015852079005 0 -2.2185710986106952e-05 -0.044976883623264845 0 -9.8507040390833606e-05 -0.044961445942352539 0 6.4352633549047666e-05 -0.045091576566892604 0 -3.8194738604115431e-05 -0.045046297656849234 0 -0.00015697465880782735 -0.045069474125587393 0 -0.00010310962395422915 -0.044947552670573959 0 -0.00015697465880782735 -0.045069474125587393 0 -0.00010310962395422915 -0.044947552670573959 0 -0.00025536008046517326 -0.044942764245959867 0 -0.00010806204528434013 -0.044869713649919818 0 -1.3613861153086179e-05 -0.044928819922783636 0 -0.00010310962395422915 -0.044947552670573959 0 -0.00023924542576718102 -0.044808671498405568 0 -0.00010806204528434013 -0.044869713649919818 0 -0.00010310962395422915 -0.044947552670573959 0 -0.00023924542576718102 -0.044808671498405568 0 -0.00010310962395422915 -0.044947552670573959 0 -0.00025536008046517326 -0.044942764245959867 0 -0.00023924542576718102 -0.044808671498405568 0 -0.00025536008046517326 -0.044942764245959867 0 -0.00048986797272976821 -0.044785115663705785 0 -0.00035166915916137937 -0.044691891935628933 0 -0.00047974543863260599 -0.044663661179763177 0 -0.00047725085589708685 -0.044563923789481104 0 -0.00040216973935002344 -0.044598986150279754 0 -0.00049863089180289012 -0.044674319323832326 0 6.4352633549047666e-05 -0.045091576566892604 0 -0.001298160225179393 -0.043326324467891593 0 -0.00015697465880782735 -0.045069474125587393 0 -0.00025536008046517326 -0.044942764245959867 0 -0.00043113496797613708 -0.045127200548530463 0 -0.00083033831092538311 -0.043517736752712768 0 -0.001298160225179393 -0.043326324467891593 0 -0.0015685630256208043 -0.042077907263630351 0 -0.0019828687270620829 -0.041922814101126103 0 -0.0019687203727263374 -0.041689555204453811 0 -0.00014365972323580133 -0.044838200781933728 0 -0.00015994299060132226 -0.044952550945261738 0 -0.00029992925140966738 -0.04478681005581172 0 -0.0015685630256208043 -0.042077907263630351 0 -0.0019375439003475883 -0.042136128702609167 0 -0.0019828687270620829 -0.041922814101126103 0 -4.4573046556925322e-05 -0.044911139930900831 0 -0.00014365972323580133 -0.044838200781933728 0 -7.7704344187455921e-05 -0.044945965803830125 0 -0.00014365972323580133 -0.044838200781933728 0 -7.7704344187455921e-05 -0.044945965803830125 0 -0.00015994299060132226 -0.044952550945261738 0 -5.7806954332959373e-05 -0.044982657726466077 0 -7.7704344187455921e-05 -0.044945965803830125 0 -0.00015994299060132226 -0.044952550945261738 0 -0.0015685630256208043 -0.042077907263630351 0 -0.0016070918381660359 -0.042496948343225573 0 -0.0010869808134300596 -0.04265435261381096 0 -0.00083033831092538311 -0.043517736752712768 0 -0.00061461147107099497 -0.043787916029967087 0 -5.7806954332959373e-05 -0.044982657726466077 0 -0.00015994299060132226 -0.044952550945261738 0 -5.9952535557338377e-05 -0.045005764588456516 0 -0.0015685630256208043 -0.042077907263630351 0 -0.0019375439003475883 -0.042136128702609167 0 -0.0016070918381660359 -0.042496948343225573 0 -0.0019375439003475883 -0.042136128702609167 0 -0.0020025733154248873 -0.042378505136599923 0 -0.0016070918381660359 -0.042496948343225573 0 -0.0019375439003475883 -0.042136128702609167 0 -0.0021721473799723658 -0.042131652941888392 0 -0.0021736386595424032 -0.041939860138832878 0 -0.0019375439003475883 -0.042136128702609167 0 -0.0021721473799723658 -0.042131652941888392 0 -0.0020025733154248873 -0.042378505136599923 0 -0.0023162766586799551 -0.041584068582120097 0 -0.0020357662224110219 -0.0424061991722594 0 -0.0023242717573312578 -0.04226747872045359 0 -0.0021721473799723658 -0.042131652941888392 0 -0.002414072027095471 -0.041857561823867344 0 -0.0023242717573312578 -0.04226747872045359 0 -0.0021721473799723658 -0.042131652941888392 0 -0.0020025733154248873 -0.042378505136599923 0 -0.0021721473799723658 -0.042131652941888392 0 -0.0021736386595424032 -0.041939860138832878 0 -0.002414072027095471 -0.041857561823867344 0 -0.0021736386595424032 -0.041939860138832878 0 -0.0023614153563003911 -0.041810398676914384 0 -0.002414072027095471 -0.041857561823867344 0 -0.0021736386595424032 -0.041939860138832878 0 -0.0021982478927111823 -0.041804937974518931 0 -0.0023614153563003911 -0.041810398676914384 0 -0.0021736386595424032 -0.041939860138832878 0 -0.0019828687270620829 -0.041922814101126103 0 -0.0021982478927111823 -0.041804937974518931 0 -0.0019375439003475883 -0.042136128702609167 0 -0.0021736386595424032 -0.041939860138832878 0 -0.0019828687270620829 -0.041922814101126103 0 -0.00025536008046517326 -0.044942764245959867 0 -0.00043113496797613708 -0.045127200548530463 0 -0.00063105849570656259 -0.044767263176742768 0 -0.0019828687270620829 -0.041922814101126103 0 -0.0019687203727263374 -0.041689555204453811 0 -0.0021982478927111823 -0.041804937974518931 0 -0.00064503219393614213 -0.043522049505649196 0 -0.00035620594673469943 -0.044622310508258205 0 -0.00091259968241359964 -0.044424492957712565 0 -0.001298160225179393 -0.043326324467891593 0 -0.0017071960162360765 -0.043153894946928062 0 -0.00025536008046517326 -0.044942764245959867 0 -0.00048986797272976821 -0.044785115663705785 0 -0.00063105849570656259 -0.044767263176742768 0 -0.00043113496797613708 -0.045127200548530463 0 -0.00063105849570656259 -0.044767263176742768 0 -0.00091259968241359964 -0.044424492957712565 0 -0.00047974543863260599 -0.044663661179763177 0 -0.00055883657917822312 -0.044732913431748914 0 -0.00035620594673469943 -0.044622310508258205 0 -0.00063105849570656259 -0.044767263176742768 0 -0.00091259968241359964 -0.044424492957712565 0 -0.0024590787028831657 -0.041862670622743729 0 -0.002387755655088203 -0.04177132342356548 0 -0.0024165470036050202 -0.041883101289970956 0 -0.0019687203727263374 -0.041689555204453811 0 -0.002387755655088203 -0.04177132342356548 0 -0.0021982478927111823 -0.041804937974518931 0 -0.002499324630998067 -0.04178002961203614 0 -0.0024590787028831657 -0.041862670622743729 0 -0.002387755655088203 -0.04177132342356548 0 -0.001298160225179393 -0.043326324467891593 0 -0.0028152422289727508 -0.04134965973123015 0 -0.002387755655088203 -0.04177132342356548 0 -0.0021982478927111823 -0.041804937974518931 0 -0.0023614153563003911 -0.041810398676914384 0 -0.0023614153563003911 -0.041810398676914384 0 -0.0023858357725119678 -0.041794379672850754 0 -0.0023895409566712161 -0.041797360433803013 0 -0.002387755655088203 -0.04177132342356548 0 -0.0023614153563003911 -0.041810398676914384 0 -0.0023858357725119678 -0.041794379672850754 0 -0.0023858357725119678 -0.041794379672850754 0 -0.0023762072395862601 -0.041803588776022735 0 -0.0023895409566712161 -0.041797360433803013 0 -0.0023858357725119678 -0.041794379672850754 0 -0.0023858224265349711 -0.041824028495552543 0 -0.0023762072395862601 -0.041803588776022735 0 -0.002387755655088203 -0.04177132342356548 0 -0.0023858357725119678 -0.041794379672850754 0 -0.0023858224265349711 -0.041824028495552543 0 -0.002387755655088203 -0.04177132342356548 0 -0.0023858224265349711 -0.041824028495552543 0 -0.0024165470036050202 -0.041883101289970956 0 -0.0023858224265349711 -0.041824028495552543 0 -0.0024165470036050202 -0.041883101289970956 0 -0.0023822584142018321 -0.041888241838340709 0 -0.0023338967673503463 -0.041838683061260165 0 -0.0023515987714693943 -0.041893436784282076 0 -0.0023666575754427129 -0.04184170416816075 0 -0.0023515987714693943 -0.041893436784282076 0 -0.0023822584142018321 -0.041888241838340709 0 -0.0023666575754427129 -0.04184170416816075 0 -0.0023858224265349711 -0.041824028495552543 0 -0.0023822584142018321 -0.041888241838340709 0 -0.0023666575754427129 -0.04184170416816075 0 -0.0023858224265349711 -0.041824028495552543 0 -0.0023666575754427129 -0.04184170416816075 0 -0.0023762072395862601 -0.041803588776022735 0 -0.0023338967673503463 -0.041838683061260165 0 -0.0023666575754427129 -0.04184170416816075 0 -0.0023494590514929938 -0.041806779767294168 0 -0.0023494590514929938 -0.041806779767294168 0 -0.0023762072395862601 -0.041803588776022735 0 -0.0023635507182140957 -0.041787553124170464 0 -0.0023666575754427129 -0.04184170416816075 0 -0.0023494590514929938 -0.041806779767294168 0 -0.0023762072395862601 -0.041803588776022735 0 -0.0023762072395862601 -0.041803588776022735 0 -0.0023635507182140957 -0.041787553124170464 0 -0.0023895409566712161 -0.041797360433803013 0 -0.002341551572462899 -0.04175362092073534 0 -0.0023635507182140957 -0.041787553124170464 0 -0.0023895409566712161 -0.041797360433803013 0 -0.0023286937232115472 -0.04172073909593367 0 -0.002341551572462899 -0.04175362092073534 0 -0.0023659242751797307 -0.041768279045953906 0 -0.002341551572462899 -0.04175362092073534 0 -0.0023659242751797307 -0.041768279045953906 0 -0.0023895409566712161 -0.041797360433803013 0 -0.0023659242751797307 -0.041768279045953906 0 -0.002414072027095471 -0.041857561823867344 0 -0.0023579976331985974 -0.041729081734408993 0 -0.0023614153563003911 -0.041810398676914384 0 -0.0023895409566712161 -0.041797360433803013 0 -0.002414072027095471 -0.041857561823867344 0 -0.0023659242751797307 -0.041768279045953906 0 -0.0023895409566712161 -0.041797360433803013 0 -0.002414072027095471 -0.041857561823867344 0 -0.0023162766586799551 -0.041584068582120097 0 -0.0021074799399191978 -0.040799493219400608 0 -0.001642764662832259 -0.039746146473425677 0 -0.0018780172740526153 -0.039690708066820846 0 -0.001774805375902757 -0.039784315818941367 0 -0.0024823708372153667 -0.041722428927412791 0 -0.002414072027095471 -0.041857561823867344 0 -0.0023579976331985974 -0.041729081734408993 0 -0.0023162766586799551 -0.041584068582120097 0 -0.0023895166181745991 -0.042006178121050106 0 -0.0019045747837242812 -0.038788997957935202 0 -0.0021074799399191978 -0.040799493219400608 0 -0.0021087042177982684 -0.039631048129428477 0 -0.0018780172740526153 -0.039690708066820846 0 -0.0019098830848475348 -0.039769421761117224 0 -0.0023286937232115472 -0.04172073909593367 0 -0.0023054685846435282 -0.041678159502138962 0 -0.0023579976331985974 -0.041729081734408993 0 -0.0018780172740526153 -0.039690708066820846 0 -0.0019098830848475348 -0.039769421761117224 0 -0.001774805375902757 -0.039784315818941367 0 -0.0023286937232115472 -0.04172073909593367 0 -0.0023659242751797307 -0.041768279045953906 0 -0.0023579976331985974 -0.041729081734408993 0 -0.0012692878257633921 -0.036617881849572355 0 -0.0010076445145684072 -0.036447985049481102 0 -0.001025959625220832 -0.036841063158643043 0 -0.0010076445145684072 -0.036447985049481102 0 -0.00062825892632059751 -0.036663259031492805 0 -0.001025959625220832 -0.036841063158643043 0 -0.001642764662832259 -0.039746146473425677 0 -0.0017064621061609402 -0.039904979869724841 0 -0.001774805375902757 -0.039784315818941367 0 -0.0019098830848475348 -0.039769421761117224 0 -0.0017064621061609402 -0.039904979869724841 0 -0.001774805375902757 -0.039784315818941367 0 -0.0014616046058716129 -0.038042824198221595 0 -0.0011428602238293774 -0.038100834958337861 0 -0.00062825892632059751 -0.036663259031492805 0 -0.00073617512934124501 -0.036936184488763721 0 -0.00042601437497458985 -0.037050661292894221 0 -0.00062825892632059751 -0.036663259031492805 0 -0.00073617512934124501 -0.036936184488763721 0 -0.001025959625220832 -0.036841063158643043 0 -0.00073617512934124501 -0.036936184488763721 0 -0.001025959625220832 -0.036841063158643043 0 -0.00083163655629040487 -0.037184136396952193 0 -0.0012926802707738082 -0.037117919219791816 0 -0.001025959625220832 -0.036841063158643043 0 -0.00083163655629040487 -0.037184136396952193 0 -0.0018068777095771539 -0.037490157326570739 0 -0.00099656077590676295 -0.037340690583649132 0 -0.001435009520655658 -0.038315942265242715 0 -0.0018729412582137856 -0.038107477278140928 0 -0.0012301809860867817 -0.037520126617794816 0 -0.0022397929604877696 -0.037685070883837213 0 -0.0018729412582137856 -0.038107477278140928 0 -0.0012301809860867817 -0.037520126617794816 0 -0.001435009520655658 -0.038315942265242715 0 -0.00086335149176355853 -0.038102000784585977 0 -0.0012301809860867817 -0.037520126617794816 0 -0.00073617512934124501 -0.036936184488763721 0 -0.00083163655629040487 -0.037184136396952193 0 -0.00042601437497458985 -0.037050661292894221 0 -0.00099656077590676295 -0.037340690583649132 0 -0.00021087910128043884 -0.03731099264706992 0 -0.00083163655629040487 -0.037184136396952193 0 -0.00017291053192736169 -0.037318070759054862 0 -0.00042601437497458985 -0.037050661292894221 0 -0.00086335149176355853 -0.038102000784585977 0 -0.0012301809860867817 -0.037520126617794816 0 -0.00017291053192736169 -0.037318070759054862 0 -0.00017291053192736169 -0.037318070759054862 0 -6.3681542606042551e-05 -0.037154739508458927 0 -0.00042601437497458985 -0.037050661292894221 0 -0.00086335149176355853 -0.038102000784585977 0 -0.00024554591847853233 -0.038189024688436338 0 -0.00017291053192736169 -0.037318070759054862 0 -0.00086335149176355853 -0.038102000784585977 0 -0.00024554591847853233 -0.038189024688436338 0 -0.00067621357866343612 -0.038665932758340245 0 -0.00024554591847853233 -0.038189024688436338 0 -0.00017291053192736169 -0.037318070759054862 0 0.00045315282397122969 -0.038080751403809406 0 -0.00091609076888884522 -0.040912529473262446 0 9.9432533348990531e-06 -0.041236830810223758 0 -0.00083574575195662039 -0.04389704116543295 0 -0.00061494235474776496 -0.043913674189999988 0 -0.0005292532327840617 -0.044518633869219199 0 -0.00017291053192736169 -0.037318070759054862 0 9.8473333302219304e-06 -0.037152880590784636 0 0.00045315282397122969 -0.038080751403809406 0 -0.00091609076888884522 -0.040912529473262446 0 -0.00082072162187760535 -0.040796307560343324 0 -0.00017291053192736169 -0.037318070759054862 0 9.8473333302219304e-06 -0.037152880590784636 0 -6.3681542606042551e-05 -0.037154739508458927 0 -0.00091609076888884522 -0.040912529473262446 0 -0.00085908489606218612 -0.04325417539399342 0 -0.0022124189637523091 -0.04306728913662522 0 -0.0023924757999095108 -0.042687720059379063 0 -0.0019416295212036448 -0.042800372648579665 0 -0.0019077682756456313 -0.043263162090862721 0 -0.0022124189637523091 -0.04306728913662522 0 -0.0019416295212036448 -0.042800372648579665 0 -0.00085908489606218612 -0.04325417539399342 0 -0.0014841704771460409 -0.040446036720599807 0 -0.0013852906402319722 -0.041945022796517122 0 -0.00054419980581330853 -0.041972220941158968 0 -0.0017157871858858769 -0.04124994206094304 0 -0.00091609076888884522 -0.040912529473262446 0 -0.0014841704771460409 -0.040446036720599807 0 -1.2548009467094888e-05 -0.037158905284233525 0 -6.3681542606042551e-05 -0.037154739508458927 0 -0.00011356250814965775 -0.036966096975366909 0 -0.00062825892632059751 -0.036663259031492805 0 -0.00011356250814965775 -0.036966096975366909 0 -0.00042601437497458985 -0.037050661292894221 0 -6.3681542606042551e-05 -0.037154739508458927 0 -0.00011356250814965775 -0.036966096975366909 0 -0.00042601437497458985 -0.037050661292894221 0 -0.0011428602238293774 -0.038100834958337861 0 -0.0014841704771460409 -0.040446036720599807 0 -0.0017064621061609402 -0.039904979869724841 0 -0.0014952326147138434 -0.040044615303587487 0 -0.0015687916839619673 -0.039891570062039437 0 -0.0014841704771460409 -0.040446036720599807 0 -0.0019403848955374281 -0.041342525700694591 0 -0.001642764662832259 -0.039746146473425677 0 -0.0017064621061609402 -0.039904979869724841 0 -0.0015687916839619673 -0.039891570062039437 0 -0.0025712302766990628 -0.042307722639517584 0 -0.0023924757999095108 -0.042687720059379063 0 -0.0020876396361988038 -0.042401701316761652 0 -0.0023162766586799551 -0.041584068582120097 0 -0.0019403848955374281 -0.041342525700694591 0 -0.0023924757999095108 -0.042687720059379063 0 -0.0020876396361988038 -0.042401701316761652 0 -0.0019416295212036448 -0.042800372648579665 0 -0.0020876396361988038 -0.042401701316761652 0 -0.0019416295212036448 -0.042800372648579665 0 -0.0016070918381660359 -0.042496948343225573 0 -0.0020357662224110219 -0.0424061991722594 0 -0.0016502797206457726 -0.042479470329866105 0 -0.0019416295212036448 -0.042800372648579665 0 -0.0016070918381660359 -0.042496948343225573 0 -0.0015652435279255097 -0.042903525103119851 0 -0.0016070918381660359 -0.042496948343225573 0 -0.0010869808134300596 -0.04265435261381096 0 -0.0015652435279255097 -0.042903525103119851 0 -0.0010869808134300596 -0.04265435261381096 0 -0.0015652435279255097 -0.042903525103119851 0 -0.0012720745571095215 -0.043304180180318508 0 -0.0019077682756456313 -0.043263162090862721 0 -0.0015652435279255097 -0.042903525103119851 0 -0.0012720745571095215 -0.043304180180318508 0 -0.0019077682756456313 -0.043263162090862721 0 -0.0019416295212036448 -0.042800372648579665 0 -0.0015652435279255097 -0.042903525103119851 0 -0.00085908489606218612 -0.04325417539399342 0 -0.00085741301315032763 -0.044130579368171961 0 -0.00085908489606218612 -0.04325417539399342 0 -1.5633757653158796e-05 -0.044826520296724737 0 -0.00049861647949059232 -0.044822127925725097 0 -0.00023240471221160818 -0.044991514810542671 0 -0.00023068594671725169 -0.04485606059679937 0 -0.00061494235474776496 -0.043913674189999988 0 -0.0005292532327840617 -0.044518633869219199 0 -5.6920138370468963e-05 -0.044308819603939779 0 -0.0005292532327840617 -0.044518633869219199 0 -0.00019824775283474414 -0.044674398432433045 0 -5.6920138370468963e-05 -0.044308819603939779 0 -0.00019824775283474414 -0.044674398432433045 0 -5.6920138370468963e-05 -0.044308819603939779 0 0.00049721006612430286 -0.044656150472382791 0 -0.00011564110887899576 -0.04466411572040295 0 6.9765949457160375e-05 -0.04484152920825063 0 -0.00023240471221160818 -0.044991514810542671 0 -0.00013228598289597045 -0.04494235198128653 0 -9.8429314969678203e-05 -0.044987490777195188 0 -0.00023240471221160818 -0.044991514810542671 0 -0.00023068594671725169 -0.04485606059679937 0 -0.00013228598289597045 -0.04494235198128653 0 -0.00085741301315032763 -0.044130579368171961 0 -0.00015174574917795145 -0.044361665293890851 0 -0.00023068594671725169 -0.04485606059679937 0 -4.9260765983534657e-05 -0.044921386158623518 0 -0.00013228598289597045 -0.04494235198128653 0 -4.9260765983534657e-05 -0.044921386158623518 0 -6.5347860703423053e-05 -0.04496127169157068 0 -0.00013228598289597045 -0.04494235198128653 0 -0.00015174574917795145 -0.044361665293890851 0 -0.00011769952759651112 -0.044426686676659111 0 -4.9260765983534657e-05 -0.044921386158623518 0 -4.3290607307214392e-05 -0.044937522808603955 0 -6.5347860703423053e-05 -0.04496127169157068 0 -6.5347860703423053e-05 -0.04496127169157068 0 -9.8429314969678203e-05 -0.044987490777195188 0 -4.4195689203236107e-05 -0.044991367064260233 0 -4.3290607307214392e-05 -0.044937522808603955 0 -6.5347860703423053e-05 -0.04496127169157068 0 -3.9131036269946988e-05 -0.044972177545284493 0 -6.5347860703423053e-05 -0.04496127169157068 0 -4.4195689203236107e-05 -0.044991367064260233 0 -3.9131036269946988e-05 -0.044972177545284493 0 -6.5347860703423053e-05 -0.04496127169157068 0 -0.00013228598289597045 -0.04494235198128653 0 -9.8429314969678203e-05 -0.044987490777195188 0 -1.5633757653158796e-05 -0.044826520296724737 0 6.9765949457160375e-05 -0.04484152920825063 0 -0.00023240471221160818 -0.044991514810542671 0 -9.8429314969678203e-05 -0.044987490777195188 0 -5.4617600654987116e-05 -0.045050371791789688 0 -9.8429314969678203e-05 -0.044987490777195188 0 -5.4617600654987116e-05 -0.045050371791789688 0 -4.4195689203236107e-05 -0.044991367064260233 0 6.9765949457160375e-05 -0.04484152920825063 0 -1.1930839738376409e-07 -0.045000033609557587 0 -5.4617600654987116e-05 -0.045050371791789688 0 -3.6781337477999936e-09 -0.045000130266702652 0 -2.5191105969502321e-05 -0.045005304157308232 0 -3.6781337477999936e-09 -0.045000130266702652 0 -2.5191105969502321e-05 -0.045005304157308232 0 -1.4497251671545243e-05 -0.044989053382952157 0 -2.5191105969502321e-05 -0.045005304157308232 0 -4.4195689203236107e-05 -0.044991367064260233 0 -1.4497251671545243e-05 -0.044989053382952157 0 -5.4617600654987116e-05 -0.045050371791789688 0 -2.5191105969502321e-05 -0.045005304157308232 0 -4.4195689203236107e-05 -0.044991367064260233 0 -4.3290607307214392e-05 -0.044937522808603955 0 -1.4497251671545243e-05 -0.044989053382952157 0 -1.4887783349594331e-08 -0.044999833682922409 0 -0.00015174574917795145 -0.044361665293890851 0 8.8505555255476438e-08 -0.044999990278333783 0 -4.623986610042915e-05 -0.044929504765366259 0 -4.3290607307214392e-05 -0.044937522808603955 0 -1.4887783349594331e-08 -0.044999833682922409 0 -3.6781337477999936e-09 -0.045000130266702652 0 -1.4497251671545243e-05 -0.044989053382952157 0 -1.4887783349594331e-08 -0.044999833682922409 0 -4.3290607307214392e-05 -0.044937522808603955 0 -1.4497251671545243e-05 -0.044989053382952157 0 -3.9131036269946988e-05 -0.044972177545284493 0 -4.4195689203236107e-05 -0.044991367064260233 0 -1.4497251671545243e-05 -0.044989053382952157 0 -3.9131036269946988e-05 -0.044972177545284493 0 -1.3903954238574559e-08 -0.045000041974641782 0 -2.2494809441716076e-05 -0.045002630694248348 0 -1.3677130516551412e-08 -0.044999985072246944 0 -1.93305485057938e-05 -0.045008907766871657 0 -1.3903954238574559e-08 -0.045000041974641782 0 -2.2494809441716076e-05 -0.045002630694248348 0 -0.0010869808134300596 -0.04265435261381096 0 -0.0012720745571095215 -0.043304180180318508 0 -0.0006030541530780948 -0.043338533224034387 0 -5.9952535557338377e-05 -0.045005764588456516 0 -1.93305485057938e-05 -0.045008907766871657 0 -2.2494809441716076e-05 -0.045002630694248348 0 -0.00061461147107099497 -0.043787916029967087 0 -0.00015174574917795145 -0.044361665293890851 0 -5.7806954332959373e-05 -0.044982657726466077 0 -5.9952535557338377e-05 -0.045005764588456516 0 -2.2494809441716076e-05 -0.045002630694248348 0 -1.8763208003370451e-05 -0.044983166774670645 0 -2.2494809441716076e-05 -0.045002630694248348 0 -1.3677130516551412e-08 -0.044999985072246944 0 -1.3180670850809986e-05 -0.044998541222133696 0 -2.7934854077500618e-08 -0.045000029635188565 0 -1.147711560368537e-08 -0.044999990771535096 0 -1.3180670850809986e-05 -0.044998541222133696 0 -1.1676187496605333e-05 -0.044998287399002565 0 -1.147711560368537e-08 -0.044999990771535096 0 -1.3180670850809986e-05 -0.044998541222133696 0 -3.7359128335109744e-05 -0.044994015608235155 0 -9.3314791955127055e-05 -0.044981078555094013 0 -1.3180670850809986e-05 -0.044998541222133696 0 -3.7359128335109744e-05 -0.044994015608235155 0 -1.1676187496605333e-05 -0.044998287399002565 0 -1.3180670850809986e-05 -0.044998541222133696 0 -2.3311823796600987e-05 -0.044966380891871563 0 -9.3314791955127055e-05 -0.044981078555094013 0 -1.3180670850809986e-05 -0.044998541222133696 0 -2.7934854077500618e-08 -0.045000029635188565 0 -2.3311823796600987e-05 -0.044966380891871563 0 -2.7934854077500618e-08 -0.045000029635188565 0 5.9894816810159382e-08 -0.044999714427045111 0 -2.3311823796600987e-05 -0.044966380891871563 0 -1.8600228292287704e-05 -0.044847752886246303 0 5.9894816810159382e-08 -0.044999714427045111 0 -2.3311823796600987e-05 -0.044966380891871563 0 6.9765949457160375e-05 -0.04484152920825063 0 -6.1927321009606461e-08 -0.044999965768826325 0 1.5865047093194136e-06 -0.044998449459016564 0 1.1964151152771114e-09 -0.04500000025379864 0 -4.347189587432556e-10 -0.04499999821394389 0 -1.8600228292287704e-05 -0.044847752886246303 0 -2.3311823796600987e-05 -0.044966380891871563 0 -9.8810269180537287e-05 -0.044892024996098692 0 -2.3311823796600987e-05 -0.044966380891871563 0 -9.8810269180537287e-05 -0.044892024996098692 0 -9.3314791955127055e-05 -0.044981078555094013 0 0.00029849838610340637 -0.041937396147784071 0 0.00055024180723413992 -0.042407783767551652 0 -9.8810269180537287e-05 -0.044892024996098692 0 -0.00023235287701920052 -0.044890719316546861 0 -9.3314791955127055e-05 -0.044981078555094013 0 -0.00019824775283474414 -0.044674398432433045 0 -1.8600228292287704e-05 -0.044847752886246303 0 -9.8810269180537287e-05 -0.044892024996098692 0 -0.00019824775283474414 -0.044674398432433045 0 -9.8810269180537287e-05 -0.044892024996098692 0 -0.00023235287701920052 -0.044890719316546861 0 9.9432533348990531e-06 -0.041236830810223758 0 0.00029849838610340637 -0.041937396147784071 0 -0.0005292532327840617 -0.044518633869219199 0 -0.00019824775283474414 -0.044674398432433045 0 -0.00023235287701920052 -0.044890719316546861 0 0.00045315282397122969 -0.038080751403809406 0 0.00084612098531592456 -0.038983648743236961 0 8.2931610384550096e-05 -0.038827039172485388 0 0.00084612098531592456 -0.038983648743236961 0 0.0005174546094190212 -0.039744817405772827 0 8.2931610384550096e-05 -0.038827039172485388 0 0.00084612098531592456 -0.038983648743236961 0 0.0005174546094190212 -0.039744817405772827 0 0.0012231942699064216 -0.039855698941246583 0 0.0005174546094190212 -0.039744817405772827 0 0.0012231942699064216 -0.039855698941246583 0 0.0010175966634682185 -0.040385044769861558 0 0.00085140164798988105 -0.042848612573732105 0 0.00055024180723413992 -0.042407783767551652 0 0.0015839557078825507 -0.040698218982837327 0 0.0010175966634682185 -0.040385044769861558 0 0.0011153045101065821 -0.040763000298654171 0 0.0015839557078825507 -0.040698218982837327 0 0.0012231942699064216 -0.039855698941246583 0 0.0010175966634682185 -0.040385044769861558 0 0.0010175966634682185 -0.040385044769861558 0 0.00076083944572868847 -0.040816705500960684 0 0.0011153045101065821 -0.040763000298654171 0 0.0005174546094190212 -0.039744817405772827 0 0.0010175966634682185 -0.040385044769861558 0 0.0004634409500386148 -0.040390805897020238 0 0.0010175966634682185 -0.040385044769861558 0 0.0004634409500386148 -0.040390805897020238 0 0.00076083944572868847 -0.040816705500960684 0 0.0004634409500386148 -0.040390805897020238 0 0.00031831752315953515 -0.040735676351295984 0 0.00076083944572868847 -0.040816705500960684 0 0.00013253814465285748 -0.040449861775091252 0 -0.00029699560083549489 -0.040542133966460531 0 0.00031831752315953515 -0.040735676351295984 0 0.00013253814465285748 -0.040449861775091252 0 -0.00029699560083549489 -0.040542133966460531 0 4.3039567402988153e-05 -0.040130162847709309 0 0.0004634409500386148 -0.040390805897020238 0 0.00013253814465285748 -0.040449861775091252 0 4.3039567402988153e-05 -0.040130162847709309 0 0.0004634409500386148 -0.040390805897020238 0 0.00013253814465285748 -0.040449861775091252 0 0.00031831752315953515 -0.040735676351295984 0 -0.00029699560083549489 -0.040542133966460531 0 -0.00046931372425016799 -0.03997256394897146 0 -0.0010582341205322722 -0.039858365615005865 0 0.00056469422308566585 -0.037293688875339535 0 -3.7311639032867003e-05 -0.036932688471631329 0 -0.00021337631766117605 -0.03676458813230666 0 0.00011697972804609278 -0.038929347875749983 0 -0.00062814755436527701 -0.038316326656995879 0 0.00056469422308566585 -0.037293688875339535 0 0.00014968191545403284 -0.037241472063271289 0 0.00016319033130476589 -0.037645236765843637 0 0.00056469422308566585 -0.037293688875339535 0 0.00014968191545403284 -0.037241472063271289 0 -3.7311639032867003e-05 -0.036932688471631329 0 -0.00029699560083549489 -0.040542133966460531 0 -0.00046931372425016799 -0.03997256394897146 0 4.3039567402988153e-05 -0.040130162847709309 0 -0.00046931372425016799 -0.03997256394897146 0 -0.00078179933082174252 -0.039706232771225571 0 -0.0010582341205322722 -0.039858365615005865 0 -0.00046931372425016799 -0.03997256394897146 0 -0.00062004242304392033 -0.039502750154190157 0 -0.00078179933082174252 -0.039706232771225571 0 -0.00046931372425016799 -0.03997256394897146 0 -0.0001090078881219539 -0.039539272527822814 0 -0.00062004242304392033 -0.039502750154190157 0 0.0005174546094190212 -0.039744817405772827 0 0.0004634409500386148 -0.040390805897020238 0 4.3039567402988153e-05 -0.040130162847709309 0 -0.00046931372425016799 -0.03997256394897146 0 4.3039567402988153e-05 -0.040130162847709309 0 -0.0001090078881219539 -0.039539272527822814 0 0.0005174546094190212 -0.039744817405772827 0 4.3039567402988153e-05 -0.040130162847709309 0 -0.0001090078881219539 -0.039539272527822814 0 0.0005174546094190212 -0.039744817405772827 0 -0.0001090078881219539 -0.039539272527822814 0 8.2931610384550096e-05 -0.038827039172485388 0 -0.0001090078881219539 -0.039539272527822814 0 8.2931610384550096e-05 -0.038827039172485388 0 -0.0003539071902470882 -0.039091699939284158 0 -0.00024554591847853233 -0.038189024688436338 0 0.00045315282397122969 -0.038080751403809406 0 8.2931610384550096e-05 -0.038827039172485388 0 8.2931610384550096e-05 -0.038827039172485388 0 -0.00067621357866343612 -0.038665932758340245 0 -0.0003539071902470882 -0.039091699939284158 0 -0.00024554591847853233 -0.038189024688436338 0 8.2931610384550096e-05 -0.038827039172485388 0 -0.00067621357866343612 -0.038665932758340245 0 -0.0003539071902470882 -0.039091699939284158 0 -0.00062004242304392033 -0.039502750154190157 0 -0.001014023430306531 -0.039103623684537757 0 -0.00067621357866343612 -0.038665932758340245 0 -0.0003539071902470882 -0.039091699939284158 0 -0.001014023430306531 -0.039103623684537757 0 -0.0001090078881219539 -0.039539272527822814 0 -0.0003539071902470882 -0.039091699939284158 0 -0.00062004242304392033 -0.039502750154190157 0 -0.00062004242304392033 -0.039502750154190157 0 -0.00098085439964971629 -0.039490893642595622 0 -0.001014023430306531 -0.039103623684537757 0 -0.00098085439964971629 -0.039490893642595622 0 -0.0012622176055072066 -0.039290544622780199 0 -0.001014023430306531 -0.039103623684537757 0 -0.0012622176055072066 -0.039290544622780199 0 -0.001014023430306531 -0.039103623684537757 0 -0.0014493524146400576 -0.038848390031061275 0 -0.00067621357866343612 -0.038665932758340245 0 -0.001014023430306531 -0.039103623684537757 0 -0.001088566013107244 -0.038607439898999091 0 -0.001014023430306531 -0.039103623684537757 0 -0.001088566013107244 -0.038607439898999091 0 -0.0014493524146400576 -0.038848390031061275 0 -0.001435009520655658 -0.038315942265242715 0 -0.00086335149176355853 -0.038102000784585977 0 -0.001088566013107244 -0.038607439898999091 0 -0.001435009520655658 -0.038315942265242715 0 -0.001088566013107244 -0.038607439898999091 0 -0.0014493524146400576 -0.038848390031061275 0 -0.00086335149176355853 -0.038102000784585977 0 -0.00067621357866343612 -0.038665932758340245 0 -0.001088566013107244 -0.038607439898999091 0 -0.001435009520655658 -0.038315942265242715 0 -0.0018729412582137856 -0.038107477278140928 0 -0.0018330011954951499 -0.038573629410450928 0 -0.001435009520655658 -0.038315942265242715 0 -0.0018330011954951499 -0.038573629410450928 0 -0.0014493524146400576 -0.038848390031061275 0 -0.0018330011954951499 -0.038573629410450928 0 -0.0014493524146400576 -0.038848390031061275 0 -0.0018082537512285192 -0.039154440985042241 0 -0.0008840048767710957 -0.03637265104044949 0 -0.00068356176994868788 -0.036584142845000701 0 -0.0012224830197982461 -0.036277568084771672 0 -0.0012622176055072066 -0.039290544622780199 0 -0.0018082537512285192 -0.039154440985042241 0 -0.0010582341205322722 -0.039858365615005865 0 -0.00069483577428898523 -0.036502021267766999 0 -0.0012619694134759717 -0.036176402447803735 0 -0.0013277773681364363 -0.037773984369612316 0 -0.00062814755436527701 -0.038316326656995879 0 -0.0012622176055072066 -0.039290544622780199 0 -0.0014493524146400576 -0.038848390031061275 0 -0.0018082537512285192 -0.039154440985042241 0 -0.00098953702194357583 -0.03672287862458766 0 -0.00072324215058433734 -0.036402190298404927 0 -0.0012285937899473201 -0.036443832396606007 0 -0.00098953702194357583 -0.03672287862458766 0 -0.00064468289264456888 -0.036816481224106107 0 -0.00072324215058433734 -0.036402190298404927 0 -0.0008840048767710957 -0.03637265104044949 0 -0.00068356176994868788 -0.036584142845000701 0 -0.00021337631766117605 -0.03676458813230666 0 -0.00064468289264456888 -0.036816481224106107 0 -0.00072324215058433734 -0.036402190298404927 0 -3.7311639032867003e-05 -0.036932688471631329 0 -0.00068356176994868788 -0.036584142845000701 0 -3.7311639032867003e-05 -0.036932688471631329 0 -0.00021337631766117605 -0.03676458813230666 0 -0.00098085439964971629 -0.039490893642595622 0 -0.0012622176055072066 -0.039290544622780199 0 -0.0010582341205322722 -0.039858365615005865 0 -0.00069483577428898523 -0.036502021267766999 0 -9.6509916232261631e-05 -0.036903770180624844 0 -0.00062004242304392033 -0.039502750154190157 0 -0.00098085439964971629 -0.039490893642595622 0 -0.00078179933082174252 -0.039706232771225571 0 -0.00098085439964971629 -0.039490893642595622 0 -0.00078179933082174252 -0.039706232771225571 0 -0.0010582341205322722 -0.039858365615005865 0 -0.0005761560686665144 -0.037277132278819472 0 0.00030833241484903574 -0.037693263472726633 0 -0.00064468289264456888 -0.036816481224106107 0 -3.7311639032867003e-05 -0.036932688471631329 0 -0.00080737101883765884 -0.03721364543269131 0 0.00014968191545403284 -0.037241472063271289 0 -3.7311639032867003e-05 -0.036932688471631329 0 -0.00080737101883765884 -0.03721364543269131 0 0.00014968191545403284 -0.037241472063271289 0 -0.00080737101883765884 -0.03721364543269131 0 0.00016319033130476589 -0.037645236765843637 0 -0.00098953702194357583 -0.03672287862458766 0 -0.00064468289264456888 -0.036816481224106107 0 -0.00080737101883765884 -0.03721364543269131 0 -0.00034448437384282523 -0.03735599360646099 0 -0.00017767809267899194 -0.037901578716535156 0 -0.00072075773201500616 -0.037867762908245596 0 -0.00017767809267899194 -0.037901578716535156 0 -0.00034522091863275903 -0.0383088726514378 0 -0.00072075773201500616 -0.037867762908245596 0 -0.00034448437384282523 -0.03735599360646099 0 -0.00017767809267899194 -0.037901578716535156 0 0.00041640743026337461 -0.037736053788799059 0 -0.00017767809267899194 -0.037901578716535156 0 0.00016271858818011516 -0.038234360137462842 0 0.00041640743026337461 -0.037736053788799059 0 -0.00017767809267899194 -0.037901578716535156 0 0.00016271858818011516 -0.038234360137462842 0 -0.00034522091863275903 -0.0383088726514378 0 0.00016271858818011516 -0.038234360137462842 0 -0.00034522091863275903 -0.0383088726514378 0 -0.00018159113375017119 -0.038985046018145432 0 0.00016271858818011516 -0.038234360137462842 0 -0.00018159113375017119 -0.038985046018145432 0 0.00057762332880857724 -0.038630146449874232 0 -0.00040131252405967941 -0.038826369363141419 0 -0.00018159113375017119 -0.038985046018145432 0 -0.00062007254131719793 -0.038571840221287547 0 -0.00034522091863275903 -0.0383088726514378 0 -0.00018159113375017119 -0.038985046018145432 0 -0.00062007254131719793 -0.038571840221287547 0 -6.8690345822163882e-05 -0.039424953695033405 0 -0.00040131252405967941 -0.038826369363141419 0 -0.00018159113375017119 -0.038985046018145432 0 -6.8690345822163882e-05 -0.039424953695033405 0 -0.00018159113375017119 -0.038985046018145432 0 0.00023466158178649124 -0.039835466302253458 0 -0.00018159113375017119 -0.038985046018145432 0 0.00023466158178649124 -0.039835466302253458 0 0.00057762332880857724 -0.038630146449874232 0 0.00019708978332604222 -0.040013379235075384 0 0.00061388447741157531 -0.040405344464629442 0 0.00023466158178649124 -0.039835466302253458 0 0.0013770372628188958 -0.039262260376275178 0 0.00057762332880857724 -0.038630146449874232 0 8.0486303661284921e-05 -0.040620087871921895 0 -0.00022135904841210009 -0.041449360655745664 0 -7.7230039788207781e-05 -0.041697507256451258 0 8.0486303661284921e-05 -0.040620087871921895 0 0.00023466158178649124 -0.039835466302253458 0 -7.7230039788207781e-05 -0.041697507256451258 0 0.0013770372628188958 -0.039262260376275178 0 0.0011622373937720939 -0.03862347907959969 0 0.00057762332880857724 -0.038630146449874232 0 0.0013770372628188958 -0.039262260376275178 0 0.0011622373937720939 -0.03862347907959969 0 0.0016510946276300949 -0.038709308582895924 0 0.0013339909182677522 -0.038414374864314454 0 0.0011622373937720939 -0.03862347907959969 0 0.0016510946276300949 -0.038709308582895924 0 0.0013339909182677522 -0.038414374864314454 0 0.00088844785545931732 -0.03821775601844056 0 0.0014215608793945427 -0.038125712047105208 0 0.0013339909182677522 -0.038414374864314454 0 0.0014215608793945427 -0.038125712047105208 0 0.001566011995536461 -0.038407159019203441 0 0.0013339909182677522 -0.038414374864314454 0 0.00088844785545931732 -0.03821775601844056 0 0.0011622373937720939 -0.03862347907959969 0 0.00088844785545931732 -0.03821775601844056 0 0.0011622373937720939 -0.03862347907959969 0 0.00057762332880857724 -0.038630146449874232 0 0.00016271858818011516 -0.038234360137462842 0 0.00057762332880857724 -0.038630146449874232 0 0.00050761891389156978 -0.038200898448679473 0 0.00088844785545931732 -0.03821775601844056 0 0.00057762332880857724 -0.038630146449874232 0 0.00050761891389156978 -0.038200898448679473 0 0.00056469422308566585 -0.037293688875339535 0 0.00016319033130476589 -0.037645236765843637 0 0.0014215608793945427 -0.038125712047105208 0 0.00088844785545931732 -0.03821775601844056 0 0.00050761891389156978 -0.038200898448679473 0 0.00041640743026337461 -0.037736053788799059 0 0.00016271858818011516 -0.038234360137462842 0 0.00050761891389156978 -0.038200898448679473 0 0.00041640743026337461 -0.037736053788799059 0 0.00056469422308566585 -0.037293688875339535 0 0.0014215608793945427 -0.038125712047105208 0 0.0015336882143777769 -0.038098314644521347 0 0.00088844785545931732 -0.03821775601844056 0 0.00041640743026337461 -0.037736053788799059 0 0.0014215608793945427 -0.038125712047105208 0 0.00011697972804609278 -0.038929347875749983 0 0.0011241724754658285 -0.039581729514643657 0 0.00030833241484903574 -0.037693263472726633 0 0.0013654688620595901 -0.038104742044095904 0 -0.00029699560083549489 -0.040542133966460531 0 0.00031831752315953515 -0.040735676351295984 0 0.00044476335925623325 -0.041195373322899957 0 0.00077735278907212061 -0.04115414072430762 0 0.0010954427375075328 -0.041149760236065133 0 0.00091971590825230755 -0.041385480844513017 0 0.00077735278907212061 -0.04115414072430762 0 0.00076083944572868847 -0.040816705500960684 0 0.0010954427375075328 -0.041149760236065133 0 0.00077735278907212061 -0.04115414072430762 0 0.00061759814055354528 -0.041045993254078796 0 0.00076083944572868847 -0.040816705500960684 0 0.00077735278907212061 -0.04115414072430762 0 0.00044476335925623325 -0.041195373322899957 0 0.00091971590825230755 -0.041385480844513017 0 0.00077735278907212061 -0.04115414072430762 0 0.00044476335925623325 -0.041195373322899957 0 0.00061759814055354528 -0.041045993254078796 0 0.00044476335925623325 -0.041195373322899957 0 0.00061759814055354528 -0.041045993254078796 0 0.0005144826601282739 -0.04093231003315017 0 0.00031831752315953515 -0.040735676351295984 0 0.00044476335925623325 -0.041195373322899957 0 0.0005144826601282739 -0.04093231003315017 0 0.00031831752315953515 -0.040735676351295984 0 0.0005144826601282739 -0.04093231003315017 0 0.00076083944572868847 -0.040816705500960684 0 0.00061759814055354528 -0.041045993254078796 0 0.0005144826601282739 -0.04093231003315017 0 0.00076083944572868847 -0.040816705500960684 0 0.00076083944572868847 -0.040816705500960684 0 0.0011153045101065821 -0.040763000298654171 0 0.0010954427375075328 -0.041149760236065133 0 0.0015839557078825507 -0.040698218982837327 0 0.0010954427375075328 -0.041149760236065133 0 0.001335244278710385 -0.041453503757735898 0 0.0015839557078825507 -0.040698218982837327 0 0.0011153045101065821 -0.040763000298654171 0 0.0010954427375075328 -0.041149760236065133 0 0.001335244278710385 -0.041453503757735898 0 0.0011460263272788144 -0.041822203345862556 0 0.0019397771841669726 -0.041503358929709064 0 0.0010954427375075328 -0.041149760236065133 0 0.0011311530327960614 -0.041548916650761221 0 0.00091971590825230755 -0.041385480844513017 0 -0.00067251383241060791 -0.042512624257630402 0 -0.00061867542389032514 -0.04256669792652177 0 -0.00039995664970428124 -0.042411046191094218 0 0.0010954427375075328 -0.041149760236065133 0 0.0011311530327960614 -0.041548916650761221 0 0.001335244278710385 -0.041453503757735898 0 0.0011311530327960614 -0.041548916650761221 0 0.001335244278710385 -0.041453503757735898 0 0.0011460263272788144 -0.041822203345862556 0 0.0011311530327960614 -0.041548916650761221 0 0.0011460263272788144 -0.041822203345862556 0 0.00091971590825230755 -0.041385480844513017 0 0.0011241724754658285 -0.039581729514643657 0 0.00076562935626710695 -0.041012387390657996 0 0.0023369061481191599 -0.038838336144353065 0 0.001566011995536461 -0.038407159019203441 0 0.0016510946276300949 -0.038709308582895924 0 0.0015336882143777769 -0.038098314644521347 0 0.0023369061481191599 -0.038838336144353065 0 0.001566011995536461 -0.038407159019203441 0 0.00044476335925623325 -0.041195373322899957 0 0.0011460263272788144 -0.041822203345862556 0 0.00091971590825230755 -0.041385480844513017 0 0.0014215608793945427 -0.038125712047105208 0 0.0015336882143777769 -0.038098314644521347 0 0.001566011995536461 -0.038407159019203441 0 0.0013339909182677522 -0.038414374864314454 0 0.001566011995536461 -0.038407159019203441 0 0.0016510946276300949 -0.038709308582895924 0 0.00061388447741157531 -0.040405344464629442 0 0.00076562935626710695 -0.041012387390657996 0 -7.7230039788207781e-05 -0.041697507256451258 0 -0.00052989745546881347 -0.042592422396134984 0 -0.0004479991168555628 -0.042188057097360725 0 0.0013770372628188958 -0.039262260376275178 0 0.0023369061481191599 -0.038838336144353065 0 0.0016510946276300949 -0.038709308582895924 0 -0.00022135904841210009 -0.041449360655745664 0 -0.00052136181417901091 -0.042400303067378471 0 -0.0004479991168555628 -0.042188057097360725 0 -0.00022135904841210009 -0.041449360655745664 0 -7.7230039788207781e-05 -0.041697507256451258 0 -0.0004479991168555628 -0.042188057097360725 0 -0.00052136181417901091 -0.042400303067378471 0 -0.0004479991168555628 -0.042188057097360725 0 -0.00059822284666320507 -0.04259211860124637 0 -0.00052136181417901091 -0.042400303067378471 0 -0.00059822284666320507 -0.04259211860124637 0 -0.00059413929871817784 -0.043031187816120239 0 -0.00059822284666320507 -0.04259211860124637 0 -0.00061867542389032514 -0.04256669792652177 0 -0.0004841511301997267 -0.0426964113625437 0 -0.00052989745546881347 -0.042592422396134984 0 -0.0004479991168555628 -0.042188057097360725 0 -0.00061867542389032514 -0.04256669792652177 0 -0.0004479991168555628 -0.042188057097360725 0 -0.00059822284666320507 -0.04259211860124637 0 -0.00061867542389032514 -0.04256669792652177 0 0.00076562935626710695 -0.041012387390657996 0 0.00029851591152018503 -0.041532084437521523 0 -0.0004841511301997267 -0.0426964113625437 0 -0.00015591903891142307 -0.042863317998667536 0 -0.00039995664970428124 -0.042411046191094218 0 -0.00061867542389032514 -0.04256669792652177 0 -0.0004841511301997267 -0.0426964113625437 0 -0.00039995664970428124 -0.042411046191094218 0 -0.0004841511301997267 -0.0426964113625437 0 -0.00059413929871817784 -0.043031187816120239 0 -0.00015591903891142307 -0.042863317998667536 0 -0.00059822284666320507 -0.04259211860124637 0 -0.0004841511301997267 -0.0426964113625437 0 -0.00059413929871817784 -0.043031187816120239 0 -0.00050902904202514588 -0.043417560337802592 0 -0.00059413929871817784 -0.043031187816120239 0 -0.00036408814242930093 -0.043874810782083135 0 -0.00059413929871817784 -0.043031187816120239 0 -0.00036408814242930093 -0.043874810782083135 0 -0.00015591903891142307 -0.042863317998667536 0 -0.00052136181417901091 -0.042400303067378471 0 -0.00050902904202514588 -0.043417560337802592 0 -0.00059413929871817784 -0.043031187816120239 0 -0.00036408814242930093 -0.043874810782083135 0 8.6270387305759986e-08 -0.044993981706538608 0 -0.00015591903891142307 -0.042863317998667536 0 -9.7942959830386019e-09 -0.044999501319506342 0 -0.00015147142705528735 -0.043980214811930887 0 -6.7308319768916234e-12 -0.044999998671262281 0 -1.3718057815938546e-06 -0.044996608604564114 0 -1.7801418385008439e-09 -0.04499998534257009 0 -1.3718057815938546e-06 -0.044996608604564114 0 -1.7801418385008439e-09 -0.04499998534257009 0 -8.2065247202803838e-07 -0.04499556740576207 0 -0.00015147142705528735 -0.043980214811930887 0 0.00030370752109556981 -0.04336313131121803 0 -1.7801418385008439e-09 -0.04499998534257009 0 -1.147711560368537e-08 -0.044999990771535096 0 -1.59625224546385e-06 -0.044999536619925874 0 -1.3718057815938546e-06 -0.044996608604564114 0 -8.2065247202803838e-07 -0.04499556740576207 0 -1.0426231656977453e-06 -0.044988532540617472 0 -8.2065247202803838e-07 -0.04499556740576207 0 -1.0426231656977453e-06 -0.044988532540617472 0 -1.59625224546385e-06 -0.044999536619925874 0 -1.7801418385008439e-09 -0.04499998534257009 0 -8.2065247202803838e-07 -0.04499556740576207 0 -1.59625224546385e-06 -0.044999536619925874 0 0.00030370752109556981 -0.04336313131121803 0 -0.00028525055298968878 -0.045106938101521422 0 0.00076562935626710695 -0.041012387390657996 0 0.00030370752109556981 -0.04336313131121803 0 0.0015839557078825507 -0.040698218982837327 0 0.001335244278710385 -0.041453503757735898 0 0.0019397771841669726 -0.041503358929709064 0 -3.7359128335109744e-05 -0.044994015608235155 0 -1.2340404574429765e-05 -0.044996418374326379 0 -1.1676187496605333e-05 -0.044998287399002565 0 0.00085140164798988105 -0.042848612573732105 0 0.00030370752109556981 -0.04336313131121803 0 -1.2340404574429765e-05 -0.044996418374326379 0 -1.1676187496605333e-05 -0.044998287399002565 0 -1.59625224546385e-06 -0.044999536619925874 0 -1.1676187496605333e-05 -0.044998287399002565 0 -1.147711560368537e-08 -0.044999990771535096 0 -1.59625224546385e-06 -0.044999536619925874 0 -0.0019218753565675957 -0.035536366329255727 0 -0.0025075000801309754 -0.035212319821742208 0 -0.0019561593104636685 -0.03517714364397706 0 -0.0019218753565675957 -0.035536366329255727 0 -0.0025075000801309754 -0.035212319821742208 0 -0.0023500734488095905 -0.035869079214821867 0 -0.0024885153800972325 -0.036695308089450387 0 -0.0023500734488095905 -0.035869079214821867 0 -0.0019674242266571871 -0.036345547605558873 0 -0.0024736297947483472 -0.035974901925907167 0 -0.0023880628419245898 -0.035901923636826802 0 -0.0024736297947483472 -0.035974901925907167 0 -0.0025483554373485415 -0.03611687669305836 0 -0.0025075000801309754 -0.035212319821742208 0 -0.0023200114222409005 -0.034913433178589248 0 -0.0025903558895528415 -0.034783923678029557 0 -0.0025075000801309754 -0.035212319821742208 0 -0.0023200114222409005 -0.034913433178589248 0 -0.0019561593104636685 -0.03517714364397706 0 -0.0023200114222409005 -0.034913433178589248 0 -0.0019561593104636685 -0.03517714364397706 0 -0.0019543315077137709 -0.03492712657267652 0 -0.0019543315077137709 -0.03492712657267652 0 -0.0017219625088203652 -0.035091207346111881 0 -0.0017382131926041589 -0.034750054246349166 0 -0.0017219625088203652 -0.035091207346111881 0 -0.0016340552606398428 -0.035048059964520352 0 -0.0017382131926041589 -0.034750054246349166 0 -0.0019561593104636685 -0.03517714364397706 0 -0.0017219625088203652 -0.035091207346111881 0 -0.0015634052952893914 -0.035293232604893726 0 -0.0019561593104636685 -0.03517714364397706 0 -0.0019543315077137709 -0.03492712657267652 0 -0.0017219625088203652 -0.035091207346111881 0 -0.0014660982096746681 -0.035091450104066377 0 -0.0015184512217163715 -0.03511331846830195 0 -0.0017382131926041589 -0.034750054246349166 0 -0.0016340552606398428 -0.035048059964520352 0 -0.0015184512217163715 -0.03511331846830195 0 -0.0017382131926041589 -0.034750054246349166 0 -0.0022580464361608098 -0.034378763170813446 0 -0.0020907167685216286 -0.034419758067457638 0 -0.0017219625088203652 -0.035091207346111881 0 -0.0016340552606398428 -0.035048059964520352 0 -0.0015627650953601796 -0.035196249201330201 0 -0.0016340552606398428 -0.035048059964520352 0 -0.0015627650953601796 -0.035196249201330201 0 -0.0015184512217163715 -0.03511331846830195 0 -0.0015627650953601796 -0.035196249201330201 0 -0.0015325212959692185 -0.035163455155567749 0 -0.0015184512217163715 -0.03511331846830195 0 -0.0015627650953601796 -0.035196249201330201 0 -0.0015325212959692185 -0.035163455155567749 0 -0.0015546149319419791 -0.035215913347964783 0 -0.0015235092709887778 -0.035123953335439724 0 -0.0015325212959692185 -0.035163455155567749 0 -0.0015184512217163715 -0.03511331846830195 0 -0.0015546149319419791 -0.035215913347964783 0 -0.0015634052952893914 -0.035293232604893726 0 -0.001597712842591605 -0.035238091309344619 0 -0.0015634052952893914 -0.035293232604893726 0 -0.001597712842591605 -0.035238091309344619 0 -0.0016073164594952833 -0.035169490268402492 0 -0.0015627650953601796 -0.035196249201330201 0 -0.0015546149319419791 -0.035215913347964783 0 -0.0015634052952893914 -0.035293232604893726 0 -0.0017219625088203652 -0.035091207346111881 0 -0.0015627650953601796 -0.035196249201330201 0 -0.0015634052952893914 -0.035293232604893726 0 -0.0019218753565675957 -0.035536366329255727 0 -0.0019561593104636685 -0.03517714364397706 0 -0.0015634052952893914 -0.035293232604893726 0 -0.0019218753565675957 -0.035536366329255727 0 -0.0015634052952893914 -0.035293232604893726 0 -0.0015479929266686934 -0.035417673442393098 0 -0.0015634052952893914 -0.035293232604893726 0 -0.0015479929266686934 -0.035417673442393098 0 -0.0016073164594952833 -0.035169490268402492 0 -0.0014680580170104624 -0.034771791914452128 0 -0.0015479929266686934 -0.035417673442393098 0 -0.0016073164594952833 -0.035169490268402492 0 -0.0014680580170104624 -0.034771791914452128 0 -0.0016073164594952833 -0.035169490268402492 0 -0.0016889427469027267 -0.034732605691047073 0 -0.0015291751832888036 -0.035417158496314952 0 -0.0014929524464908658 -0.03545492147038868 0 -0.0015479929266686934 -0.035417673442393098 0 -0.0018565618133812591 -0.036036015427616197 0 -0.0021175306256048841 -0.03590430131043934 0 -0.0014680580170104624 -0.034771791914452128 0 -0.0015479929266686934 -0.035417673442393098 0 -0.0011099527572049064 -0.034877920690718794 0 -0.0020328687295734678 -0.036063132220232809 0 -0.0018565618133812591 -0.036036015427616197 0 -0.0021175306256048841 -0.03590430131043934 0 -0.0019218753565675957 -0.035536366329255727 0 -0.0021175306256048841 -0.03590430131043934 0 -0.0023500734488095905 -0.035869079214821867 0 -0.0019218753565675957 -0.035536366329255727 0 -0.0015479929266686934 -0.035417673442393098 0 -0.0021175306256048841 -0.03590430131043934 0 -0.0021175306256048841 -0.03590430131043934 0 -0.0023500734488095905 -0.035869079214821867 0 -0.0021820720336547476 -0.035965307085972023 0 -0.0020328687295734678 -0.036063132220232809 0 -0.0021175306256048841 -0.03590430131043934 0 -0.0021260446576469375 -0.035986770254962788 0 -0.0021175306256048841 -0.03590430131043934 0 -0.0021260446576469375 -0.035986770254962788 0 -0.0021820720336547476 -0.035965307085972023 0 -0.0021319513913689771 -0.035997098793861447 0 -0.0021260446576469375 -0.035986770254962788 0 -0.0021236067834097989 -0.035975097289863867 0 -0.0021260446576469375 -0.035986770254962788 0 -0.0021236067834097989 -0.035975097289863867 0 -0.0021820720336547476 -0.035965307085972023 0 -0.0021236067834097989 -0.035975097289863867 0 -0.0020143209492078317 -0.035992592828362764 0 -0.0020028523012975696 -0.036064966776011599 0 -0.0021236067834097989 -0.035975097289863867 0 -0.0020028523012975696 -0.036064966776011599 0 -0.0021820720336547476 -0.035965307085972023 0 -0.0020983378610401043 -0.035969855277235369 0 -0.0021319513913689771 -0.035997098793861447 0 -0.0021236067834097989 -0.035975097289863867 0 -0.0020983378610401043 -0.035969855277235369 0 -0.0021236067834097989 -0.035975097289863867 0 -0.0020143209492078317 -0.035992592828362764 0 -0.0020983378610401043 -0.035969855277235369 0 -0.0020143209492078317 -0.035992592828362764 0 -0.0019638446613249919 -0.03594412488783906 0 -0.0019638446613249919 -0.03594412488783906 0 -0.0018754130035774457 -0.036025631357469834 0 -0.0017805910832124569 -0.035896308854015922 0 -0.0020143209492078317 -0.035992592828362764 0 -0.0019638446613249919 -0.03594412488783906 0 -0.0018754130035774457 -0.036025631357469834 0 -0.0020143209492078317 -0.035992592828362764 0 -0.0018754130035774457 -0.036025631357469834 0 -0.0020028523012975696 -0.036064966776011599 0 -0.0020028523012975696 -0.036064966776011599 0 -0.0017765906629061 -0.036242559829595976 0 -0.0019674242266571871 -0.036345547605558873 0 -0.0018754130035774457 -0.036025631357469834 0 -0.0020028523012975696 -0.036064966776011599 0 -0.0017765906629061 -0.036242559829595976 0 -0.0023500734488095905 -0.035869079214821867 0 -0.0021820720336547476 -0.035965307085972023 0 -0.0019674242266571871 -0.036345547605558873 0 -0.0020028523012975696 -0.036064966776011599 0 -0.0021820720336547476 -0.035965307085972023 0 -0.0019674242266571871 -0.036345547605558873 0 -0.0018729412582137856 -0.038107477278140928 0 -0.0018330011954951499 -0.038573629410450928 0 -0.0025231620007623171 -0.038466697954380548 0 -0.0018330011954951499 -0.038573629410450928 0 -0.0018082537512285192 -0.039154440985042241 0 -0.0025231620007623171 -0.038466697954380548 0 -0.0013277773681364363 -0.037773984369612316 0 -0.0020178028458755115 -0.037215038582642863 0 -0.0008840048767710957 -0.03637265104044949 0 -0.0014244420790461448 -0.036011503144359594 0 -0.0012224830197982461 -0.036277568084771672 0 -0.0017266926516934225 -0.035926382470409378 0 -0.0012619694134759717 -0.036176402447803735 0 -0.0014244420790461448 -0.036011503144359594 0 -0.0016772454647643008 -0.035978166456198973 0 -0.0012224830197982461 -0.036277568084771672 0 -0.0017805910832124569 -0.035896308854015922 0 -0.0016610425224885268 -0.03609519553865826 0 -0.0013109159175513025 -0.036063895510418317 0 -0.0018754130035774457 -0.036025631357469834 0 -0.0017805910832124569 -0.035896308854015922 0 -0.0016610425224885268 -0.03609519553865826 0 -0.0016610425224885268 -0.03609519553865826 0 -0.0017765906629061 -0.036242559829595976 0 -0.0015082753426412753 -0.036258892610658913 0 -0.0018754130035774457 -0.036025631357469834 0 -0.0016610425224885268 -0.03609519553865826 0 -0.0017765906629061 -0.036242559829595976 0 -0.0016610425224885268 -0.03609519553865826 0 -0.0015082753426412753 -0.036258892610658913 0 -0.0013109159175513025 -0.036063895510418317 0 -0.00072324215058433734 -0.036402190298404927 0 -0.0013109159175513025 -0.036063895510418317 0 -0.0012285937899473201 -0.036443832396606007 0 -0.0015082753426412753 -0.036258892610658913 0 -0.0013109159175513025 -0.036063895510418317 0 -0.0012285937899473201 -0.036443832396606007 0 -0.0015082753426412753 -0.036258892610658913 0 -0.0012285937899473201 -0.036443832396606007 0 -0.0015912547671644236 -0.03672629079357171 0 -0.00098953702194357583 -0.03672287862458766 0 -0.0012285937899473201 -0.036443832396606007 0 -0.0015912547671644236 -0.03672629079357171 0 -0.0017765906629061 -0.036242559829595976 0 -0.0015082753426412753 -0.036258892610658913 0 -0.0015912547671644236 -0.03672629079357171 0 -0.00098953702194357583 -0.03672287862458766 0 -0.00080737101883765884 -0.03721364543269131 0 -0.0015912547671644236 -0.03672629079357171 0 -0.00034448437384282523 -0.03735599360646099 0 -0.0010869147650473992 -0.036873461912539304 0 -0.00072075773201500616 -0.037867762908245596 0 -0.0005761560686665144 -0.037277132278819472 0 -0.0013404650410565153 -0.036794188928773494 0 -0.0024885153800972325 -0.036695308089450387 0 -0.0019674242266571871 -0.036345547605558873 0 -0.0019287567238748962 -0.037097856508863665 0 -0.0013404650410565153 -0.036794188928773494 0 -0.0019451819828984187 -0.036388030547835029 0 -0.0017765906629061 -0.036242559829595976 0 -0.0015912547671644236 -0.03672629079357171 0 -0.0019674242266571871 -0.036345547605558873 0 -0.0010869147650473992 -0.036873461912539304 0 -0.0019674242266571871 -0.036345547605558873 0 -0.0019287567238748962 -0.037097856508863665 0 -0.0010869147650473992 -0.036873461912539304 0 -0.0019287567238748962 -0.037097856508863665 0 -0.0014753515642602858 -0.037730527453921137 0 -0.0024885153800972325 -0.036695308089450387 0 -0.0019287567238748962 -0.037097856508863665 0 -0.0024294778863794566 -0.037480331570705717 0 -0.0019688664500956067 -0.037806476504128467 0 -0.0022755094652659124 -0.038192728329390441 0 -0.0024294778863794566 -0.037480331570705717 0 -0.0017132508901981016 -0.036315404296389929 0 -0.0025483554373485415 -0.03611687669305836 0 -0.0019287567238748962 -0.037097856508863665 0 -0.0019688664500956067 -0.037806476504128467 0 -0.0024294778863794566 -0.037480331570705717 0 -0.0019287567238748962 -0.037097856508863665 0 -0.0019688664500956067 -0.037806476504128467 0 -0.0014753515642602858 -0.037730527453921137 0 -0.0019688664500956067 -0.037806476504128467 0 -0.0014753515642602858 -0.037730527453921137 0 -0.0015871125683749121 -0.038546174213471014 0 -0.0019688664500956067 -0.037806476504128467 0 -0.0022755094652659124 -0.038192728329390441 0 -0.0015871125683749121 -0.038546174213471014 0 -0.0017132508901981016 -0.036315404296389929 0 -0.0010383809774974426 -0.038437107575320956 0 -0.0010869147650473992 -0.036873461912539304 0 -0.0014753515642602858 -0.037730527453921137 0 -0.00072075773201500616 -0.037867762908245596 0 -0.0014753515642602858 -0.037730527453921137 0 -0.00072075773201500616 -0.037867762908245596 0 -0.0010693109888701318 -0.038320014875986672 0 -0.0014753515642602858 -0.037730527453921137 0 -0.0010693109888701318 -0.038320014875986672 0 -0.0015871125683749121 -0.038546174213471014 0 -0.00072075773201500616 -0.037867762908245596 0 -0.0010693109888701318 -0.038320014875986672 0 -0.00062007254131719793 -0.038571840221287547 0 -0.00034522091863275903 -0.0383088726514378 0 -0.00072075773201500616 -0.037867762908245596 0 -0.00062007254131719793 -0.038571840221287547 0 -0.0010693109888701318 -0.038320014875986672 0 -0.00062007254131719793 -0.038571840221287547 0 -0.00092367007499236065 -0.038805488423240803 0 -0.00040131252405967941 -0.038826369363141419 0 -0.00062007254131719793 -0.038571840221287547 0 -0.00092367007499236065 -0.038805488423240803 0 -0.00074771060889409591 -0.037960123075510444 0 -0.00077356352379542382 -0.037935754295501736 0 -0.00088148360247906053 -0.037752264765001715 0 -0.00089313807190418261 -0.038377980079679241 0 -0.0010383809774974426 -0.038437107575320956 0 -0.0010693109888701318 -0.038320014875986672 0 -0.00092367007499236065 -0.038805488423240803 0 -0.0015871125683749121 -0.038546174213471014 0 -0.00062661575647621919 -0.03823774986415323 0 -0.00074771060889409591 -0.037960123075510444 0 -0.00088148360247906053 -0.037752264765001715 0 -0.000453416178038496 -0.038745097731695211 0 -0.00089313807190418261 -0.038377980079679241 0 -0.00062661575647621919 -0.03823774986415323 0 -0.00040131252405967941 -0.038826369363141419 0 -0.00074771060889409591 -0.037960123075510444 0 -0.0017132508901981016 -0.036315404296389929 0 -0.00089337191146064492 -0.036540368410324979 0 -0.00061472977490021014 -0.037991725836532292 0 -0.00077356352379542382 -0.037935754295501736 0 -0.00062519436971378577 -0.037816525271831727 0 -0.0016209804921291737 -0.034468309466099363 0 -0.0012598026695356005 -0.035231298217313897 0 -0.0020832906638987613 -0.035038720776349029 0 -0.000950745152697789 -0.036982744419112784 0 -0.00088148360247906053 -0.037752264765001715 0 -0.00062519436971378577 -0.037816525271831727 0 -0.00077356352379542382 -0.037935754295501736 0 -0.00088148360247906053 -0.037752264765001715 0 -0.00062519436971378577 -0.037816525271831727 0 -0.0018847443694102576 -0.035772340707575553 0 -0.0012598026695356005 -0.035231298217313897 0 -0.0020832906638987613 -0.035038720776349029 0 -0.0018847443694102576 -0.035772340707575553 0 -0.0025030589036680513 -0.035371760202122807 0 -0.0020832906638987613 -0.035038720776349029 0 -0.0025030589036680513 -0.035371760202122807 0 -0.0020832906638987613 -0.035038720776349029 0 -0.0025975674112547016 -0.034786562596444685 0 -0.0020832906638987613 -0.035038720776349029 0 -0.0021718576728842289 -0.034601184053077043 0 -0.0025975674112547016 -0.034786562596444685 0 -0.0016209804921291737 -0.034468309466099363 0 -0.0020832906638987613 -0.035038720776349029 0 -0.0021718576728842289 -0.034601184053077043 0 -0.002642301682289959 -0.034490938230245953 0 -0.0024088883990832015 -0.034586212001693678 0 -0.0025903558895528415 -0.034783923678029557 0 -0.0016209804921291737 -0.034468309466099363 0 -0.0021323941882037201 -0.034366140677613524 0 -0.0021718576728842289 -0.034601184053077043 0 -0.0017132508901981016 -0.036315404296389929 0 -0.0024268011464758624 -0.034408077751918037 0 -0.0021718576728842289 -0.034601184053077043 0 -0.0022893030220012419 -0.034434524910892564 0 -0.0025975674112547016 -0.034786562596444685 0 -0.0021323941882037201 -0.034366140677613524 0 -0.0022893030220012419 -0.034434524910892564 0 -0.0021709685582835636 -0.034642668647047084 0 -0.0021323941882037201 -0.034366140677613524 0 -0.0021718576728842289 -0.034601184053077043 0 -0.0022893030220012419 -0.034434524910892564 0 -0.0024268011464758624 -0.034408077751918037 0 -0.0020931006921309772 -0.034641478599563853 0 -0.0023200114222409005 -0.034913433178589248 0 -0.0019543315077137709 -0.03492712657267652 0 -0.0021709685582835636 -0.034642668647047084 0 -0.0024088883990832015 -0.034586212001693678 0 -0.0021709685582835636 -0.034642668647047084 0 -0.0023686072389876144 -0.034729620202837867 0 -0.0023200114222409005 -0.034913433178589248 0 -0.0021709685582835636 -0.034642668647047084 0 -0.0023686072389876144 -0.034729620202837867 0 -0.0023200114222409005 -0.034913433178589248 0 -0.0025903558895528415 -0.034783923678029557 0 -0.0023686072389876144 -0.034729620202837867 0 -0.0024088883990832015 -0.034586212001693678 0 -0.0025903558895528415 -0.034783923678029557 0 -0.0023686072389876144 -0.034729620202837867 0 -0.0022580464361608098 -0.034378763170813446 0 -0.0022905519736815738 -0.034467000515380035 0 -0.0031613804869278397 -0.033958460172427166 0 -0.0028335051224054188 -0.034135825265636299 0 -0.0031976032971773845 -0.034166909195002509 0 -0.0028335051224054188 -0.034135825265636299 0 -0.0031594399927601588 -0.034350725350420698 0 -0.0031976032971773845 -0.034166909195002509 0 -0.0022816828669539467 -0.034436347270177699 0 -0.0022905519736815738 -0.034467000515380035 0 -0.0019543315077137709 -0.03492712657267652 0 -0.0021709685582835636 -0.034642668647047084 0 -0.0017382131926041589 -0.034750054246349166 0 -0.0022893030220012419 -0.034434524910892564 0 -0.0021709685582835636 -0.034642668647047084 0 -0.0017382131926041589 -0.034750054246349166 0 -0.0022893030220012419 -0.034434524910892564 0 -0.0028335051224054188 -0.034135825265636299 0 -0.002773708376385109 -0.034472854870074995 0 -0.0022893030220012419 -0.034434524910892564 0 -0.002773708376385109 -0.034472854870074995 0 -0.0025975674112547016 -0.034786562596444685 0 -0.0028335051224054188 -0.034135825265636299 0 -0.002773708376385109 -0.034472854870074995 0 -0.0031594399927601588 -0.034350725350420698 0 -0.002773708376385109 -0.034472854870074995 0 -0.0031594399927601588 -0.034350725350420698 0 -0.0030964044150449416 -0.034604065170553228 0 -0.0030964044150449416 -0.034604065170553228 0 -0.0025975674112547016 -0.034786562596444685 0 -0.0030120800690200651 -0.035079528623483354 0 -0.002773708376385109 -0.034472854870074995 0 -0.0030964044150449416 -0.034604065170553228 0 -0.0025975674112547016 -0.034786562596444685 0 -0.0025030589036680513 -0.035371760202122807 0 -0.0025975674112547016 -0.034786562596444685 0 -0.0030120800690200651 -0.035079528623483354 0 -0.0030964044150449416 -0.034604065170553228 0 -0.0030120800690200651 -0.035079528623483354 0 -0.0033970005993055365 -0.034913550009286483 0 -0.0035457097957539516 -0.034586149211659922 0 -0.0033758820830808375 -0.034682451446450886 0 -0.0034653044390986149 -0.034652517955833365 0 -0.0035457097957539516 -0.034586149211659922 0 -0.0034653044390986149 -0.034652517955833365 0 -0.0034163051082668175 -0.034644543918963586 0 -0.0034653044390986149 -0.034652517955833365 0 -0.0033756079065675997 -0.03455119757646978 0 -0.0035002546565348399 -0.034600887036996437 0 -0.0031209152900916401 -0.034603817950705607 0 -0.0033797089581918058 -0.034785373718992679 0 -0.0033758820830808375 -0.034682451446450886 0 -0.0034653044390986149 -0.034652517955833365 0 -0.0033756079065675997 -0.03455119757646978 0 -0.0030964044150449416 -0.034604065170553228 0 -0.0033758820830808375 -0.034682451446450886 0 -0.0033756079065675997 -0.03455119757646978 0 -0.0032432111662507868 -0.034614296660221658 0 -0.0034163051082668175 -0.034644543918963586 0 -0.0032746144351067379 -0.034694860604161264 0 -0.0034653044390986149 -0.034652517955833365 0 -0.0034163051082668175 -0.034644543918963586 0 -0.0035002546565348399 -0.034600887036996437 0 -0.0034239324925404392 -0.034655333860482439 0 -0.0034039987529405932 -0.034592997636879626 0 -0.0034163051082668175 -0.034644543918963586 0 -0.0033633537147729434 -0.034709145126646967 0 -0.0032746144351067379 -0.034694860604161264 0 -0.0033633537147729434 -0.034709145126646967 0 -0.0032746144351067379 -0.034694860604161264 0 -0.0033104192874201781 -0.034728539600668622 0 -0.0032746144351067379 -0.034694860604161264 0 -0.0033104192874201781 -0.034728539600668622 0 -0.0032474493193522663 -0.034753854465405513 0 -0.0022088947651288915 -0.032939511517309485 0 -0.0023206208948180125 -0.032929996005510657 0 -0.0033104192874201781 -0.034728539600668622 0 -0.0033175623117086181 -0.034724754454798779 0 -0.0032474493193522663 -0.034753854465405513 0 -0.0033104192874201781 -0.034728539600668622 0 -0.0033175623117086181 -0.034724754454798779 0 -0.0033206451745173113 -0.034724250670892277 0 -0.0033633537147729434 -0.034709145126646967 0 -0.0033104192874201781 -0.034728539600668622 0 -0.0033206451745173113 -0.034724250670892277 0 -0.0011983977709960172 -0.031246426887640677 0 -0.0013195475047744255 -0.031221226231185537 0 -0.0013298323203141586 -0.031318208514364627 0 -0.0011983977709960172 -0.031246426887640677 0 -0.0012798032645849691 -0.03115062362023421 0 -0.0013195475047744255 -0.031221226231185537 0 -0.0031594399927601588 -0.034350725350420698 0 -0.0033756079065675997 -0.03455119757646978 0 -0.0033464674001042758 -0.034303629333580915 0 -0.0031594399927601588 -0.034350725350420698 0 -0.0030964044150449416 -0.034604065170553228 0 -0.0033756079065675997 -0.03455119757646978 0 -0.0033756079065675997 -0.03455119757646978 0 -0.0034934560015255824 -0.034396153388244019 0 -0.0033464674001042758 -0.034303629333580915 0 -0.0033756079065675997 -0.03455119757646978 0 -0.0035002546565348399 -0.034600887036996437 0 -0.0034934560015255824 -0.034396153388244019 0 -0.0034039987529405932 -0.034592997636879626 0 -0.003535725693165878 -0.034786345990610409 0 -0.0034934560015255824 -0.034396153388244019 0 -0.0034088015677757322 -0.034091180869246139 0 -0.0033464674001042758 -0.034303629333580915 0 -0.0033175623117086181 -0.034724754454798779 0 -0.0033206451745173113 -0.034724250670892277 0 -0.0032921115447529349 -0.034680350578853637 0 -0.0011983977709960172 -0.031246426887640677 0 -0.0010773694863286942 -0.031200823188667133 0 -0.0011459228033230296 -0.031145036783090479 0 -0.0022088947651288915 -0.032939511517309485 0 -0.0023274036346326204 -0.033350440613779946 0 -0.003535725693165878 -0.034786345990610409 0 -0.0023274036346326204 -0.033350440613779946 0 -0.0034088015677757322 -0.034091180869246139 0 -0.0033464674001042758 -0.034303629333580915 0 -0.0031976032971773845 -0.034166909195002509 0 -0.0031594399927601588 -0.034350725350420698 0 -0.0033464674001042758 -0.034303629333580915 0 -0.0031976032971773845 -0.034166909195002509 0 -0.0031613804869278397 -0.033958460172427166 0 -0.0034088015677757322 -0.034091180869246139 0 -0.0031976032971773845 -0.034166909195002509 0 -0.002142382514988295 -0.033781391638285398 0 -0.0020258290136621576 -0.033725814013528324 0 -0.0020689974046324438 -0.033832079186874711 0 -0.0022580464361608098 -0.034378763170813446 0 -0.0023274036346326204 -0.033350440613779946 0 -0.0023274036346326204 -0.033350440613779946 0 -0.0016685887132312787 -0.033599507022426478 0 -0.0015325212959692185 -0.035163455155567749 0 -0.0015546149319419791 -0.035215913347964783 0 -0.0015055900362834775 -0.035182010761037143 0 -0.0022580464361608098 -0.034378763170813446 0 -0.0016685887132312787 -0.033599507022426478 0 -0.0015235092709887778 -0.035123953335439724 0 -0.0015325212959692185 -0.035163455155567749 0 -0.0015055900362834775 -0.035182010761037143 0 -0.0016685887132312787 -0.033599507022426478 0 -0.0018398979278076235 -0.035568845446989794 0 -0.0016706775108382573 -0.035390616048552419 0 -0.001597712842591605 -0.035238091309344619 0 -0.0017156051649029427 -0.035175989637626304 0 -0.0015546149319419791 -0.035215913347964783 0 -0.0015055900362834775 -0.035182010761037143 0 -0.001597712842591605 -0.035238091309344619 0 -0.0016706775108382573 -0.035390616048552419 0 -0.0019063188442760993 -0.035232165349500473 0 -0.0017156051649029427 -0.035175989637626304 0 -0.0010408064810666106 -0.031128510018546079 0 -0.0011237981566844127 -0.031034143430600403 0 -0.0011068890419602686 -0.031119151128018663 0 -0.0016685887132312787 -0.033599507022426478 0 -0.0014525312284038869 -0.033184279396113771 0 -0.0011237981566844127 -0.031034143430600403 0 -0.0011068890419602686 -0.031119151128018663 0 -0.0011486485591531757 -0.031082813296724229 0 -0.0011068890419602686 -0.031119151128018663 0 -0.0011459228033230296 -0.031145036783090479 0 -0.0011486485591531757 -0.031082813296724229 0 -0.0010773694863286942 -0.031200823188667133 0 -0.0010408064810666106 -0.031128510018546079 0 -0.0011068890419602686 -0.031119151128018663 0 -0.0010773694863286942 -0.031200823188667133 0 -0.0011068890419602686 -0.031119151128018663 0 -0.0011459228033230296 -0.031145036783090479 0 -0.0011983977709960172 -0.031246426887640677 0 -0.0011459228033230296 -0.031145036783090479 0 -0.0012134001263141778 -0.031094394998961689 0 -0.0011459228033230296 -0.031145036783090479 0 -0.0012134001263141778 -0.031094394998961689 0 -0.0011486485591531757 -0.031082813296724229 0 -0.0012134001263141778 -0.031094394998961689 0 -0.0012798032645849691 -0.03115062362023421 0 -0.0012992584860373145 -0.0310431212823476 0 -0.0011983977709960172 -0.031246426887640677 0 -0.0012134001263141778 -0.031094394998961689 0 -0.0012798032645849691 -0.03115062362023421 0 -0.00010783934710299936 -0.027672464177103007 0 -0.00057608050850161926 -0.028856925048712585 0 -0.0012992584860373145 -0.0310431212823476 0 -0.0012264883771667906 -0.031027068979616722 0 -0.001228377522496179 -0.030942813925015345 0 0.00083805933146539218 -0.024707817420295975 0 0.0011296280251883212 -0.024282366364541536 0 0.00066317481329077608 -0.02425561322413276 0 -0.0012134001263141778 -0.031094394998961689 0 -0.0012992584860373145 -0.0310431212823476 0 -0.0012264883771667906 -0.031027068979616722 0 -0.0011237981566844127 -0.031034143430600403 0 -0.0011669038235140204 -0.03102672887081959 0 -0.001226417337028049 -0.030943183997926244 0 -0.0012134001263141778 -0.031094394998961689 0 -0.0011486485591531757 -0.031082813296724229 0 -0.0011669038235140204 -0.03102672887081959 0 -0.0012134001263141778 -0.031094394998961689 0 -0.0012264883771667906 -0.031027068979616722 0 -0.0011669038235140204 -0.03102672887081959 0 -0.0012264883771667906 -0.031027068979616722 0 -0.0011669038235140204 -0.03102672887081959 0 -0.001228377522496179 -0.030942813925015345 0 -0.0011237981566844127 -0.031034143430600403 0 -0.0011486485591531757 -0.031082813296724229 0 -0.0011669038235140204 -0.03102672887081959 0 -0.0014525312284038869 -0.033184279396113771 0 -0.0016874673344833252 -0.032322926203295445 0 -0.0019063188442760993 -0.035232165349500473 0 -0.0021772835635222596 -0.03501013530617867 0 -0.0019996493315685413 -0.034999234839054219 0 -0.0011669038235140204 -0.03102672887081959 0 -0.001226417337028049 -0.030943183997926244 0 -0.0012398273401188556 -0.03096048559585211 0 -0.00089412569258732403 -0.031073238452790582 0 -0.00057608050850161926 -0.028856925048712585 0 -0.0016874673344833252 -0.032322926203295445 0 -0.00057608050850161926 -0.028856925048712585 0 -0.0021772835635222596 -0.03501013530617867 0 -0.0021188761249213419 -0.034922860564663878 0 -0.0019996493315685413 -0.034999234839054219 0 -0.0021686787714862194 -0.034985506630460447 0 -0.0021188761249213419 -0.034922860564663878 0 -0.0021957734171722189 -0.034791273661581794 0 -0.0016874673344833252 -0.032322926203295445 0 -0.0024659004913580641 -0.03407179601989594 0 -0.0021188761249213419 -0.034922860564663878 0 -0.0019996493315685413 -0.034999234839054219 0 -0.0020431471379299586 -0.034831939549846411 0 -0.00057608050850161926 -0.028856925048712585 0 -0.00025037187677679135 -0.026034840460627161 0 -0.00081110180054276212 -0.030216717321520734 0 -0.00085777902237401055 -0.030281663749885102 0 -0.0013248738234986021 -0.029889773676640259 0 0.0011296280251883212 -0.024282366364541536 0 0.00058328102293080867 -0.023787220868275064 0 0.00066317481329077608 -0.02425561322413276 0 -0.0021957734171722189 -0.034791273661581794 0 -0.0024843859315595977 -0.034695924335092478 0 -0.0022670663745247492 -0.034614406312945489 0 -0.00081110180054276212 -0.030216717321520734 0 -0.0013031787540780367 -0.029860030084666051 0 -0.0013248738234986021 -0.029889773676640259 0 -0.0016874673344833252 -0.032322926203295445 0 -0.0018605307609369146 -0.032602190036361833 0 -0.0021686787714862194 -0.034985506630460447 0 -0.0021957734171722189 -0.034791273661581794 0 -0.0024843859315595977 -0.034695924335092478 0 -0.0021957734171722189 -0.034791273661581794 0 -0.0020988817140007898 -0.034657975656946047 0 -0.0022670663745247492 -0.034614406312945489 0 -0.0019996493315685413 -0.034999234839054219 0 -0.0020431471379299586 -0.034831939549846411 0 -0.0019014845378079767 -0.034920387207989713 0 -0.0021188761249213419 -0.034922860564663878 0 -0.0021957734171722189 -0.034791273661581794 0 -0.0020431471379299586 -0.034831939549846411 0 -0.0021957734171722189 -0.034791273661581794 0 -0.0020431471379299586 -0.034831939549846411 0 -0.0020988817140007898 -0.034657975656946047 0 -0.0020431471379299586 -0.034831939549846411 0 -0.0020988817140007898 -0.034657975656946047 0 -0.0019373220730651622 -0.034702766850642469 0 -0.0019373220730651622 -0.034702766850642469 0 -0.0018240982067251475 -0.034842801622832216 0 -0.0016889427469027267 -0.034732605691047073 0 -0.0019373220730651622 -0.034702766850642469 0 -0.0019014845378079767 -0.034920387207989713 0 -0.0018240982067251475 -0.034842801622832216 0 -0.0020431471379299586 -0.034831939549846411 0 -0.0019373220730651622 -0.034702766850642469 0 -0.0019014845378079767 -0.034920387207989713 0 -0.0019014845378079767 -0.034920387207989713 0 -0.0018240982067251475 -0.034842801622832216 0 -0.0017599116016233267 -0.035023249417054161 0 -0.0017599116016233267 -0.035023249417054161 0 -0.0016073164594952833 -0.035169490268402492 0 -0.0016889427469027267 -0.034732605691047073 0 -0.0018240982067251475 -0.034842801622832216 0 -0.0017599116016233267 -0.035023249417054161 0 -0.0016889427469027267 -0.034732605691047073 0 -0.0017599116016233267 -0.035023249417054161 0 -0.0016073164594952833 -0.035169490268402492 0 -0.0017156051649029427 -0.035175989637626304 0 -0.001597712842591605 -0.035238091309344619 0 -0.0016073164594952833 -0.035169490268402492 0 -0.0017156051649029427 -0.035175989637626304 0 -0.0017599116016233267 -0.035023249417054161 0 -0.0017156051649029427 -0.035175989637626304 0 -0.0018526972070113423 -0.035075317196119345 0 -0.0019063188442760993 -0.035232165349500473 0 -0.0017156051649029427 -0.035175989637626304 0 -0.0018526972070113423 -0.035075317196119345 0 -0.0019063188442760993 -0.035232165349500473 0 -0.0019996493315685413 -0.034999234839054219 0 -0.0018526972070113423 -0.035075317196119345 0 -0.0019996493315685413 -0.034999234839054219 0 -0.0019014845378079767 -0.034920387207989713 0 -0.0018526972070113423 -0.035075317196119345 0 -0.0019014845378079767 -0.034920387207989713 0 -0.0017599116016233267 -0.035023249417054161 0 -0.0018526972070113423 -0.035075317196119345 0 -6.9232600419872326e-06 -0.0240027546832071 0 -6.1535517272810319e-05 -0.024437395856220793 0 -0.00050545408131198743 -0.024258432408279042 0 -6.9232600419872326e-06 -0.0240027546832071 0 -0.00076851195741213627 -0.023871617150685101 0 -0.00050545408131198743 -0.024258432408279042 0 -0.00076851195741213627 -0.023871617150685101 0 -0.00050545408131198743 -0.024258432408279042 0 -0.0011220698445305035 -0.024159835782215065 0 -0.00076851195741213627 -0.023871617150685101 0 -0.0002707394573885355 -0.023650585350218994 0 -0.00052951980695597686 -0.023489548910791615 0 -0.0004589369403793934 -0.022714019425658993 0 -0.00074386497268664846 -0.020932709918988348 0 -2.8898969455029803e-05 -0.021110408913491106 0 -0.00069715774000436617 -0.023425583532332855 0 -8.1948153416908567e-05 -0.021740520247879973 0 -6.9232600419872326e-06 -0.0240027546832071 0 -0.0002707394573885355 -0.023650585350218994 0 2.7896239140956171e-05 -0.02334309958763776 0 -6.9232600419872326e-06 -0.0240027546832071 0 -0.00076851195741213627 -0.023871617150685101 0 -0.0002707394573885355 -0.023650585350218994 0 -6.9232600419872326e-06 -0.0240027546832071 0 0.00058328102293080867 -0.023787220868275064 0 2.7896239140956171e-05 -0.02334309958763776 0 -0.0013031787540780367 -0.029860030084666051 0 -0.0013248738234986021 -0.029889773676640259 0 -0.0017644702233430857 -0.029608522427034812 0 -6.9232600419872326e-06 -0.0240027546832071 0 0.00058328102293080867 -0.023787220868275064 0 0.00066317481329077608 -0.02425561322413276 0 -6.9232600419872326e-06 -0.0240027546832071 0 0.0003398217614019483 -0.024550333730696629 0 -6.1535517272810319e-05 -0.024437395856220793 0 -6.9232600419872326e-06 -0.0240027546832071 0 0.00066317481329077608 -0.02425561322413276 0 0.0003398217614019483 -0.024550333730696629 0 0.0003398217614019483 -0.024550333730696629 0 0.00016857309331029416 -0.024925604298321326 0 -6.1535517272810319e-05 -0.024437395856220793 0 0.00083805933146539218 -0.024707817420295975 0 0.00066317481329077608 -0.02425561322413276 0 0.0003398217614019483 -0.024550333730696629 0 0.00083805933146539218 -0.024707817420295975 0 0.0003398217614019483 -0.024550333730696629 0 0.00055792127375971093 -0.025172903996861808 0 -0.00010783934710299936 -0.027672464177103007 0 -0.00038992746428832505 -0.028055088594940696 0 -0.0012798032645849691 -0.03115062362023421 0 -0.0012992584860373145 -0.0310431212823476 0 -0.0013814147317586021 -0.031145526944381247 0 0.00055792127375971093 -0.025172903996861808 0 0.00016857309331029416 -0.024925604298321326 0 -8.735281282343745e-05 -0.025306946218547885 0 0.0003398217614019483 -0.024550333730696629 0 0.00055792127375971093 -0.025172903996861808 0 0.00016857309331029416 -0.024925604298321326 0 0.00016857309331029416 -0.024925604298321326 0 -0.00016028102161223486 -0.024812102552156191 0 -8.735281282343745e-05 -0.025306946218547885 0 -7.8810866518672882e-05 -0.02504916906756836 0 -6.1796238303998865e-05 -0.024961547754253143 0 -0.00016028102161223486 -0.024812102552156191 0 -0.00031606813593734669 -0.025276226699352304 0 0.00020213842190002079 -0.025539956895061076 0 0.00016857309331029416 -0.024925604298321326 0 -0.00016028102161223486 -0.024812102552156191 0 -6.1535517272810319e-05 -0.024437395856220793 0 -0.00016028102161223486 -0.024812102552156191 0 -6.1535517272810319e-05 -0.024437395856220793 0 -0.00050545408131198743 -0.024258432408279042 0 -0.00016028102161223486 -0.024812102552156191 0 -0.00050545408131198743 -0.024258432408279042 0 -0.00067502444905580836 -0.024805096204998198 0 -0.00050545408131198743 -0.024258432408279042 0 -0.00067502444905580836 -0.024805096204998198 0 -0.0011220698445305035 -0.024159835782215065 0 -0.00016028102161223486 -0.024812102552156191 0 -0.00031606813593734669 -0.025276226699352304 0 -0.00067502444905580836 -0.024805096204998198 0 -0.00031606813593734669 -0.025276226699352304 0 -0.00067502444905580836 -0.024805096204998198 0 -0.00080028379731898768 -0.025452697975046835 0 -0.00031606813593734669 -0.025276226699352304 0 -0.00080028379731898768 -0.025452697975046835 0 -0.0002508519530101426 -0.026129671771055567 0 -0.00080028379731898768 -0.025452697975046835 0 -0.0002508519530101426 -0.026129671771055567 0 -0.00088566250518310407 -0.026109010784331459 0 -6.1796238303998865e-05 -0.024961547754253143 0 -0.00062640798011536685 -0.029054389294635958 0 -0.00031606813593734669 -0.025276226699352304 0 0.00020213842190002079 -0.025539956895061076 0 -0.0002508519530101426 -0.026129671771055567 0 0.00020213842190002079 -0.025539956895061076 0 -0.0002508519530101426 -0.026129671771055567 0 0.00046463271842230936 -0.02633994628650891 0 -0.00062640798011536685 -0.029054389294635958 0 -0.00052840114867417005 -0.030857107971345245 0 -0.0013351097837129287 -0.034870373838300876 0 -0.0013689878879155576 -0.034770810181165152 0 -0.00070304975709170993 -0.034533112349429546 0 -0.0002508519530101426 -0.026129671771055567 0 0.00046463271842230936 -0.02633994628650891 0 -0.00029709320212312765 -0.026902020990150988 0 -0.0002508519530101426 -0.026129671771055567 0 -0.00086015135104235087 -0.026666580963540954 0 -0.00029709320212312765 -0.026902020990150988 0 -0.0002508519530101426 -0.026129671771055567 0 -0.00086015135104235087 -0.026666580963540954 0 -0.00088566250518310407 -0.026109010784331459 0 -0.0012798032645849691 -0.03115062362023421 0 -0.0013814147317586021 -0.031145526944381247 0 -0.0013195475047744255 -0.031221226231185537 0 -0.0013814147317586021 -0.031145526944381247 0 -0.0013195475047744255 -0.031221226231185537 0 -0.0014337829348953187 -0.031240441067838166 0 -0.0013195475047744255 -0.031221226231185537 0 -0.0014337829348953187 -0.031240441067838166 0 -0.0013298323203141586 -0.031318208514364627 0 0.00055792127375971093 -0.025172903996861808 0 -8.735281282343745e-05 -0.025306946218547885 0 0.00023348507974180302 -0.025698888251963078 0 -8.735281282343745e-05 -0.025306946218547885 0 4.0836274269233599e-05 -0.025844390783302883 0 0.00023348507974180302 -0.025698888251963078 0 -0.00038992746428832505 -0.028055088594940696 0 -0.00056480665925880244 -0.029452549854380183 0 -0.0013814147317586021 -0.031145526944381247 0 -0.0014337829348953187 -0.031240441067838166 0 -0.0014743563823996454 -0.031265062043311677 0 -0.0016131061107015647 -0.030653611828760623 0 -0.00056480665925880244 -0.029452549854380183 0 -0.0014861721734543598 -0.031282318670692894 0 -0.0013298323203141586 -0.031318208514364627 0 -0.0015177143336206843 -0.03143218933732625 0 -0.00080221398848456945 -0.029998791949375332 0 -0.00076233749956878464 -0.030127163696209939 0 -0.00055686413214087052 -0.029817897811285854 0 -0.0011238995406512619 -0.032378516108764417 0 -0.00056480665925880244 -0.029452549854380183 0 -0.00062640798011536685 -0.029054389294635958 0 -0.00056480665925880244 -0.029452549854380183 0 -0.00062640798011536685 -0.029054389294635958 0 -0.0011238995406512619 -0.032378516108764417 0 -0.0015372496617323012 -0.031360442467330232 0 -0.0014861721734543598 -0.031282318670692894 0 -0.0015177143336206843 -0.03143218933732625 0 -0.001559873314465159 -0.035004136275263241 0 -0.0016678130836208062 -0.034654096884567935 0 -0.0015698644840461586 -0.034611935287989969 0 -0.0011238995406512619 -0.032378516108764417 0 -0.0020429477221096779 -0.03400891538003005 0 -0.0014337829348953187 -0.031240441067838166 0 -0.0014861721734543598 -0.031282318670692894 0 -0.0013298323203141586 -0.031318208514364627 0 -0.0023206208948180125 -0.032929996005510657 0 -0.0020429477221096779 -0.03400891538003005 0 -0.0032474493193522663 -0.034753854465405513 0 -0.0031966737945520155 -0.034710791444396559 0 -0.0031265798164807194 -0.03473208808801824 0 -0.0032746144351067379 -0.034694860604161264 0 -0.0032474493193522663 -0.034753854465405513 0 -0.0031966737945520155 -0.034710791444396559 0 -0.0032746144351067379 -0.034694860604161264 0 -0.0031966737945520155 -0.034710791444396559 0 -0.003132428470334419 -0.034642313904474066 0 -0.0020429477221096779 -0.03400891538003005 0 -0.0026088744330547082 -0.034228771448511074 0 -0.0016681235950055386 -0.034655390854508895 0 -0.0015698644840461586 -0.034611935287989969 0 -0.0020505902319096184 -0.033573243784996029 0 -0.0031966737945520155 -0.034710791444396559 0 -0.0031265798164807194 -0.03473208808801824 0 -0.003132428470334419 -0.034642313904474066 0 -0.0020429477221096779 -0.03400891538003005 0 -0.0020015826290579472 -0.034032565839649163 0 -0.0015698644840461586 -0.034611935287989969 0 -0.0020505902319096184 -0.033573243784996029 0 -0.0012687928629239534 -0.0336525460021731 0 -0.0013313547321445803 -0.032806530928885393 0 -0.0020505902319096184 -0.033573243784996029 0 -0.0012687928629239534 -0.0336525460021731 0 -0.0032432111662507868 -0.034614296660221658 0 -0.0032746144351067379 -0.034694860604161264 0 -0.003132428470334419 -0.034642313904474066 0 -0.00086015135104235087 -0.026666580963540954 0 -0.00029709320212312765 -0.026902020990150988 0 -0.0010509173617627961 -0.027483060584711547 0 -0.00052840114867417005 -0.030857107971345245 0 -0.00050140764821220954 -0.0308761079990123 0 -0.00070304975709170993 -0.034533112349429546 0 -0.00066749650249084121 -0.0339680136145631 0 0.00023400711057273795 -0.034044426404660807 0 -0.0015698644840461586 -0.034611935287989969 0 -0.0010092495563332881 -0.034260619282171029 0 -0.0012687928629239534 -0.0336525460021731 0 -0.001559873314465159 -0.035004136275263241 0 -0.0015698644840461586 -0.034611935287989969 0 -0.0010092495563332881 -0.034260619282171029 0 -0.0013689878879155576 -0.034770810181165152 0 -0.00070304975709170993 -0.034533112349429546 0 -0.0010092495563332881 -0.034260619282171029 0 -0.0011238995406512619 -0.032378516108764417 0 -0.0014452591275737347 -0.035050024111554549 0 -0.00070304975709170993 -0.034533112349429546 0 -0.0010092495563332881 -0.034260619282171029 0 -0.00066749650249084121 -0.0339680136145631 0 -0.0010092495563332881 -0.034260619282171029 0 -0.0012687928629239534 -0.0336525460021731 0 -0.00066749650249084121 -0.0339680136145631 0 -0.0012687928629239534 -0.0336525460021731 0 -0.00051779467527484193 -0.033353007866499036 0 -0.00066749650249084121 -0.0339680136145631 0 -0.00051779467527484193 -0.033353007866499036 0 -0.00066749650249084121 -0.0339680136145631 0 0.00023400711057273795 -0.034044426404660807 0 0.00035781816270632805 -0.032999083340717189 0 -0.00051779467527484193 -0.033353007866499036 0 0.00023400711057273795 -0.034044426404660807 0 -0.0010509173617627961 -0.027483060584711547 0 -0.0019230092947992823 -0.027261098106450408 0 -0.0018424064947876911 -0.028072663962518323 0 -0.00050140764821220954 -0.0308761079990123 0 1.735026760545486e-05 -0.029656849375211746 0 0.00035781816270632805 -0.032999083340717189 0 0.00023400711057273795 -0.034044426404660807 0 0.0012772665133910441 -0.03340666903997104 0 -0.00086015135104235087 -0.026666580963540954 0 -0.0010509173617627961 -0.027483060584711547 0 -0.0014099387173539912 -0.026953140543137164 0 -0.0010509173617627961 -0.027483060584711547 0 -0.0014099387173539912 -0.026953140543137164 0 -0.0019230092947992823 -0.027261098106450408 0 -0.0014099387173539912 -0.026953140543137164 0 -0.0019230092947992823 -0.027261098106450408 0 -0.0019942810401295565 -0.026459898494094802 0 0.0011105753681164459 -0.027667144762808772 0 0.00069337772422319792 -0.027522407132902559 0 0.0010038613546633226 -0.027212452092744033 0 -0.00040898068612949489 -0.027378393845343983 0 -0.001048789826212174 -0.025934750681919281 0 0.0011105753681164459 -0.027667144762808772 0 0.00098259215088815333 -0.028071913494735739 0 0.00070068254046724452 -0.027843165726510386 0 -0.00040898068612949489 -0.027378393845343983 0 1.735026760545486e-05 -0.029656849375211746 0 0.0011105753681164459 -0.027667144762808772 0 0.0012679235959681598 -0.028234345656998883 0 0.00098259215088815333 -0.028071913494735739 0 0.001125846342042201 -0.028695536049921821 0 1.735026760545486e-05 -0.029656849375211746 0 0.0011174635984211839 -0.028401623296792196 0 0.0012679235959681598 -0.028234345656998883 0 0.00098259215088815333 -0.028071913494735739 0 0.0011174635984211839 -0.028401623296792196 0 0.00098259215088815333 -0.028071913494735739 0 0.00068618826224470968 -0.028280514531117813 0 0.0003656084144622646 -0.028618323852805036 0 0.00068618826224470968 -0.028280514531117813 0 0.00030785459605434231 -0.027953382586087743 0 0.00098259215088815333 -0.028071913494735739 0 0.00068618826224470968 -0.028280514531117813 0 0.00070068254046724452 -0.027843165726510386 0 0.00068618826224470968 -0.028280514531117813 0 0.00070068254046724452 -0.027843165726510386 0 0.00030785459605434231 -0.027953382586087743 0 0.00070068254046724452 -0.027843165726510386 0 0.00030785459605434231 -0.027953382586087743 0 0.00042176149331207428 -0.027650255549840543 0 0.00030785459605434231 -0.027953382586087743 0 0.00018548064644492297 -0.027642910018219301 0 6.4465424041009732e-06 -0.027762893915884917 0 3.1244527687894982e-05 -0.028102562880217816 0 0.00030785459605434231 -0.027953382586087743 0 6.4465424041009732e-06 -0.027762893915884917 0 0.00018548064644492297 -0.027642910018219301 0 0.00042176149331207428 -0.027650255549840543 0 0.00027007842027976231 -0.027342975620610811 0 0.00018548064644492297 -0.027642910018219301 0 0.00027007842027976231 -0.027342975620610811 0 1.0410319551560765e-05 -0.02769406518594044 0 0.00030785459605434231 -0.027953382586087743 0 0.00018548064644492297 -0.027642910018219301 0 0.00042176149331207428 -0.027650255549840543 0 0.00042176149331207428 -0.027650255549840543 0 0.00069337772422319792 -0.027522407132902559 0 0.00027007842027976231 -0.027342975620610811 0 0.0011105753681164459 -0.027667144762808772 0 0.00070068254046724452 -0.027843165726510386 0 0.00069337772422319792 -0.027522407132902559 0 0.00070068254046724452 -0.027843165726510386 0 0.00042176149331207428 -0.027650255549840543 0 0.00069337772422319792 -0.027522407132902559 0 0.00069337772422319792 -0.027522407132902559 0 0.00027007842027976231 -0.027342975620610811 0 0.0010038613546633226 -0.027212452092744033 0 -0.0022123447733627967 -0.023346197904162837 0 -0.0023268687118234471 -0.023480329132532722 0 -0.0024222764131526082 -0.023412388120747422 0 -0.00085800164817007192 -0.025121031473103496 0 -0.001048789826212174 -0.025934750681919281 0 -0.0022123447733627967 -0.023346197904162837 0 -0.0023268687118234471 -0.023480329132532722 0 -0.0021008612312954623 -0.023452062047672209 0 -0.0023268687118234471 -0.023480329132532722 0 -0.0021008612312954623 -0.023452062047672209 0 -0.0023014447494360056 -0.023601520784113837 0 -0.0023268687118234471 -0.023480329132532722 0 -0.0023899330098760873 -0.023605935001080696 0 -0.0023014447494360056 -0.023601520784113837 0 -0.0013735449713701319 -0.025776757691305358 0 -0.0019713146896829623 -0.026455074953378788 0 -0.0021051941965539297 -0.025209268365529319 0 -0.0023268687118234471 -0.023480329132532722 0 -0.0024222764131526082 -0.023412388120747422 0 -0.0023899330098760873 -0.023605935001080696 0 -0.001048789826212174 -0.025934750681919281 0 -0.0024055229422293603 -0.024139046574163329 0 -0.00080028379731898768 -0.025452697975046835 0 -0.0013735449713701319 -0.025776757691305358 0 -0.0013188515980020652 -0.0248890746108659 0 -0.00080028379731898768 -0.025452697975046835 0 -0.00088566250518310407 -0.026109010784331459 0 -0.0013735449713701319 -0.025776757691305358 0 -0.0014099387173539912 -0.026953140543137164 0 -0.0012878529065037665 -0.026438966687344103 0 -0.0019942810401295565 -0.026459898494094802 0 -0.0013735449713701319 -0.025776757691305358 0 -0.0012878529065037665 -0.026438966687344103 0 -0.0019713146896829623 -0.026455074953378788 0 -0.00086015135104235087 -0.026666580963540954 0 -0.00088566250518310407 -0.026109010784331459 0 -0.0012878529065037665 -0.026438966687344103 0 -0.00088566250518310407 -0.026109010784331459 0 -0.0013735449713701319 -0.025776757691305358 0 -0.0012878529065037665 -0.026438966687344103 0 -0.00086015135104235087 -0.026666580963540954 0 -0.0014099387173539912 -0.026953140543137164 0 -0.0012878529065037665 -0.026438966687344103 0 -0.0016655933183237536 -0.026414673507545342 0 -0.001048789826212174 -0.025934750681919281 0 0.0049646728131811117 -0.016211166328702325 0 0.004936493830625336 -0.016225091783882262 0 0.0049205170190723358 -0.016249239416221174 0 0.005415479231882442 -0.0060354340277196938 0 0.003305201805526097 -0.018851710315514279 0 0.0022429710923298003 -0.013096164033512442 0 0.0029638931007267425 -0.013488329254755346 0 0.0027918438564009172 -0.012631033565886794 0 0.004936493830625336 -0.016225091783882262 0 0.0049249204906181461 -0.016240696413396222 0 0.0049205170190723358 -0.016249239416221174 0 0.003305201805526097 -0.018851710315514279 0 0.0010384632729287418 -0.016325246663541966 0 0.003305201805526097 -0.018851710315514279 0 0.0029196779249460263 -0.02298846492547572 0 0.0031192291111433955 -0.02714075861934169 0 0.0017219902383902453 -0.02769002834034405 0 0.001705607079034069 -0.027616266558314888 0 0.0021902204302123446 -0.026726677289578629 0 0.0016391208314362573 -0.027212509695122504 0 0.001705607079034069 -0.027616266558314888 0 0.0015544246562569767 -0.026785061127582006 0 0.0021902204302123446 -0.026726677289578629 0 0.0016391208314362573 -0.027212509695122504 0 0.0016391208314362573 -0.027212509695122504 0 0.001705607079034069 -0.027616266558314888 0 0.0014877733314143018 -0.027411144606902551 0 0.0017212195855341934 -0.027707762360830848 0 0.001705607079034069 -0.027616266558314888 0 0.0013838871995326841 -0.027573855209502496 0 0.0029196779249460263 -0.02298846492547572 0 0.0029494179803876688 -0.023447708085921774 0 0.001705607079034069 -0.027616266558314888 0 0.0013838871995326841 -0.027573855209502496 0 0.0014877733314143018 -0.027411144606902551 0 0.0013838871995326841 -0.027573855209502496 0 0.00099896316956063166 -0.027533360366467158 0 0.0010938620120642202 -0.027895791624878416 0 0.0013838871995326841 -0.027573855209502496 0 0.0012361261921296158 -0.027253450971153878 0 0.00099896316956063166 -0.027533360366467158 0 0.0013838871995326841 -0.027573855209502496 0 0.0014877733314143018 -0.027411144606902551 0 0.0012361261921296158 -0.027253450971153878 0 0.0016391208314362573 -0.027212509695122504 0 0.0014877733314143018 -0.027411144606902551 0 0.0012361261921296158 -0.027253450971153878 0 0.0015544246562569767 -0.026785061127582006 0 0.0016391208314362573 -0.027212509695122504 0 0.0012361261921296158 -0.027253450971153878 0 0.0012361261921296158 -0.027253450971153878 0 0.00099896316956063166 -0.027533360366467158 0 0.00067562419069209796 -0.027342864805679046 0 0.001105687464526962 -0.026882215346419953 0 0.0012361261921296158 -0.027253450971153878 0 0.00067562419069209796 -0.027342864805679046 0 0.00099896316956063166 -0.027533360366467158 0 0.00069630905700561636 -0.027729824684581884 0 0.00067562419069209796 -0.027342864805679046 0 0.00099896316956063166 -0.027533360366467158 0 0.0010938620120642202 -0.027895791624878416 0 0.00069630905700561636 -0.027729824684581884 0 0.00087759100026150766 -0.026017610676186187 0 0.0011578701926420298 -0.026925078144468838 0 0.0017212195855341934 -0.027707762360830848 0 0.0013838871995326841 -0.027573855209502496 0 0.0010938620120642202 -0.027895791624878416 0 0.0029196779249460263 -0.02298846492547572 0 0.00087759100026150766 -0.026017610676186187 0 0.003305201805526097 -0.018851710315514279 0 0.00087759100026150766 -0.026017610676186187 0 0.0023166485990808862 -0.022640806494658484 0 0.0023284871606528887 -0.022726483031895468 0 0.0024178551360022546 -0.022725447798006691 0 -0.0005585207470908336 -0.027428709396941486 0 -0.00038250913403002206 -0.027442080471979758 0 -0.00055458351050144883 -0.02727234295958382 0 -0.0005585207470908336 -0.027428709396941486 0 -0.0003845654690733184 -0.02757719968211431 0 -0.00038250913403002206 -0.027442080471979758 0 -0.0003845654690733184 -0.02757719968211431 0 -0.00038250913403002206 -0.027442080471979758 0 -0.00023154928247865765 -0.027529372004279799 0 -0.00038250913403002206 -0.027442080471979758 0 -0.00023154928247865765 -0.027529372004279799 0 -0.00015793805916411595 -0.027406027567561407 0 -0.00023154928247865765 -0.027529372004279799 0 1.0410319551560765e-05 -0.02769406518594044 0 -0.00015793805916411595 -0.027406027567561407 0 -0.0003845654690733184 -0.02757719968211431 0 -0.00023154928247865765 -0.027529372004279799 0 1.0410319551560765e-05 -0.02769406518594044 0 0.00091329687005255568 -0.027885154709378582 0 0.00069630905700561636 -0.027729824684581884 0 1.0410319551560765e-05 -0.02769406518594044 0 0.00087759100026150766 -0.026017610676186187 0 -0.00025340453952584998 -0.028160262118041311 0 0.00069630905700561636 -0.027729824684581884 0 0.00019176427155486613 -0.027631960285357318 0 1.0410319551560765e-05 -0.02769406518594044 0 -3.1253494694988052e-05 -0.027507056117880482 0 0.00067562419069209796 -0.027342864805679046 0 0.00019176427155486613 -0.027631960285357318 0 0.00069630905700561636 -0.027729824684581884 0 0.00067562419069209796 -0.027342864805679046 0 0.00019176427155486613 -0.027631960285357318 0 -3.1253494694988052e-05 -0.027507056117880482 0 3.1244527687894982e-05 -0.028102562880217816 0 6.4465424041009732e-06 -0.027762893915884917 0 0.00019176427155486613 -0.027631960285357318 0 6.4465424041009732e-06 -0.027762893915884917 0 1.0410319551560765e-05 -0.02769406518594044 0 -3.1253494694988052e-05 -0.027507056117880482 0 0.00019176427155486613 -0.027631960285357318 0 6.4465424041009732e-06 -0.027762893915884917 0 0.00018548064644492297 -0.027642910018219301 0 6.4465424041009732e-06 -0.027762893915884917 0 1.0410319551560765e-05 -0.02769406518594044 0 -0.00085800164817007192 -0.025121031473103496 0 -0.0011320420562478581 -0.026233424099652385 0 0.00027007842027976231 -0.027342975620610811 0 1.0410319551560765e-05 -0.02769406518594044 0 -0.00015793805916411595 -0.027406027567561407 0 -0.0022123447733627967 -0.023346197904162837 0 -0.0021008612312954623 -0.023452062047672209 0 -0.0019086812893185639 -0.023236171120357415 0 -0.0021008612312954623 -0.023452062047672209 0 -0.001802655349460572 -0.023456452266523955 0 -0.0021014159288878075 -0.023628333084902725 0 -0.0021008612312954623 -0.023452062047672209 0 -0.001802655349460572 -0.023456452266523955 0 -0.0019086812893185639 -0.023236171120357415 0 -0.001802655349460572 -0.023456452266523955 0 -0.0019086812893185639 -0.023236171120357415 0 -0.0014531822312931217 -0.023146111470606995 0 -0.00038250913403002206 -0.027442080471979758 0 -0.00015793805916411595 -0.027406027567561407 0 -0.00055458351050144883 -0.02727234295958382 0 -0.0011320420562478581 -0.026233424099652385 0 -0.00070489189568605313 -0.018993134178205081 0 -0.001233360288404239 -0.021875238298326924 0 -0.00070489189568605313 -0.018993134178205081 0 -0.00042698618235076228 -0.019512889781089542 0 -0.00026102859959280521 -0.019444118626929581 0 -0.00030102280867830885 -0.019722510986432473 0 -0.00042698618235076228 -0.019512889781089542 0 -0.00026102859959280521 -0.019444118626929581 0 -0.00021025624614454539 -0.019246050126469013 0 0.00035354154987031998 -0.013866987080046467 0 0.00077378908745054289 -0.015111232529847187 0 -0.00026102859959280521 -0.019444118626929581 0 -0.0001373331623252512 -0.019512811796822436 0 -0.00017917774826584038 -0.019242476116255684 0 0.0016804951795556112 -0.0083254816080867572 0 0.0010149089617344632 -0.008931354957476937 0 0.00078034470803021484 -0.0076241677539494864 0 -0.00026102859959280521 -0.019444118626929581 0 -0.00021025624614454539 -0.019246050126469013 0 -0.00017917774826584038 -0.019242476116255684 0 0.0043705218340897101 -0.0082966499398476265 0 0.0032832962349085204 -0.0077921750240178391 0 0.0028065117715659789 -0.0084134672386421312 0 0.0047431969803917061 -0.0014476156584587185 0 0.00077378908745054289 -0.015111232529847187 0 -0.0005585207470908336 -0.027428709396941486 0 -0.00055458351050144883 -0.02727234295958382 0 -0.00058513169946117715 -0.027291897829325805 0 -0.00070489189568605313 -0.018993134178205081 0 0.00077378908745054289 -0.015111232529847187 0 0.00077378908745054289 -0.015111232529847187 0 0.0010384632729287418 -0.016325246663541966 0 -0.00070489189568605313 -0.018993134178205081 0 0.0010384632729287418 -0.016325246663541966 0 0.0012171895520749474 -0.017373769028515677 0 0.0017209735311839388 -0.017357971493684371 0 0.0016531264443364899 -0.016999600883603857 0 0.005415479231882442 -0.0060354340277196938 0 0.0010384632729287418 -0.016325246663541966 0 0.0032832962349085204 -0.0077921750240178391 0 0.0028065117715659789 -0.0084134672386421312 0 0.0027747549550768053 -0.0082473036087352437 0 -0.00012657723435379966 -0.019747202086038074 0 -0.00030102280867830885 -0.019722510986432473 0 -0.00026846950548048117 -0.019936444209562528 0 -0.00012657723435379966 -0.019747202086038074 0 -0.0001373331623252512 -0.019512811796822436 0 -0.00030102280867830885 -0.019722510986432473 0 0.00057099307583536468 -0.015034304659506297 0 0.00035354154987031998 -0.013866987080046467 0 -0.00026102859959280521 -0.019444118626929581 0 -0.0001373331623252512 -0.019512811796822436 0 -0.00030102280867830885 -0.019722510986432473 0 -0.00030102280867830885 -0.019722510986432473 0 -0.0004538457785850599 -0.019803651487495969 0 -0.00040706735924977332 -0.019970503246873321 0 -0.001233360288404239 -0.021875238298326924 0 -0.0012942221342642183 -0.021609990755764245 0 -0.00042698618235076228 -0.019512889781089542 0 -0.0004538457785850599 -0.019803651487495969 0 -0.0005768932277464959 -0.019755446604243047 0 -0.00042698618235076228 -0.019512889781089542 0 -0.00030102280867830885 -0.019722510986432473 0 -0.0004538457785850599 -0.019803651487495969 0 -0.0004538457785850599 -0.019803651487495969 0 -0.0005768932277464959 -0.019755446604243047 0 -0.00054734550552249731 -0.020023251397082928 0 -0.00054734550552249731 -0.020023251397082928 0 -0.00046073272351797681 -0.020124576424513485 0 -0.00056709772296053749 -0.0202332074860113 0 -0.00046073272351797681 -0.020124576424513485 0 -0.00035824033843360158 -0.020074663007969541 0 -0.00040114735354603839 -0.020163543937460549 0 -0.00046073272351797681 -0.020124576424513485 0 -0.00040706735924977332 -0.019970503246873321 0 -0.00035824033843360158 -0.020074663007969541 0 -0.0004538457785850599 -0.019803651487495969 0 -0.00054734550552249731 -0.020023251397082928 0 -0.00040706735924977332 -0.019970503246873321 0 -0.00054734550552249731 -0.020023251397082928 0 -0.00046073272351797681 -0.020124576424513485 0 -0.00040706735924977332 -0.019970503246873321 0 -0.00030102280867830885 -0.019722510986432473 0 -0.00040706735924977332 -0.019970503246873321 0 -0.00026846950548048117 -0.019936444209562528 0 -0.00040706735924977332 -0.019970503246873321 0 -0.00026846950548048117 -0.019936444209562528 0 -0.00035824033843360158 -0.020074663007969541 0 -0.00026846950548048117 -0.019936444209562528 0 -0.00035824033843360158 -0.020074663007969541 0 -0.00026986914336531468 -0.02006853524393868 0 -0.00012914945819534609 -0.019930045311464247 0 -0.00026986914336531468 -0.02006853524393868 0 -0.00018309583235960535 -0.020046727983303324 0 -0.00012914945819534609 -0.019930045311464247 0 -0.00026846950548048117 -0.019936444209562528 0 -0.00026986914336531468 -0.02006853524393868 0 -0.00012657723435379966 -0.019747202086038074 0 -0.00012914945819534609 -0.019930045311464247 0 -0.00026846950548048117 -0.019936444209562528 0 -0.0023899330098760873 -0.023605935001080696 0 -0.0023415831339844559 -0.023643438775893425 0 -0.0022296142178963381 -0.023605683044990118 0 -0.0011220698445305035 -0.024159835782215065 0 -0.0013188515980020652 -0.0248890746108659 0 -0.0022296142178963381 -0.023605683044990118 0 -0.0024055229422293603 -0.024139046574163329 0 -0.00219575741489838 -0.023752133728304078 0 -0.00067502444905580836 -0.024805096204998198 0 -0.0011220698445305035 -0.024159835782215065 0 -0.0013188515980020652 -0.0248890746108659 0 -0.00067502444905580836 -0.024805096204998198 0 -0.00080028379731898768 -0.025452697975046835 0 -0.0013188515980020652 -0.0248890746108659 0 -0.0013735449713701319 -0.025776757691305358 0 -0.0013188515980020652 -0.0248890746108659 0 -0.0021051941965539297 -0.025209268365529319 0 -0.0013188515980020652 -0.0248890746108659 0 -0.0021051941965539297 -0.025209268365529319 0 -0.0022296142178963381 -0.023605683044990118 0 -0.0023899330098760873 -0.023605935001080696 0 -0.0023014447494360056 -0.023601520784113837 0 -0.0023415831339844559 -0.023643438775893425 0 -0.0021008612312954623 -0.023452062047672209 0 -0.0021014159288878075 -0.023628333084902725 0 -0.0023014447494360056 -0.023601520784113837 0 -0.0005768932277464959 -0.019755446604243047 0 -0.00054734550552249731 -0.020023251397082928 0 -0.00071139225571971779 -0.01998612602645462 0 -0.0021014159288878075 -0.023628333084902725 0 -0.0023014447494360056 -0.023601520784113837 0 -0.0024415649909128798 -0.023676549335933897 0 -0.0012942221342642183 -0.021609990755764245 0 -0.0015787961951000636 -0.021818458562255543 0 -0.0023014447494360056 -0.023601520784113837 0 -0.0024415649909128798 -0.023676549335933897 0 -0.0023415831339844559 -0.023643438775893425 0 -0.0024415649909128798 -0.023676549335933897 0 -0.0023415831339844559 -0.023643438775893425 0 -0.0022296142178963381 -0.023605683044990118 0 -0.0024415649909128798 -0.023676549335933897 0 -0.0022324120747998404 -0.022735251632311843 0 -0.0022296142178963381 -0.023605683044990118 0 -0.00071139225571971779 -0.01998612602645462 0 -0.00069683679976303395 -0.020217856219555359 0 -0.00089168151811572845 -0.02034667212860836 0 -0.0015787961951000636 -0.021818458562255543 0 -0.0014912972550187242 -0.021513690823293834 0 -0.00054734550552249731 -0.020023251397082928 0 -0.00071139225571971779 -0.01998612602645462 0 -0.00069683679976303395 -0.020217856219555359 0 -0.00054734550552249731 -0.020023251397082928 0 -0.00056709772296053749 -0.0202332074860113 0 -0.00069683679976303395 -0.020217856219555359 0 -0.00069683679976303395 -0.020217856219555359 0 -0.00089168151811572845 -0.02034667212860836 0 -0.00079691492074757066 -0.02057762890538261 0 -0.00056709772296053749 -0.0202332074860113 0 -0.00069683679976303395 -0.020217856219555359 0 -0.00079691492074757066 -0.02057762890538261 0 -0.00089168151811572845 -0.02034667212860836 0 -0.00074386497268664846 -0.020932709918988348 0 -0.00085328064513231073 -0.020639594376662511 0 -0.00089168151811572845 -0.02034667212860836 0 -0.00085328064513231073 -0.020639594376662511 0 -0.00079691492074757066 -0.02057762890538261 0 -0.0022324120747998404 -0.022735251632311843 0 -0.0022296142178963381 -0.023605683044990118 0 -0.001558885275079697 -0.023326661921633983 0 -0.0011220698445305035 -0.024159835782215065 0 -0.0022296142178963381 -0.023605683044990118 0 -0.001558885275079697 -0.023326661921633983 0 -0.0004589369403793934 -0.022714019425658993 0 -0.0022324120747998404 -0.022735251632311843 0 -0.001558885275079697 -0.023326661921633983 0 -0.00069715774000436617 -0.023425583532332855 0 -0.0010411975232287106 -0.024061351245280339 0 -0.0004589369403793934 -0.022714019425658993 0 -0.0011220698445305035 -0.024159835782215065 0 -0.001558885275079697 -0.023326661921633983 0 -0.0014912972550187242 -0.021513690823293834 0 -0.0007680951547696127 -0.02092995808084747 0 -0.0004589369403793934 -0.022714019425658993 0 -0.0022324120747998404 -0.022735251632311843 0 -0.00074386497268664846 -0.020932709918988348 0 -0.00074386497268664846 -0.020932709918988348 0 -0.00086070636119676123 -0.020603975022003319 0 -0.00033304873813021425 -0.0205957805067436 0 -0.00074386497268664846 -0.020932709918988348 0 -0.00086070636119676123 -0.020603975022003319 0 -0.00085328064513231073 -0.020639594376662511 0 -0.00099611300752359207 -0.020285291268065206 0 -0.0011126921588101254 -0.020428136145688208 0 -0.0013256523257010873 -0.020414169140096295 0 -0.00099611300752359207 -0.020285291268065206 0 -0.0011126921588101254 -0.020428136145688208 0 -0.00097045847865794054 -0.020482065310986813 0 -0.00099611300752359207 -0.020285291268065206 0 -0.00078397498142478205 -0.02041122519614515 0 -0.00097045847865794054 -0.020482065310986813 0 -0.00099611300752359207 -0.020285291268065206 0 -0.00078397498142478205 -0.02041122519614515 0 -0.00070736333234332877 -0.020204794011626816 0 -0.0007948090904176399 -0.020224616632200234 0 -0.00079680840591427385 -0.020414419516454882 0 -0.00086070636119676123 -0.020603975022003319 0 -0.00085328064513231073 -0.020639594376662511 0 -0.00079691492074757066 -0.02057762890538261 0 -0.00057559029406449222 -0.020252134722001287 0 -0.00079680840591427385 -0.020414419516454882 0 -0.00056709772296053749 -0.0202332074860113 0 -0.00070736333234332877 -0.020204794011626816 0 -0.00055260360352070697 -0.02027946830266019 0 -0.00056709772296053749 -0.0202332074860113 0 -0.00055260360352070697 -0.02027946830266019 0 -0.00047037044781354814 -0.020209803242306829 0 -0.00078397498142478205 -0.02041122519614515 0 -0.00055260360352070697 -0.02027946830266019 0 -0.00058318713695257318 -0.020417064922428736 0 -0.00078397498142478205 -0.02041122519614515 0 -0.00070736333234332877 -0.020204794011626816 0 -0.00055260360352070697 -0.02027946830266019 0 -0.00078397498142478205 -0.02041122519614515 0 -0.00058318713695257318 -0.020417064922428736 0 -0.00071128691585287509 -0.020599855360104918 0 -0.00055260360352070697 -0.02027946830266019 0 -0.00058318713695257318 -0.020417064922428736 0 -0.00044004088591248491 -0.020346696082046062 0 -0.00058318713695257318 -0.020417064922428736 0 -0.0006098285347943043 -0.020683844724477221 0 -0.00044004088591248491 -0.020346696082046062 0 -0.0006098285347943043 -0.020683844724477221 0 -0.00044004088591248491 -0.020346696082046062 0 -0.00039667312412046852 -0.020752752487793073 0 -0.0006098285347943043 -0.020683844724477221 0 -0.00071128691585287509 -0.020599855360104918 0 -0.00079113122907773577 -0.020737013801173116 0 -0.00058318713695257318 -0.020417064922428736 0 -0.0006098285347943043 -0.020683844724477221 0 -0.00071128691585287509 -0.020599855360104918 0 -0.00071128691585287509 -0.020599855360104918 0 -0.00079113122907773577 -0.020737013801173116 0 -0.00085567287824308571 -0.020619667651347734 0 -0.00079113122907773577 -0.020737013801173116 0 -0.0009192547880611981 -0.020746650843216551 0 -0.00091537793964494051 -0.020857075588815863 0 -0.00079113122907773577 -0.020737013801173116 0 -0.0009192547880611981 -0.020746650843216551 0 -0.00085567287824308571 -0.020619667651347734 0 -0.0009192547880611981 -0.020746650843216551 0 -0.00099160029717200774 -0.020682031539505912 0 -0.00085567287824308571 -0.020619667651347734 0 -0.0009192547880611981 -0.020746650843216551 0 -0.0010118990452109176 -0.020810687172709053 0 -0.00091537793964494051 -0.020857075588815863 0 -0.0010118990452109176 -0.020810687172709053 0 -0.00091537793964494051 -0.020857075588815863 0 -0.0010675412086954214 -0.020827577789431905 0 -0.00091561143914784264 -0.021618094796071623 0 -0.00043894300616734969 -0.022244912457403853 0 -0.0010118990452109176 -0.020810687172709053 0 -0.0010321817294426233 -0.020782651142631801 0 -0.001040519995594561 -0.020835966385937939 0 -0.0010118990452109176 -0.020810687172709053 0 -0.0010321817294426233 -0.020782651142631801 0 -0.00099160029717200774 -0.020682031539505912 0 -0.0009192547880611981 -0.020746650843216551 0 -0.0010118990452109176 -0.020810687172709053 0 -0.00099160029717200774 -0.020682031539505912 0 -0.0010321817294426233 -0.020782651142631801 0 -0.00099160029717200774 -0.020682031539505912 0 -0.0010405628644535806 -0.020810951647601786 0 -0.00096932772390896725 -0.020728545354099112 0 -0.0012377062350461231 -0.020616194805120832 0 -0.0011126921588101254 -0.020428136145688208 0 -0.0011603965368778618 -0.020530474590336235 0 -0.00097045847865794054 -0.020482065310986813 0 -0.00099160029717200774 -0.020682031539505912 0 -0.0011603965368778618 -0.020530474590336235 0 -0.00097045847865794054 -0.020482065310986813 0 -0.00078397498142478205 -0.02041122519614515 0 -0.00071128691585287509 -0.020599855360104918 0 -0.00085567287824308571 -0.020619667651347734 0 -0.00078397498142478205 -0.02041122519614515 0 -0.00097045847865794054 -0.020482065310986813 0 -0.00085567287824308571 -0.020619667651347734 0 -0.00099160029717200774 -0.020682031539505912 0 -0.00097045847865794054 -0.020482065310986813 0 -0.00085567287824308571 -0.020619667651347734 0 0.0010407099667670723 -0.018994376688036673 0 8.6608661698723546e-05 -0.019767169732037942 0 1.9105058991192826e-06 -0.01952257359549096 0 0.00066152060055646488 -0.015349636454653278 0 -0.00038707581715875577 -0.02052004026566575 0 -0.00031145264377996774 -0.020204777239512028 0 -0.0002863495954116265 -0.020133298889684424 0 -0.00033356770017004971 -0.020147249988606536 0 -0.00011087525770674376 -0.020084508014330142 0 -0.00031145264377996774 -0.020204777239512028 0 -0.00023178918825726146 -0.020114164967023694 0 -0.00026986914336531468 -0.02006853524393868 0 -0.00023178918825726146 -0.020114164967023694 0 -0.00018309583235960535 -0.020046727983303324 0 -0.00026986914336531468 -0.02006853524393868 0 -0.0002863495954116265 -0.020133298889684424 0 -0.00033356770017004971 -0.020147249988606536 0 -0.00026986914336531468 -0.02006853524393868 0 -0.00023178918825726146 -0.020114164967023694 0 -0.0002863495954116265 -0.020133298889684424 0 -0.00031145264377996774 -0.020204777239512028 0 -0.00023178918825726146 -0.020114164967023694 0 -0.0002863495954116265 -0.020133298889684424 0 -0.00035824033843360158 -0.020074663007969541 0 -0.00026986914336531468 -0.02006853524393868 0 -0.00033356770017004971 -0.020147249988606536 0 -0.00035824033843360158 -0.020074663007969541 0 -0.00033356770017004971 -0.020147249988606536 0 -0.00040114735354603839 -0.020163543937460549 0 -0.00033356770017004971 -0.020147249988606536 0 -0.00037359690912676391 -0.020183959152473455 0 -0.00040114735354603839 -0.020163543937460549 0 8.6608661698723546e-05 -0.019767169732037942 0 1.9105058991192826e-06 -0.01952257359549096 0 -0.00040083297905549146 -0.02009906116373136 0 -0.00031145264377996774 -0.020204777239512028 0 -0.00037359690912676391 -0.020183959152473455 0 -0.00040083297905549146 -0.02009906116373136 0 -0.00031145264377996774 -0.020204777239512028 0 -0.00033356770017004971 -0.020147249988606536 0 -0.00037359690912676391 -0.020183959152473455 0 -0.00037359690912676391 -0.020183959152473455 0 -0.0003977238965468101 -0.020187683215453309 0 -0.00040083297905549146 -0.02009906116373136 0 -0.00037359690912676391 -0.020183959152473455 0 -0.0003977238965468101 -0.020187683215453309 0 -0.00041084133862030368 -0.020197721832239637 0 -0.0003977238965468101 -0.020187683215453309 0 -0.00041084133862030368 -0.020197721832239637 0 -0.00043902836101260539 -0.020238644133785785 0 -0.00037359690912676391 -0.020183959152473455 0 -0.00041084133862030368 -0.020197721832239637 0 -0.00040114735354603839 -0.020163543937460549 0 -0.00046073272351797681 -0.020124576424513485 0 -0.00040114735354603839 -0.020163543937460549 0 -0.00047037044781354814 -0.020209803242306829 0 -0.00041084133862030368 -0.020197721832239637 0 -0.00040114735354603839 -0.020163543937460549 0 -0.00047037044781354814 -0.020209803242306829 0 -0.00046073272351797681 -0.020124576424513485 0 -0.00056709772296053749 -0.0202332074860113 0 -0.00047037044781354814 -0.020209803242306829 0 -0.00055260360352070697 -0.02027946830266019 0 -0.00047037044781354814 -0.020209803242306829 0 -0.00043902836101260539 -0.020238644133785785 0 -0.00041084133862030368 -0.020197721832239637 0 -0.00047037044781354814 -0.020209803242306829 0 -0.00043902836101260539 -0.020238644133785785 0 -0.00043902836101260539 -0.020238644133785785 0 -0.00044004088591248491 -0.020346696082046062 0 -0.00041431587273051015 -0.020216945664472713 0 -0.00055260360352070697 -0.02027946830266019 0 -0.00043902836101260539 -0.020238644133785785 0 -0.00044004088591248491 -0.020346696082046062 0 -0.00044004088591248491 -0.020346696082046062 0 -0.000425733075584603 -0.020247589851499187 0 -0.00041431587273051015 -0.020216945664472713 0 -0.00044004088591248491 -0.020346696082046062 0 -0.00043758729814675216 -0.020290212629443898 0 -0.000425733075584603 -0.020247589851499187 0 -0.00044004088591248491 -0.020346696082046062 0 -0.00043758729814675216 -0.020290212629443898 0 -0.0004617994589117783 -0.020307305294914951 0 -0.00044024537912480503 -0.020456326800073879 0 -0.00043533762054698532 -0.02030277548915816 0 -0.00039892758785065865 -0.020246063248505378 0 -0.00035210573412680808 -0.020096325486059722 0 -0.00031295687369365093 -0.020337621564509814 0 -0.000425733075584603 -0.020247589851499187 0 -0.00039892758785065865 -0.020246063248505378 0 -0.00040401055880429039 -0.020171754079363953 0 -0.00043758729814675216 -0.020290212629443898 0 -0.000425733075584603 -0.020247589851499187 0 -0.00039892758785065865 -0.020246063248505378 0 -0.00039892758785065865 -0.020246063248505378 0 -0.00035210573412680808 -0.020096325486059722 0 -0.00040401055880429039 -0.020171754079363953 0 -0.00035210573412680808 -0.020096325486059722 0 -0.00040083297905549146 -0.02009906116373136 0 -0.00040401055880429039 -0.020171754079363953 0 -0.00040083297905549146 -0.02009906116373136 0 -0.00040401055880429039 -0.020171754079363953 0 -0.00041431587273051015 -0.020216945664472713 0 -0.000425733075584603 -0.020247589851499187 0 -0.00040401055880429039 -0.020171754079363953 0 -0.00041431587273051015 -0.020216945664472713 0 -0.0003977238965468101 -0.020187683215453309 0 -0.00040083297905549146 -0.02009906116373136 0 -0.00041431587273051015 -0.020216945664472713 0 -0.0003977238965468101 -0.020187683215453309 0 -0.00043902836101260539 -0.020238644133785785 0 -0.00041431587273051015 -0.020216945664472713 0 -0.00027234384599046619 -0.020805180129656396 0 -0.00015524997781390205 -0.019684025609223835 0 -0.00021580996624881422 -0.019578281927198037 0 -0.00035210573412680808 -0.020096325486059722 0 -0.00020705802136267493 -0.019839478676132654 0 8.6608661698723546e-05 -0.019767169732037942 0 -0.00035210573412680808 -0.020096325486059722 0 -0.00040083297905549146 -0.02009906116373136 0 -0.00038707581715875577 -0.02052004026566575 0 -0.00023088495111803911 -0.019847605579660671 0 -0.00035210573412680808 -0.020096325486059722 0 -0.00020705802136267493 -0.019839478676132654 0 -0.00031295687369365093 -0.020337621564509814 0 -0.00019828563735246939 -0.019842317119514126 0 -0.00017518344126047947 -0.019987875102482046 0 -0.00020705802136267493 -0.019839478676132654 0 -0.00020179998082890883 -0.019652380061413031 0 -3.7574179981083615e-05 -0.019564934684417831 0 -0.00020705802136267493 -0.019839478676132654 0 -0.00020179998082890883 -0.019652380061413031 0 -0.00019250067257201416 -0.019670344222363852 0 -0.00025271212248085796 -0.01959490036659239 0 -0.00020179998082890883 -0.019652380061413031 0 -0.00019250067257201416 -0.019670344222363852 0 -0.00021580996624881422 -0.019578281927198037 0 -0.00020705802136267493 -0.019839478676132654 0 -0.00019250067257201416 -0.019670344222363852 0 -0.00015579833481166395 -0.019534414454866259 0 -0.00021580996624881422 -0.019578281927198037 0 -0.00019250067257201416 -0.019670344222363852 0 -0.00023246119821760121 -0.019376801742117793 0 -0.00019058340323594352 -0.01935812099857346 0 -0.00017296684390747692 -0.019410182682381032 0 -0.0015497809289875025 -0.012160828234088338 0 -0.0021460221360817718 -0.014278439775957894 0 -0.00019058340323594352 -0.01935812099857346 0 -0.00017296684390747692 -0.019410182682381032 0 -0.00016352963558789407 -0.019385299952089194 0 -0.00017296684390747692 -0.019410182682381032 0 -0.0001736163023429643 -0.019509177064138433 0 -0.00011996094350020202 -0.019454611582319026 0 -0.00023246119821760121 -0.019376801742117793 0 -0.00017296684390747692 -0.019410182682381032 0 -0.0001736163023429643 -0.019509177064138433 0 -0.00025271212248085796 -0.01959490036659239 0 -0.00020179998082890883 -0.019652380061413031 0 -0.0001736163023429643 -0.019509177064138433 0 -0.00025271212248085796 -0.01959490036659239 0 -0.00023246119821760121 -0.019376801742117793 0 -0.0001736163023429643 -0.019509177064138433 0 -0.0001736163023429643 -0.019509177064138433 0 -3.7574179981083615e-05 -0.019564934684417831 0 -0.00011996094350020202 -0.019454611582319026 0 -0.00020179998082890883 -0.019652380061413031 0 -0.0001736163023429643 -0.019509177064138433 0 -3.7574179981083615e-05 -0.019564934684417831 0 -3.7574179981083615e-05 -0.019564934684417831 0 -5.2687369334807447e-05 -0.019442059250813319 0 -0.00011996094350020202 -0.019454611582319026 0 -5.2687369334807447e-05 -0.019442059250813319 0 -0.00016352963558789407 -0.019385299952089194 0 5.3403356532348902e-05 -0.019372778589650429 0 -8.461850919919577e-05 -0.019322922312253268 0 -0.00028504465005147145 -0.019690365373714373 0 -0.00016352963558789407 -0.019385299952089194 0 -0.00028277437970960855 -0.019426786072013962 0 -0.00023132380249573747 -0.019449308599910009 0 -5.2687369334807447e-05 -0.019442059250813319 0 -0.00011996094350020202 -0.019454611582319026 0 -0.00016352963558789407 -0.019385299952089194 0 -0.00017296684390747692 -0.019410182682381032 0 -0.00011996094350020202 -0.019454611582319026 0 -0.00016352963558789407 -0.019385299952089194 0 -0.00031295687369365093 -0.020337621564509814 0 -0.00039055843453935686 -0.020457331556115853 0 -0.00039520012469917911 -0.020394785148770168 0 -3.7574179981083615e-05 -0.019564934684417831 0 -5.2687369334807447e-05 -0.019442059250813319 0 5.3403356532348902e-05 -0.019372778589650429 0 -0.00017518344126047947 -0.019987875102482046 0 -0.00028504465005147145 -0.019690365373714373 0 -0.00039055843453935686 -0.020457331556115853 0 -0.00039520012469917911 -0.020394785148770168 0 -0.00042113322043756585 -0.020459129828502315 0 -0.00031295687369365093 -0.020337621564509814 0 -0.00039520012469917911 -0.020394785148770168 0 -0.00039895822222372405 -0.020340718217865705 0 -0.00039892758785065865 -0.020246063248505378 0 -0.00031295687369365093 -0.020337621564509814 0 -0.00039895822222372405 -0.020340718217865705 0 -0.00043758729814675216 -0.020290212629443898 0 -0.00039892758785065865 -0.020246063248505378 0 -0.00039895822222372405 -0.020340718217865705 0 -0.00039520012469917911 -0.020394785148770168 0 -0.00039895822222372405 -0.020340718217865705 0 -0.0004401676197559796 -0.020380514668604442 0 -0.0004401676197559796 -0.020380514668604442 0 -0.0004617994589117783 -0.020307305294914951 0 -0.0004974608445902413 -0.0204252857037284 0 -0.00043758729814675216 -0.020290212629443898 0 -0.00039895822222372405 -0.020340718217865705 0 -0.0004401676197559796 -0.020380514668604442 0 -0.00043758729814675216 -0.020290212629443898 0 -0.0004401676197559796 -0.020380514668604442 0 -0.0004617994589117783 -0.020307305294914951 0 -0.00036680438921061679 -0.019820801316708346 0 -0.00025426175306169523 -0.019766458697133636 0 -0.00020501812757077906 -0.019783962858930967 0 -0.00039055843453935686 -0.020457331556115853 0 -0.00042113322043756585 -0.020459129828502315 0 -0.00047302198113884563 -0.02048906327812058 0 -0.00028504465005147145 -0.019690365373714373 0 -0.00029137356076942915 -0.022709345125946242 0 -0.0004401676197559796 -0.020380514668604442 0 -0.00042113322043756585 -0.020459129828502315 0 -0.0004974608445902413 -0.0204252857037284 0 -0.00039520012469917911 -0.020394785148770168 0 -0.0004401676197559796 -0.020380514668604442 0 -0.00042113322043756585 -0.020459129828502315 0 -0.00069941453677304863 -0.020499716283709422 0 -0.00014649689729825843 -0.021899673921342681 0 -0.00042113322043756585 -0.020459129828502315 0 -0.00046828635217560519 -0.020464484538710134 0 -0.00047302198113884563 -0.02048906327812058 0 -0.00028504465005147145 -0.019690365373714373 0 -0.00028833768738552871 -0.019597739433316497 0 -0.00036680438921061679 -0.019820801316708346 0 -0.00027253147376518345 -0.019743219680326229 0 -0.00028272867856909484 -0.019627308249576959 0 -0.00025426175306169523 -0.019766458697133636 0 -0.00027253147376518345 -0.019743219680326229 0 -0.00023237219025500398 -0.019722321508036655 0 -0.00025426175306169523 -0.019766458697133636 0 -0.00023237219025500398 -0.019722321508036655 0 -0.00020501812757077906 -0.019783962858930967 0 -0.00036680438921061679 -0.019820801316708346 0 -0.00025426175306169523 -0.019766458697133636 0 -0.00027253147376518345 -0.019743219680326229 0 -0.00023237219025500398 -0.019722321508036655 0 -0.00023909821701887532 -0.019685196735455986 0 -0.00028272867856909484 -0.019627308249576959 0 -0.00027253147376518345 -0.019743219680326229 0 -0.00023237219025500398 -0.019722321508036655 0 -0.00028272867856909484 -0.019627308249576959 0 -0.00027455336646400684 -0.019552801415786972 0 -0.00025400266483369414 -0.019639988108914246 0 -0.0002237460353675543 -0.019650968831329961 0 -0.00023237219025500398 -0.019722321508036655 0 -0.00023909821701887532 -0.019685196735455986 0 -0.0002072541641706338 -0.019716015729686225 0 -0.00027455336646400684 -0.019552801415786972 0 -0.00025400266483369414 -0.019639988108914246 0 -0.00028272867856909484 -0.019627308249576959 0 -0.00023909821701887532 -0.019685196735455986 0 -0.00025400266483369414 -0.019639988108914246 0 -0.0002072541641706338 -0.019716015729686225 0 -0.00023909821701887532 -0.019685196735455986 0 -0.00025400266483369414 -0.019639988108914246 0 -0.00028272867856909484 -0.019627308249576959 0 -0.00028272867856909484 -0.019627308249576959 0 -0.00026066013556458643 -0.019539069385845428 0 -0.00025672561777146893 -0.019513230641416496 0 -0.00027455336646400684 -0.019552801415786972 0 -0.00028272867856909484 -0.019627308249576959 0 -0.00026066013556458643 -0.019539069385845428 0 -0.00027455336646400684 -0.019552801415786972 0 -0.00026066013556458643 -0.019539069385845428 0 -0.00024000909874605179 -0.019503030143054004 0 -0.00026066013556458643 -0.019539069385845428 0 -0.00025672561777146893 -0.019513230641416496 0 -0.00022796334412748467 -0.019480888914154781 0 -0.00028277437970960855 -0.019426786072013962 0 -0.00028272867856909484 -0.019627308249576959 0 -0.00025672561777146893 -0.019513230641416496 0 -0.00025672561777146893 -0.019513230641416496 0 -0.00023132380249573747 -0.019449308599910009 0 -0.00022796334412748467 -0.019480888914154781 0 -0.00028277437970960855 -0.019426786072013962 0 -0.00025672561777146893 -0.019513230641416496 0 -0.00023132380249573747 -0.019449308599910009 0 -0.00019826810396081999 -0.019430649317339347 0 -0.00022796334412748467 -0.019480888914154781 0 -0.00017960816473700222 -0.019411515209768412 0 -0.00016352963558789407 -0.019385299952089194 0 -0.00019826810396081999 -0.019430649317339347 0 -0.00017960816473700222 -0.019411515209768412 0 -0.00016352963558789407 -0.019385299952089194 0 -0.00023132380249573747 -0.019449308599910009 0 -0.00019826810396081999 -0.019430649317339347 0 -0.00023132380249573747 -0.019449308599910009 0 -0.00019826810396081999 -0.019430649317339347 0 -0.00022796334412748467 -0.019480888914154781 0 -0.00022656904682291897 -0.019491663828401624 0 -0.00024000909874605179 -0.019503030143054004 0 -0.00017960816473700222 -0.019411515209768412 0 -0.00022796334412748467 -0.019480888914154781 0 -0.00024000909874605179 -0.019503030143054004 0 -0.00017960816473700222 -0.019411515209768412 0 -0.00026066013556458643 -0.019539069385845428 0 -0.00022796334412748467 -0.019480888914154781 0 -0.00024000909874605179 -0.019503030143054004 0 -0.002799311498780886 -0.014898613722583099 0 -0.0021993263410628942 -0.010963712286508862 0 -0.00019058340323594352 -0.01935812099857346 0 -0.00016352963558789407 -0.019385299952089194 0 -0.00017960816473700222 -0.019411515209768412 0 -0.0015497809289875025 -0.012160828234088338 0 -0.0021993263410628942 -0.010963712286508862 0 -0.00018387609599881507 -0.019337361519786794 0 -0.00019058340323594352 -0.01935812099857346 0 -0.00017960816473700222 -0.019411515209768412 0 6.8830020702565222e-05 -0.02569606921302918 0 -1.100403015962483e-05 -0.025569137256254499 0 0.00017634985791214062 -0.025631406255745417 0 6.8830020702565222e-05 -0.02569606921302918 0 -1.100403015962483e-05 -0.025569137256254499 0 -0.00013439407943600766 -0.025726112246657083 0 6.8830020702565222e-05 -0.02569606921302918 0 0.00017634985791214062 -0.025631406255745417 0 0.00022786018927762317 -0.025762805843914768 0 0.00017634985791214062 -0.025631406255745417 0 0.00022786018927762317 -0.025762805843914768 0 0.00034224870089954627 -0.025705844959560589 0 -0.00036432917940354284 -0.023439070934674955 0 -0.00043894300616734969 -0.022244912457403853 0 0.00022786018927762317 -0.025762805843914768 0 8.7782272786454538e-05 -0.025829100219821287 0 0.00028842126244241044 -0.025900937811626789 0 6.8830020702565222e-05 -0.02569606921302918 0 0.00022786018927762317 -0.025762805843914768 0 8.7782272786454538e-05 -0.025829100219821287 0 -0.00079113122907773577 -0.020737013801173116 0 -0.00091537793964494051 -0.020857075588815863 0 -0.00070286782133484142 -0.020935627375866312 0 6.8830020702565222e-05 -0.02569606921302918 0 8.7782272786454538e-05 -0.025829100219821287 0 -0.00013439407943600766 -0.025726112246657083 0 -0.00036432917940354284 -0.023439070934674955 0 -0.00041522981709577833 -0.023444650586579407 0 -0.0006098285347943043 -0.020683844724477221 0 -0.00079113122907773577 -0.020737013801173116 0 -0.00070286782133484142 -0.020935627375866312 0 -0.00070286782133484142 -0.020935627375866312 0 -0.0005379000116142958 -0.020865954016580035 0 -0.00042120558745353744 -0.021058052273027934 0 -0.00043533762054698532 -0.02030277548915816 0 -0.00014649689729825843 -0.021899673921342681 0 -0.00039667312412046852 -0.020752752487793073 0 -0.0005379000116142958 -0.020865954016580035 0 -0.00042120558745353744 -0.021058052273027934 0 -0.0006098285347943043 -0.020683844724477221 0 -0.00070286782133484142 -0.020935627375866312 0 -0.0005379000116142958 -0.020865954016580035 0 -0.0006098285347943043 -0.020683844724477221 0 -0.00039667312412046852 -0.020752752487793073 0 -0.0005379000116142958 -0.020865954016580035 0 -0.00041522981709577833 -0.023444650586579407 0 -0.00014649689729825843 -0.021899673921342681 0 -0.00013439407943600766 -0.025726112246657083 0 -0.00037041035784152448 -0.025603818216633777 0 -0.00026984262063930531 -0.02558338231639869 0 -0.00026984262063930531 -0.02558338231639869 0 -0.00036079452768614852 -0.025514504978102284 0 -0.00018308974336734565 -0.025539843841678411 0 -0.00029137356076942915 -0.022709345125946242 0 -0.00020882431742360252 -0.025452310510648304 0 -0.00014649689729825843 -0.021899673921342681 0 -0.00029137356076942915 -0.022709345125946242 0 -0.00037041035784152448 -0.025603818216633777 0 -0.00026984262063930531 -0.02558338231639869 0 -0.00036079452768614852 -0.025514504978102284 0 -2.8690309234217925e-05 -0.025552639005735154 0 -0.00020882431742360252 -0.025452310510648304 0 -1.100403015962483e-05 -0.025569137256254499 0 -0.00013439407943600766 -0.025726112246657083 0 -0.00018308974336734565 -0.025539843841678411 0 -0.00013439407943600766 -0.025726112246657083 0 -0.00026984262063930531 -0.02558338231639869 0 -0.00018308974336734565 -0.025539843841678411 0 -1.100403015962483e-05 -0.025569137256254499 0 -0.00018232928817957475 -0.025553858073910123 0 -0.00013197299013233905 -0.025358911835479933 0 -0.00018232928817957475 -0.025553858073910123 0 -0.00025922266148798633 -0.025415623859384152 0 -0.00013197299013233905 -0.025358911835479933 0 -0.00023237219025500398 -0.019722321508036655 0 -0.00020501812757077906 -0.019783962858930967 0 -0.0002072541641706338 -0.019716015729686225 0 -0.00035027002156045044 -0.025539243056962396 0 -0.00025922266148798633 -0.025415623859384152 0 -0.00033443957972125582 -0.025276105262062702 0 -0.00029137356076942915 -0.022709345125946242 0 -0.00027725988520736024 -0.022487884443901242 0 -0.00035027002156045044 -0.025539243056962396 0 -0.00018232928817957475 -0.025553858073910123 0 -0.00025922266148798633 -0.025415623859384152 0 -0.00025922266148798633 -0.025415623859384152 0 -0.0002447044597056834 -0.025328862710164508 0 -0.00033443957972125582 -0.025276105262062702 0 -0.00025922266148798633 -0.025415623859384152 0 -0.0002447044597056834 -0.025328862710164508 0 -0.00013197299013233905 -0.025358911835479933 0 -0.0002447044597056834 -0.025328862710164508 0 -0.00023477846023379215 -0.025247673789747044 0 -0.00033443957972125582 -0.025276105262062702 0 -0.0002623767296043525 -0.025165424801984075 0 -0.00023477846023379215 -0.025247673789747044 0 -0.00033443957972125582 -0.025276105262062702 0 -0.00017577517425921513 -0.025162745267921265 0 -0.0002623767296043525 -0.025165424801984075 0 -0.00023477846023379215 -0.025247673789747044 0 -0.00025400266483369414 -0.019639988108914246 0 -0.0002237460353675543 -0.019650968831329961 0 -0.0002072541641706338 -0.019716015729686225 0 2.2954965843695269e-05 -0.025156839540969977 0 -0.00017577517425921513 -0.025162745267921265 0 -0.00013197299013233905 -0.025358911835479933 0 -0.00017577517425921513 -0.025162745267921265 0 -0.00023477846023379215 -0.025247673789747044 0 -0.00013197299013233905 -0.025358911835479933 0 -0.0002447044597056834 -0.025328862710164508 0 -0.00023477846023379215 -0.025247673789747044 0 -0.00013197299013233905 -0.025358911835479933 0 2.2954965843695269e-05 -0.025156839540969977 0 -0.00013197299013233905 -0.025358911835479933 0 0.00011672064603792031 -0.025439269829603907 0 -1.100403015962483e-05 -0.025569137256254499 0 -0.00013197299013233905 -0.025358911835479933 0 0.00011672064603792031 -0.025439269829603907 0 -1.100403015962483e-05 -0.025569137256254499 0 0.00017634985791214062 -0.025631406255745417 0 0.00011672064603792031 -0.025439269829603907 0 0.00017634985791214062 -0.025631406255745417 0 0.00011672064603792031 -0.025439269829603907 0 0.0003161394475058239 -0.025551889479310076 0 0.00011672064603792031 -0.025439269829603907 0 0.0002999611947883042 -0.025352881945758077 0 0.0003161394475058239 -0.025551889479310076 0 2.2954965843695269e-05 -0.025156839540969977 0 0.00011672064603792031 -0.025439269829603907 0 0.0002999611947883042 -0.025352881945758077 0 0.0019284568603951642 -0.024317736636493469 0 0.0022537406185036543 -0.025015062929097956 0 0.0002999611947883042 -0.025352881945758077 0 0.00051497076517003054 -0.025531585835854791 0 0.0003161394475058239 -0.025551889479310076 0 0.0040755016118708695 -0.023200193826943001 0 0.0035757336366224247 -0.023503066443781816 0 0.0042311328466179124 -0.023626083889250558 0 0.0040755016118708695 -0.023200193826943001 0 0.0042465015058088763 -0.023355460080977219 0 0.0042311328466179124 -0.023626083889250558 0 0.00051497076517003054 -0.025531585835854791 0 0.00043815437512642179 -0.025677004990190648 0 0.0003161394475058239 -0.025551889479310076 0 0.00051497076517003054 -0.025531585835854791 0 0.00043815437512642179 -0.025677004990190648 0 0.00058967169992722225 -0.025834928733540652 0 0.00017634985791214062 -0.025631406255745417 0 0.0003161394475058239 -0.025551889479310076 0 0.00034224870089954627 -0.025705844959560589 0 0.00043815437512642179 -0.025677004990190648 0 0.0003161394475058239 -0.025551889479310076 0 0.00034224870089954627 -0.025705844959560589 0 0.00022786018927762317 -0.025762805843914768 0 0.00034224870089954627 -0.025705844959560589 0 0.00037120967354699623 -0.025804324071627752 0 0.00034224870089954627 -0.025705844959560589 0 0.00042801563237309656 -0.025760877075099407 0 0.00037120967354699623 -0.025804324071627752 0 0.00043815437512642179 -0.025677004990190648 0 0.00034224870089954627 -0.025705844959560589 0 0.00042801563237309656 -0.025760877075099407 0 0.00043815437512642179 -0.025677004990190648 0 0.00050892953740012373 -0.025784292427682536 0 0.00042801563237309656 -0.025760877075099407 0 0.00043815437512642179 -0.025677004990190648 0 0.00050892953740012373 -0.025784292427682536 0 0.00058967169992722225 -0.025834928733540652 0 0.00050892953740012373 -0.025784292427682536 0 0.00046633220716017114 -0.025809509505303443 0 0.00052478120789984891 -0.025797572746809386 0 0.00042801563237309656 -0.025760877075099407 0 0.00046633220716017114 -0.025809509505303443 0 0.00037120967354699623 -0.025804324071627752 0 0.00050892953740012373 -0.025784292427682536 0 0.00042801563237309656 -0.025760877075099407 0 0.00046633220716017114 -0.025809509505303443 0 -0.00021556983320732823 -0.024508841963327702 0 -0.00016997879150307463 -0.023696824128995497 0 0.00046633220716017114 -0.025809509505303443 0 0.00037120967354699623 -0.025804324071627752 0 0.00043955402775523126 -0.025880103924296492 0 0.00046633220716017114 -0.025809509505303443 0 0.00053131151458151186 -0.025858128849829291 0 0.00043955402775523126 -0.025880103924296492 0 0.00022786018927762317 -0.025762805843914768 0 0.00037120967354699623 -0.025804324071627752 0 0.00028842126244241044 -0.025900937811626789 0 0.00037120967354699623 -0.025804324071627752 0 0.00028842126244241044 -0.025900937811626789 0 0.00043955402775523126 -0.025880103924296492 0 0.0012808407098086469 -0.027058296432670881 0 -0.00021556983320732823 -0.024508841963327702 0 0.001282803265174434 -0.027033357098047738 0 0.0010131141831036825 -0.026687908535641763 0 0.0014434594269420497 -0.026540708038566941 0 0.001282803265174434 -0.027033357098047738 0 0.0010131141831036825 -0.026687908535641763 0 0.00067431996073256777 -0.027095590878287688 0 0.00046633220716017114 -0.025809509505303443 0 0.00053131151458151186 -0.025858128849829291 0 0.00052478120789984891 -0.025797572746809386 0 0.0010131141831036825 -0.026687908535641763 0 0.00067431996073256777 -0.027095590878287688 0 0.00059708727445447591 -0.02653656181192247 0 -0.00021556983320732823 -0.024508841963327702 0 0.00060308499422828568 -0.026495697065294057 0 0.0010131141831036825 -0.026687908535641763 0 0.00059708727445447591 -0.02653656181192247 0 0.00096048003017154646 -0.0262486344344997 0 0.00060308499422828568 -0.026495697065294057 0 0.00055659498344838793 -0.02577769699085947 0 0.00059708727445447591 -0.02653656181192247 0 0.00096048003017154646 -0.0262486344344997 0 0.00058967169992722225 -0.025834928733540652 0 0.00050892953740012373 -0.025784292427682536 0 0.00052478120789984891 -0.025797572746809386 0 0.00058967169992722225 -0.025834928733540652 0 0.00096048003017154646 -0.0262486344344997 0 0.0014434594269420497 -0.026540708038566941 0 0.0011375889377439725 -0.025817598607213499 0 0.0010131141831036825 -0.026687908535641763 0 0.00096048003017154646 -0.0262486344344997 0 0.0014434594269420497 -0.026540708038566941 0 0.001761088727892332 -0.026196383663204446 0 0.0018017634903331624 -0.026074461161967571 0 0.0018859011388227956 -0.026173330890962659 0 0.00096048003017154646 -0.0262486344344997 0 0.0011375889377439725 -0.025817598607213499 0 0.00058967169992722225 -0.025834928733540652 0 0.0022537406185036543 -0.025015062929097956 0 0.001224224731129382 -0.026076873990678394 0 0.001587602398082673 -0.026101451109031316 0 0.001761088727892332 -0.026196383663204446 0 0.0017106758970331243 -0.026084930156845744 0 0.00051497076517003054 -0.025531585835854791 0 0.0011375889377439725 -0.025817598607213499 0 0.00058967169992722225 -0.025834928733540652 0 0.0031518768833467999 -0.02441804617051662 0 0.0022537406185036543 -0.025015062929097956 0 0.0044174314126568933 -0.023243981842933383 0 0.0042465015058088763 -0.023355460080977219 0 0.0042311328466179124 -0.023626083889250558 0 0.0016912122021134806 -0.025962853974263789 0 0.001587602398082673 -0.026101451109031316 0 0.0017106758970331243 -0.026084930156845744 0 0.001761088727892332 -0.026196383663204446 0 0.0017106758970331243 -0.026084930156845744 0 0.0018017634903331624 -0.026074461161967571 0 0.0016912122021134806 -0.025962853974263789 0 0.0017106758970331243 -0.026084930156845744 0 0.0018017634903331624 -0.026074461161967571 0 0.0018102856284726455 -0.025966402216252134 0 0.0016912122021134806 -0.025962853974263789 0 0.0018017634903331624 -0.026074461161967571 0 0.0018102856284726455 -0.025966402216252134 0 0.0018017634903331624 -0.026074461161967571 0 0.0019403019493995147 -0.026008294418590532 0 0.0018017634903331624 -0.026074461161967571 0 0.0019403019493995147 -0.026008294418590532 0 0.0018859011388227956 -0.026173330890962659 0 0.0033891000183699145 -0.028551159504812913 0 0.0029297454202241 -0.028425127132764513 0 0.0030380977396354601 -0.027816341651804116 0 0.002611332555365913 -0.027586065763238622 0 0.0025856224524425583 -0.026982903798219628 0 0.0030202601476821949 -0.028692425595375583 0 0.0033891000183699145 -0.028551159504812913 0 0.0029297454202241 -0.028425127132764513 0 0.0019403019493995147 -0.026008294418590532 0 0.0021821257092027638 -0.026252472439107506 0 0.0018859011388227956 -0.026173330890962659 0 0.001224224731129382 -0.026076873990678394 0 0.0019896599929877254 -0.026306018043099118 0 0.0021821257092027638 -0.026252472439107506 0 0.0018859011388227956 -0.026173330890962659 0 0.0019343652944086628 -0.02634945084141151 0 0.001761088727892332 -0.026196383663204446 0 0.0018859011388227956 -0.026173330890962659 0 0.0019343652944086628 -0.02634945084141151 0 0.0028118834593037468 -0.028675059311880951 0 0.0026698192406573078 -0.028625598410359505 0 0.002800403162943972 -0.028509601385445702 0 0.0028118834593037468 -0.028675059311880951 0 0.0028560529618342797 -0.028550168453914396 0 0.002800403162943972 -0.028509601385445702 0 0.0030202601476821949 -0.028692425595375583 0 0.0029297454202241 -0.028425127132764513 0 0.0028560529618342797 -0.028550168453914396 0 0.0029297454202241 -0.028425127132764513 0 0.0028560529618342797 -0.028550168453914396 0 0.002800403162943972 -0.028509601385445702 0 0.0029297454202241 -0.028425127132764513 0 0.002800403162943972 -0.028509601385445702 0 0.0028153668455565741 -0.028435220267764908 0 0.0029211593337686564 -0.028603945226054261 0 0.0027880797857021212 -0.027430835457414329 0 0.0029297454202241 -0.028425127132764513 0 0.0030380977396354601 -0.027816341651804116 0 0.0025456292198103954 -0.027421505917340633 0 0.0026698192406573078 -0.028625598410359505 0 0.0026938656694276155 -0.028464786365082716 0 0.002800403162943972 -0.028509601385445702 0 0.0026938656694276155 -0.028464786365082716 0 0.002800403162943972 -0.028509601385445702 0 0.0028153668455565741 -0.028435220267764908 0 0.0026938656694276155 -0.028464786365082716 0 0.0027234196630877721 -0.028396238554751589 0 0.0028153668455565741 -0.028435220267764908 0 0.0027234196630877721 -0.028396238554751589 0 0.0028153668455565741 -0.028435220267764908 0 0.0027369596859683361 -0.028318725185576744 0 0.0025856224524425583 -0.026982903798219628 0 0.0025228122517862973 -0.027067309213996044 0 0.0021821257092027638 -0.026252472439107506 0 0.0025075145091030754 -0.027068676815028642 0 0.0022183379073148178 -0.026735563851872542 0 0.0030380977396354601 -0.027816341651804116 0 0.0025456292198103954 -0.027421505917340633 0 0.0025075145091030754 -0.027068676815028642 0 0.0025075145091030754 -0.027068676815028642 0 0.002442017172437133 -0.026891226236971755 0 0.0022964916247023631 -0.027003630741104657 0 0.0027880797857021212 -0.027430835457414329 0 0.00125200967748639 -0.03019211788842785 0 0.0025075145091030754 -0.027068676815028642 0 0.0022183379073148178 -0.026735563851872542 0 0.0022964916247023631 -0.027003630741104657 0 0.0025456292198103954 -0.027421505917340633 0 0.0025075145091030754 -0.027068676815028642 0 0.002442017172437133 -0.026891226236971755 0 0.002442017172437133 -0.026891226236971755 0 0.0022964916247023631 -0.027003630741104657 0 0.0022466366920072985 -0.027321714592453999 0 0.0014434594269420497 -0.026540708038566941 0 0.0019343652944086628 -0.02634945084141151 0 0.0019384906779365842 -0.026708621376935689 0 0.0014434594269420497 -0.026540708038566941 0 0.0011375889377439725 -0.025817598607213499 0 0.0019343652944086628 -0.02634945084141151 0 0.0021821257092027638 -0.026252472439107506 0 0.0019343652944086628 -0.02634945084141151 0 0.0022183379073148178 -0.026735563851872542 0 0.0019343652944086628 -0.02634945084141151 0 0.0022183379073148178 -0.026735563851872542 0 0.0019384906779365842 -0.026708621376935689 0 0.0022964916247023631 -0.027003630741104657 0 0.0018012502721982766 -0.027002927631733297 0 0.0022466366920072985 -0.027321714592453999 0 0.0019384906779365842 -0.026708621376935689 0 0.0022964916247023631 -0.027003630741104657 0 0.0018012502721982766 -0.027002927631733297 0 0.0022183379073148178 -0.026735563851872542 0 0.0019384906779365842 -0.026708621376935689 0 0.0022964916247023631 -0.027003630741104657 0 0.0012808407098086469 -0.027058296432670881 0 0.0017049344710574062 -0.026999728311925916 0 0.001282803265174434 -0.027033357098047738 0 0.0014434594269420497 -0.026540708038566941 0 0.0018012502721982766 -0.027002927631733297 0 0.0014434594269420497 -0.026540708038566941 0 0.0019384906779365842 -0.026708621376935689 0 0.0018012502721982766 -0.027002927631733297 0 0.0010986781620580075 -0.027029200276779738 0 0.0018012502721982766 -0.027002927631733297 0 0.001472132650961079 -0.027759183671678987 0 0.0018012502721982766 -0.027002927631733297 0 0.0022466366920072985 -0.027321714592453999 0 0.001472132650961079 -0.027759183671678987 0 -0.0019777889528724336 -0.033592290521563727 0 -0.0021158349705151136 -0.033979634702227333 0 -0.0023917273078696783 -0.033815484246939531 0 -6.339097317444015e-06 -0.030427645035329996 0 -0.00045247218575954695 -0.0310523038923496 0 -0.0021158349705151136 -0.033979634702227333 0 -0.0018180138719633141 -0.034061172937808012 0 -0.0020423900272102877 -0.034226631778397694 0 -0.0019777889528724336 -0.033592290521563727 0 -0.0021158349705151136 -0.033979634702227333 0 -0.0018180138719633141 -0.034061172937808012 0 -0.0023917273078696783 -0.033815484246939531 0 -0.0022859809847997768 -0.034140582475495979 0 -0.0025491285920995065 -0.034102028334846088 0 -0.0021158349705151136 -0.033979634702227333 0 -0.0023917273078696783 -0.033815484246939531 0 -0.0022859809847997768 -0.034140582475495979 0 -0.0012941749366580499 -0.033258147611891213 0 -0.001493943370617936 -0.033704892572590191 0 -0.0010308895514124638 -0.033869995862572146 0 0.00125200967748639 -0.03019211788842785 0 -0.00051793234465394202 -0.034185548361676962 0 0.0010266062415252122 -0.033120804973440346 0 0.0011694771692670127 -0.033148794943675869 0 0.0010873849050078838 -0.03300460766152287 0 -0.0012941749366580499 -0.033258147611891213 0 -0.0019777889528724336 -0.033592290521563727 0 -0.001493943370617936 -0.033704892572590191 0 -0.0019777889528724336 -0.033592290521563727 0 -0.001493943370617936 -0.033704892572590191 0 -0.0018180138719633141 -0.034061172937808012 0 0.00125200967748639 -0.03019211788842785 0 -6.339097317444015e-06 -0.030427645035329996 0 -0.0020924714704199797 -0.034057542732825893 0 -0.00051793234465394202 -0.034185548361676962 0 -0.001493943370617936 -0.033704892572590191 0 -0.0018180138719633141 -0.034061172937808012 0 -0.0010308895514124638 -0.033869995862572146 0 -0.0018180138719633141 -0.034061172937808012 0 -0.0015570520523989675 -0.034080757707546337 0 -0.0017261773535185937 -0.034208600995197555 0 -0.0014984929383521329 -0.034208618484411646 0 -0.0015885221286790134 -0.034198251315978125 0 -0.0015503305327609961 -0.034097128328868138 0 -0.0015885221286790134 -0.034198251315978125 0 -0.0015570520523989675 -0.034080757707546337 0 -0.0017261773535185937 -0.034208600995197555 0 -0.0015295035012110405 -0.034294952338560745 0 -0.0014984929383521329 -0.034208618484411646 0 -0.0015885221286790134 -0.034198251315978125 0 -0.0015885221286790134 -0.034198251315978125 0 -0.0015570520523989675 -0.034080757707546337 0 -0.0015503305327609961 -0.034097128328868138 0 -0.00051793234465394202 -0.034185548361676962 0 -0.00055739009227845924 -0.034151342889524726 0 -0.0016253270261228242 -0.034354307203741982 0 -0.0017261773535185937 -0.034208600995197555 0 -0.0017761217444748673 -0.034479542383939098 0 -0.0015061015007468146 -0.034422979738397023 0 -0.0016253270261228242 -0.034354307203741982 0 -0.0016123118670833257 -0.034552665164252573 0 -0.0015295035012110405 -0.034294952338560745 0 -0.0015885221286790134 -0.034198251315978125 0 -0.0016253270261228242 -0.034354307203741982 0 -0.0015061015007468146 -0.034422979738397023 0 -0.0015295035012110405 -0.034294952338560745 0 -0.0016253270261228242 -0.034354307203741982 0 -0.0015885221286790134 -0.034198251315978125 0 -0.0016253270261228242 -0.034354307203741982 0 -0.0017261773535185937 -0.034208600995197555 0 -0.0016253270261228242 -0.034354307203741982 0 -0.0017761217444748673 -0.034479542383939098 0 -0.0016123118670833257 -0.034552665164252573 0 -0.0018180138719633141 -0.034061172937808012 0 -0.0018625935407516607 -0.034322197392352101 0 -0.0020423900272102877 -0.034226631778397694 0 -0.0017261773535185937 -0.034208600995197555 0 -0.0018625935407516607 -0.034322197392352101 0 -0.0017761217444748673 -0.034479542383939098 0 -0.0018180138719633141 -0.034061172937808012 0 -0.0017261773535185937 -0.034208600995197555 0 -0.0018625935407516607 -0.034322197392352101 0 -0.0018625935407516607 -0.034322197392352101 0 -0.0017761217444748673 -0.034479542383939098 0 -0.0019806644523734716 -0.034471587853408432 0 -0.0019373220730651622 -0.034702766850642469 0 -0.0017761217444748673 -0.034479542383939098 0 -0.0016889427469027267 -0.034732605691047073 0 -0.0019373220730651622 -0.034702766850642469 0 -0.0017761217444748673 -0.034479542383939098 0 -0.0019806644523734716 -0.034471587853408432 0 -0.0014680580170104624 -0.034771791914452128 0 -0.0016889427469027267 -0.034732605691047073 0 -0.0016123118670833257 -0.034552665164252573 0 -0.0017761217444748673 -0.034479542383939098 0 -0.0016889427469027267 -0.034732605691047073 0 -0.0016123118670833257 -0.034552665164252573 0 -0.0022859809847997768 -0.034140582475495979 0 -0.002180998097135197 -0.034438044340115354 0 -0.0024201105536768722 -0.034359959794366228 0 -0.0022859809847997768 -0.034140582475495979 0 -0.0024201105536768722 -0.034359959794366228 0 -0.0025491285920995065 -0.034102028334846088 0 -0.0022859809847997768 -0.034140582475495979 0 -0.0020423900272102877 -0.034226631778397694 0 -0.002180998097135197 -0.034438044340115354 0 -0.0021158349705151136 -0.033979634702227333 0 -0.0022859809847997768 -0.034140582475495979 0 -0.0020423900272102877 -0.034226631778397694 0 -0.0018625935407516607 -0.034322197392352101 0 -0.0020423900272102877 -0.034226631778397694 0 -0.0019806644523734716 -0.034471587853408432 0 -0.0020423900272102877 -0.034226631778397694 0 -0.002180998097135197 -0.034438044340115354 0 -0.0019806644523734716 -0.034471587853408432 0 -0.0020988817140007898 -0.034657975656946047 0 -0.0019373220730651622 -0.034702766850642469 0 -0.0019806644523734716 -0.034471587853408432 0 -0.0020988817140007898 -0.034657975656946047 0 -0.002180998097135197 -0.034438044340115354 0 -0.0019806644523734716 -0.034471587853408432 0 -0.0020988817140007898 -0.034657975656946047 0 -0.002180998097135197 -0.034438044340115354 0 -0.0022670663745247492 -0.034614406312945489 0 -0.0024843859315595977 -0.034695924335092478 0 -0.0022670663745247492 -0.034614406312945489 0 -0.0024201105536768722 -0.034359959794366228 0 -0.002180998097135197 -0.034438044340115354 0 -0.0022670663745247492 -0.034614406312945489 0 -0.0024201105536768722 -0.034359959794366228 0 -0.0024843859315595977 -0.034695924335092478 0 -0.0024201105536768722 -0.034359959794366228 0 -0.0027203058895722541 -0.034246533105844829 0 -0.0024201105536768722 -0.034359959794366228 0 -0.0025491285920995065 -0.034102028334846088 0 -0.0027203058895722541 -0.034246533105844829 0 -0.0025491285920995065 -0.034102028334846088 0 -0.0027203058895722541 -0.034246533105844829 0 -0.0027049355839676497 -0.033927972989157888 0 -0.0027203058895722541 -0.034246533105844829 0 -0.0031352625139690077 -0.03418112052736863 0 -0.0027357439146024035 -0.032857982299960745 0 -0.0031352625139690077 -0.03418112052736863 0 -0.0035836413280338898 -0.033732455488173461 0 -0.0027357439146024035 -0.032857982299960745 0 -0.0029420849936690769 -0.036133712363428605 0 -0.0014055167711296884 -0.028786739377456835 0 -0.0018605307609369146 -0.032602190036361833 0 -0.0020034111241699413 -0.030135453899684393 0 -0.00025037187677679135 -0.026034840460627161 0 -0.0020034111241699413 -0.030135453899684393 0 -0.0024843859315595977 -0.034695924335092478 0 -0.0027203058895722541 -0.034246533105844829 0 -0.0031352625139690077 -0.03418112052736863 0 2.7896239140956171e-05 -0.02334309958763776 0 -0.00027467589726959808 -0.023357983311720662 0 -0.00034515303896630979 -0.023092639297998506 0 -0.0002707394573885355 -0.023650585350218994 0 2.7896239140956171e-05 -0.02334309958763776 0 -0.00027467589726959808 -0.023357983311720662 0 -0.0002707394573885355 -0.023650585350218994 0 -0.00027467589726959808 -0.023357983311720662 0 -0.00052951980695597686 -0.023489548910791615 0 -0.0020034111241699413 -0.030135453899684393 0 -0.0026164194379852891 -0.033296357593389794 0 -0.00027467589726959808 -0.023357983311720662 0 -0.00052951980695597686 -0.023489548910791615 0 -0.00034515303896630979 -0.023092639297998506 0 -2.8898969455029803e-05 -0.021110408913491106 0 -0.00033304873813021425 -0.0205957805067436 0 -9.2093153181796038e-05 -0.020470332114638827 0 -2.8898969455029803e-05 -0.021110408913491106 0 -9.2093153181796038e-05 -0.020470332114638827 0 0.00011229826942716711 -0.020339390139389731 0 -8.1948153416908567e-05 -0.021740520247879973 0 -0.00081700689860523732 -0.024775462858977828 0 -0.00074386497268664846 -0.020932709918988348 0 -2.8898969455029803e-05 -0.021110408913491106 0 -0.00033304873813021425 -0.0205957805067436 0 -0.0007948090904176399 -0.020224616632200234 0 -0.0009670689690176752 -0.022006034337418299 0 -0.00086070636119676123 -0.020603975022003319 0 -0.00033304873813021425 -0.0205957805067436 0 -5.4246788180321318e-05 -0.020217591618929161 0 -0.00033304873813021425 -0.0205957805067436 0 -9.2093153181796038e-05 -0.020470332114638827 0 -5.4246788180321318e-05 -0.020217591618929161 0 -9.2093153181796038e-05 -0.020470332114638827 0 -5.4246788180321318e-05 -0.020217591618929161 0 0.00011229826942716711 -0.020339390139389731 0 -0.0009670689690176752 -0.022006034337418299 0 -0.00081700689860523732 -0.024775462858977828 0 -0.0011126921588101254 -0.020428136145688208 0 -0.0011603965368778618 -0.020530474590336235 0 -0.0013256523257010873 -0.020414169140096295 0 -0.0012377062350461231 -0.020616194805120832 0 -0.0009670689690176752 -0.022006034337418299 0 -0.0020034111241699413 -0.030135453899684393 0 -0.00081700689860523732 -0.024775462858977828 0 -0.0031503973008955902 -0.034097527439761278 0 -0.0035836413280338898 -0.033732455488173461 0 -0.0039112846033552869 -0.033527077735978919 0 -0.0035836413280338898 -0.033732455488173461 0 -0.0037862634557130578 -0.0332212224262192 0 -0.0027357439146024035 -0.032857982299960745 0 -0.0035836413280338898 -0.033732455488173461 0 -0.0039112846033552869 -0.033527077735978919 0 -0.0037862634557130578 -0.0332212224262192 0 -0.00081700689860523732 -0.024775462858977828 0 -0.0024100817950937518 -0.024611753188929046 0 -0.001003377940920319 -0.023427289880922651 0 -0.0014819506857913028 -0.023083545012770521 0 -0.0017463395742223127 -0.023711081480661565 0 -0.0009670689690176752 -0.022006034337418299 0 -0.0024100817950937518 -0.024611753188929046 0 -0.0011099067063831669 -0.020888754211335028 0 -0.0011372764083929893 -0.020973713077690696 0 -0.0013618818848865003 -0.020911210388080456 0 -0.0010750576795865378 -0.020820206704250117 0 -0.0011099067063831669 -0.020888754211335028 0 -0.0013618818848865003 -0.020911210388080456 0 -0.0024100817950937518 -0.024611753188929046 0 -0.0014055167711296884 -0.028786739377456835 0 -0.0024100817950937518 -0.024611753188929046 0 -0.0010686353849532208 -0.021125193755195677 0 -0.0010948516732528365 -0.02085290873193725 0 -0.0011099067063831669 -0.020888754211335028 0 -0.0010651790793382583 -0.02086086861435282 0 -0.0011099067063831669 -0.020888754211335028 0 -0.0010840773997860844 -0.020908126462827515 0 -0.0011372764083929893 -0.020973713077690696 0 -0.0011099067063831669 -0.020888754211335028 0 -0.0010840773997860844 -0.020908126462827515 0 -0.0010651790793382583 -0.02086086861435282 0 -0.0010685024194564039 -0.02083931249705552 0 -0.0010948516732528365 -0.02085290873193725 0 -0.0010651790793382583 -0.02086086861435282 0 -0.0010405628644535806 -0.020810951647601786 0 -0.0010685024194564039 -0.02083931249705552 0 -0.0010651790793382583 -0.02086086861435282 0 -0.0010840773997860844 -0.020908126462827515 0 -0.0010651790793382583 -0.02086086861435282 0 -0.0010628771604605132 -0.020873553354603561 0 -0.0010651790793382583 -0.02086086861435282 0 -0.0010464491029971261 -0.020830893981630686 0 -0.0010628771604605132 -0.020873553354603561 0 -0.0010321817294426233 -0.020782651142631801 0 -0.0010405628644535806 -0.020810951647601786 0 -0.0010464491029971261 -0.020830893981630686 0 -0.0010405628644535806 -0.020810951647601786 0 -0.0010651790793382583 -0.02086086861435282 0 -0.0010464491029971261 -0.020830893981630686 0 -0.00032284851903766391 -0.021446284865370705 0 -0.0007808843884893631 -0.021250775450851786 0 -0.00084124340332513705 -0.021491134042253161 0 -0.00043894300616734969 -0.022244912457403853 0 -0.00016997879150307463 -0.023696824128995497 0 -0.00043894300616734969 -0.022244912457403853 0 -0.0010521177028773054 -0.021038985558474825 0 -0.0010628771604605132 -0.020873553354603561 0 -0.001040519995594561 -0.020835966385937939 0 -0.0010734057800490021 -0.020914850067415974 0 -0.0010464491029971261 -0.020830893981630686 0 -0.0010628771604605132 -0.020873553354603561 0 -0.001040519995594561 -0.020835966385937939 0 -0.0010321817294426233 -0.020782651142631801 0 -0.0010464491029971261 -0.020830893981630686 0 -0.001040519995594561 -0.020835966385937939 0 -0.0010840773997860844 -0.020908126462827515 0 -0.0010628771604605132 -0.020873553354603561 0 -0.0010734057800490021 -0.020914850067415974 0 -0.0013383029480294698 -0.021518594251138282 0 -0.00084124340332513705 -0.021491134042253161 0 -0.001058659260122874 -0.021300240986576728 0 -0.0007808843884893631 -0.021250775450851786 0 -0.001058659260122874 -0.021300240986576728 0 -0.0012241453216505123 -0.021075661386764526 0 -0.0010521177028773054 -0.021038985558474825 0 -0.0011603741689810471 -0.021064964469325896 0 -0.0011372764083929893 -0.020973713077690696 0 -0.0010734057800490021 -0.020914850067415974 0 -0.0012241453216505123 -0.021075661386764526 0 -0.0010840773997860844 -0.020908126462827515 0 -0.0011372764083929893 -0.020973713077690696 0 -0.0010734057800490021 -0.020914850067415974 0 -0.0007808843884893631 -0.021250775450851786 0 -0.00084124340332513705 -0.021491134042253161 0 -0.001058659260122874 -0.021300240986576728 0 -0.00021556983320732823 -0.024508841963327702 0 -0.0014055167711296884 -0.028786739377456835 0 -0.0013383029480294698 -0.021518594251138282 0 -0.0012241453216505123 -0.021075661386764526 0 -0.0013618818848865003 -0.020911210388080456 0 -0.0013383029480294698 -0.021518594251138282 0 -0.001058659260122874 -0.021300240986576728 0 -0.0012241453216505123 -0.021075661386764526 0 0.00037437600645010927 -0.02707490530538776 0 0.00086541618752534707 -0.027502334024356975 0 0.00049474580726359115 -0.028153497313016782 0 0.0010986781620580075 -0.027029200276779738 0 0.00037437600645010927 -0.02707490530538776 0 0.00086541618752534707 -0.027502334024356975 0 0.0010986781620580075 -0.027029200276779738 0 0.001472132650961079 -0.027759183671678987 0 0.00086541618752534707 -0.027502334024356975 0 -0.00045247218575954695 -0.0310523038923496 0 -0.0014055167711296884 -0.028786739377456835 0 0.001472132650961079 -0.027759183671678987 0 0.00086541618752534707 -0.027502334024356975 0 0.00049474580726359115 -0.028153497313016782 0 -0.0023917273078696783 -0.033815484246939531 0 -0.0025491285920995065 -0.034102028334846088 0 -0.0027049355839676497 -0.033927972989157888 0 -0.0011372764083929893 -0.020973713077690696 0 -0.0012241453216505123 -0.021075661386764526 0 -0.0013618818848865003 -0.020911210388080456 0 
</DataArray>
</PointData>
<CellData Scalars="region_id,cross_section_updated," Vectors="" Tensors="stress,">
<DataArray type="Float64" Name="region_id" format="ascii">
5 5 5 5 5 5 5 5 5 5 6 5 6 5 5 5 5 6 5 5 5 6 5 6 5 5 5 6 5 5 5 5 6 5 5 5 5 5 5 5 5 5 5 6 5 5 5 5 5 5 5 5 5 5 5 5 5 5 5 5 5 5 5 5 5 5 5 5 5 5 5 6 5 5 5 5 6 5 5 5 5 6 5 5 5 5 5 5 5 5 5 5 6 5 6 5 5 6 5 5 5 5 5 5 5 6 5 5 5 5 5 5 5 5 5 5 6 6 5 5 5 6 5 5 6 5 5 5 5 5 5 5 5 5 5 5 5 5 6 5 5 5 5 5 5 6 5 5 5 5 5 5 5 5 5 5 5 5 5 5 5 5 5 5 5 5 5 5 5 5 5 5 5 5 5 5 5 5 5 5 5 5 5 5 5 5 5 5 5 5 5 5 5 5 5 5 5 5 5 5 5 5 5 5 5 5 5 6 5 5 5 5 5 5 5 5 5 5 5 5 5 5 5 5 5 5 5 5 5 5 5 5 5 6 5 6 5 5 5 5 5 5 5 5 5 6 5 6 5 5 5 5 5 5 5 5 5 5 5 5 5 5 5 5 5 5 5 5 5 5 5 5 5 6 5 5 5 5 5 5 5 5 5 5 5 5 6 5 5 5 5 5 6 5 5 5 5 5 5 5 5 6 5 5 5 5 6 5 5 5 5 5 6 5 5 5 5 5 5 5 5 5 5 5 5 5 5 5 5 5 5 5 5 5 5 5 5 5 5 5 5 6 5 5 5 5 5 5 5 5 5 5 5 5 5 5 5 5 5 5 5 5 5 5 5 6 5 5 5 5 5 5 5 5 6 5 5 5 5 6 5 5 5 6 5 5 6 5 5 6 5 6 5 5 6 5 5 5 5 5 5 5 6 6 5 5 5 6 5 5 5 5 5 6 5 5 5 5 5 5 5 5 5 5 5 5 5 6 5 5 5 5 5 5 5 5 5 5 5 6 5 6 5 5 5 5 5 5 5 5 5 5 6 5 5 6 5 5 5 6 5 5 5 6 5 5 6 5 6 5 6 5 6 6 5 5 5 6 6 6 6 5 5 5 5 5 5 5 5 6 5 5 5 5 6 5 6 5 6 5 5 6 5 5 5 5 6 5 5 5 5 5 5 5 5 5 5 6 6 5 5 5 5 5 6 5 5 5 5 5 5 5 5 5 5 5 5 5 6 5 5 5 5 5 5 5 5 5 5 5 5 6 6 6 5 5 5 5 5 5 5 5 5 5 5 5 5 5 5 5 5 5 5 5 5 6 5 5 5 6 5 5 5 5 5 5 5 5 5 5 5 5 5 5 5 5 5 5 5 5 5 5 5 5 5 5 5 5 5 5 5 5 5 6 5 5 6 5 5 5 5 5 5 5 5 5 5 5 5 5 5 5 5 5 5 5 5 5 6 5 5 5 5 5 5 5 5 5 5 5 5 5 5 5 5 5 5 5 6 5 5 5 5 5 5 5 5 5 5 6 5 6 5 5 6 5 5 5 6 5 5 5 5 5 6 5 6 5 5 6 5 5 5 5 5 5 5 6 5 5 5 6 6 5 5 5 5 5 5 5 6 5 5 6 5 6 6 5 5 5 6 5 5 6 6 6 5 5 5 6 5 5 6 6 5 5 5 6 5 5 6 5 5 6 6 6 5 5 5 6 5 5 5 5 5 5 5 6 5 5 5 5 5 5 5 5 5 5 5 5 5 5 5 5 5 5 5 5 5 5 5 5 5 5 5 5 6 5 5 5 6 6 5 5 6 5 5 5 5 5 5 5 5 6 5 5 5 5 6 5 5 5 5 5 5 5 5 5 6 5 5 5 6 5 5 6 5 6 5 5 6 5 5 5 6 6 5 5 6 5 5 6 6 5 5 5 5 5 5 5 5 5 5 5 6 5 5 5 5 5 5 5 5 5 5 6 5 5 6 5 6 6 6 5 6 5 5 5 5 5 5 5 5 5 5 5 5 5 5 5 5 5 5 5 5 5 5 5 5 5 5 5 5 5 5 5 5 5 5 5 5 5 6 5 5 6 5 6 5 5 6 5 5 5 6 5 6 5 6 5 5 5 5 5 5 5 5 5 5 5 5 5 5 5 5 5 5 5 6 5 6 5 5 5 5 5 5 5 5 5 5 5 5 5 5 5 5 5 5 6 5 6 5 5 6 5 5 5 6 5 5 5 5 6 5 5 6 5 6 6 5 5 6 6 5 5 6 5 5 6 6 5 5 5 5 6 5 5 5 5 6 5 5 5 6 6 5 5 6 5 5 6 5 5 5 5 5 5 6 5 5 6 5 6 5 5 5 5 5 5 5 5 5 5 6 5 5 5 5 5 5 5 5 5 5 5 5 5 5 5 5 6 5 5 5 5 5 5 5 6 6 5 5 6 5 5 5 5 6 6 5 5 5 5 5 5 5 5 5 5 5 5 5 5 5 5 5 5 5 5 6 5 5 5 5 5 5 5 5 5 5 5 5 5 5 5 5 5 5 6 5 5 6 5 5 5 5 6 5 5 5 5 5 5 5 5 5 5 5 5 5 5 5 5 5 5 5 5 6 5 5 5 5 5 5 5 5 6 5 5 5 5 5 5 5 6 5 5 5 5 5 5 5 5 5 5 5 6 5 5 5 6 5 5 5 5 5 5 5 5 5 5 5 5 5 5 5 5 5 5 5 5 5 5 5 5 5 5 5 5 5 5 6 5 5 5 5 5 5 5 6 5 5 5 5 5 5 5 5 5 5 5 5 5 5 5 5 5 5 5 5 5 5 5 5 5 5 5 5 5 5 5 6 5 5 5 5 5 5 5 6 5 5 5 6 5 5 5 6 5 5 5 5 5 5 5 6 5 5 5 6 5 5 5 5 5 5 5 5 5 5 5 5 5 5 5 5 6 5 5 5 5 5 5 5 5 5 6 5 5 5 5 5 5 5 6 5 5 5 5 6 5 5 5 6 6 5 5 5 5 6 5 5 5 5 5 5 5 5 5 5 5 5 5 5 5 6 5 5 5 5 5 5 5 5 5 5 5 5 5 5 5 5 5 5 5 5 5 5 5 5 5 5 5 6 5 5 5 5 5 5 5 5 5 5 5 6 5 5 6 5 5 6 5 5 5 6 5 5 6 5 5 5 5 5 5 5 5 6 5 5 6 5 5 5 5 5 5 5 5 5 5 5 5 5 6 5 5 5 6 5 5 5 5 5 5 5 5 5 5 5 5 5 5 5 5 6 5 5 6 5 5 5 5 5 6 5 5 5 5 5 5 5 5 5 5 5 5 5 5 5 5 5 5 5 5 5 6 5 6 6 5 5 5 5 5 6 5 5 6 5 6 5 5 5 5 5 5 5 6 5 5 5 5 5 5 5 5 5 5 5 5 5 5 6 5 5 5 5 5 5 5 5 5 5 5 5 5 5 5 5 6 5 5 6 5 5 5 5 5 5 5 5 6 5 6 5 6 6 5 5 5 5 6 5 5 5 5 6 5 5 5 5 5 5 5 5 5 5 6 5 5 5 5 5 5 5 5 5 5 5 5 6 5 5 6 5 5 6 6 5 5 5 5 5 5 5 5 6 5 5 5 5 5 5 5 5 5 6 5 5 6 5 5 5 6 6 5 5 5 5 5 5 5 5 5 5 6 5 5 6 6 5 6 5 5 6 5 5 5 5 5 5 5 5 5 5 5 6 5 5 5 5 5 5 5 5 5 6 5 5 5 5 5 5 5 6 5 5 5 5 5 5 5 5 6 5 5 5 5 5 5 6 6 5 5 5 5 5 5 5 5 5 6 5 5 5 5 6 5 5 5 5 5 5 5 5 5 5 5 6 5 5 5 5 5 6 5 5 5 5 5 5 5 5 5 5 5 5 5 5 5 5 5 5 5 5 5 5 5 5 5 5 5 5 5 5 5 5 5 5 5 5 5 5 5 5 5 5 5 5 5 5 5 5 5 5 5 6 5 5 5 5 5 6 5 5 6 5 5 5 5 5 5 5 5 5 5 5 5 5 5 5 6 5 5 5 6 5 5 5 6 6 5 5 5 5 5 5 5 5 5 5 5 6 5 5 5 5 5 6 5 5 5 5 5 5 5 5 5 5 5 5 5 5 5 5 5 5 5 5 5 5 5 5 5 5 5 5 6 5 5 5 5 5 5 5 5 5 5 5 6 5 5 6 5 6 6 5 5 5 5 5 5 5 6 6 5 5 5 6 5 5 5 5 5 5 5 5 5 5 5 5 5 6 5 5 6 5 6 5 5 5 5 6 5 6 5 5 5 6 6 5 5 5 5 5 5 5 5 5 5 5 5 6 5 5 5 5 6 5 5 5 6 5 5 6 6 5 5 6 5 6 5 5 5 5 5 5 5 5 6 5 5 5 6 5 5 5 5 5 5 5 5 5 5 5 5 5 5 5 5 5 5 5 5 5 5 5 5 5 5 5 5 5 5 6 5 5 5 6 5 6 6 5 5 5 5 5 6 6 5 5 5 5 6 5 5 5 5 5 5 5 5 5 5 5 5 5 6 5 5 5 5 6 5 5 5 5 5 5 5 5 5 6 5 5 5 6 5 5 5 5 5 6 5 5 5 6 5 6 5 5 6 5 6 5 5 6 5 5 5 6 6 5 5 5 5 6 5 5 5 6 5 6 5 6 5 5 5 6 5 5 5 5 5 5 5 5 5 6 5 5 6 6 6 5 5 5 5 5 5 5 5 6 5 5 5 5 5 5 6 5 5 5 5 5 5 5 5 5 6 5 5 5 5 5 5 5 5 5 5 5 5 5 5 5 5 5 5 5 5 5 5 5 5 5 5 5 5 5 5 5 6 5 5 5 6 5 5 5 5 5 5 5 5 6 5 5 5 5 5 5 5 5 5 5 6 5 6 5 5 5 5 5 5 5 5 5 5 5 5 6 5 6 5 5 5 5 5 6 5 5 6 5 5 5 5 5 5 5 5 6 5 5 5 5 5 5 6 5 5 5 5 5 5 5 5 5 5 5 5 5 5 5 5 5 5 5 5 5 5 5 5 5 5 5 6 5 5 5 5 6 5 5 5 6 5 6 5 6 5 5 5 6 6 5 5 5 5 5 6 5 5 5 5 5 5 5 5 5 5 5 6 5 5 5 5 6 5 6 5 5 5 5 6 5 6 5 6 5 6 5 6 5 6 5 6 5 5 6 5 5 5 5 5 5 5 6 5 5 5 5 5 5 5 5 5 6 5 5 5 5 5 5 5 5 5 6 5 5 5 5 5 5 5 5 5 5 5 5 5 6 5 5 5 5 5 5 5 5 5 6 5 5 5 5 5 5 5 6 5 5 5 5 6 5 5 6 5 5 5 6 5 5 5 5 5 6 6 5 6 5 5 6 5 5 5 6 5 5 5 5 5 5 5 5 5 5 6 5 5 5 5 5 5 6 5 5 5 5 5 5 5 5 5 5 5 5 5 5 6 6 5 5 5 5 5 6 5 5 5 6 5 6 5 5 6 5 5 5 5 6 5 5 5 5 5 5 5 5 5 5 5 5 5 5 5 5 5 5 5 5 5 5 5 5 5 5 5 5 5 5 6 5 5 6 5 5 5 5 5 5 5 5 5 6 5 5 5 5 5 5 5 5 6 6 6 5 5 6 5 6 5 5 5 6 5 6 6 5 5 5 5 6 5 5 5 6 6 5 5 6 5 6 5 5 5 6 5 5 5 5 5 5 6 5 5 5 5 5 5 5 5 5 5 5 5 5 5 5 6 5 5 5 6 5 5 5 5 5 5 5 5 5 5 5 5 5 5 5 5 5 5 5 5 5 5 5 5 5 5 5 5 5 5 5 5 5 5 5 5 5 5 5 5 5 5 5 5 5 6 5 5 6 5 5 5 5 5 5 5 5 5 6 5 5 5 5 5 5 5 5 5 5 5 6 5 5 5 5 5 5 5 5 5 5 6 5 5 6 5 5 5 6 5 5 5 6 5 5 5 5 5 5 5 5 6 5 5 5 5 5 5 5 5 5 5 5 5 5 5 5 6 5 5 5 5 6 5 5 5 5 5 5 5 5 5 5 5 5 5 5 5 5 5 5 5 5 5 5 5 5 5 5 5 5 5 5 5 6 5 5 5 5 5 5 5 6 5 5 5 6 5 5 6 5 5 5 6 5 5 5 5 5 5 5 5 6 5 5 5 5 5 5 5 5 5 5 5 5 6 5 5 5 5 5 6 5 6 5 5 5 5 5 5 6 5 5 6 5 5 6 5 5 5 5 5 6 5 6 5 5 5 6 5 5 5 5 5 5 6 5 5 5 6 5 5 5 5 5 5 5 5 5 5 5 5 5 5 6 5 6 5 6 5 5 5 5 5 6 5 6 5 6 5 5 5 5 5 6 5 5 5 6 5 5 5 5 5 5 6 5 6 5 6 5 5 5 5 6 6 5 5 5 5 5 5 5 5 5 5 5 5 5 5 5 5 5 6 5 5 5 5 6 5 5 5 5 5 5 5 5 5 5 6 5 5 5 5 5 5 5 6 5 5 5 6 5 5 5 6 5 5 5 5 5 5 5 5 5 5 5 5 5 5 5 5 5 5 5 5 5 5 5 5 5 5 5 5 5 5 5 5 5 5 5 5 5 5 5 5 5 5 5 5 5 5 5 5 5 5 5 5 5 5 5 5 5 5 5 6 5 5 5 5 6 5 5 5 5 5 6 5 5 5 5 5 5 5 5 5 5 5 5 5 5 5 5 6 5 6 5 5 5 5 6 6 5 5 5 5 6 6 5 5 5 5 5 5 6 5 6 6 5 5 5 5 6 6 5 5 5 5 5 5 6 5 5 5 5 5 5 6 5 5 5 5 6 6 5 5 6 6 5 5 5 5 6 5 5 5 6 6 5 5 6 5 6 6 5 5 5 6 5 6 5 6 5 5 5 5 6 5 5 6 5 5 5 5 5 6 6 5 5 5 5 5 5 6 6 5 5 5 5 5 6 5 5 6 5 5 5 5 5 5 5 6 5 5 5 6 5 5 5 5 5 6 5 5 5 5 5 6 5 5 5 5 5 5 5 5 5 6 5 5 5 6 5 5 5 5 5 5 5 5 5 6 5 6 5 5 5 5 5 5 6 5 5 6 5 5 5 5 5 5 6 5 5 5 5 5 5 5 5 5 5 5 5 6 6 5 5 6 5 5 5 5 5 6 5 5 6 6 5 5 5 5 5 5 5 6 5 5 5 5 5 5 5 6 5 5 5 5 5 5 5 5 5 5 5 5 5 5 5 5 5 5 5 6 5 5 5 6 5 5 5 5 5 5 5 5 5 5 5 5 5 5 6 5 5 5 5 5 5 5 5 5 5 5 6 5 5 5 5 5 5 5 6 5 5 5 5 5 5 5 5 5 5 5 6 5 5 5 5 5 5 5 5 5 5 6 5 5 5 5 5 5 5 5 5 5 5 6 5 5 5 5 5 5 5 5 5 5 5 5 6 6 5 5 5 5 5 5 5 5 5 5 5 5 6 5 6 5 5 5 6 5 5 6 5 5 5 5 5 5 5 5 5 5 5 5 5 5 6 5 5 5 5 5 5 5 5 5 5 6 5 5 5 5 5 5 5 5 5 5 5 5 5 5 5 5 5 5 5 5 5 5 5 5 5 5 5 6 6 5 5 5 5 5 5 5 5 5 5 5 5 6 5 6 5 5 5 5 5 5 6 5 5 6 5 5 5 5 5 5 6 5 6 5 5 5 5 5 5 5 5 5 5 5 5 5 5 5 6 5 5 6 5 5 5 6 5 6 5 5 5 5 5 5 5 5 5 5 5 5 5 5 5 5 5 5 5 5 5 5 6 6 5 5 5 6 5 5 5 5 5 5 5 5 5 5 5 5 5 5 5 5 5 5 5 5 5 5 5 5 5 5 5 6 5 6 5 5 5 5 5 5 5 5 5 5 5 5 5 5 5 5 5 5 5 5 5 5 5 5 5 5 5 6 5 5 5 5 5 5 5 5 5 5 5 5 5 5 5 5 5 5 5 5 5 5 5 5 5 5 5 5 5 5 5 5 5 5 5 5 5 5 5 5 5 5 5 5 5 5 5 5 5 5 5 5 5 5 6 5 6 5 5 6 5 5 5 5 6 5 5 5 5 5 6 5 5 5 6 6 5 5 5 5 6 6 5 5 6 6 5 5 6 5 5 6 6 5 5 5 6 5 5 5 5 6 5 5 5 5 6 5 6 5 5 6 5 5 5 6 6 5 6 5 5 5 6 6 5 5 5 5 5 6 5 5 5 5 5 5 6 5 5 5 5 5 5 6 5 5 5 5 6 5 5 6 5 6 5 5 5 5 5 5 5 5 5 5 5 5 6 5 5 6 5 6 5 6 5 5 5 5 5 6 5 6 5 5 5 6 5 5 5 6 5 5 6 5 6 5 5 6 5 5 5 5 5 5 5 5 5 5 5 5 6 5 5 5 5 5 5 6 5 6 5 5 5 5 5 6 5 5 5 5 5 5 5 5 6 5 5 5 5 5 6 5 6 5 5 6 6 5 6 5 5 5 5 5 5 5 5 5 5 5 5 5 5 6 5 5 5 5 5 5 6 5 6 5 5 5 5 6 6 5 5 5 5 5 6 5 5 5 5 6 6 5 5 5 5 6 5 5 5 5 5 5 6 5 5 5 5 5 5 5 6 5 5 5 5 5 5 5 5 5 5 6 5 6 5 6 5 5 6 5 5 6 5 6 5 5 5 5 5 5 5 6 5 5 5 5 6 5 5 5 6 5 6 5 6 6 6 6 5 5 6 6 5 5 5 6 5 6 5 5 5 5 5 6 5 5 5 5 5 5 5 5 5 6 5 5 5 5 5 5 5 5 5 5 5 5 5 5 5 5 5 5 6 5 5 5 5 6 5 5 6 5 5 5 5 5 5 5 5 6 5 5 6 5 5 5 5 5 5 5 5 5 5 5 5 5 5 6 5 5 5 5 6 5 5 6 5 6 5 5 5 5 5 5 5 5 5 5 5 5 5 5 5 5 5 5 5 5 5 5 5 6 5 5 5 5 5 5 5 5 6 5 6 5 5 6 5 5 5 5 5 5 5 5 5 5 5 5 5 6 5 5 6 5 5 5 5 5 5 6 5 5 5 5 6 5 5 5 5 5 6 5 5 5 6 5 5 5 5 5 5 5 5 5 5 5 5 5 5 6 5 5 5 5 5 5 5 5 5 6 5 5 5 5 5 5 5 5 5 6 5 5 5 5 5 5 5 5 6 5 5 5 5 5 5 5 5 5 5 5 5 5 5 5 5 5 5 5 5 5 5 5 5 5 5 5 5 5 5 5 5 5 5 5 5 5 5 5 5 5 5 6 5 5 5 6 5 5 5 5 5 5 5 5 5 6 6 5 5 6 5 6 5 5 5 5 5 6 5 5 6 6 5 5 6 5 6 5 5 5 6 5 5 5 5 5 5 5 5 5 5 5 6 5 5 5 5 5 5 5 5 5 6 5 5 5 5 5 5 6 5 5 5 5 5 5 5 5 5 6 5 5 5 5 5 5 5 6 5 5 5 5 5 5 5 5 5 5 6 5 6 5 5 5 5 5 5 5 5 5 5 5 5 5 5 5 5 5 5 5 5 5 5 6 5 5 5 5 5 5 5 5 6 5 5 6 5 5 6 5 5 5 5 6 6 5 5 6 5 6 6 5 5 6 5 5 6 5 5 6 5 6 5 5 6 5 5 5 5 5 5 6 5 5 5 6 5 5 5 5 5 6 5 5 5 5 5 5 5 5 5 6 5 5 6 5 5 5 5 6 5 5 5 5 6 5 5 6 5 5 5 5 6 6 5 5 5 5 5 5 5 5 6 5 5 6 5 5 5 5 5 5 5 5 5 5 5 5 6 5 5 5 5 5 5 5 5 6 5 5 5 6 5 5 5 5 6 5 6 5 5 5 5 5 6 6 5 5 5 6 5 5 5 6 5 6 5 5 5 6 5 5 6 5 5 5 6 5 5 6 5 5 5 5 5 6 5 5 6 5 5 5 5 5 5 5 5 5 5 5 5 5 5 5 5 5 5 5 5 5 5 6 5 5 5 5 5 5 5 6 6 5 5 5 5 5 5 5 5 5 5 6 5 5 6 5 5 5 6 5 5 6 5 5 6 6 5 6 5 6 6 5 6 5 6 5 5 6 5 5 5 6 6 5 6 5 5 5 5 5 6 6 5 6 5 5 5 5 5 6 5 5 5 5 5 5 6 5 5 5 5 5 5 5 5 5 5 5 5 5 6 5 5 5 5 5 5 5 5 5 5 5 5 5 5 6 6 6 5 5 6 5 6 6 6 5 5 5 5 5 5 5 6 5 5 5 5 5 6 5 5 5 5 5 5 5 5 5 5 5 5 5 6 5 6 5 6 5 6 5 5 5 5 5 5 5 5 5 5 5 5 5 5 5 5 5 5 5 5 6 5 5 6 6 5 5 5 5 5 5 5 5 5 5 5 5 5 6 5 5 5 5 5 5 5 5 5 5 5 6 6 5 5 5 5 6 5 5 5 5 5 6 5 5 5 6 5 5 5 5 5 5 6 6 5 6 5 5 6 5 5 5 5 5 6 5 6 5 5 5 5 5 5 5 6 5 5 5 5 5 5 5 5 5 5 5 5 5 5 5 5 5 6 5 5 5 5 5 5 5 5 6 5 6 5 5 5 5 5 5 5 5 5 5 5 5 5 5 5 5 5 5 5 6 5 5 5 5 5 5 6 5 6 5 6 5 5 5 5 6 5 5 5 5 5 5 5 5 5 5 5 5 5 5 5 5 5 5 5 5 5 5 5 5 5 5 5 5 5 6 5 5 6 5 5 5 5 5 5 5 5 5 5 5 5 5 5 5 5 5 5 5 5 5 5 5 5 5 5 5 5 5 5 5 6 5 5 6 6 5 5 5 5 5 5 6 5 5 5 6 5 5 5 5 5 5 5 5 5 5 5 5 6 5 6 5 6 5 5 5 5 5 5 5 6 5 6 5 5 5 5 5 5 5 5 5 6 6 5 5 6 6 5 5 5 5 5 5 6 5 6 5 5 5 5 5 5 6 5 5 5 5 5 5 5 6 5 5 5 6 5 5 5 5 5 5 6 5 6 5 5 6 5 5 6 5 5 6 5 5 6 5 5 5 5 5 5 5 5 5 5 5 5 5 5 5 5 5 5 5 5 5 5 6 5 5 5 5 5 6 5 5 6 5 6 6 6 5 5 6 5 6 5 6 5 6 5 5 6 5 6 5 5 5 5 5 5 5 5 5 5 5 5 5 5 5 5 5 5 5 5 5 5 5 5 5 5 5 5 5 5 5 5 6 5 5 5 5 5 5 5 5 6 5 5 5 6 5 5 5 5 6 5 5 5 5 6 5 5 5 5 5 6 5 5 5 6 5 5 5 5 5 6 5 5 5 5 5 5 5 5 5 6 5 5 5 5 5 5 5 5 5 5 6 5 5 5 6 5 5 5 5 5 5 5 5 5 5 5 5 5 5 5 5 5 5 5 5 5 5 5 5 6 5 5 6 5 5 5 6 5 5 5 5 5 5 5 5 5 5 6 5 5 5 5 6 5 5 5 6 5 5 6 5 6 5 5 5 5 6 5 6 5 5 5 5 5 5 5 5 5 5 5 5 5 5 5 5 5 5 6 5 5 5 5 5 5 5 5 5 5 5 6 5 5 5 5 5 5 5 6 5 5 5 5 5 5 5 6 5 5 5 5 6 5 5 5 5 5 5 5 5 5 5 5 5 5 5 6 5 5 5 5 5 5 5 5 5 5 5 5 5 5 5 5 5 5 5 5 6 5 5 6 5 5 5 5 5 5 5 5 5 5 5 5 5 5 5 5 5 5 5 5 5 6 6 5 5 5 5 5 5 5 5 5 5 5 6 5 5 5 6 5 5 5 5 6 5 5 5 5 5 5 5 5 6 5 5 5 5 5 6 5 5 5 5 5 6 5 5 5 5 5 5 6 5 5 5 5 5 6 6 6 5 5 6 5 5 6 6 5 5 5 6 6 5 6 5 5 5 5 5 6 5 5 5 6 5 5 6 5 5 5 6 6 5 5 6 6 5 5 5 5 5 6 5 6 6 5 5 5 5 5 6 5 6 5 5 5 6 6 5 6 5 6 5 5 5 5 5 6 5 6 5 5 5 5 5 5 5 5 5 5 5 5 5 5 6 5 5 6 5 5 5 6 5 5 5 5 5 5 5 5 6 5 5 6 5 5 5 5 5 5 5 5 6 5 5 5 5 5 5 5 5 5 5 5 5 5 5 5 5 6 5 5 6 5 5 5 5 5 5 5 5 5 5 5 6 5 5 5 6 6 6 5 5 6 5 5 6 5 5 5 5 5 5 5 5 5 5 6 5 5 5 5 5 5 5 5 5 5 5 5 5 5 5 5 5 5 5 5 5 5 6 5 5 5 5 5 6 5 6 6 5 5 5 5 6 5 5 5 5 5 5 5 5 5 5 6 6 5 6 5 5 5 6 5 5 5 6 5 5 5 5 5 5 5 5 5 5 5 5 5 5 6 5 5 5 5 5 5 5 6 5 5 5 5 5 5 5 5 5 5 5 6 5 5 5 5 5 5 5 5 5 5 5 6 6 5 5 5 5 5 5 5 5 5 5 5 5 5 5 6 5 5 5 6 5 5 6 5 5 5 5 5 5 5 5 5 5 5 5 5 5 5 5 5 5 5 5 5 5 5 5 5 5 5 5 5 5 5 5 5 5 5 5 5 5 5 5 5 5 6 6 5 5 5 5 5 5 6 5 6 5 5 5 5 5 5 5 5 5 5 5 5 6 5 5 6 5 5 6 5 5 6 5 5 5 5 5 5 5 5 5 5 5 5 5 5 6 5 5 5 5 6 5 5 5 5 5 5 5 5 5 6 5 5 6 5 5 5 5 5 5 5 5 5 5 5 5 6 5 5 5 5 5 5 5 6 5 6 5 5 6 5 5 5 5 5 5 5 5 5 5 5 5 5 5 5 6 6 6 5 6 5 5 5 5 5 5 6 5 6 5 5 5 5 5 5 5 5 6 5 5 5 6 5 5 6 5 5 5 5 5 5 5 5 6 5 5 5 5 5 5 6 5 5 5 5 5 5 5 6 5 6 5 5 6 5 5 5 5 5 5 5 5 5 5 5 5 5 5 5 5 5 6 5 5 5 5 6 5 5 5 5 5 5 5 5 6 5 5 5 5 5 5 5 5 5 5 5 5 5 5 5 5 5 5 5 5 5 5 5 5 6 5 5 5 6 6 5 5 5 5 5 5 5 5 5 6 5 5 5 5 6 6 5 6 5 5 6 5 5 5 6 6 5 5 5 5 5 5 5 6 5 5 6 5 5 6 5 5 5 5 5 5 6 5 6 5 5 5 5 6 5 6 5 5 5 5 6 5 5 5 5 5 5 5 5 5 5 5 5 5 6 5 5 6 5 5 5 5 5 5 5 5 5 5 5 5 5 5 5 5 5 5 5 5 5 5 5 5 5 5 5 5 5 5 5 5 5 6 5 5 5 5 5 5 5 5 5 5 5 5 5 5 5 5 6 5 5 5 5 5 5 5 5 6 5 5 6 5 5 5 5 5 5 5 6 5 5 6 5 5 5 5 5 5 5 5 5 5 5 5 5 5 5 5 5 5 5 5 5 5 5 5 5 5 5 5 5 5 5 5 5 5 5 5 5 5 5 6 5 6 5 5 5 5 5 5 5 5 5 5 5 6 5 5 5 5 5 5 5 5 5 5 5 5 5 5 5 5 5 5 5 5 5 6 5 5 5 6 5 6 5 6 5 5 6 5 5 5 5 6 5 5 6 5 6 6 5 5 5 6 5 5 6 5 5 6 5 5 6 5 6 5 5 5 5 5 6 6 5 6 5 5 6 5 5 5 5 5 5 5 5 5 5 6 6 5 5 5 5 6 6 5 5 5 5 5 5 5 5 6 5 5 6 6 5 5 6 6 6 5 6 6 6 5 5 5 5 6 5 5 5 5 5 5 5 5 6 5 6 5 5 5 5 5 5 5 6 5 5 5 6 5 5 5 5 5 6 5 5 5 5 5 5 5 5 5 5 5 5 5 5 5 5 6 5 6 5 6 5 5 5 5 6 6 6 5 5 6 5 5 5 6 6 5 5 6 6 5 6 6 5 5 5 5 5 5 5 6 5 5 5 5 5 5 5 5 5 5 5 6 5 5 5 5 6 6 5 6 5 5 6 5 5 5 5 5 6 5 5 5 5 5 5 5 5 5 5 5 5 5 5 5 6 5 5 6 5 5 5 5 5 5 5 5 6 5 5 5 5 5 5 5 5 6 5 5 5 5 5 6 5 5 5 5 5 5 5 5 6 5 5 5 5 5 6 6 5 6 5 5 5 5 6 5 6 5 6 5 5 5 6 5 5 5 5 5 6 5 5 5 5 6 5 6 5 5 6 5 5 5 5 5 5 5 5 5 5 5 5 5 5 5 5 5 5 6 5 5 5 5 5 5 5 5 6 5 5 6 5 5 5 6 5 5 6 6 5 5 6 6 6 5 6 5 5 5 5 5 6 5 5 5 5 5 5 6 5 5 5 5 5 5 5 5 5 5 5 5 5 5 5 5 5 5 5 5 5 5 5 5 5 5 5 5 6 5 5 5 5 5 5 5 6 5 5 5 5 5 5 6 5 5 6 5 6 5 6 5 6 5 5 5 5 5 5 6 5 5 6 5 5 5 5 5 5 5 5 5 5 5 5 5 5 5 6 5 5 6 5 5 5 5 5 6 5 5 5 5 5 5 6 6 5 5 5 5 5 5 5 5 5 5 5 5 5 5 5 6 5 5 5 5 5 5 5 5 5 5 6 6 5 5 5 5 5 5 5 5 5 6 5 5 5 5 5 5 5 6 5 6 5 5 5 5 6 5 5 5 5 5 6 5 5 5 6 5 5 5 5 5 5 6 5 5 5 5 5 5 5 5 5 5 5 5 6 5 5 5 5 5 5 5 5 5 5 5 5 6 5 5 5 5 6 6 6 6 5 6 5 5 5 5 5 6 5 6 6 5 6 5 5 5 5 5 5 5 5 5 6 6 5 6 5 6 5 6 5 6 6 5 5 5 6 5 5 5 5 5 5 5 6 5 5 6 5 5 6 5 6 5 5 6 5 5 5 5 6 5 5 5 5 5 5 5 5 5 5 5 5 5 5 5 5 5 5 5 5 5 5 5 5 5 5 5 5 5 5 5 5 6 5 6 5 5 6 5 6 5 5 5 5 5 6 5 5 5 5 5 5 5 5 5 5 5 5 6 6 5 5 5 6 5 5 5 5 5 5 5 6 5 5 5 5 5 5 6 5 6 5 5 6 5 5 5 5 6 5 5 6 5 5 5 5 5 5 6 5 6 5 5 5 5 5 5 5 5 5 5 6 5 6 5 5 5 5 5 5 5 5 5 5 5 5 5 6 5 5 5 5 5 5 5 5 5 5 5 5 5 6 6 5 5 6 5 5 5 6 5 5 5 5 5 6 6 5 5 6 5 5 5 6 5 5 5 5 5 5 5 5 5 5 5 5 5 5 5 5 5 5 5 5 6 5 5 5 5 5 5 5 5 5 5 5 5 5 5 5 5 5 5 5 5 5 5 5 5 5 5 5 5 5 5 5 5 5 5 5 5 5 5 5 5 5 5 5 5 5 5 5 5 5 5 5 5 5 5 5 5 5 5 5 5 5 5 5 5 5 5 5 5 5 5 5 5 5 5 5 5 6 5 5 5 6 5 5 5 5 5 5 5 5 5 6 5 5 5 6 5 5 5 5 5 5 5 5 5 5 5 5 5 5 6 5 5 5 5 5 5 6 5 6 5 5 5 5 5 5 5 5 5 5 5 5 5 5 5 5 5 5 5 5 5 5 5 5 5 5 5 5 5 5 5 5 5 5 5 5 5 5 5 5 5 5 5 5 5 5 6 5 6 5 5 6 6 5 5 5 6 5 5 5 5 5 5 5 5 5 5 5 5 5 5 5 5 5 5 5 5 5 5 5 5 5 6 5 5 5 5 5 5 5 5 5 5 5 5 5 5 5 5 5 5 5 5 5 5 5 5 5 5 5 5 5 5 5 5 5 5 5 5 5 5 5 5 5 6 5 5 5 5 5 5 5 6 5 5 5 5 5 5 5 5 5 5 5 5 5 5 5 5 5 5 5 5 5 6 5 5 5 5 5 6 5 5 5 6 5 5 5 5 5 5 5 5 5 5 5 5 5 5 5 5 5 5 5 5 5 5 5 5 5 5 5 5 5 5 5 6 5 5 6 5 5 6 5 5 5 5 5 5 5 5 5 5 6 5 5 5 6 6 5 5 5 5 5 5 6 5 6 5 5 6 5 5 5 5 5 6 6 5 5 5 5 6 5 6 6 5 6 5 5 5 5 5 5 6 5 6 5 5 6 5 5 5 6 5 5 5 5 5 5 5 5 5 5 5 5 5 5 5 5 5 5 5 5 6 5 5 5 5 5 5 5 5 5 5 6 5 5 5 5 5 6 5 5 5 5 5 5 5 5 6 5 5 5 5 6 6 5 5 6 5 5 5 5 6 5 5 5 6 6 5 6 5 5 6 5 6 5 6 5 5 5 5 5 5 5 6 5 5 6 5 5 5 5 5 6 5 5 5 6 5 5 6 5 5 5 6 5 5 5 5 5 5 5 5 6 5 5 5 6 5 5 5 5 5 5 5 6 5 5 5 6 5 5 5 5 5 5 5 5 6 5 5 5 5 5 5 5 5 5 5 5 5 5 5 5 5 5 5 5 5 5 5 5 6 5 5 5 5 5 5 5 5 5 5 5 5 5 5 5 5 5 5 5 5 5 6 5 5 5 5 5 5 6 5 5 5 5 5 5 5 5 5 5 5 5 5 5 5 5 5 5 5 5 5 5 5 5 5 6 5 5 5 5 5 5 5 5 5 5 5 5 5 5 5 5 5 5 5 5 5 5 6 5 5 5 5 5 5 6 5 5 5 5 5 5 5 5 5 5 5 5 5 5 5 5 5 6 5 5 5 5 6 5 5 5 5 5 5 6 5 5 5 5 5 5 6 5 5 5 5 5 5 5 5 5 5 5 5 5 5 5 6 5 5 5 5 5 5 5 6 6 6 5 5 5 5 5 5 5 5 5 5 5 5 5 5 5 5 5 5 6 6 5 5 5 5 5 6 5 5 6 5 5 5 6 5 5 5 5 5 5 5 5 5 6 5 5 5 5 5 5 5 5 5 5 5 6 6 5 5 6 5 5 5 5 5 6 5 5 5 6 5 6 5 5 6 5 5 5 5 6 5 5 6 5 5 5 5 5 6 5 5 5 5 5 5 5 5 5 5 5 5 5 5 5 6 5 5 5 5 6 5 5 5 5 5 5 5 6 5 5 5 5 5 5 6 6 5 5 5 5 5 5 5 5 5 5 5 5 5 5 5 5 6 5 5 5 5 6 5 5 5 5 5 5 6 5 5 5 5 5 5 5 5 5 5 5 5 5 5 5 5 5 5 5 5 5 5 6 5 5 5 6 5 6 5 5 5 6 5 5 5 5 5 5 5 5 5 5 5 5 5 5 5 5 5 5 5 5 5 5 5 5 5 5 5 5 5 5 5 5 5 5 5 5 5 5 5 5 5 5 5 5 5 5 5 5 5 5 6 6 5 5 5 5 5 5 5 5 5 5 5 5 5 5 5 5 5 5 5 5 5 5 6 5 6 5 5 5 5 5 5 6 5 5 5 5 5 5 5 5 5 5 6 5 5 5 5 5 5 5 5 6 5 5 5 5 6 5 5 6 5 5 5 5 5 6 5 6 5 5 5 5 5 5 5 5 5 5 5 5 5 5 5 5 5 5 5 5 5 5 5 5 5 6 5 5 5 5 5 5 5 6 5 5 5 5 5 5 5 6 5 5 5 5 5 5 5 5 5 5 5 6 5 5 6 5 6 5 5 5 5 5 5 5 6 5 6 5 6 5 5 5 6 5 6 5 5 5 5 5 5 5 6 5 5 5 5 5 6 5 5 6 5 5 5 5 5 5 6 5 5 5 5 5 5 5 5 5 5 5 5 5 6 5 5 5 5 6 5 5 5 6 5 6 5 6 5 5 6 5 5 5 6 6 5 5 5 5 5 5 5 5 5 5 5 5 6 6 5 6 5 5 5 5 5 5 5 5 5 5 6 5 5 5 6 5 5 5 6 5 6 5 5 5 5 5 5 5 5 6 5 5 5 5 5 5 5 5 5 5 5 6 5 5 5 5 5 5 5 5 5 5 5 5 5 5 5 5 5 5 5 5 5 5 6 5 5 5 5 5 5 5 5 5 5 5 5 5 6 5 5 5 5 5 6 5 5 5 6 5 6 5 5 5 5 5 5 5 5 5 5 5 5 5 5 5 5 6 5 5 5 5 5 5 6 5 5 5 5 5 6 5 5 6 5 5 5 6 5 5 5 5 5 6 5 5 5 6 5 5 5 6 6 5 5 5 5 6 5 5 6 5 5 6 5 5 5 6 6 5 5 5 5 5 5 6 5 6 5 6 5 5 6 5 6 5 6 5 5 6 5 5 5 5 5 5 5 5 5 5 5 5 5 5 5 5 5 5 5 5 5 5 5 5 5 5 5 5 5 5 6 5 5 5 5 5 5 5 5 5 6 5 5 5 5 5 6 5 5 5 5 5 5 5 5 5 5 5 5 5 5 5 5 6 5 5 5 5 5 5 5 6 5 5 6 5 5 5 5 5 6 5 5 5 5 5 5 5 5 5 5 5 6 5 5 5 5 5 5 5 5 5 5 5 5 5 5 5 5 5 5 5 5 5 5 5 5 5 5 5 5 5 5 5 5 5 5 5 5 5 5 5 5 5 5 5 5 5 5 5 5 5 5 5 5 5 5 5 5 5 5 5 5 5 5 5 5 5 5 5 5 6 5 5 5 5 6 5 5 5 6 5 6 5 5 6 5 5 5 5 6 6 5 5 6 6 5 6 5 5 5 6 6 5 5 5 6 5 5 5 5 5 5 5 5 5 6 6 5 5 5 5 5 5 5 6 5 5 5 5 5 5 5 5 6 5 5 5 5 5 6 5 5 5 5 5 6 5 5 5 5 5 6 5 5 5 5 5 5 5 5 5 5 5 5 5 5 5 5 5 5 5 5 5 5 5 5 5 5 6 5 5 5 5 5 5 5 5 5 5 5 6 5 5 5 5 5 5 5 5 5 5 5 5 5 5 5 5 5 5 5 5 5 5 5 5 5 5 5 5 5 5 5 5 5 5 5 5 5 5 5 5 5 5 6 6 5 5 6 5 6 5 5 5 5 5 5 5 5 5 5 5 5 5 5 5 5 5 6 5 5 5 6 5 5 5 5 6 5 5 5 5 5 6 5 6 6 5 5 5 5 5 5 5 5 6 5 5 5 5 6 5 5 6 5 5 5 5 5 5 5 5 5 6 5 5 6 5 5 5 5 5 5 5 5 5 5 5 5 5 5 5 6 5 5 6 5 5 5 5 6 5 6 5 6 6 5 5 5 5 5 6 5 5 5 5 5 5 6 5 5 5 6 5 5 5 5 5 5 5 5 5 5 5 5 5 5 5 5 5 5 5 5 5 5 5 5 5 6 5 5 5 5 5 5 5 5 5 5 5 6 5 5 5 6 5 5 5 5 6 5 5 5 5 5 5 5 5 5 5 5 5 5 6 5 5 6 5 5 5 5 5 5 5 5 5 5 5 6 5 5 5 5 5 5 5 5 5 5 5 5 5 6 5 5 5 5 5 5 5 5 5 5 5 5 5 5 5 5 5 6 5 5 5 6 5 5 5 5 5 5 5 5 5 6 5 5 5 5 5 5 5 5 5 5 5 5 5 5 5 5 5 5 5 5 5 6 5 6 5 5 5 5 5 5 5 5 5 5 6 5 5 5 5 5 5 6 5 5 5 5 5 5 5 5 6 5 5 6 5 5 5 5 5 6 5 5 5 6 5 5 5 6 5 5 5 5 5 5 5 5 5 5 5 5 5 5 5 5 5 5 5 5 5 5 5 5 5 5 5 5 5 5 5 5 5 6 5 5 5 5 5 5 5 6 5 6 5 5 5 5 5 5 6 5 6 5 5 6 5 5 5 5 5 5 5 5 5 5 6 6 5 5 5 5 5 5 5 6 5 5 5 5 5 5 5 5 5 5 6 5 5 5 5 5 5 5 5 5 5 5 5 5 5 5 5 5 6 5 6 5 5 5 5 5 5 5 5 5 6 5 5 5 6 5 6 5 5 5 5 5 5 5 5 5 5 5 6 6 5 5 5 5 5 5 5 5 5 5 5 6 5 5 5 5 5 5 5 5 5 5 5 5 5 5 5 5 5 5 6 5 5 5 5 6 5 6 5 6 5 5 5 6 5 5 5 5 5 5 5 5 6 5 5 5 5 5 5 5 5 5 6 5 5 5 5 5 5 6 5 6 5 6 5 5 5 5 5 5 5 6 5 5 5 5 5 6 5 5 5 5 5 5 5 5 5 5 6 5 5 6 5 5 5 5 6 5 5 5 5 5 5 5 5 5 5 5 5 5 5 5 5 5 5 5 5 5 5 6 5 5 6 6 5 5 5 5 5 5 5 5 6 5 5 5 5 6 5 5 5 5 6 5 5 5 5 5 5 6 5 5 6 5 6 5 5 6 5 6 5 5 5 6 5 6 5 5 6 5 5 6 5 5 5 5 5 6 6 5 5 5 5 6 5 5 6 5 5 6 5 5 5 5 5 6 5 5 6 5 5 5 5 5 6 5 5 5 5 5 5 5 5 6 5 5 5 5 5 5 5 5 5 5 6 5 5 5 6 5 5 5 6 5 5 5 5 5 6 5 5 5 5 5 5 5 5 5 5 5 5 6 5 5 5 5 5 5 5 5 5 5 5 5 5 5 5 5 5 5 5 5 5 5 5 5 5 5 5 5 5 5 6 6 5 5 5 5 5 5 5 6 5 5 6 5 5 5 5 5 5 5 5 5 5 5 5 5 5 5 5 6 5 5 5 5 5 5 5 5 5 5 5 5 5 5 5 5 5 6 6 5 5 5 5 5 5 5 5 5 5 5 5 5 5 5 5 5 5 5 6 5 5 5 5 5 6 5 5 5 5 5 5 5 5 5 6 5 5 5 5 5 5 5 5 6 5 5 6 5 5 5 5 6 6 5 5 6 5 5 5 5 5 6 6 5 5 5 5 5 5 5 5 5 6 5 5 5 5 5 5 5 5 5 5 5 5 5 5 6 5 5 5 5 5 5 5 5 5 5 5 5 5 5 5 5 5 5 5 5 5 5 5 5 6 5 6 5 5 5 5 5 5 5 5 5 5 5 5 5 6 5 6 5 5 5 5 5 6 5 5 5 5 6 5 5 5 5 5 5 5 5 6 5 5 6 5 6 5 5 5 5 5 5 5 5 5 5 5 6 5 5 5 6 5 5 5 5 5 6 5 5 6 5 5 5 5 5 5 5 5 5 5 5 5 5 6 5 5 5 5 6 5 5 5 6 5 5 5 5 5 5 5 5 5 6 5 5 5 6 6 5 5 5 5 6 6 5 6 5 6 5 5 5 5 6 5 5 5 5 5 5 5 5 6 5 5 5 5 5 5 5 5 6 5 5 6 6 5 5 6 5 6 5 5 5 5 6 5 5 5 5 5 5 5 5 5 5 5 5 5 5 5 5 5 5 5 5 5 5 5 5 6 5 5 5 5 5 5 5 5 5 5 6 5 5 5 5 6 5 5 5 5 5 5 5 5 5 6 5 5 6 5 5 5 5 5 5 5 5 5 6 5 6 5 5 6 6 6 5 5 6 5 6 5 5 5 6 5 5 6 5 5 5 5 6 5 5 5 5 6 5 5 5 5 5 5 6 5 5 5 5 5 6 5 6 5 6 5 5 5 5 5 5 5 5 5 5 5 5 5 5 5 5 6 5 5 5 5 5 6 5 5 5 5 5 5 5 6 5 6 5 5 6 6 5 5 5 5 5 6 5 5 5 5 5 5 5 5 5 5 6 5 6 6 5 5 5 5 5 5 5 5 6 5 5 5 5 5 5 5 6 5 5 5 5 5 5 6 6 5 5 6 5 5 5 5 6 5 6 6 6 5 6 5 5 5 6 5 5 6 5 5 5 5 5 5 5 5 5 5 5 5 5 5 5 5 6 5 5 5 5 5 5 5 5 6 5 5 5 5 6 5 5 5 5 5 5 5 5 5 6 5 6 5 5 5 5 5 5 5 6 5 6 5 5 5 5 5 5 5 5 5 5 5 5 5 5 5 5 6 5 5 5 5 6 5 5 5 5 5 5 6 5 5 5 5 5 5 5 5 5 5 5 5 5 5 5 5 5 5 5 5 5 5 5 5 5 5 6 5 5 5 5 5 5 5 5 5 6 5 5 6 5 6 5 5 5 5 5 5 6 5 5 5 5 5 5 5 5 5 6 5 5 5 5 5 6 5 5 5 5 5 5 5 5 5 5 6 5 5 6 5 6 5 5 5 5 5 5 5 5 5 5 5 5 5 5 5 5 5 5 5 5 5 5 5 5 5 6 5 6 5 5 5 5 5 6 5 5 5 5 6 5 5 6 5 5 5 6 5 5 6 6 5 6 5 5 5 5 5 5 6 5 5 5 5 5 5 5 5 5 5 5 5 5 5 5 5 6 5 5 5 5 5 5 5 5 5 5 5 5 5 5 5 6 5 5 5 5 6 5 5 5 5 6 5 6 5 5 5 5 5 5 6 5 5 6 5 5 5 5 5 5 5 5 6 5 5 6 5 5 5 5 5 5 5 6 5 5 5 5 5 6 5 5 5 6 5 5 5 5 5 5 5 5 5 5 6 5 5 5 5 5 6 5 5 5 5 5 6 5 5 5 6 6 5 5 5 5 5 5 6 5 5 5 5 5 5 5 5 5 5 5 5 5 5 5 5 5 5 5 5 5 5 5 5 5 5 5 5 5 5 6 6 6 5 5 5 5 6 5 5 5 6 5 6 5 5 5 6 5 6 6 5 5 5 6 5 6 5 5 6 6 5 5 5 5 5 5 5 5 5 5 6 6 5 5 5 5 5 5 6 5 5 5 6 5 5 5 5 5 6 5 5 5 
</DataArray>
<DataArray type="Float64" Name="stress" NumberOfComponents="9" format="ascii">
-0.23321809364126905 63.227845494049689 0 63.227845494049689 3831.9236271089903 0 0 0 0 -15.523901124076868 -631.93341370844428 0 -631.93341370844428 4497.749762992451 0 0 0 0 -517.38210479367979 -818.18850249488605 0 -818.18850249488605 3391.6717829581066 0 0 0 0 -313.36220746203452 -960.9183744850161 0 -960.9183744850161 3416.1969853331138 0 0 0 0 486.22682642753449 -1743.710208384844 0 -1743.710208384844 3598.0642344739463 0 0 0 0 -644.82941359584061 225.90684181670076 0 225.90684181670076 6044.8172751897946 0 0 0 0 1023.7584703948603 -90.962807308722404 0 -90.962807308722404 -588.58413612737786 0 0 0 0 249.32268058316171 -1046.7926886769055 0 -1046.7926886769055 1549.2779953443678 0 0 0 0 -168.47015587461277 -333.59876374689338 0 -333.59876374689338 1734.002888381714 0 0 0 0 0.16340945216907887 -195.45538164499158 0 -195.45538164499158 1853.7071790258633 0 0 0 0 -1.9732379199335082 -5.6926343885810411 0 -5.6926343885810411 10.808393562180058 0 0 0 0 828.64807111220398 51.174757912143832 0 51.174757912143832 -491.08965171872842 0 0 0 0 -2.7782654002901213 -3.9716185973210543 0 -3.9716185973210543 29.656029193126415 0 0 0 0 1558.8138545103068 -1312.7008622914509 0 -1312.7008622914509 1311.5451800074079 0 0 0 0 43.384381884646814 860.62620643039099 0 860.62620643039099 2367.7773179747164 0 0 0 0 1606.8759753433312 -809.32909695359922 0 -809.32909695359922 4888.9159517866792 0 0 0 0 -658.75259571720744 -1172.0339854922568 0 -1172.0339854922568 4920.803814456478 0 0 0 0 -8.5798269347726475 -2.7262261189917467 0 -2.7262261189917467 6.8951814232472657 0 0 0 0 245.0160013046463 -171.52138866372843 0 -171.52138866372843 4056.6003938307476 0 0 0 0 195.82884597842283 -808.26650272389088 0 -808.26650272389088 4132.4796553235064 0 0 0 0 -555.90263457735637 -657.27914228641748 0 -657.27914228641748 4416.5124202010265 0 0 0 0 -17.817968374601211 -1.4273343041261342 0 -1.4273343041261342 9.8636132177268792 0 0 0 0 97.639817205101366 -827.73451054557518 0 -827.73451054557518 4583.0548961470886 0 0 0 0 -9.1106325406281705 0.48521811412999227 0 0.48521811412999227 7.6874220768464454 0 0 0 0 345.3372269590912 -575.64764813348302 0 -575.64764813348302 3318.0899854040872 0 0 0 0 -252.12756425803963 -1359.533962736079 0 -1359.533962736079 6129.7779053650593 0 0 0 0 1002.0416611151529 -651.66348664631369 0 -651.66348664631369 -3059.1316452723186 0 0 0 0 1.900333463178755 -10.809443801240377 0 -10.809443801240377 0.68849969158573998 0 0 0 0 606.62574613230504 -2374.3020845043357 0 -2374.3020845043357 -935.34048612820334 0 0 0 0 497.1549086817663 -1783.2482774624223 0 -1783.2482774624223 2276.3114823621909 0 0 0 0 19.738595604757393 117.96142747427803 0 117.96142747427803 2322.392262688023 0 0 0 0 426.15236702618313 69.658665100141661 0 69.658665100141661 457.90413678355981 0 0 0 0 7.7180474167951401 1.6755111801643352 0 1.6755111801643352 1.8581425330138899 0 0 0 0 615.4759684232929 -962.07187117496505 0 -962.07187117496505 1086.8845585064555 0 0 0 0 1191.9622904712214 -937.65742762394802 0 -937.65742762394802 305.20469794530072 0 0 0 0 -16.01192158419974 -470.4925700341264 0 -470.4925700341264 160.61384515947429 0 0 0 0 778.37677962801718 -143.9520431826968 0 -143.9520431826968 -676.97673865463003 0 0 0 0 732.74351295579754 -340.51076778809875 0 -340.51076778809875 2281.3796667984279 0 0 0 0 486.89055953678871 -743.20447786859222 0 -743.20447786859222 2281.1647555333329 0 0 0 0 -681.43625789497582 -265.36202701175353 0 -265.36202701175353 2306.7559797004938 0 0 0 0 284.35630671833871 -593.99138100670825 0 -593.99138100670825 771.39690254992456 0 0 0 0 290.02590034910133 -55.239780363008322 0 -55.239780363008322 74.489529452544957 0 0 0 0 -810.76330943035191 -75.606753883053898 0 -75.606753883053898 2477.318031101182 0 0 0 0 14.020238591740773 1.4383523017911841 0 1.4383523017911841 -0.84838633137069053 0 0 0 0 529.04841851197625 88.379089850401215 0 88.379089850401215 336.74578439348261 0 0 0 0 448.83450557990022 -491.31398579662346 0 -491.31398579662346 474.64695623584703 0 0 0 0 48.908741826572395 -43.911748828755663 0 -43.911748828755663 437.11653240959276 0 0 0 0 340.8654771635708 -385.3029964024463 0 -385.3029964024463 1024.67685776492 0 0 0 0 723.88844228030075 -191.66206109392806 0 -191.66206109392806 1013.5164939609526 0 0 0 0 415.86295451523659 -280.43196482926396 0 -280.43196482926396 158.79544045789225 0 0 0 0 487.72744150461443 -476.23077733975697 0 -476.23077733975697 537.78253910725471 0 0 0 0 446.91118058980396 -329.9513312670897 0 -329.9513312670897 548.98861883428799 0 0 0 0 674.58673333230331 -511.63697802342358 0 -511.63697802342358 571.37692145901019 0 0 0 0 740.37861032812202 -583.18233839591267 0 -583.18233839591267 597.3653411752457 0 0 0 0 697.25238312628881 -456.68860371597111 0 -456.68860371597111 336.75533887259735 0 0 0 0 422.18927225690823 -305.21121432644577 0 -305.21121432644577 944.9703572023891 0 0 0 0 576.95667344215963 -551.11707125564863 0 -551.11707125564863 912.95823694500723 0 0 0 0 305.60776431765134 -465.91567466453489 0 -465.91567466453489 720.10847109844326 0 0 0 0 241.53956206479438 -230.37885650120734 0 -230.37885650120734 813.59152886441734 0 0 0 0 129.76042945700533 -184.4302400109591 0 -184.4302400109591 1452.9746150814026 0 0 0 0 259.00292784362728 -25.122312442050315 0 -25.122312442050315 1318.9954229143914 0 0 0 0 369.99770127562516 -441.84660871353299 0 -441.84660871353299 1122.0115598702687 0 0 0 0 668.36606282708976 -715.68067184060783 0 -715.68067184060783 1594.0474868511374 0 0 0 0 208.00351111797158 53.251199114092742 0 53.251199114092742 1699.7345033803895 0 0 0 0 483.73865963829326 -81.672925207429216 0 -81.672925207429216 1302.6317439894483 0 0 0 0 13.763896546249725 -293.29225456899439 0 -293.29225456899439 1265.1124822889506 0 0 0 0 203.91535138414895 9.5106572986769606 0 9.5106572986769606 1399.2676644754829 0 0 0 0 266.97493264527884 88.923740092854132 0 88.923740092854132 1467.3534318487073 0 0 0 0 343.57220076545127 -2.9378061084280489 0 -2.9378061084280489 1350.113764270558 0 0 0 0 216.42123817185393 2.9715094217826845 0 2.9715094217826845 1368.1096264168154 0 0 0 0 249.55564048243227 -510.45532058626532 0 -510.45532058626532 1497.0638260572741 0 0 0 0 4.533805491904312 3.4930229945385065 0 3.4930229945385065 5.2747582739106633 0 0 0 0 238.36966575017868 -661.35374751704512 0 -661.35374751704512 2118.9206149096353 0 0 0 0 293.47966121807485 -824.16444276574475 0 -824.16444276574475 1231.0089986008679 0 0 0 0 370.5010684654568 -340.34205957459926 0 -340.34205957459926 750.75416448539181 0 0 0 0 246.65860353994276 -122.93887408499722 0 -122.93887408499722 1005.9675457175035 0 0 0 0 11.747560603407742 10.298323618280932 0 10.298323618280932 10.677867885396637 0 0 0 0 -66.409909479147473 -715.07072411148511 0 -715.07072411148511 2866.7754208038386 0 0 0 0 -2.8869537702046273 -568.13775316306419 0 -568.13775316306419 1743.2326681141785 0 0 0 0 1143.866882534599 -1236.2950639647097 0 -1236.2950639647097 1173.8913240499169 0 0 0 0 -405.41875316623077 378.67571539896016 0 378.67571539896016 1134.1320176656736 0 0 0 0 1.2145233759414784 -3.608738486914163 0 -3.608738486914163 18.882953261186799 0 0 0 0 1114.3246677412635 -420.46577159237131 0 -420.46577159237131 720.27692799110082 0 0 0 0 226.55337866716195 -1103.0563692795986 0 -1103.0563692795986 1870.5869224310045 0 0 0 0 -438.42118968383465 -440.09442984790076 0 -440.09442984790076 2284.345578101631 0 0 0 0 -0.39952754764291265 -543.93492907073232 0 -543.93492907073232 1464.2624331065599 0 0 0 0 -138.82702276721625 -193.86990375265304 0 -193.86990375265304 910.11426657458651 0 0 0 0 -160.4764712725472 -24.93137958610896 0 -24.93137958610896 891.79841279895481 0 0 0 0 83.116100372509209 -52.25934570744721 0 -52.25934570744721 -63.549534047662746 0 0 0 0 43.221910640448186 -305.85001347809339 0 -305.85001347809339 -23.578033385201707 0 0 0 0 0.033969140955011662 -410.71927637428598 0 -410.71927637428598 176.42488066970691 0 0 0 0 84.424535258916308 -46.421369394396606 0 -46.421369394396606 -556.97832238973933 0 0 0 0 -1.0983488454766295 -1.8779405269028757 0 -1.8779405269028757 -1.0822351174267055 0 0 0 0 186.79671205278134 -748.50602563183929 0 -748.50602563183929 488.03313052898739 0 0 0 0 -9.5099650431106557 -6.1917528901642527 0 -6.1917528901642527 14.208559976640558 0 0 0 0 -157.29441652574587 -43.640654677627026 0 -43.640654677627026 351.66733085278247 0 0 0 0 -176.62065571200969 -166.89418890756497 0 -166.89418890756497 -76.113218601563858 0 0 0 0 -3.0753858325244083 -8.6458426235158399 0 -8.6458426235158399 46.953056472121375 0 0 0 0 199.69493957048553 18.780033835413633 0 18.780033835413633 -77.965862555829517 0 0 0 0 465.83210805855492 -799.73232354783977 0 -799.73232354783977 1006.2570196272936 0 0 0 0 347.78895366192444 -144.39091012499284 0 -144.39091012499284 -29.130488909286214 0 0 0 0 375.53636934569869 -1115.4255688596859 0 -1115.4255688596859 4496.718079136197 0 0 0 0 2055.5145175521475 -931.32125620837178 0 -931.32125620837178 -607.67945439110918 0 0 0 0 -118.63876501452751 297.2394828748329 0 297.2394828748329 -100.84440166090644 0 0 0 0 -180.23626313394834 -1679.787165555601 0 -1679.787165555601 -149.32919385307719 0 0 0 0 6.6969874174328936 7.3796364157911114 0 7.3796364157911114 4.6187112191371966 0 0 0 0 -251.66395209866482 201.24214769690116 0 201.24214769690116 -70.386036000592867 0 0 0 0 -308.76041199743815 40.633501423777489 0 40.633501423777489 -38.456335450140614 0 0 0 0 425.5378384596537 -130.39311883438768 0 -130.39311883438768 75.966768475758727 0 0 0 0 465.18425623196072 -25.979953524678422 0 -25.979953524678422 -104.15822903733351 0 0 0 0 -446.51865303423466 -1519.0438011277947 0 -1519.0438011277947 4333.1753430033023 0 0 0 0 733.23578124386097 -397.7151376335687 0 -397.7151376335687 -146.32523596507963 0 0 0 0 561.97924508597453 333.80297542276003 0 333.80297542276003 279.85548599471804 0 0 0 0 1578.5255778544465 -1244.3598501383349 0 -1244.3598501383349 634.3506304775874 0 0 0 0 -1002.6120065515331 657.97093348001727 0 657.97093348001727 2737.3692053352424 0 0 0 0 680.81569240585043 559.10730484010128 0 559.10730484010128 562.4180894870633 0 0 0 0 -6.8501260570623863 -3.8817757237058288 0 -3.8817757237058288 29.595528920097749 0 0 0 0 0.47607099070634762 -13.102812026334142 0 -13.102812026334142 17.435698348749753 0 0 0 0 -352.68637255704465 -1193.1828693273346 0 -1193.1828693273346 4567.6526800796564 0 0 0 0 1303.2079015430895 -2363.5404774561257 0 -2363.5404774561257 3417.6230826729006 0 0 0 0 593.27317719640337 -905.17323241584381 0 -905.17323241584381 1866.957687306196 0 0 0 0 -6.7361827540098522 -53.074579617208485 0 -53.074579617208485 9.0139563878002633 0 0 0 0 -64.893687722508048 -98.033441782550653 0 -98.033441782550653 122.89845645148307 0 0 0 0 -135.24860446094272 -108.77548474865034 0 -108.77548474865034 185.36357251342451 0 0 0 0 -6.0900304935540071 -6.7850052509929846 0 -6.7850052509929846 138.14073268707079 0 0 0 0 -432.76999238268536 228.90456158286906 0 228.90456158286906 63.275197142429533 0 0 0 0 -108.03132030165125 -110.29633957944316 0 -110.29633957944316 124.04543034313247 0 0 0 0 -137.13504539278961 -68.98198973419494 0 -68.98198973419494 66.863315990864066 0 0 0 0 -247.32505760393974 -85.448399048153078 0 -85.448399048153078 69.15104462222007 0 0 0 0 -291.43646841606983 -166.87371477093257 0 -166.87371477093257 84.047637139505241 0 0 0 0 -184.20932835091071 -319.89064376099122 0 -319.89064376099122 71.656542183074635 0 0 0 0 -166.48743176432754 -170.13330543371012 0 -170.13330543371012 71.731244030786911 0 0 0 0 -10.7638686729785 -731.8636446272485 0 -731.8636446272485 4501.4289034912035 0 0 0 0 -83.855598007626497 -297.08827898730669 0 -297.08827898730669 2.7498790261852264 0 0 0 0 -81.551774292677237 -303.47379416153126 0 -303.47379416153126 -42.844679950096179 0 0 0 0 -62.268642139761027 -246.61403031427108 0 -246.61403031427108 -140.74387576147274 0 0 0 0 -53.244421805951276 -310.26600069824053 0 -310.26600069824053 -65.087930092879105 0 0 0 0 -0.74040655240630571 -201.17012510897985 0 -201.17012510897985 -41.556644950178452 0 0 0 0 0.12596499488428609 -45.60647104759849 0 -45.60647104759849 -6.9025607907739435 0 0 0 0 -12.897706697006981 -259.44005162086978 0 -259.44005162086978 -192.9791725929972 0 0 0 0 -113.84645958962562 -883.13575662204494 0 -883.13575662204494 4091.9478279976902 0 0 0 0 56.147274577114523 -998.3843892269324 0 -998.3843892269324 4051.132406287159 0 0 0 0 55.18129125403194 -946.49864002311278 0 -946.49864002311278 4804.7938413207739 0 0 0 0 345.8945034725815 -967.16718215666333 0 -967.16718215666333 4346.1499998662548 0 0 0 0 -31.215820001910288 -454.59464918283629 0 -454.59464918283629 -863.79362122427301 0 0 0 0 3.0627831027296084 -31.72800679516061 0 -31.72800679516061 -1.7357588765549252 0 0 0 0 -74.521689822224062 -6.7380336234200513 0 -6.7380336234200513 -1343.6644437350769 0 0 0 0 -331.92864355601182 -386.18923914510378 0 -386.18923914510378 -62.44050830094784 0 0 0 0 -41.730856710917578 -349.67347778288968 0 -349.67347778288968 -58.051772008289845 0 0 0 0 -32.221719752915988 -533.93789288803237 0 -533.93789288803237 494.57986383400566 0 0 0 0 26.951951927463597 -250.00666858973273 0 -250.00666858973273 566.01169618815766 0 0 0 0 -165.56084619157491 -489.64520736471968 0 -489.64520736471968 382.7965354519838 0 0 0 0 -74.660874407444226 -514.46643549438159 0 -514.46643549438159 -140.37574680401877 0 0 0 0 -99.403475401346213 -442.39053029696515 0 -442.39053029696515 690.38277779426426 0 0 0 0 -181.60242342851927 -298.55179256147676 0 -298.55179256147676 513.76249319672934 0 0 0 0 -172.90490406271829 -233.56197078849073 0 -233.56197078849073 788.21641008293955 0 0 0 0 82.596718354809127 -346.77634314529132 0 -346.77634314529132 803.87075509641727 0 0 0 0 -169.62826750835939 -243.74263232172962 0 -243.74263232172962 764.76653163204901 0 0 0 0 57.251762167023685 -358.33640749622282 0 -358.33640749622282 1086.4626811155467 0 0 0 0 167.29927379327501 -194.31389835920709 0 -194.31389835920709 1051.4601923560804 0 0 0 0 -120.04186128255083 -223.14182488780352 0 -223.14182488780352 1041.431312280547 0 0 0 0 62.530345631626119 -254.12086815459043 0 -254.12086815459043 1024.7284546178416 0 0 0 0 33.073126197312149 -231.10738603779464 0 -231.10738603779464 1205.9094899238553 0 0 0 0 127.60408407546856 -96.891078898290289 0 -96.891078898290289 1225.9311036943764 0 0 0 0 223.78271732966232 -157.83776690738159 0 -157.83776690738159 1258.1265109137166 0 0 0 0 44.426389292096871 -283.57676118857853 0 -283.57676118857853 1258.8819456615311 0 0 0 0 -86.137184600858063 -122.39809753585723 0 -122.39809753585723 1325.6830432225543 0 0 0 0 141.72602353657521 -305.39351267565507 0 -305.39351267565507 1454.9005561121448 0 0 0 0 264.85002395835636 -12.619783064154035 0 -12.619783064154035 1441.2451921478496 0 0 0 0 373.16588960711715 -30.762564730073791 0 -30.762564730073791 1312.4155211295292 0 0 0 0 -119.95514864852362 -206.68646085108048 0 -206.68646085108048 1236.720586808231 0 0 0 0 -250.36447796048517 -180.36546363959496 0 -180.36546363959496 1106.331481747533 0 0 0 0 -246.41246361147455 -213.08475166003336 0 -213.08475166003336 1286.9208713238913 0 0 0 0 -202.7729706737241 -215.56755635539594 0 -215.56755635539594 1101.3755974860251 0 0 0 0 -112.90804882839666 -184.42182314601087 0 -184.42182314601087 1212.2518748063885 0 0 0 0 -109.16398952973805 -231.47820520652749 0 -231.47820520652749 1082.8831124913122 0 0 0 0 -127.27282370495706 -330.04570845440048 0 -330.04570845440048 927.05057127805776 0 0 0 0 -209.52503887509147 -273.88355021441566 0 -273.88355021441566 939.4957359903201 0 0 0 0 -254.10293664841049 -294.44201468561369 0 -294.44201468561369 946.31329022036516 0 0 0 0 -323.18475185182876 -185.08971295310766 0 -185.08971295310766 960.63297811045777 0 0 0 0 -333.83649838779661 -212.97049096358387 0 -212.97049096358387 1126.8843410237168 0 0 0 0 -307.79779386405426 -170.57041161754751 0 -170.57041161754751 1110.3231777970941 0 0 0 0 -353.80422036384607 -150.48306346658501 0 -150.48306346658501 1117.6404579792634 0 0 0 0 -376.6637559790671 -179.86855666242263 0 -179.86855666242263 1192.7439253826451 0 0 0 0 -315.22270494555164 -211.34234221804218 0 -211.34234221804218 1213.6042147612607 0 0 0 0 -300.43070662756145 -248.50175248307642 0 -248.50175248307642 1241.7444456100293 0 0 0 0 -362.58634994345459 -229.56567986444861 0 -229.56567986444861 1268.3595453892776 0 0 0 0 -345.11548923683199 -192.91179917096451 0 -192.91179917096451 1177.3140008728951 0 0 0 0 -376.61598704383232 -129.14741785977094 0 -129.14741785977094 1137.0706806558446 0 0 0 0 -419.99261088088178 -146.93997546329047 0 -146.93997546329047 1245.6356134844536 0 0 0 0 -365.72476305858822 -168.39713012973516 0 -168.39713012973516 1120.8498460165283 0 0 0 0 -379.73564343942007 -54.827909758838359 0 -54.827909758838359 985.4951756310038 0 0 0 0 -331.20683529665223 -87.923979955303366 0 -87.923979955303366 888.88427550434426 0 0 0 0 -358.10446521769802 -145.05121403737212 0 -145.05121403737212 947.34312013094313 0 0 0 0 -189.45670880400411 -157.89691949125336 0 -157.89691949125336 277.35885673554731 0 0 0 0 -202.5777754857408 -154.25935330702123 0 -154.25935330702123 519.26427482260624 0 0 0 0 -241.52752053602202 -277.9743198184442 0 -277.9743198184442 695.45675259062409 0 0 0 0 -224.56724372517527 -229.91892813370941 0 -229.91892813370941 702.83646246080752 0 0 0 0 -140.23891964890666 -434.12406170731992 0 -434.12406170731992 494.25744939775905 0 0 0 0 -130.06831423274042 -367.53611198517319 0 -367.53611198517319 386.31976335366926 0 0 0 0 -87.841284403810093 -420.80095047088616 0 -420.80095047088616 91.699023704102729 0 0 0 0 -120.26899258275631 -310.00835336178716 0 -310.00835336178716 293.23360106097243 0 0 0 0 -108.72109051412474 -396.71586980386928 0 -396.71586980386928 264.51508726493921 0 0 0 0 -168.11746678784738 -300.94770873960806 0 -300.94770873960806 293.74361802497879 0 0 0 0 -147.1410101603409 -261.06344955596433 0 -261.06344955596433 206.31471838748257 0 0 0 0 -308.38091115496502 -224.90930792751442 0 -224.90930792751442 232.29882234128308 0 0 0 0 -184.34660887553105 -210.11574550508521 0 -210.11574550508521 58.010805567344505 0 0 0 0 -1.4049591001296824 -4.9822894521954328 0 -4.9822894521954328 110.1738233991689 0 0 0 0 -1130.8899196467564 791.74938357803694 0 791.74938357803694 3389.0728374710307 0 0 0 0 -638.08921395037896 -216.10542880693538 0 -216.10542880693538 134.44202984208823 0 0 0 0 -305.54113943477182 -236.31510483284364 0 -236.31510483284364 -192.60055861348519 0 0 0 0 -1045.0220049942156 802.71117666927967 0 802.71117666927967 1136.1789578470634 0 0 0 0 1352.9797885943137 -1671.1523940513762 0 -1671.1523940513762 -14.813007704069605 0 0 0 0 -525.57640871583453 291.36238827227498 0 291.36238827227498 12.454147638465656 0 0 0 0 -469.89456008000798 89.227531501070189 0 89.227531501070189 743.16855817462783 0 0 0 0 -303.15774753624078 -76.387399305014696 0 -76.387399305014696 624.30765776387125 0 0 0 0 -299.79534739467226 21.494296268094331 0 21.494296268094331 77.575983663984516 0 0 0 0 -517.56207417564974 -21.252942510021967 0 -21.252942510021967 1073.5167138231627 0 0 0 0 -317.93323357770487 -32.608519038636587 0 -32.608519038636587 614.26037943775009 0 0 0 0 -529.96622362195149 69.605954499565996 0 69.605954499565996 761.805293323152 0 0 0 0 -793.99910112487578 49.298752121365396 0 49.298752121365396 1388.6592639327719 0 0 0 0 -676.59534686636334 -229.25627126570907 0 -229.25627126570907 1378.8999025753874 0 0 0 0 -628.85078529625753 -332.86685339579708 0 -332.86685339579708 1577.7504959492362 0 0 0 0 -462.12385602134555 -129.06089623650769 0 -129.06089623650769 1189.1868263012148 0 0 0 0 -362.987653722299 -168.74823297312832 0 -168.74823297312832 1113.2813398272629 0 0 0 0 -420.90010973492372 -266.67031995300204 0 -266.67031995300204 1329.9510532001732 0 0 0 0 -324.53057238044767 -208.38665695395321 0 -208.38665695395321 1193.4271958379704 0 0 0 0 -114.88598267476209 -436.88536281217966 0 -436.88536281217966 1347.2167479803029 0 0 0 0 -261.37379777528076 -463.92333695614798 0 -463.92333695614798 1428.9633634127968 0 0 0 0 -160.2004041282421 -339.67313885706244 0 -339.67313885706244 1467.5896695867705 0 0 0 0 -306.42757686210712 -221.26479963614111 0 -221.26479963614111 1372.3303506312659 0 0 0 0 -177.92636709059707 -391.91379356465768 0 -391.91379356465768 1347.2308265758911 0 0 0 0 2255.0800655594512 -1309.9561733176779 0 -1309.9561733176779 139.33069527976477 0 0 0 0 0.94945566584195973 5.7288048507966778 0 5.7288048507966778 20.919198648509621 0 0 0 0 425.06314777351508 727.71389067317068 0 727.71389067317068 631.52313633648373 0 0 0 0 -0.23120242354973991 -8.0324021527090217 0 -8.0324021527090217 45.337827889410164 0 0 0 0 1918.6039406558941 -2615.0669901750725 0 -2615.0669901750725 374.48653602367267 0 0 0 0 -931.16212331032114 211.77612809590482 0 211.77612809590482 983.07638553963625 0 0 0 0 -176.00191736144507 -4723.0197230933773 0 -4723.0197230933773 2380.2264800802004 0 0 0 0 8894.0123479673712 -252.99019715725444 0 -252.99019715725444 -103.19120632403065 0 0 0 0 -747.96707164530926 -165.99216417284333 0 -165.99216417284333 1708.4271009672229 0 0 0 0 -648.24560559031124 -518.31415719946381 0 -518.31415719946381 1982.0370082173322 0 0 0 0 -853.05491438613717 386.81964448219514 0 386.81964448219514 -55.361150268887286 0 0 0 0 967.48267787421719 -1344.2761652689223 0 -1344.2761652689223 1350.6202444257942 0 0 0 0 124.99877489884722 -1814.1395948954137 0 -1814.1395948954137 1245.4982379362191 0 0 0 0 -4.4980534550175264 18.938074934802671 0 18.938074934802671 77.997111064181098 0 0 0 0 860.03110973690218 -1219.5328466475512 0 -1219.5328466475512 1364.1153922943631 0 0 0 0 -4.9723018509802772 5.6206039490411399 0 5.6206039490411399 39.903647981749117 0 0 0 0 797.23724014248 -1310.3330390336341 0 -1310.3330390336341 1497.9075185117981 0 0 0 0 -352.27214552261648 310.17188616088242 0 310.17188616088242 -266.78119502356276 0 0 0 0 -344.66939445010212 8.4600614180817502 0 8.4600614180817502 -33.509471610101173 0 0 0 0 -268.57600975789137 128.54154406911402 0 128.54154406911402 112.25671274407068 0 0 0 0 -307.6348723285646 -32.938965561836085 0 -32.938965561836085 281.58021829172503 0 0 0 0 -490.37510103692875 144.52369828863084 0 144.52369828863084 185.2098476208339 0 0 0 0 -312.52564265715773 -148.18069083776209 0 -148.18069083776209 450.32272688270314 0 0 0 0 157.51971238571423 -202.62085810388817 0 -202.62085810388817 191.54800448172318 0 0 0 0 -158.96576843467847 -100.6076228194288 0 -100.6076228194288 190.70910100608307 0 0 0 0 -339.33648484020887 114.31075846034219 0 114.31075846034219 111.37100393557921 0 0 0 0 -487.35762178615551 90.741554595573689 0 90.741554595573689 138.94511271289957 0 0 0 0 -216.33867467336495 46.872313637621119 0 46.872313637621119 44.478166445303941 0 0 0 0 -368.25489895133796 -19.517916405202413 0 -19.517916405202413 75.476419570564758 0 0 0 0 -264.74481418534299 -255.26091927096377 0 -255.26091927096377 190.20073273866728 0 0 0 0 -555.01217521219587 -218.21573845342209 0 -218.21573845342209 107.11243623426708 0 0 0 0 -978.84110639877781 -53.923111371346749 0 -53.923111371346749 -69.168804130065837 0 0 0 0 -508.21318866473666 -211.93113151091529 0 -211.93113151091529 -80.960981027805246 0 0 0 0 -666.99647579807061 179.76401054562302 0 179.76401054562302 -3.3067597061708511 0 0 0 0 -829.39473453596565 -230.49651043862832 0 -230.49651043862832 -498.35894172437838 0 0 0 0 -521.67290797942587 71.008276634631329 0 71.008276634631329 -525.0945755065477 0 0 0 0 -809.09570492379862 -91.313383868589881 0 -91.313383868589881 -16.626039603819663 0 0 0 0 -375.26605115018901 348.98060983556206 0 348.98060983556206 -953.6641142215758 0 0 0 0 2293.6646882215227 -2414.5575866222571 0 -2414.5575866222571 2030.2861407629971 0 0 0 0 -547.38392520313573 -116.19572026166861 0 -116.19572026166861 -895.09503808189766 0 0 0 0 -2047.6868041339785 1314.430227342782 0 1314.430227342782 934.44932127121137 0 0 0 0 -2.4024696500212368 4.5441686083822646 0 4.5441686083822646 26.804722538703174 0 0 0 0 -1594.6381150408852 1092.5743216561241 0 1092.5743216561241 141.60529195901472 0 0 0 0 3610.5405935891386 -1005.3539113084043 0 -1005.3539113084043 -947.10048026395089 0 0 0 0 1058.8409284499921 -1241.7488617193303 0 -1241.7488617193303 1171.8435016108851 0 0 0 0 1165.3754747017524 -1549.7086906884942 0 -1549.7086906884942 1229.6386446906254 0 0 0 0 1595.4937267191931 -320.27494731107436 0 -320.27494731107436 902.27582048594923 0 0 0 0 1726.9901542294633 -655.43694212884293 0 -655.43694212884293 -993.62111560856283 0 0 0 0 3191.2338449034251 -1080.9228642165399 0 -1080.9228642165399 527.51246350997826 0 0 0 0 363.5733530317857 813.97010253998451 0 813.97010253998451 839.44466617808212 0 0 0 0 837.26668892168641 -461.79067465316712 0 -461.79067465316712 1351.9740740559355 0 0 0 0 693.42832898857887 -530.6119195150095 0 -530.6119195150095 1381.8976550560765 0 0 0 0 724.56835012845886 938.2408554595313 0 938.2408554595313 -232.577931589527 0 0 0 0 -99.840721573007613 937.82459888166341 0 937.82459888166341 1596.5412591266795 0 0 0 0 -3.3263917092738069 -0.94334797210740362 0 -0.94334797210740362 18.859187942718677 0 0 0 0 753.9548349822835 -495.38005424519361 0 -495.38005424519361 2150.5291933442932 0 0 0 0 -1946.3491231303342 -697.92915451369845 0 -697.92915451369845 4438.2232768019458 0 0 0 0 2453.5293110176208 -2688.745492451164 0 -2688.745492451164 1927.1975433527841 0 0 0 0 1404.4800517225517 -2363.0993235631504 0 -2363.0993235631504 3049.5614005348471 0 0 0 0 -1271.7015753199394 -2125.8265746590478 0 -2125.8265746590478 6310.3950927528786 0 0 0 0 -0.67255911474777719 0.37461426490720839 0 0.37461426490720839 1.1345977464529824 0 0 0 0 10.292379382601666 -53.407463135268699 0 -53.407463135268699 71.626560102391522 0 0 0 0 2.3990461975399739 -56.780671299740789 0 -56.780671299740789 133.96052093743856 0 0 0 0 2.6283118267813279 24.922698858699732 0 24.922698858699732 47.330222324191709 0 0 0 0 -1.2012606736593625 26.409276988866623 0 26.409276988866623 111.3388508316275 0 0 0 0 11.427608448443607 -7.6766624703195703 0 -7.6766624703195703 93.645605621335562 0 0 0 0 -37.944155419641902 -78.496600157144712 0 -78.496600157144712 -7.5833533938421169 0 0 0 0 -286.04944688551041 -50.256400786551239 0 -50.256400786551239 73.5264054890431 0 0 0 0 -140.01909652576478 -78.499994599589627 0 -78.499994599589627 311.28942422091495 0 0 0 0 -3.0454005152465484 0.36464320140680684 0 0.36464320140680684 0.40997242152330671 0 0 0 0 -15.918910750305258 145.94811741702142 0 145.94811741702142 -219.60944164141983 0 0 0 0 114.80560098666501 -184.99024502039538 0 -184.99024502039538 354.43306003210819 0 0 0 0 -125.70670681271076 31.54335859607454 0 31.54335859607454 108.26108878220839 0 0 0 0 -129.26870676207 75.177167514695611 0 75.177167514695611 129.21671781977784 0 0 0 0 -31.998067565756429 8.9408675837420191 0 8.9408675837420191 2.5910286777813392 0 0 0 0 -89.342180521824048 82.186449235799955 0 82.186449235799955 -26.767252537963941 0 0 0 0 -179.1810772644094 202.20289146350115 0 202.20289146350115 -28.834558318165364 0 0 0 0 -149.89220889494391 122.11606477589521 0 122.11606477589521 69.791863870952511 0 0 0 0 13.410190092603443 97.823316321475431 0 97.823316321475431 67.305461796815507 0 0 0 0 -30.084538650658942 50.414265851475648 0 50.414265851475648 3.8258250931758084 0 0 0 0 -9.3592722855609125 2.9778117125647583 0 2.9778117125647583 0.5543517472899282 0 0 0 0 -0.85215171526760969 -461.76061267223849 0 -461.76061267223849 676.15725817024941 0 0 0 0 358.51823954055362 -320.49698753484699 0 -320.49698753484699 365.42905507786782 0 0 0 0 -3.8330168200136541 -351.20667212830449 0 -351.20667212830449 524.25854965511826 0 0 0 0 -63.060337707862345 -305.81075989241072 0 -305.81075989241072 431.49388626001019 0 0 0 0 -155.27053083358442 -182.67306869667664 0 -182.67306869667664 455.46542865538504 0 0 0 0 -78.850835079943863 -118.04169898063265 0 -118.04169898063265 270.05806973011931 0 0 0 0 -82.509064941584256 -164.14440288810874 0 -164.14440288810874 742.60138167896366 0 0 0 0 -215.6670126015706 160.55101925387862 0 160.55101925387862 224.35050602894626 0 0 0 0 -267.8036868963311 245.12323163656947 0 245.12323163656947 201.04487123162835 0 0 0 0 -327.08303494268375 26.490163837892396 0 26.490163837892396 256.57425583223812 0 0 0 0 -198.12225395692258 -79.451311233366141 0 -79.451311233366141 353.13250671507558 0 0 0 0 -167.78484995816871 27.519203403993743 0 27.519203403993743 306.66557114214811 0 0 0 0 -84.995942634748644 78.293921951786615 0 78.293921951786615 239.73647404790972 0 0 0 0 -39.578206607022366 -83.131911255608429 0 -83.131911255608429 392.49181995677645 0 0 0 0 8.0460043945504367 39.145142142209806 0 39.145142142209806 260.54405428300379 0 0 0 0 100.40446237022479 -182.60236462557805 0 -182.60236462557805 352.07549252038029 0 0 0 0 205.15182173737776 -163.40614147952874 0 -163.40614147952874 307.21942949670483 0 0 0 0 130.9068944083956 -37.53084832309105 0 -37.53084832309105 360.18382873013616 0 0 0 0 104.6391622320225 -102.08813966313028 0 -102.08813966313028 391.08269922412001 0 0 0 0 79.455351072305348 31.811008197546471 0 31.811008197546471 397.15102709515486 0 0 0 0 -49.58866394243887 -17.894108017440885 0 -17.894108017440885 391.91764348285506 0 0 0 0 -264.05058015919076 246.46243177400902 0 246.46243177400902 227.20828774766414 0 0 0 0 -64.278203424488311 110.71953936081263 0 110.71953936081263 285.42866522754775 0 0 0 0 -132.49706851432461 187.89092981661634 0 187.89092981661634 214.64565983583452 0 0 0 0 -139.63620000735682 71.384960570692783 0 71.384960570692783 275.80188690013892 0 0 0 0 -97.165283929710313 163.45566532744851 0 163.45566532744851 -6.156809558335226 0 0 0 0 -2.2020896997300952 -145.42595985925436 0 -145.42595985925436 116.44943708558276 0 0 0 0 -42.19028769736542 -149.80440998164704 0 -149.80440998164704 362.9204231013573 0 0 0 0 -33.224991613811767 3.9396847538617692 0 3.9396847538617692 12.987157945004242 0 0 0 0 -32.950519200327108 -289.21767104558239 0 -289.21767104558239 502.15630311473069 0 0 0 0 -75.743181563806502 -97.058069136619451 0 -97.058069136619451 572.50748148589628 0 0 0 0 -23.865749575117661 -57.759530128154438 0 -57.759530128154438 600.50664028689789 0 0 0 0 376.4424476283989 31.779369251893513 0 31.779369251893513 448.1681980851572 0 0 0 0 376.44244762841299 31.779369251831667 0 31.779369251831667 448.16819808445871 0 0 0 0 267.04488646217942 -67.782319326273864 0 -67.782319326273864 389.58245950809214 0 0 0 0 376.44244762839298 31.779369252020842 0 31.779369252020842 448.16819808445871 0 0 0 0 162.69455128561094 9.5397739166510291 0 9.5397739166510291 559.8198598283343 0 0 0 0 74.534368117903796 15.988240693666739 0 15.988240693666739 561.83935576514341 0 0 0 0 14.118797456692846 -80.702609247062355 0 -80.702609247062355 409.64432012999532 0 0 0 0 124.48266869421695 -46.784830824180972 0 -46.784830824180972 21.72757914889371 0 0 0 0 -13.027549099639145 -24.142357976743369 0 -24.142357976743369 35.918275579795591 0 0 0 0 5.0661789147752643 -47.822878454542661 0 -47.822878454542661 44.083527018781751 0 0 0 0 -76.376846721424045 -116.46417214664143 0 -116.46417214664143 133.48558966012206 0 0 0 0 88.640261867009031 -282.68273029840202 0 -282.68273029840202 285.15137762509403 0 0 0 0 -33.563235503936085 47.486841411213391 0 47.486841411213391 245.74611744945196 0 0 0 0 -246.79942672826928 -62.872910505684558 0 -62.872910505684558 230.43995783090941 0 0 0 0 -28.188410041456791 0.66232324383236119 0 0.66232324383236119 -187.1899159126915 0 0 0 0 -69.484439952488856 -42.679346383962184 0 -42.679346383962184 180.88819909299491 0 0 0 0 -92.521971073078021 -18.225249935145257 0 -18.225249935145257 243.12289585612598 0 0 0 0 -484.86572095139172 -571.90681969282741 0 -571.90681969282741 2479.7135663841618 0 0 0 0 -151.78192130912612 336.93774263018349 0 336.93774263018349 -60.466587057366269 0 0 0 0 -389.12926356897719 358.97121867946953 0 358.97121867946953 146.68442714659614 0 0 0 0 1.5028301950827831 35.100638186104554 0 35.100638186104554 112.42306207124187 0 0 0 0 -220.64063943167412 -552.87069188644818 0 -552.87069188644818 1850.1037968933379 0 0 0 0 -123.81923892891018 -499.84582261105243 0 -499.84582261105243 1367.3254159104545 0 0 0 0 2135.7100853065517 -366.94004541728646 0 -366.94004541728646 -948.87525835231645 0 0 0 0 907.51434444091092 -1307.8863875909447 0 -1307.8863875909447 1246.9795529248076 0 0 0 0 161.69287936616593 -352.66984215071716 0 -352.66984215071716 162.04898285496165 0 0 0 0 -181.93185717323016 79.873961052739105 0 79.873961052739105 215.46530516530038 0 0 0 0 -255.26299442686923 624.63173476546945 0 624.63173476546945 -160.03086543247628 0 0 0 0 208.62959759161913 -303.12250097120705 0 -303.12250097120705 212.47591900237603 0 0 0 0 3.0530364868280482 40.886654270506959 0 40.886654270506959 114.65205034835316 0 0 0 0 189.94540748906138 -239.63026385240664 0 -239.63026385240664 38.595798848429695 0 0 0 0 833.55331630517776 580.96851834758127 0 580.96851834758127 -829.95324184409037 0 0 0 0 149.63318707264625 -55.767085186758777 0 -55.767085186758777 -38.378683293005452 0 0 0 0 -234.02444910630049 -67.995155753967992 0 -67.995155753967992 15.88576718713739 0 0 0 0 -6.531920379836647 14.84744433106134 0 14.84744433106134 59.899746052127199 0 0 0 0 -15.583608874187121 15.763377699506236 0 15.763377699506236 151.12169670787989 0 0 0 0 -0.41899731780222282 4.6414034894405631 0 4.6414034894405631 43.809704127488658 0 0 0 0 -106.81150721338373 -51.611246965265309 0 -51.611246965265309 64.813842222938547 0 0 0 0 -7.4856908972074807 28.235104456302082 0 28.235104456302082 50.181826870159426 0 0 0 0 -6.2827035118989443 40.070503753093362 0 40.070503753093362 157.21182489939383 0 0 0 0 36.259058481750799 25.426265407048049 0 25.426265407048049 -15.600024048006162 0 0 0 0 -14.519306066817293 1.3974740699870836 0 1.3974740699870836 113.17355881543664 0 0 0 0 -126.32285999049941 -16.720771771215368 0 -16.720771771215368 253.28692330474405 0 0 0 0 20.340925511429305 -36.625092764894362 0 -36.625092764894362 107.12279902005685 0 0 0 0 -27.758126750680781 5.0119278471159987 0 5.0119278471159987 28.629765139240419 0 0 0 0 35.321245702737542 -18.428606685029081 0 -18.428606685029081 76.172760870569618 0 0 0 0 -3.7406723978429 -2.3430323919043587 0 -2.3430323919043587 25.769010408481563 0 0 0 0 -31.48314142896561 45.678171882973402 0 45.678171882973402 177.51347631438693 0 0 0 0 -27.732516285328529 52.34352161269635 0 52.34352161269635 85.610684827535806 0 0 0 0 -0.70012210761938931 0.46332588081266124 0 0.46332588081266124 0.92671368620601413 0 0 0 0 -34.257929385230454 33.829461027271464 0 33.829461027271464 171.5011098772884 0 0 0 0 27.705001301282209 29.463137001424911 0 29.463137001424911 89.511404867276724 0 0 0 0 -21.083194270270724 -23.415262878421345 0 -23.415262878421345 51.208439086400176 0 0 0 0 -5.2693611412511814 39.090862236615067 0 39.090862236615067 128.77227958940784 0 0 0 0 -0.50667179350966762 27.61716004232585 0 27.61716004232585 85.37066552786564 0 0 0 0 -39.128491693185424 13.215447403141297 0 13.215447403141297 144.38080738214194 0 0 0 0 3.0352020421984207 -20.739259229594609 0 -20.739259229594609 70.904717768265982 0 0 0 0 2.9383792975168137 16.539130159203467 0 16.539130159203467 38.190013581800997 0 0 0 0 -11.603249138741484 19.894163969181804 0 19.894163969181804 64.620302268941316 0 0 0 0 29.022222020765582 136.25515576690668 0 136.25515576690668 51.49512301874347 0 0 0 0 -4.4747098170798978 -2.4012434024834306 0 -2.4012434024834306 23.297671441963757 0 0 0 0 -24.888807827957635 33.194285079152905 0 33.194285079152905 -10.061366736292257 0 0 0 0 1.2902273375140281 -0.18254381159610489 0 -0.18254381159610489 -0.16387340710284093 0 0 0 0 3.7615478941190261 44.40536045591216 0 44.40536045591216 -102.28122609402635 0 0 0 0 -38.742988059562833 -63.925522861463833 0 -63.925522861463833 304.2226721092884 0 0 0 0 38.261605063707975 -44.746290805262106 0 -44.746290805262106 183.81692896501045 0 0 0 0 -19.360975807729801 71.69968876967323 0 71.69968876967323 123.57177812814189 0 0 0 0 -54.417817160032655 26.310879897748237 0 26.310879897748237 271.20838872485911 0 0 0 0 3.5841169128197663 12.504771940571487 0 12.504771940571487 19.392530840297866 0 0 0 0 98.511119788422775 3.2245568910875591 0 3.2245568910875591 71.716313753437134 0 0 0 0 21.655425582356202 -170.67287122631387 0 -170.67287122631387 -38.010815363653819 0 0 0 0 18.466932146960062 -89.35467669981881 0 -89.35467669981881 217.48321058863075 0 0 0 0 88.56244276258343 -135.63902752132708 0 -135.63902752132708 -28.862618999279221 0 0 0 0 -106.90728600457737 33.712974901078269 0 33.712974901078269 531.46885816686699 0 0 0 0 21.839414885580027 -214.89960143045755 0 -214.89960143045755 371.96204811226926 0 0 0 0 171.11610900641463 -427.43785465797009 0 -427.43785465797009 365.56388580671046 0 0 0 0 -153.15109380029139 -359.32527225319791 0 -359.32527225319791 1039.3541512354568 0 0 0 0 -162.21454532236652 -262.23560434904721 0 -262.23560434904721 605.73269956716103 0 0 0 0 -196.73218671061932 -341.27360713493545 0 -341.27360713493545 1034.8073999223707 0 0 0 0 -301.37196178492235 -99.808313612054917 0 -99.808313612054917 1188.9754682615639 0 0 0 0 -318.74170547570168 -150.103775702024 0 -150.103775702024 1058.4865212768345 0 0 0 0 -200.7894263068797 -103.20639861977543 0 -103.20639861977543 1070.4336964936811 0 0 0 0 4.911625646347697 9.4226661213054115 0 9.4226661213054115 -8.6698528658618699 0 0 0 0 -71.918266625128794 -38.847521021762077 0 -38.847521021762077 591.9663363181462 0 0 0 0 24.76421260153711 27.187798019818729 0 27.187798019818729 43.576143042635522 0 0 0 0 -122.38627329152331 17.646137708292372 0 17.646137708292372 628.38751098913781 0 0 0 0 -130.05293158471744 195.93500961201062 0 195.93500961201062 1038.7591574654216 0 0 0 0 -129.66178628880243 207.00567980289952 0 207.00567980289952 1351.6350189723307 0 0 0 0 -92.464832864961409 -67.180021579697495 0 -67.180021579697495 1264.2951486384845 0 0 0 0 -191.67563230274675 -33.531428116562893 0 -33.531428116562893 1334.210877837053 0 0 0 0 -257.21455033963258 -143.9459559972529 0 -143.9459559972529 1149.5528136396897 0 0 0 0 220.2880781756453 -373.01902029283519 0 -373.01902029283519 1981.690795946517 0 0 0 0 928.40820848512794 95.664244215549843 0 95.664244215549843 1450.6890404865844 0 0 0 0 -83.331173200257126 4.1117048646556213 0 4.1117048646556213 1526.1287411454177 0 0 0 0 3.2770218493157692 6.7289046214731272 0 6.7289046214731272 1.5402188242985062 0 0 0 0 192.0592251887474 1038.0299517307722 0 1038.0299517307722 1727.3915161952318 0 0 0 0 2.4024210948708697 11.405513770255908 0 11.405513770255908 -2.2277455050843713 0 0 0 0 -11.015855309289691 31.458510909003962 0 31.458510909003962 43.451162205921719 0 0 0 0 180.9650282787461 208.55373403973499 0 208.55373403973499 784.52873094352253 0 0 0 0 -0.73815065784356193 21.950460472988198 0 21.950460472988198 43.780148371908581 0 0 0 0 -10.604517200500368 0.93244534820769331 0 0.93244534820769331 47.84935410079197 0 0 0 0 -8.5574985001992445 8.3355390928991255 0 8.3355390928991255 71.716337213467341 0 0 0 0 -2.8297020135573803 -3.8606899468140909 0 -3.8606899468140909 94.531070452358108 0 0 0 0 3.1763151337850104 20.82758538449707 0 20.82758538449707 102.92349308784469 0 0 0 0 3.9976570928401998 32.887916047431645 0 32.887916047431645 59.449242112750653 0 0 0 0 18.78468229546263 5.4599521596464911 0 5.4599521596464911 96.313810098858085 0 0 0 0 -2.7612120236594819 6.8344108563760528 0 6.8344108563760528 -10.621721905734148 0 0 0 0 3.0362148019416493 0.62855777681670588 0 0.62855777681670588 -0.047951345172606352 0 0 0 0 11.03264085061528 -11.685327284802042 0 -11.685327284802042 72.213454600248951 0 0 0 0 3.6586811433619459 -16.714944311243016 0 -16.714944311243016 133.12748054269468 0 0 0 0 3.7698406820702424 1.8766964887596487 0 1.8766964887596487 5.4361644329646595 0 0 0 0 -5.7364459029877253 -8.3769428050654824 0 -8.3769428050654824 77.101162861705234 0 0 0 0 8.8403227290127688 -8.1606516665924573 0 -8.1606516665924573 69.588538662035717 0 0 0 0 -3.8328448654484646 10.80183672014391 0 10.80183672014391 26.389893224666594 0 0 0 0 -5.8748403926266963 -1.7545929133557081 0 -1.7545929133557081 13.336431396254 0 0 0 0 -2.7747509242519754 27.140746122958262 0 27.140746122958262 20.550540421478217 0 0 0 0 -0.95161971843754145 2.7782950930122752 0 2.7782950930122752 78.76324454020596 0 0 0 0 -10.960942982797405 -1.3574906020076014 0 -1.3574906020076014 77.325372416882601 0 0 0 0 -2.8920678090039669 -5.1320821432131538 0 -5.1320821432131538 11.653294062077165 0 0 0 0 -3.4407433657711408 5.0903496290702606 0 5.0903496290702606 63.031501683472925 0 0 0 0 8.2504905260830128 28.059487976366654 0 28.059487976366654 64.617534958364558 0 0 0 0 -3.4581508791747382 0.41902056499679929 0 0.41902056499679929 8.99480003956225 0 0 0 0 5.4474893308847072 -29.400960866740206 0 -29.400960866740206 102.27331934783433 0 0 0 0 -1.6934541479583225 17.469181337007399 0 17.469181337007399 23.872763996018421 0 0 0 0 -3.6305294109415627 23.818383666468435 0 23.818383666468435 37.56714322778862 0 0 0 0 1.1021332738897063 -2.7828303316226197 0 -2.7828303316226197 18.07586264911123 0 0 0 0 37.845814645951805 -32.426012042575167 0 -32.426012042575167 118.0474728044428 0 0 0 0 -3.2386872818637116 5.0372795334312599 0 5.0372795334312599 5.2479855499387327 0 0 0 0 -2.0257808469944951 1.0932664919658919 0 1.0932664919658919 20.148738289029865 0 0 0 0 -2.6397646007062576 -22.821645954682026 0 -22.821645954682026 79.802349416102516 0 0 0 0 -7.7365225856819961 3.1681704855145654 0 3.1681704855145654 32.638051551533863 0 0 0 0 -5.7171565986500354 -1.0115371658757795 0 -1.0115371658757795 11.503904280514689 0 0 0 0 -1.6569156928978934 -5.750349495001899 0 -5.750349495001899 22.973580554659947 0 0 0 0 -4.6561207321834406 -13.100270691448372 0 -13.100270691448372 31.880351232691737 0 0 0 0 -3.8791945399100545 -2.3381137719338199 0 -2.3381137719338199 30.963596344519885 0 0 0 0 -2.8564175947948751 -9.0866408011068103 0 -9.0866408011068103 69.931085210454796 0 0 0 0 -26.783625717991072 -5.6225911483998061 0 -5.6225911483998061 77.471483106870437 0 0 0 0 -15.476210477529946 -15.22739375924175 0 -15.22739375924175 129.22535321098985 0 0 0 0 -0.48577303206752731 -20.329094249507762 0 -20.329094249507762 108.21773125737673 0 0 0 0 -16.337419425473172 -16.30730010636762 0 -16.30730010636762 134.87560185551411 0 0 0 0 15.797586805508217 -43.893019903975073 0 -43.893019903975073 85.331995851847751 0 0 0 0 -10.9135463717721 -20.813713159324834 0 -20.813713159324834 138.26554539920471 0 0 0 0 -8.1822412798591131 12.799619990080828 0 12.799619990080828 156.82556661902345 0 0 0 0 -2.9364506822089425 49.901273082534317 0 49.901273082534317 105.39507781910402 0 0 0 0 -0.90227857270274958 4.1283808711919221 0 4.1283808711919221 16.21275774822152 0 0 0 0 -12.129370383476498 -6.0146482803029357 0 -6.0146482803029357 106.32199925940949 0 0 0 0 -4.9256623499397847 41.287976225838065 0 41.287976225838065 145.82157880130762 0 0 0 0 8.2450856351852053 6.4307474383385852 0 6.4307474383385852 89.974988899484742 0 0 0 0 -3.099574532319366 -10.743891456892015 0 -10.743891456892015 106.52264300347815 0 0 0 0 -2.3707367875870928 16.801331519984885 0 16.801331519984885 70.243383118546888 0 0 0 0 -19.104990680897572 -6.6964385988030699 0 -6.6964385988030699 129.836602188705 0 0 0 0 -6.5942183858901506 6.452068936789928 0 6.452068936789928 80.84954433301607 0 0 0 0 4.9062544709995564 -18.228158571650056 0 -18.228158571650056 132.23273285752657 0 0 0 0 0.49594759076509209 -10.229749141595811 0 -10.229749141595811 81.54697515219496 0 0 0 0 -6.4449047034063369 16.3476256316535 0 16.3476256316535 85.161622785322834 0 0 0 0 94.824779920342735 10.199239274916181 0 10.199239274916181 -23.031831074098591 0 0 0 0 4.5470768907430426 0.57999537142971747 0 0.57999537142971747 7.6746555313458913 0 0 0 0 7.7400778675309994 -15.926366299829169 0 -15.926366299829169 122.87044917757885 0 0 0 0 23.120903543199347 -28.949265199807996 0 -28.949265199807996 133.89688395019766 0 0 0 0 11.214346678507809 -13.575445773454703 0 -13.575445773454703 83.800572925581946 0 0 0 0 17.864256838452775 7.9411802881222684 0 7.9411802881222684 151.05708702790434 0 0 0 0 -9.2092718774155315 3.4056013001243173 0 3.4056013001243173 82.380510104524063 0 0 0 0 -4.2148881691900897 -11.086048933790153 0 -11.086048933790153 134.32199958222009 0 0 0 0 4.8772580133293388 82.793318399802956 0 82.793318399802956 29.919678189529805 0 0 0 0 33.494307663735754 -2.1038425126243965 0 -2.1038425126243965 101.03598616234376 0 0 0 0 -81.657245754174255 21.676898381025239 0 21.676898381025239 216.91132323793136 0 0 0 0 -70.298608343248674 55.387704257784208 0 55.387704257784208 135.98199578962522 0 0 0 0 7.5126587271170138 -81.871652855435968 0 -81.871652855435968 39.026892024592598 0 0 0 0 24.607623196152588 -28.378196848618245 0 -28.378196848618245 99.835213637852576 0 0 0 0 10.923775914235932 5.6568983520119218 0 5.6568983520119218 47.958560306346044 0 0 0 0 -28.00431690125788 18.969746055357973 0 18.969746055357973 102.29676195156935 0 0 0 0 -34.009041847742083 47.344914568297099 0 47.344914568297099 79.627560537715908 0 0 0 0 -10.885575914847353 13.594513341301663 0 13.594513341301663 72.189207867610207 0 0 0 0 0.0056984430780921969 0.11597133539963522 0 0.11597133539963522 0.26307850271882671 0 0 0 0 26.287116250647159 -81.42908914583677 0 -81.42908914583677 211.30521752661298 0 0 0 0 3.5535832387404298 52.854884514015794 0 52.854884514015794 -69.532251412965707 0 0 0 0 18.17943884206943 -68.290236664826807 0 -68.290236664826807 160.2197728428946 0 0 0 0 33.665448322883094 -42.626683442555077 0 -42.626683442555077 130.31784482896546 0 0 0 0 47.152716141017208 -45.594310854947253 0 -45.594310854947253 56.058092096100154 0 0 0 0 -0.54525970456566597 -0.079325632620381725 0 -0.079325632620381725 -0.037769196343134581 0 0 0 0 9.0223821019135357 -11.908737356912752 0 -11.908737356912752 129.72551576107253 0 0 0 0 28.199486398728141 -48.492726074367965 0 -48.492726074367965 124.29057139062206 0 0 0 0 9.9532356168583647 0.27596852378701442 0 0.27596852378701442 167.87614180253877 0 0 0 0 15.832726121694577 3.290957587538287 0 3.290957587538287 168.30973078786701 0 0 0 0 23.839336889298579 -34.8921055831388 0 -34.8921055831388 182.01198961384944 0 0 0 0 -54.128451783285527 -54.242581419992348 0 -54.242581419992348 109.34323919839517 0 0 0 0 -19.406753952425788 -29.570940312933089 0 -29.570940312933089 8.9250668446329655 0 0 0 0 13.072812582000552 89.417817458219361 0 89.417817458219361 -29.551487502936652 0 0 0 0 -37.287801947590197 19.333896468146122 0 19.333896468146122 139.58374364522024 0 0 0 0 -36.647321767054564 19.895557078139973 0 19.895557078139973 122.6024126090997 0 0 0 0 -2.6954403805957554 116.084286181278 0 116.084286181278 108.26190112141194 0 0 0 0 -8.4725485654762451 57.523451980247046 0 57.523451980247046 73.568215790437534 0 0 0 0 136.28340702820788 206.55070061942388 0 206.55070061942388 80.15561086757225 0 0 0 0 1.9138907221231705 0.69995913138974686 0 0.69995913138974686 -0.79245076387431368 0 0 0 0 -21.531550364376017 -25.54100291731811 0 -25.54100291731811 279.47101097875566 0 0 0 0 -15.799176727387476 -29.620496771545731 0 -29.620496771545731 34.216661910017137 0 0 0 0 -130.33064736219694 40.493019686226035 0 40.493019686226035 280.65592495180317 0 0 0 0 8.5457069519325159 3.3764657095889561 0 3.3764657095889561 -0.40445910404378083 0 0 0 0 -3.8768745447632682 116.86347669967654 0 116.86347669967654 141.1399060972617 0 0 0 0 -8.0557040598177991 107.47689405307028 0 107.47689405307028 130.9173376388062 0 0 0 0 -7.134679504975793 72.985088209788955 0 72.985088209788955 178.23466429875407 0 0 0 0 -16.810430708159856 68.60187423833122 0 68.60187423833122 137.49955589306774 0 0 0 0 -17.222059557352623 33.642320946710242 0 33.642320946710242 304.45813461708531 0 0 0 0 -18.229948198522834 46.952020763870678 0 46.952020763870678 158.46291214046141 0 0 0 0 115.71424578123151 131.02897528748508 0 131.02897528748508 83.368781782657607 0 0 0 0 47.529788444884616 151.43278147274395 0 151.43278147274395 197.35904810606735 0 0 0 0 -0.81206839528173003 -0.51127431686560953 0 -0.51127431686560953 1.5177882120579511 0 0 0 0 -3.3558383664968581 1.4399631569826425 0 1.4399631569826425 2.6229648230341382 0 0 0 0 -1.2762250288707468 2.2577060090093113 0 2.2577060090093113 17.148338972318243 0 0 0 0 96.530730925327589 83.662539815471973 0 83.662539815471973 34.027119176207634 0 0 0 0 -2.4043343624362024 3.6407432313717436 0 3.6407432313717436 12.534862168773543 0 0 0 0 -18.077697670554699 21.000016193480405 0 21.000016193480405 26.310398683854146 0 0 0 0 10.741198516184568 -21.019596546275352 0 -21.019596546275352 22.82032193239138 0 0 0 0 -4.974280139757866 11.64924141586016 0 11.64924141586016 58.326376418612199 0 0 0 0 2.6768736261656159 28.90984714255319 0 28.90984714255319 12.765850040013902 0 0 0 0 -3.4550451594004699 13.422969314546208 0 13.422969314546208 78.381915348407347 0 0 0 0 7.2932887023234798 -35.987451022592722 0 -35.987451022592722 111.2527333501348 0 0 0 0 8.3147369578746293 -9.9742607071311795 0 -9.9742607071311795 57.150786850948407 0 0 0 0 31.218535551631646 -38.053582371517336 0 -38.053582371517336 87.342529503745027 0 0 0 0 29.900573690913916 -70.021199645063462 0 -70.021199645063462 126.37500718457159 0 0 0 0 19.10269575375969 -30.237181677030094 0 -30.237181677030094 111.13360795588233 0 0 0 0 0.60929219283116254 -30.754497173671552 0 -30.754497173671552 100.74576780453935 0 0 0 0 131.40092721798601 -152.34019067784538 0 -152.34019067784538 389.20785081427312 0 0 0 0 -95.291869965902606 -135.17721865221392 0 -135.17721865221392 544.21045874641277 0 0 0 0 123.694075571409 -63.158473719544418 0 -63.158473719544418 660.08329404806136 0 0 0 0 4.6003820889775398 -408.37633160388214 0 -408.37633160388214 1012.5931509030052 0 0 0 0 -74.212857996789126 -311.89062392164487 0 -311.89062392164487 661.39378676077467 0 0 0 0 94.356007632210549 -445.13390160992276 0 -445.13390160992276 411.85045484738657 0 0 0 0 -227.74336935242309 -340.33763496400934 0 -340.33763496400934 -91.426440886687487 0 0 0 0 -84.901903059157121 159.35747536220879 0 159.35747536220879 41.561843952866184 0 0 0 0 0.0021989267484432418 0.69736867077929787 0 0.69736867077929787 -1.5457817584081397 0 0 0 0 -160.09185914589216 -522.10105064875097 0 -522.10105064875097 202.74165079632076 0 0 0 0 382.60006829597387 -408.9818472093466 0 -408.9818472093466 530.0928160953772 0 0 0 0 -197.72034245197869 -458.61726711128722 0 -458.61726711128722 130.9867915532086 0 0 0 0 -0.0050504795099914901 2.6455768529390014 0 2.6455768529390014 -2.0081557496086759 0 0 0 0 -94.881934732260234 -173.30400406862623 0 -173.30400406862623 157.92874950077385 0 0 0 0 -333.31887686149821 -228.10341019718908 0 -228.10341019718908 167.79264249463449 0 0 0 0 -416.43289353864384 -264.87769185381239 0 -264.87769185381239 242.50037325738231 0 0 0 0 -413.04167947251972 -58.055022219195962 0 -58.055022219195962 268.84187868459048 0 0 0 0 -110.37876698127002 35.488446816103533 0 35.488446816103533 154.30901898930279 0 0 0 0 -188.13573689629482 -26.811784825353243 0 -26.811784825353243 134.14659043255961 0 0 0 0 -66.183016188106876 81.225806798771373 0 81.225806798771373 96.695082019115944 0 0 0 0 -62.227317021793624 146.75608103701961 0 146.75608103701961 223.58833101388154 0 0 0 0 -18.261937649213451 58.252532230937504 0 58.252532230937504 307.40069962299276 0 0 0 0 -16.942165692022179 148.36461734550744 0 148.36461734550744 145.71866310073528 0 0 0 0 -79.42366767182375 -25.096829304864514 0 -25.096829304864514 270.17706382059259 0 0 0 0 8.4028987387330289 71.920325243379921 0 71.920325243379921 374.20015566163602 0 0 0 0 172.65837890363395 -82.334244534729805 0 -82.334244534729805 323.65221446516807 0 0 0 0 148.19276207163995 -49.244193522055866 0 -49.244193522055866 224.52857021802629 0 0 0 0 88.583706320403849 19.247807290790661 0 19.247807290790661 418.41860047989758 0 0 0 0 277.04827867636783 -194.9312436736509 0 -194.9312436736509 556.30567463787156 0 0 0 0 148.77928322665178 -14.835682894838101 0 -14.835682894838101 544.01638954426744 0 0 0 0 247.853756118794 -182.49582832647866 0 -182.49582832647866 316.86502406150976 0 0 0 0 0.35154209799630909 -80.016068692406407 0 -80.016068692406407 754.13978788086388 0 0 0 0 146.81779204295228 -414.57115370551446 0 -414.57115370551446 1311.0355210822017 0 0 0 0 274.21734469965787 -276.80797098370385 0 -276.80797098370385 733.00968339158862 0 0 0 0 117.7095829266553 -78.767854182937299 0 -78.767854182937299 821.09675256061018 0 0 0 0 287.73777021284724 -447.79064664425096 0 -447.79064664425096 1276.2200252082257 0 0 0 0 227.53730123786966 -183.4662450846954 0 -183.4662450846954 1016.8380696440581 0 0 0 0 72.684346076781964 -913.86417157350661 0 -913.86417157350661 2588.7612921711043 0 0 0 0 52.33880695514074 -520.05572474820656 0 -520.05572474820656 1701.6877779244969 0 0 0 0 408.25232661870092 -803.60065631124598 0 -803.60065631124598 1430.0459490690555 0 0 0 0 0.16437330536526679 -494.95788496707246 0 -494.95788496707246 2114.7043416753004 0 0 0 0 397.48613829905304 -425.43547021440463 0 -425.43547021440463 1309.7502218082045 0 0 0 0 216.97486515664821 -238.0464271929086 0 -238.0464271929086 1652.8324619085179 0 0 0 0 -62.813493030913378 -584.79741663779714 0 -584.79741663779714 1437.9076967916772 0 0 0 0 80.254321360007907 -385.74922264969064 0 -385.74922264969064 1365.5988157122629 0 0 0 0 -90.795413955716754 -659.95905131923791 0 -659.95905131923791 1256.2668681986397 0 0 0 0 3.1457693410152316 2.3067474495236127 0 2.3067474495236127 5.2396855384238563 0 0 0 0 28.843909102678026 -485.83721381657233 0 -485.83721381657233 1170.7949400154757 0 0 0 0 -230.69050044098958 -451.95537530966976 0 -451.95537530966976 1899.4043821414525 0 0 0 0 10.177819098531039 9.3553698475419083 0 9.3553698475419083 10.429729990010884 0 0 0 0 146.33407816114857 -411.46143384687457 0 -411.46143384687457 1823.8797828927636 0 0 0 0 -232.87768490346389 -744.65708994572924 0 -744.65708994572924 1562.7023254584201 0 0 0 0 262.43836947489183 -457.73415391943126 0 -457.73415391943126 929.04504755795642 0 0 0 0 -202.1890270578715 -932.31816389119922 0 -932.31816389119922 2321.0998591482348 0 0 0 0 103.52494412528995 -360.01932661025785 0 -360.01932661025785 624.30001127580181 0 0 0 0 -335.73314847214306 -878.01625144954596 0 -878.01625144954596 1031.794360599728 0 0 0 0 -106.50713753156424 -632.16879650980991 0 -632.16879650980991 1241.9112449697277 0 0 0 0 597.9954807527165 -1193.818286871101 0 -1193.818286871101 1312.0287752067525 0 0 0 0 -196.70750497022254 -309.61167439715427 0 -309.61167439715427 2488.3700160379522 0 0 0 0 1434.2582031972552 -649.64932008985488 0 -649.64932008985488 1177.5343659383216 0 0 0 0 -172.31738072147346 -654.13500473526074 0 -654.13500473526074 2623.5653496366576 0 0 0 0 -53.483910114153332 -528.12878718177672 0 -528.12878718177672 1614.4757359620125 0 0 0 0 -10.329707015726967 -322.40641439793399 0 -322.40641439793399 1342.7284719232994 0 0 0 0 -163.40245420088547 -71.893230447434689 0 -71.893230447434689 1123.0558063990902 0 0 0 0 -259.64420745704956 -339.97826376902231 0 -339.97826376902231 1496.1849813400913 0 0 0 0 -34.000202556103432 378.94562614138704 0 378.94562614138704 1100.8971614687616 0 0 0 0 -134.05345784149313 -237.16080348937248 0 -237.16080348937248 1577.9836175167002 0 0 0 0 81.54061834523462 -78.279814674953286 0 -78.279814674953286 539.37164393233252 0 0 0 0 74.693702854588992 119.78964149691456 0 119.78964149691456 311.39020033908309 0 0 0 0 107.84123386270767 -134.210407490129 0 -134.210407490129 84.427692709767143 0 0 0 0 103.95682948496437 267.40342884475831 0 267.40342884475831 343.41456393958651 0 0 0 0 3.2993702159611402 -5.599411557609983 0 -5.599411557609983 12.076400194275948 0 0 0 0 988.66929732700964 -705.18557751766639 0 -705.18557751766639 345.43450424846378 0 0 0 0 124.18218501896172 727.35653296216333 0 727.35653296216333 1953.3562585757318 0 0 0 0 765.44473527655191 -935.53518516223994 0 -935.53518516223994 50.357906074670609 0 0 0 0 31.638209975936206 -371.19310047624458 0 -371.19310047624458 1851.1726639289991 0 0 0 0 207.26808394587033 203.14004306128481 0 203.14004306128481 1981.3055126121035 0 0 0 0 50.915045630136774 -83.556605186575325 0 -83.556605186575325 1493.5640865344903 0 0 0 0 62.940794065538284 15.193287572095869 0 15.193287572095869 1575.9236177813145 0 0 0 0 20.468778138234484 -535.71428579713393 0 -535.71428579713393 1089.2408077757864 0 0 0 0 6.7141044420504841 -109.69958226002927 0 -109.69958226002927 1563.1093528597848 0 0 0 0 -34.017235636601526 -199.44370202357823 0 -199.44370202357823 1026.4655677653209 0 0 0 0 -93.802961539973467 -309.74995040311842 0 -309.74995040311842 1349.8618715325429 0 0 0 0 193.25887020567916 -83.176032428054896 0 -83.176032428054896 1381.1192862181924 0 0 0 0 -90.988741412282252 -304.51919033555896 0 -304.51919033555896 1363.9093019120482 0 0 0 0 13.361845330902952 -227.7902954271558 0 -227.7902954271558 803.82869549149473 0 0 0 0 73.72624233506653 98.988638386708999 0 98.988638386708999 460.5307954835298 0 0 0 0 -35.206983351723011 -221.53332713388954 0 -221.53332713388954 1022.8690226114413 0 0 0 0 64.104107156632836 -93.913373876006517 0 -93.913373876006517 524.15960141358664 0 0 0 0 -192.19688933539055 69.070610140399367 0 69.070610140399367 729.45258892881247 0 0 0 0 36.582141778475034 -257.50499098112778 0 -257.50499098112778 291.68938206562598 0 0 0 0 0.48174702300785444 8.3571143439680498 0 8.3571143439680498 40.130488142556317 0 0 0 0 88.915918216483988 108.37296524288831 0 108.37296524288831 -3.058373571257107 0 0 0 0 -23.045237864367209 2.8227519199863309 0 2.8227519199863309 70.29104267101502 0 0 0 0 -76.395066446130613 103.64510092971614 0 103.64510092971614 47.466848886164371 0 0 0 0 12.962054382996143 -78.195854188141311 0 -78.195854188141311 57.402008422388462 0 0 0 0 52.405819558958683 69.974857406428782 0 69.974857406428782 -2.140311606664909 0 0 0 0 141.54437496242872 -70.658153874632262 0 -70.658153874632262 150.33684732561233 0 0 0 0 30.181638161862793 -66.150892423087498 0 -66.150892423087498 388.81724196169671 0 0 0 0 8.6319931085299686 7.8727319005338359 0 7.8727319005338359 46.362788591228309 0 0 0 0 -1.2189258348556677 11.70224138496269 0 11.70224138496269 54.323853172623785 0 0 0 0 9.4223584097583171 16.871183090166596 0 16.871183090166596 -64.971834893338382 0 0 0 0 -2.3038075252491037 -0.30838976434179699 0 -0.30838976434179699 14.128494035783461 0 0 0 0 -1.6009996962047808 -5.5884613633170375 0 -5.5884613633170375 58.475678949012945 0 0 0 0 0.022674394651655216 8.0063343601857255 0 8.0063343601857255 45.758884090251456 0 0 0 0 -24.154629029693297 9.0515088684987859 0 9.0515088684987859 65.918704553623684 0 0 0 0 -5.1300282233924008 6.4112749675041414 0 6.4112749675041414 42.082160202873638 0 0 0 0 -7.1712254669974698 5.4539235136613513 0 5.4539235136613513 8.3929695803173843 0 0 0 0 101.21859778265934 -53.965052049665246 0 -53.965052049665246 7.8777797717048088 0 0 0 0 32.593802242740821 207.61934721701255 0 207.61934721701255 58.76170069348882 0 0 0 0 -170.06543907913056 74.639621378933953 0 74.639621378933953 37.314765137212817 0 0 0 0 5.8919438381786762 -14.564775032163695 0 -14.564775032163695 31.215873499204577 0 0 0 0 -161.35646598183939 -146.18091025654576 0 -146.18091025654576 168.57741397102654 0 0 0 0 92.847001181765336 -96.028223600354977 0 -96.028223600354977 -136.25289918517228 0 0 0 0 103.52183457658066 75.139935056839022 0 75.139935056839022 155.04874409802142 0 0 0 0 59.954235525225158 -70.415015527134528 0 -70.415015527134528 169.75500798184657 0 0 0 0 -21.834605363246283 52.46421904223098 0 52.46421904223098 27.497894781598006 0 0 0 0 -3.3420409783008864 -5.8063466449985555 0 -5.8063466449985555 27.717324091744729 0 0 0 0 7.5334784872502496 5.0007852725102566 0 5.0007852725102566 43.375838136271341 0 0 0 0 6.4651505819666397 -6.8979546204368205 0 -6.8979546204368205 13.168758269213498 0 0 0 0 -32.442562147616627 33.87976930350851 0 33.87976930350851 84.047999585483922 0 0 0 0 -86.070032648841789 -37.940229094412643 0 -37.940229094412643 22.361069161474006 0 0 0 0 -2.0176013535198454 3.6733700425748452 0 3.6733700425748452 5.7572387437793111 0 0 0 0 -122.04388047092766 -66.610871322496678 0 -66.610871322496678 -148.51473929427448 0 0 0 0 -114.81374796218415 7.0343128124222858 0 7.0343128124222858 51.116907020579674 0 0 0 0 -72.600361946381781 5.9227354806062067 0 5.9227354806062067 49.14844375638495 0 0 0 0 -32.151381298819615 3.7361536484095268 0 3.7361536484095268 65.010427418430481 0 0 0 0 -55.110006499236022 56.101887996694131 0 56.101887996694131 89.4437487051473 0 0 0 0 -76.839356796201173 7.4282942578502116 0 7.4282942578502116 65.099994526273804 0 0 0 0 -28.591007820758023 -16.326497904898133 0 -16.326497904898133 27.600539850358473 0 0 0 0 -4.9442320082182594 -2.9080305009385654 0 -2.9080305009385654 31.991021203954062 0 0 0 0 -36.430342289857435 0.86536802936461754 0 0.86536802936461754 68.646242014685413 0 0 0 0 -4.9039968206209323 12.298925397488347 0 12.298925397488347 53.066571491915965 0 0 0 0 -6.4276924147075079 12.851888054938172 0 12.851888054938172 36.85543287647306 0 0 0 0 -3.1348023814026993 14.935986272784646 0 14.935986272784646 7.6063623254137127 0 0 0 0 -5.9515917453156169 18.864305335045458 0 18.864305335045458 19.634208108243513 0 0 0 0 41.548597122890442 59.790891671684221 0 59.790891671684221 35.12439046340296 0 0 0 0 -0.10753538306789778 11.735077133140294 0 11.735077133140294 32.951452081993921 0 0 0 0 36.974336019466932 85.291307943407446 0 85.291307943407446 96.005900784628466 0 0 0 0 -1.1852839288414998 33.769432696717558 0 33.769432696717558 99.622586584213423 0 0 0 0 -41.756760287434986 -9.576613475495833 0 -9.576613475495833 114.74116480600787 0 0 0 0 -6.7532099455870593 -1.4253232066694181 0 -1.4253232066694181 73.383665356654092 0 0 0 0 -5.1170771262970334 -27.422674866000307 0 -27.422674866000307 16.837405113328714 0 0 0 0 -2.0081720962387299 15.336367199593639 0 15.336367199593639 15.534970147156336 0 0 0 0 -46.75146619789291 8.1200642579060514 0 8.1200642579060514 137.92223356591421 0 0 0 0 -1.157084684256688 5.4132530810165918 0 5.4132530810165918 38.319865345139988 0 0 0 0 -4.5824749877089417 22.778815635965117 0 22.778815635965117 3.8926216331110766 0 0 0 0 -2.5029123357780918 -7.3104080848279409 0 -7.3104080848279409 67.073572850582423 0 0 0 0 -3.4866539524374041 6.7160251040102139 0 6.7160251040102139 20.335463811855234 0 0 0 0 -2.7410600816718649 -2.3992450882196295 0 -2.3992450882196295 25.848623826256727 0 0 0 0 -8.6588237231908352 10.044169340166263 0 10.044169340166263 63.348977516416198 0 0 0 0 0.29899144577370862 9.6007760425709421 0 9.6007760425709421 45.333284362044651 0 0 0 0 -3.2029649022497324 4.1181339822069276 0 4.1181339822069276 27.02718734004884 0 0 0 0 -1.2671560979069434 6.8922664401893599 0 6.8922664401893599 27.295938506566586 0 0 0 0 -3.0173169493577916 2.7382367828104179 0 2.7382367828104179 49.575176447935519 0 0 0 0 1.4596726121253596 -2.3575821469275979 0 -2.3575821469275979 45.576125261737616 0 0 0 0 -4.6127116018955245 5.653155737970323 0 5.653155737970323 26.878168653921648 0 0 0 0 -1.8611114990740865 -3.5841556568398119 0 -3.5841556568398119 15.72895870556701 0 0 0 0 -5.5552797466131461 -3.4035535362792757 0 -3.4035535362792757 21.663689433015122 0 0 0 0 -3.0352777580461492 4.5575441226646944 0 4.5575441226646944 32.063114150223555 0 0 0 0 1.8226891386038915 5.3438084222580073 0 5.3438084222580073 47.163673060491419 0 0 0 0 -2.9442803563692905 2.70761105325073 0 2.70761105325073 28.256160220684251 0 0 0 0 -0.61187297043410738 4.1428397614534447 0 4.1428397614534447 14.361643264573047 0 0 0 0 -1.4411557016198913 4.7062610908760689 0 4.7062610908760689 29.826481708296342 0 0 0 0 -3.6214149059103988 4.1415620951665915 0 4.1415620951665915 30.956352896755561 0 0 0 0 -3.2191527540893188 3.0149943427471726 0 3.0149943427471726 23.770416391628373 0 0 0 0 -0.46473646304963934 1.6310631131625257 0 1.6310631131625257 22.312689530190937 0 0 0 0 -6.0619385035129199 1.2059215459448751 0 1.2059215459448751 18.556292025896255 0 0 0 0 -0.83312706416336368 12.484926638906472 0 12.484926638906472 37.802775276417378 0 0 0 0 -1.1513294030520456 5.0129988520347979 0 5.0129988520347979 53.036985707527492 0 0 0 0 -2.8297649911633793 3.0507967218993883 0 3.0507967218993883 22.772002006002367 0 0 0 0 -6.1438956740068988 4.5772409217606764 0 4.5772409217606764 40.241112328192685 0 0 0 0 36.734515853234143 91.589779950329103 0 91.589779950329103 194.17955459293444 0 0 0 0 -0.19630185809671447 3.3192509784066999 0 3.3192509784066999 5.1408720190859754 0 0 0 0 81.573948102971713 -37.379821400551009 0 -37.379821400551009 50.839446148645948 0 0 0 0 -6.5688513547324874 12.204844404768664 0 12.204844404768664 36.795739408407826 0 0 0 0 -5.8036566481311684 13.329540804559215 0 13.329540804559215 29.32634005335251 0 0 0 0 1.599583762160363 3.1734510368810973 0 3.1734510368810973 -1.8536203630425234 0 0 0 0 -0.22326640817008725 10.314013083726451 0 10.314013083726451 10.290296510313013 0 0 0 0 17.558934949760214 22.055735108064255 0 22.055735108064255 -0.14747912030725274 0 0 0 0 -2.0227759296535623 9.6977430778933922 0 9.6977430778933922 28.257751544908388 0 0 0 0 -2.8673005452769758 5.6732696286053397 0 5.6732696286053397 31.870055761290132 0 0 0 0 1.2443459483800452 3.5879601058841786 0 3.5879601058841786 4.9960648049982979 0 0 0 0 13.284367747801753 -7.8945803682581754 0 -7.8945803682581754 45.378827072876447 0 0 0 0 -0.35908593375475562 3.3561449553708371 0 3.3561449553708371 5.9405762782844249 0 0 0 0 17.600544242238868 -38.101451577182161 0 -38.101451577182161 103.4876457718201 0 0 0 0 32.139416791247186 -66.280847335758153 0 -66.280847335758153 98.182817077566142 0 0 0 0 12.048720682576459 -40.835424034536118 0 -40.835424034536118 136.83453479735181 0 0 0 0 -3.2374220831366074 -48.465092071637628 0 -48.465092071637628 144.52685226644098 0 0 0 0 5.064888580142167 -33.889693462715513 0 -33.889693462715513 148.95348428652505 0 0 0 0 0.27958954989174423 0.74878397057094048 0 0.74878397057094048 1.8389242711992893 0 0 0 0 -17.511717741322741 -21.982621175251552 0 -21.982621175251552 194.64160585837089 0 0 0 0 -13.788846205458754 -17.578209309831436 0 -17.578209309831436 176.13834370995755 0 0 0 0 -1.8802964935621276 -61.08166581189289 0 -61.08166581189289 206.20194473507581 0 0 0 0 -18.820223507849505 -22.396060671308078 0 -22.396060671308078 195.3755141379952 0 0 0 0 -6.606216456535094 42.059070524206618 0 42.059070524206618 198.49124433039196 0 0 0 0 120.58483676944104 69.828898596009822 0 69.828898596009822 219.39691151547595 0 0 0 0 33.78223854192936 -119.22502030259056 0 -119.22502030259056 229.24697149507119 0 0 0 0 -23.061342519896584 -23.775777565791941 0 -23.775777565791941 336.90798398089828 0 0 0 0 -3.6038677541166635 -7.2146298865991412 0 -7.2146298865991412 314.97237907958333 0 0 0 0 109.80407753751945 -88.476283727257396 0 -88.476283727257396 201.80560631499975 0 0 0 0 38.186594252406167 -38.96139287151891 0 -38.96139287151891 106.06418690510327 0 0 0 0 32.743163005058022 33.294703936204314 0 33.294703936204314 98.93760698929691 0 0 0 0 28.980817655118813 -15.376394816135871 0 -15.376394816135871 136.86796161354869 0 0 0 0 -22.583757037379542 -9.1537748602786451 0 -9.1537748602786451 80.147890205000294 0 0 0 0 -6.2947815184850242 16.87913283760281 0 16.87913283760281 140.73021656741912 0 0 0 0 4.2608688499099117 -24.951183923345525 0 -24.951183923345525 142.19032925226202 0 0 0 0 -41.788489347322866 3.8240027868232573 0 3.8240027868232573 165.22969854839903 0 0 0 0 -43.338679052622368 35.844055836398411 0 35.844055836398411 235.79084685724229 0 0 0 0 -43.022725740044507 -8.3927726729602341 0 -8.3927726729602341 142.77606237569125 0 0 0 0 -35.492268708837173 20.06115810823394 0 20.06115810823394 160.18793704416021 0 0 0 0 -29.299874235238008 -12.17416923888959 0 -12.17416923888959 160.37857573231543 0 0 0 0 -3.3767979241213268 -0.99500969971632003 0 -0.99500969971632003 170.18400583713083 0 0 0 0 2.2148445074246865 52.854643640312133 0 52.854643640312133 204.47768735131831 0 0 0 0 -24.649864981327482 2.3439529731040238 0 2.3439529731040238 198.4705168002256 0 0 0 0 -4.2093533430297043 -9.4050212756192195 0 -9.4050212756192195 108.49766897501831 0 0 0 0 14.669415642284548 -45.949170412990497 0 -45.949170412990497 168.8502544133662 0 0 0 0 -10.526897920464251 16.821989428390225 0 16.821989428390225 70.354999437200604 0 0 0 0 -12.963270048627919 5.9341588380193571 0 5.9341588380193571 164.38111292341455 0 0 0 0 0.22677004487834695 -0.57397755938012551 0 -0.57397755938012551 3.9001424662926638 0 0 0 0 0.80755332932000101 -18.267010566283716 0 -18.267010566283716 82.359896683767147 0 0 0 0 1.6006291697547681 -8.0522181873602676 0 -8.0522181873602676 51.661036740522832 0 0 0 0 7.188622664163006 9.7182468502869597 0 9.7182468502869597 38.678368138163933 0 0 0 0 -2.4648159535400262 1.8612731428940208 0 1.8612731428940208 36.011636884780955 0 0 0 0 -7.0381878399898694 32.965324760352701 0 32.965324760352701 34.828670595019076 0 0 0 0 -56.742946526705396 313.5163004099868 0 313.5163004099868 290.85189479813562 0 0 0 0 48.126282310371607 -100.1392700913857 0 -100.1392700913857 184.4469360751973 0 0 0 0 1.9417875110542877 -0.28531026067523158 0 -0.28531026067523158 5.5262912875372763 0 0 0 0 4.4210916528508051 41.771258677399601 0 41.771258677399601 171.95124359569309 0 0 0 0 52.292205595770156 118.8108677473283 0 118.8108677473283 262.51379261878901 0 0 0 0 -68.944091795266331 -116.32517625641776 0 -116.32517625641776 136.67627022386296 0 0 0 0 -71.643386816944144 -140.64305447555671 0 -140.64305447555671 315.91894576454797 0 0 0 0 -30.422745408672881 87.209195384435588 0 87.209195384435588 -14.086220388031506 0 0 0 0 -34.064904632831599 83.605761959486699 0 83.605761959486699 63.02850697960821 0 0 0 0 -29.901199846684449 79.805933382078365 0 79.805933382078365 42.650235741304641 0 0 0 0 385.26573233915769 -220.41426659857098 0 -220.41426659857098 -683.87500023964094 0 0 0 0 -5.0955383526046774 36.409845790182089 0 36.409845790182089 27.359148142142061 0 0 0 0 28.973998423099658 48.122975252816104 0 48.122975252816104 -54.841223339768476 0 0 0 0 62.556858313333578 5.0599026133568259 0 5.0599026133568259 -24.031578964044456 0 0 0 0 196.1413616917298 45.82286730024498 0 45.82286730024498 -17.755940696995822 0 0 0 0 73.303603219483875 132.5949224392898 0 132.5949224392898 68.502729725121753 0 0 0 0 -1.0307220300926001 -1.1440588711521968 0 -1.1440588711521968 0.54189300364504334 0 0 0 0 -19.985962881577962 116.62057529870799 0 116.62057529870799 72.151958098664181 0 0 0 0 -72.58166631090603 101.88962746632751 0 101.88962746632751 154.46631788754894 0 0 0 0 -119.79323170133341 36.584157856435922 0 36.584157856435922 84.106775022955844 0 0 0 0 -21.929902094273061 28.085114108835114 0 28.085114108835114 157.14742397994269 0 0 0 0 97.612438740523856 -155.00829811065341 0 -155.00829811065341 318.42905795052957 0 0 0 0 -11.848800317643111 152.44476765302534 0 152.44476765302534 84.175864845718024 0 0 0 0 -248.68341234232923 129.00762307613331 0 129.00762307613331 88.536093983973842 0 0 0 0 -94.31016943065805 113.54223675608227 0 113.54223675608227 -46.356265159778559 0 0 0 0 36.656101584216046 67.11492982123309 0 67.11492982123309 -68.576221672730753 0 0 0 0 1.3341996828681806 6.4368705604534 0 6.4368705604534 -6.1453238117171622 0 0 0 0 0.1634924481771759 54.469843207552913 0 54.469843207552913 22.707424482796341 0 0 0 0 -0.07245306113292288 42.13291915768059 0 42.13291915768059 -4.3029663580164197 0 0 0 0 -24.594020853304585 38.043672005369444 0 38.043672005369444 15.815839961564052 0 0 0 0 -6.7926456582245951 9.2441269221973386 0 9.2441269221973386 62.726416265428668 0 0 0 0 -15.41459242673254 11.538750649109716 0 11.538750649109716 72.819334321611677 0 0 0 0 -22.144462557493739 85.126848849569797 0 85.126848849569797 -71.981846347393002 0 0 0 0 -1.6246702303946097 -0.14094714574417821 0 -0.14094714574417821 11.578283971347645 0 0 0 0 -21.191571885875419 -27.512227505794726 0 -27.512227505794726 109.19963914690015 0 0 0 0 9.1258731300529607 -9.5763381531845937 0 -9.5763381531845937 14.024414526367295 0 0 0 0 7.2307468760960774 -9.2962507479824126 0 -9.2962507479824126 45.180103483166022 0 0 0 0 9.8117432202502641 -8.5063004666008055 0 -8.5063004666008055 36.978476465359563 0 0 0 0 2.3634479153755383 -2.8499220618387113 0 -2.8499220618387113 40.602242869082659 0 0 0 0 -25.952359082033805 36.393967178995808 0 36.393967178995808 14.400585618146579 0 0 0 0 0.69340497215512176 32.593976699674755 0 32.593976699674755 109.39540405799926 0 0 0 0 -1.2334926311610843 -11.544701816645102 0 -11.544701816645102 134.38235532541148 0 0 0 0 0.41196414681836246 -2.151889083176286 0 -2.151889083176286 12.671154867924386 0 0 0 0 2.1388762923881277 2.4938178137337133 0 2.4938178137337133 17.564204095304774 0 0 0 0 0.062122694752088065 2.2987779047543881 0 2.2987779047543881 26.128437781269895 0 0 0 0 -2.8794571114172181 -2.5387940911896294 0 -2.5387940911896294 27.792781267315149 0 0 0 0 -0.044727003638468474 0.89969082496563146 0 0.89969082496563146 8.2929045074932759 0 0 0 0 -3.4657900133375175 1.959356607942027 0 1.959356607942027 34.002334187884117 0 0 0 0 30.936696099930032 -17.185277688411588 0 -17.185277688411588 34.876433830111637 0 0 0 0 -0.72058007112372824 -2.5127624198692047 0 -2.5127624198692047 16.776286466814213 0 0 0 0 12.601303205539535 -4.6017520798191072 0 -4.6017520798191072 22.895361206419551 0 0 0 0 30.439362406643269 -26.245429833202252 0 -26.245429833202252 24.320769448764622 0 0 0 0 -2.7231931912247092 1.223261961080425 0 1.223261961080425 10.206444004623336 0 0 0 0 36.59091915692791 15.358664777028025 0 15.358664777028025 13.462596261553699 0 0 0 0 -0.12731335600250107 23.99843907419563 0 23.99843907419563 31.767540186585393 0 0 0 0 103.9457844660359 -37.778843306448834 0 -37.778843306448834 24.299570932904317 0 0 0 0 17.05988653219859 2.3214389099739492 0 2.3214389099739492 9.0715247715706937 0 0 0 0 18.729084622932923 8.0843700179175357 0 8.0843700179175357 10.742769173113629 0 0 0 0 12.208703277917701 6.2284153760992922 0 6.2284153760992922 15.786255287064705 0 0 0 0 3.1291199881591281 -0.19259724410949275 0 -0.19259724410949275 13.535460430313833 0 0 0 0 1.4594420501339831 -5.9572661344136577 0 -5.9572661344136577 11.86263959860662 0 0 0 0 9.6107429174802945 -3.2337242781395616 0 -3.2337242781395616 6.5276792062213644 0 0 0 0 4.4521831522860236 -22.240184566877161 0 -22.240184566877161 13.456542688844692 0 0 0 0 16.343432609882711 -3.7481457597168628 0 -3.7481457597168628 -38.812313346636074 0 0 0 0 -4.8538030049963936 -10.584026899454329 0 -10.584026899454329 72.832318154811219 0 0 0 0 6.0952580209350344 15.503621906304033 0 15.503621906304033 11.507050017522488 0 0 0 0 10.106851685093194 -23.427904930614204 0 -23.427904930614204 -35.325324033416109 0 0 0 0 11.185609548097773 19.842942305360339 0 19.842942305360339 2.2567088495416101 0 0 0 0 4.5805435125764689 36.588326118362602 0 36.588326118362602 111.44922728084202 0 0 0 0 3.0574496028307294 16.639145650697174 0 16.639145650697174 39.150282911781687 0 0 0 0 -8.277463046683124 15.724398390630085 0 15.724398390630085 80.449959514662623 0 0 0 0 0.099772728999369065 1.9553481964976527 0 1.9553481964976527 36.796700358507223 0 0 0 0 -0.58078704409425086 5.0220066540787229 0 5.0220066540787229 57.813874730913085 0 0 0 0 -5.7565247201239087 -14.038932162989198 0 -14.038932162989198 7.5790639689895727 0 0 0 0 7.0072479851014577 -31.284485815456719 0 -31.284485815456719 87.619123063210282 0 0 0 0 -0.83184650704541374 3.6458788625259331 0 3.6458788625259331 48.193774418963585 0 0 0 0 -4.4087818047154768 -12.465392448989775 0 -12.465392448989775 11.403623211385451 0 0 0 0 -60.639538078582632 -14.061746178427711 0 -14.061746178427711 415.85406452231109 0 0 0 0 -0.11623866010181383 0.86617222619454992 0 0.86617222619454992 5.9375689961932494 0 0 0 0 -0.64363554958155422 7.6037195278273089 0 7.6037195278273089 22.477513023335121 0 0 0 0 -5.793208322828912 -12.746566516300419 0 -12.746566516300419 9.1799057603899854 0 0 0 0 206.1694060893787 -1227.4818539323751 0 -1227.4818539323751 46.167677290127358 0 0 0 0 0.27691087985824803 3.5638630474272475 0 3.5638630474272475 20.192005900205601 0 0 0 0 29.332931565591572 64.580965512344847 0 64.580965512344847 56.198996491148137 0 0 0 0 -5.6742458171020189 11.859941312010051 0 11.859941312010051 45.399649563289131 0 0 0 0 3.8051369250358675 -0.60276260753744282 0 -0.60276260753744282 34.150820581999142 0 0 0 0 -1.0289743802367362 2.3499697269289754 0 2.3499697269289754 62.197727712991764 0 0 0 0 -0.0013991470823079728 4.8442922314206953 0 4.8442922314206953 66.60441317198638 0 0 0 0 1.2883425906617567 6.9297182348891511 0 6.9297182348891511 60.582654922298389 0 0 0 0 -1.7565004564844457 7.8136851843446493 0 7.8136851843446493 67.411448700986512 0 0 0 0 -0.025947161960692355 5.5704728096607141 0 5.5704728096607141 51.904634424296091 0 0 0 0 2.4285725944571688 3.5251762014086125 0 3.5251762014086125 52.559364580069087 0 0 0 0 0.0046014640938889084 8.4054621493672972 0 8.4054621493672972 44.740662149270065 0 0 0 0 2.2910850765659259 7.1504494856926613 0 7.1504494856926613 43.307557569627534 0 0 0 0 -0.51720089205507946 -0.038185871722816955 0 -0.038185871722816955 49.780681714968523 0 0 0 0 -4.3482571886335393 -1.188773374480661 0 -1.188773374480661 42.629666329874453 0 0 0 0 0.83790135155418 7.7711549021769315 0 7.7711549021769315 37.957950252006412 0 0 0 0 1.4938574713416912 6.4995083396606788 0 6.4995083396606788 40.310373472137144 0 0 0 0 0.3391675793128357 7.8777894893428311 0 7.8777894893428311 47.146201468873187 0 0 0 0 1.6398931896828657 9.0778814958030125 0 9.0778814958030125 40.578533307490943 0 0 0 0 1.6314786363828411 9.8299545487461728 0 9.8299545487461728 38.772826138476375 0 0 0 0 0.78950264469108689 7.0720065826008067 0 7.0720065826008067 39.727175186562818 0 0 0 0 0.87226041111438235 6.0813487874984276 0 6.0813487874984276 45.492406851750275 0 0 0 0 0.66643109759270658 4.7735209887614474 0 4.7735209887614474 38.567532237988644 0 0 0 0 -1.6685528562888354 3.4341236961481627 0 3.4341236961481627 35.623681561119156 0 0 0 0 -0.0026271593229169436 8.735251561353639 0 8.735251561353639 38.717339931463357 0 0 0 0 0.70032571798625298 5.2604568009483046 0 5.2604568009483046 43.531402577198605 0 0 0 0 -1.3920577365666205 8.8307464609897579 0 8.8307464609897579 42.80274193596415 0 0 0 0 402.8945684212938 -259.68452387338039 0 -259.68452387338039 302.11661239990644 0 0 0 0 191.08502669763737 -20.762336438099737 0 -20.762336438099737 203.69014868294835 0 0 0 0 136.16682495660388 -148.08342828243531 0 -148.08342828243531 840.04602450956008 0 0 0 0 448.2135018795957 -65.154127728950698 0 -65.154127728950698 809.96979473057945 0 0 0 0 126.23531840798417 -253.09929374066132 0 -253.09929374066132 694.40307090315036 0 0 0 0 7.9125382851231336 -45.251170778297819 0 -45.251170778297819 796.77923703033593 0 0 0 0 289.0382613817261 -114.97119558764098 0 -114.97119558764098 645.93891971043195 0 0 0 0 405.27589344322632 -292.53051931360096 0 -292.53051931360096 626.87691201178131 0 0 0 0 400.03088230005972 -76.691544447294291 0 -76.691544447294291 22.5838240244193 0 0 0 0 -111.76751055680188 -267.2211506171152 0 -267.2211506171152 830.55406390165444 0 0 0 0 337.75048353688317 -230.71660319133662 0 -230.71660319133662 793.07142999008647 0 0 0 0 144.08891284676452 59.54612260920112 0 59.54612260920112 380.5544168544875 0 0 0 0 -1.5044381191310263 4.4351296914836027 0 4.4351296914836027 40.529654791366625 0 0 0 0 6.1814590092619 8.8519313815486385 0 8.8519313815486385 40.229667468564003 0 0 0 0 -37.7345106560158 -25.46670796489343 0 -25.46670796489343 49.608749650185928 0 0 0 0 0.075341965135311217 6.3020057906260831 0 6.3020057906260831 0.80029838674266784 0 0 0 0 8.5407736520724029 -608.31793828794616 0 -608.31793828794616 743.48341306955263 0 0 0 0 -3.5070029729721086 -2.8810567134857763 0 -2.8810567134857763 6.0074479143228814 0 0 0 0 24.328030049623067 -30.905909874549252 0 -30.905909874549252 30.649597777446616 0 0 0 0 11.380303359126174 -4.2694282730299165 0 -4.2694282730299165 141.91401768324431 0 0 0 0 1.0781676544223124 -0.62373565491208183 0 -0.62373565491208183 -1.1349719080164959 0 0 0 0 21.294098909474314 -13.928274786190741 0 -13.928274786190741 52.00701753825706 0 0 0 0 131.69195746055379 82.666554368617653 0 82.666554368617653 78.448290814863867 0 0 0 0 -2.8359229936316694 7.7176525574905099 0 7.7176525574905099 40.384338714502519 0 0 0 0 -0.54710190235724931 3.7183840628944402 0 3.7183840628944402 37.339818793814572 0 0 0 0 -77.427972615010731 24.554521230311366 0 24.554521230311366 81.391007132966479 0 0 0 0 -1.5177661463985863 2.0628434795234121 0 2.0628434795234121 33.369360646772805 0 0 0 0 -14.638562446326887 19.160348451783648 0 19.160348451783648 17.614305585026159 0 0 0 0 0.95107865040888617 -0.47262995587112755 0 -0.47262995587112755 0.30348590370479656 0 0 0 0 17.117884340720821 45.693043688981561 0 45.693043688981561 38.693320232339829 0 0 0 0 104.50300285336789 -55.30767403135178 0 -55.30767403135178 -5.3117578186793253 0 0 0 0 217.07782676483725 38.601271150986577 0 38.601271150986577 25.784698177958489 0 0 0 0 169.61821096418791 46.299779260298237 0 46.299779260298237 117.37975519122847 0 0 0 0 251.21345259112979 -22.653360803673422 0 -22.653360803673422 36.872391699303989 0 0 0 0 58.810079015340875 -8.6315181644604309 0 -8.6315181644604309 119.59869313624222 0 0 0 0 246.0984622960182 -89.667805701279576 0 -89.667805701279576 154.16137283162971 0 0 0 0 137.42590395235584 -70.889545492389516 0 -70.889545492389516 48.546346984017873 0 0 0 0 82.115235019615511 -15.773788902530214 0 -15.773788902530214 4.2540417458221782 0 0 0 0 90.79445066588373 -92.533600314107389 0 -92.533600314107389 -41.361356777895708 0 0 0 0 1.9524525553174499 -100.65710436246445 0 -100.65710436246445 47.100495547536411 0 0 0 0 231.14632955632237 -53.021096133466926 0 -53.021096133466926 20.973232137686864 0 0 0 0 58.355686526570707 -26.938481815959676 0 -26.938481815959676 43.308754781435709 0 0 0 0 55.54455455844424 -81.449238830136892 0 -81.449238830136892 -12.913802366470918 0 0 0 0 89.980322881024676 39.290132000160156 0 39.290132000160156 2.9082368168456014 0 0 0 0 28.274989051908534 -44.801447430087137 0 -44.801447430087137 -51.521825444113347 0 0 0 0 -13.471016459494081 -83.999619642061589 0 -83.999619642061589 -87.400881549336191 0 0 0 0 20.902763077182684 -127.83561210091511 0 -127.83561210091511 -40.203663303735084 0 0 0 0 36.640225225909489 70.404920566652436 0 70.404920566652436 128.31313285182841 0 0 0 0 3.0586053465278589 -0.016989898467301146 0 -0.016989898467301146 5.2867653835249797 0 0 0 0 74.095511321449948 91.323720697855606 0 91.323720697855606 138.97894277959131 0 0 0 0 1.2235532222656216 -4.5040133986422575 0 -4.5040133986422575 -0.17955541331701852 0 0 0 0 119.12850434411553 148.03129178503877 0 148.03129178503877 213.0770397196975 0 0 0 0 29.204818860136356 45.42994197459484 0 45.42994197459484 105.02356640461221 0 0 0 0 54.704517147929664 60.098678376831231 0 60.098678376831231 100.78061148573761 0 0 0 0 47.599760904518007 42.329461493704002 0 42.329461493704002 90.481000276224222 0 0 0 0 28.735589065168369 27.506627724782447 0 27.506627724782447 92.073973550644951 0 0 0 0 30.300945567845929 -41.012139654936618 0 -41.012139654936618 -42.758287550590467 0 0 0 0 22.928116036324582 22.181745440713712 0 22.181745440713712 28.795982352545252 0 0 0 0 38.846979887433463 15.467369804056943 0 15.467369804056943 30.325626130215824 0 0 0 0 26.404746636674645 34.880157523264643 0 34.880157523264643 21.951225627781241 0 0 0 0 76.067303856696981 14.822781334085448 0 14.822781334085448 28.857750300609041 0 0 0 0 20.709802433723326 21.167641122054192 0 21.167641122054192 151.03535149760319 0 0 0 0 57.362419686096189 -7.9289667299526627 0 -7.9289667299526627 -54.944608361722203 0 0 0 0 45.449063302233867 -17.487339291532408 0 -17.487339291532408 -105.3128503979824 0 0 0 0 31.125988336758411 -61.986794775464659 0 -61.986794775464659 -133.61746595922159 0 0 0 0 -0.94157063078682768 -19.253989977063611 0 -19.253989977063611 -53.150653756069005 0 0 0 0 23.263322207558019 -4.0646102658865857 0 -4.0646102658865857 63.796008866542252 0 0 0 0 -5.9320164926952543 -25.050412750271789 0 -25.050412750271789 105.19173105654045 0 0 0 0 3.3677525034432847 -25.69039788605005 0 -25.69039788605005 68.684128895736649 0 0 0 0 2.9698131829995078 -22.855525331850373 0 -22.855525331850373 7.5805072258988275 0 0 0 0 35.928297083008488 -103.27414365149525 0 -103.27414365149525 -120.2020988996228 0 0 0 0 3.6420689157864934 -37.847712674873236 0 -37.847712674873236 15.883778492199809 0 0 0 0 2.6989958323983956 -18.343562384034158 0 -18.343562384034158 128.05453126737848 0 0 0 0 -8.2759248702344621 -124.27142911449482 0 -124.27142911449482 -113.15334635023464 0 0 0 0 0.54166538727859459 -22.668523176200438 0 -22.668523176200438 12.786965662085052 0 0 0 0 -41.530361026130777 -103.07758544728858 0 -103.07758544728858 -77.268439613864757 0 0 0 0 2.5335830048870775 -35.959724847940379 0 -35.959724847940379 -238.23216548224445 0 0 0 0 -23.836091106822323 -0.89937622247089166 0 -0.89937622247089166 -71.622803425634629 0 0 0 0 -2.1143090221893219 -1.53082476437379 0 -1.53082476437379 19.818569214272372 0 0 0 0 13.40420628642164 -24.017069400564651 0 -24.017069400564651 45.908055214811611 0 0 0 0 -11.88805760893888 -4.4908368855831213 0 -4.4908368855831213 67.698131354627549 0 0 0 0 4.7578472464483639 -25.687640094198287 0 -25.687640094198287 124.00970900111133 0 0 0 0 -14.244301846359917 -15.266137334965606 0 -15.266137334965606 63.585064761544345 0 0 0 0 -6.8133755726685781 6.3659045877481333 0 6.3659045877481333 24.506301308973576 0 0 0 0 -0.34718662262193334 5.7063544912234647 0 5.7063544912234647 75.992384149896679 0 0 0 0 -1.2604287950071011 -1.1276154370571021 0 -1.1276154370571021 65.459358907075512 0 0 0 0 -19.943895838592574 12.011034400934392 0 12.011034400934392 53.308420778494849 0 0 0 0 -14.017020138025146 -1.1800802036741516 0 -1.1800802036741516 64.172142257448286 0 0 0 0 -9.2570601664404961 -21.857978006474752 0 -21.857978006474752 43.822797559435912 0 0 0 0 1.8937237808380565 3.7305427021230173 0 3.7305427021230173 85.780584034365262 0 0 0 0 -236.74913879175119 74.072336600962444 0 74.072336600962444 164.25149724984658 0 0 0 0 -225.97127722406913 312.45444084249903 0 312.45444084249903 -38.919818975948147 0 0 0 0 -2.8948585630684911 -3.0164195785854986 0 -3.0164195785854986 4.6762669164937165 0 0 0 0 3.2477014192397187 -38.220460686827096 0 -38.220460686827096 14.827919806811508 0 0 0 0 -29.245838666116583 -63.7554842390673 0 -63.7554842390673 76.2984843376762 0 0 0 0 67.978726005395401 24.165517272615034 0 24.165517272615034 82.396262515059789 0 0 0 0 1.6842820874701792 -15.124361205719609 0 -15.124361205719609 -4.8187366201633495 0 0 0 0 64.6398518543715 -159.40841106791049 0 -159.40841106791049 173.48108849936398 0 0 0 0 147.87396407638198 -253.89115025001956 0 -253.89115025001956 198.45860462302517 0 0 0 0 8.4273473065299598 26.228486887824559 0 26.228486887824559 48.465974677915938 0 0 0 0 -15.009429138943698 -55.784952993679411 0 -55.784952993679411 70.538855992757277 0 0 0 0 16.156476608569847 25.120411499403417 0 25.120411499403417 178.70587303768843 0 0 0 0 101.55943315364505 192.94722096721307 0 192.94722096721307 156.77701721536869 0 0 0 0 145.28520809341808 -250.74877957958961 0 -250.74877957958961 321.17421204110724 0 0 0 0 175.1941648548991 -101.96477536941893 0 -101.96477536941893 97.039689107681625 0 0 0 0 1.174253268422329 1.224848018928526 0 1.224848018928526 11.321840437336675 0 0 0 0 58.861118389500007 -131.37661403294624 0 -131.37661403294624 164.53292714843701 0 0 0 0 497.90464541005417 -499.36477142989679 0 -499.36477142989679 591.84266486612614 0 0 0 0 -777.88472432211984 419.40591406745079 0 419.40591406745079 891.03415716858581 0 0 0 0 -27.655442782895989 -250.6670363514495 0 -250.6670363514495 598.30327896334347 0 0 0 0 1.480119159202399 -22.008407195986813 0 -22.008407195986813 -1.7794272195392296 0 0 0 0 148.63968410589405 21.118334313330706 0 21.118334313330706 71.76142163980694 0 0 0 0 104.79831104651385 -123.04409163235687 0 -123.04409163235687 200.98187520139618 0 0 0 0 -64.940868063967173 -9.3077245149252121 0 -9.3077245149252121 111.56371928400768 0 0 0 0 -10.659015342614369 -60.154061974432835 0 -60.154061974432835 69.38540752656408 0 0 0 0 -1.2955112750026423 -33.79929326771267 0 -33.79929326771267 13.221338979193177 0 0 0 0 25.739426873287812 -109.34811042448564 0 -109.34811042448564 215.01602246359107 0 0 0 0 29.292649325517687 -48.922960065152438 0 -48.922960065152438 -15.554247001608019 0 0 0 0 1.9827299471458169 -28.518868326063426 0 -28.518868326063426 35.290325497105997 0 0 0 0 29.891006879895031 -35.105050171259791 0 -35.105050171259791 -32.910247863073891 0 0 0 0 -27.65605986132141 24.019405188861128 0 24.019405188861128 146.10156438898412 0 0 0 0 0.56870606397884049 -8.5617964065418342 0 -8.5617964065418342 11.949492926680932 0 0 0 0 48.863644886252587 6.5615585118430317 0 6.5615585118430317 -6.5959866946359398 0 0 0 0 22.595953208389119 -28.073535023064323 0 -28.073535023064323 -39.282700962183299 0 0 0 0 -79.909039574836982 -77.144675369536799 0 -77.144675369536799 25.418672354833689 0 0 0 0 195.22130853989165 -33.892583219421795 0 -33.892583219421795 -91.481762954746955 0 0 0 0 -310.19692658575036 -151.61475169617188 0 -151.61475169617188 18.744130965511431 0 0 0 0 -97.980794515452146 -78.674099542331533 0 -78.674099542331533 -37.370053026243113 0 0 0 0 0.89431562713431556 -2.4032040708756099 0 -2.4032040708756099 7.4319004439473701 0 0 0 0 0.65501474969721585 -137.28198922506272 0 -137.28198922506272 -45.81460223448812 0 0 0 0 -12.539695519083125 -91.48639956516854 0 -91.48639956516854 -37.452911860695167 0 0 0 0 1.7618672013095464 -13.916901675959075 0 -13.916901675959075 8.262601020222121 0 0 0 0 -79.533378715000822 -116.61486804691594 0 -116.61486804691594 -22.264847660655505 0 0 0 0 -1.3254962435625082 -0.79814441806610148 0 -0.79814441806610148 0.4894874481596645 0 0 0 0 -43.437042036158346 -67.904187888907472 0 -67.904187888907472 360.19953065577647 0 0 0 0 32.75527989648981 5.4942371736869973 0 5.4942371736869973 271.05404290178558 0 0 0 0 0.61974026037114527 -23.443756555094296 0 -23.443756555094296 249.88769713236252 0 0 0 0 83.334582971741611 4.3721074006625713 0 4.3721074006625713 224.96630552339775 0 0 0 0 59.217066839097242 51.155616581405411 0 51.155616581405411 287.61768494085118 0 0 0 0 1.3584077557293313 -15.731301887137306 0 -15.731301887137306 185.79997341638955 0 0 0 0 -49.571013863131157 -19.30866812968452 0 -19.30866812968452 221.33434527936333 0 0 0 0 -36.454441615822361 37.654168992383347 0 37.654168992383347 202.03558102888928 0 0 0 0 -40.070641489986883 -5.6744973880049656 0 -5.6744973880049656 187.88074151462388 0 0 0 0 -15.349668784569076 -77.338865195783001 0 -77.338865195783001 265.67545442802839 0 0 0 0 -0.45349318467013688 -0.93700211700488012 0 -0.93700211700488012 0.12511516238869547 0 0 0 0 -73.826521412383954 -18.84095438123768 0 -18.84095438123768 199.25654213425878 0 0 0 0 -72.648445735517043 -12.908803267207986 0 -12.908803267207986 188.47580129450944 0 0 0 0 -58.402029436440444 0.17311470764434489 0 0.17311470764434489 196.15374048554804 0 0 0 0 -75.821668468157441 -18.478347915915947 0 -18.478347915915947 178.66612850448291 0 0 0 0 -73.579712329301401 -34.184913314020378 0 -34.184913314020378 168.6636924022896 0 0 0 0 -78.88774022662642 -14.247011871597351 0 -14.247011871597351 204.53342504067405 0 0 0 0 -97.58879481767508 -10.128744076973817 0 -10.128744076973817 204.38235911155061 0 0 0 0 -57.058439777655622 -39.170918028707092 0 -39.170918028707092 142.31040846669202 0 0 0 0 -78.348956974896737 -32.225315491043148 0 -32.225315491043148 195.88920487681753 0 0 0 0 -201.61290481765718 -39.480086517622112 0 -39.480086517622112 342.66867764643393 0 0 0 0 -40.075230722157357 78.923932693302049 0 78.923932693302049 243.71746249220178 0 0 0 0 -116.44580769817185 10.239776123871707 0 10.239776123871707 238.37057911274314 0 0 0 0 7.2368018883935292 61.354885156986711 0 61.354885156986711 18.160833866990288 0 0 0 0 63.823362391343835 -24.118238576236763 0 -24.118238576236763 124.2918441516922 0 0 0 0 -67.290804325584759 17.733498315727047 0 17.733498315727047 116.60257670738793 0 0 0 0 -100.00514838472373 217.4296007849407 0 217.4296007849407 31.145971484729671 0 0 0 0 -9.8366392418091415 -64.297780072646262 0 -64.297780072646262 47.579007005923842 0 0 0 0 -10.960629120826525 -77.436715563882899 0 -77.436715563882899 -73.517867293325253 0 0 0 0 47.06709801800389 -21.477611465816153 0 -21.477611465816153 -28.076620606007054 0 0 0 0 66.700085241904162 -10.399853260387317 0 -10.399853260387317 -64.177221609350454 0 0 0 0 66.853311406552166 -83.928461748058908 0 -83.928461748058908 -143.98839795540516 0 0 0 0 -32.744136957603359 -61.185767453534936 0 -61.185767453534936 -24.745147748675663 0 0 0 0 27.341713094154557 -139.48104637403776 0 -139.48104637403776 -154.85069087140437 0 0 0 0 -60.020254180882148 -68.972911853703408 0 -68.972911853703408 278.50665987789398 0 0 0 0 -9.1601544394573153 -50.836356935680641 0 -50.836356935680641 45.023134095802376 0 0 0 0 4.7718122954797408 -45.057805388019716 0 -45.057805388019716 25.694098856998039 0 0 0 0 -21.332159832662001 -67.114930159674259 0 -67.114930159674259 41.05241976337129 0 0 0 0 14.966861449086537 -217.10480687251402 0 -217.10480687251402 -141.42983395299962 0 0 0 0 0.83033827004709337 -39.486155789915074 0 -39.486155789915074 45.237434838990737 0 0 0 0 17.418823850137414 -57.838758862188115 0 -57.838758862188115 -26.619162702925678 0 0 0 0 -32.486407969488027 -66.520414842540049 0 -66.520414842540049 46.59087097736483 0 0 0 0 26.598505437699714 -87.942026208351308 0 -87.942026208351308 137.1014107427909 0 0 0 0 48.434330037839572 -17.89592466328213 0 -17.89592466328213 198.29638768643053 0 0 0 0 8.680416532089918 0.016400624488397852 0 0.016400624488397852 -24.575206270365186 0 0 0 0 -3.7284433107070889 -53.983871772475297 0 -53.983871772475297 21.954333272812725 0 0 0 0 4.4850659042131156 -57.394250778539572 0 -57.394250778539572 129.93870034007705 0 0 0 0 -9.38347092602271 -141.10979475938075 0 -141.10979475938075 219.87510856473091 0 0 0 0 -84.201995568618258 -238.05543807229697 0 -238.05543807229697 287.63047849142458 0 0 0 0 -77.080778221767389 -192.26042567087325 0 -192.26042567087325 170.99027380683401 0 0 0 0 -85.478290187221319 -67.485870872682653 0 -67.485870872682653 26.799707400830812 0 0 0 0 208.83085050456066 -129.40816450438433 0 -129.40816450438433 199.1246579804083 0 0 0 0 -3.8745262105383063 -105.18614655397141 0 -105.18614655397141 196.36653186092735 0 0 0 0 30.985793351061147 -214.06931291217188 0 -214.06931291217188 158.48525111100753 0 0 0 0 154.43692203144383 -106.40378109372978 0 -106.40378109372978 -13.935934980996535 0 0 0 0 80.539231489537542 -27.8532543578076 0 -27.8532543578076 121.72802615442197 0 0 0 0 135.74922425864042 -13.399456078965159 0 -13.399456078965159 -28.545942441833176 0 0 0 0 73.626559512716995 56.803627778223017 0 56.803627778223017 -6.3659900764760096 0 0 0 0 173.78275807626142 -89.94778847157977 0 -89.94778847157977 128.47895672588493 0 0 0 0 195.48728835614656 -171.75560967900674 0 -171.75560967900674 166.67410073480642 0 0 0 0 221.33024600735371 -77.430399996155757 0 -77.430399996155757 66.209369647905987 0 0 0 0 229.15153008547895 -320.81461836837116 0 -320.81461836837116 513.3270906819962 0 0 0 0 124.23000863934158 -263.51607474875345 0 -263.51607474875345 534.42394093709299 0 0 0 0 43.215641141253855 -184.19201696217715 0 -184.19201696217715 998.24408529426728 0 0 0 0 25.283858830303416 13.73011913854134 0 13.73011913854134 1161.961642824288 0 0 0 0 59.256333966081002 -182.65038467045815 0 -182.65038467045815 593.03891523125912 0 0 0 0 3.8943156846256954 0.6014354961037327 0 0.6014354961037327 1.1428433007757945 0 0 0 0 98.660199857489715 -71.909721773976344 0 -71.909721773976344 575.49742297774355 0 0 0 0 68.686587037581376 -235.98718568883851 0 -235.98718568883851 319.05613180174259 0 0 0 0 27.102677858911193 -119.27695424912963 0 -119.27695424912963 423.92561234922323 0 0 0 0 375.65113290186764 -72.66877183822362 0 -72.66877183822362 367.37132981386094 0 0 0 0 11.246523686950241 -224.00890008034185 0 -224.00890008034185 457.5949898687104 0 0 0 0 -89.942491456718926 172.11118621956848 0 172.11118621956848 552.29486312106201 0 0 0 0 -198.04178587939896 -118.03793140644848 0 -118.03793140644848 423.12196703391965 0 0 0 0 9.7883591122515554 -245.26636769053493 0 -245.26636769053493 301.84799293044489 0 0 0 0 -135.0185124917225 -205.66204941431351 0 -205.66204941431351 308.19477624024148 0 0 0 0 -194.82382786599987 19.29714805814001 0 19.29714805814001 -20.546565894241212 0 0 0 0 -99.762975346436178 11.433371200881083 0 11.433371200881083 217.06190109954332 0 0 0 0 -72.349917227579454 -127.68347415789322 0 -127.68347415789322 154.13818448135135 0 0 0 0 91.621181348243056 -25.810137892302009 0 -25.810137892302009 29.682269887562143 0 0 0 0 27.125239420187654 -110.03936779005744 0 -110.03936779005744 18.969948498202939 0 0 0 0 -86.754429740824236 -51.387908463650092 0 -51.387908463650092 14.544299329514615 0 0 0 0 -104.04416962647483 -159.91619877245375 0 -159.91619877245375 -85.464474540771334 0 0 0 0 -312.54896964875752 -55.235125578816223 0 -55.235125578816223 174.8628714411243 0 0 0 0 29.598976080211287 6.0608707846258767 0 6.0608707846258767 -1.731617834942881 0 0 0 0 -0.13164170958526378 -2.2424028810244145 0 -2.2424028810244145 16.115432910338143 0 0 0 0 -57.518180259470682 68.896727349922003 0 68.896727349922003 53.32228264468722 0 0 0 0 137.85456511452503 124.22954244194989 0 124.22954244194989 -134.3453255831555 0 0 0 0 0.26234323208662325 -1.0624668951812311 0 -1.0624668951812311 2.284347742005707 0 0 0 0 -469.11322302087501 -115.89198278076947 0 -115.89198278076947 225.36437994371227 0 0 0 0 545.64690519985788 -160.26237938654958 0 -160.26237938654958 -440.04107230558293 0 0 0 0 -115.86983338686537 70.9879876297382 0 70.9879876297382 734.26344295937452 0 0 0 0 -250.1581853370144 358.6609882251214 0 358.6609882251214 300.11635351103905 0 0 0 0 -0.046088434287249624 -1.0317291072385046 0 -1.0317291072385046 8.5420725513143339 0 0 0 0 405.27324464830326 -370.27258245252597 0 -370.27258245252597 430.13142155759851 0 0 0 0 -499.94296501535638 170.54279514932023 0 170.54279514932023 808.07241933909245 0 0 0 0 316.90503694716426 -156.8060964551114 0 -156.8060964551114 -10.240748326999892 0 0 0 0 155.39072693732533 -400.03471937932773 0 -400.03471937932773 1131.3972741223988 0 0 0 0 156.1085646751344 -527.60053867132228 0 -527.60053867132228 939.52573367267905 0 0 0 0 208.0315359678516 215.64858806946722 0 215.64858806946722 1329.8181809021662 0 0 0 0 -244.76847095603136 -25.275662572285 0 -25.275662572285 665.55540573090548 0 0 0 0 -287.98504442929516 -131.34682350343064 0 -131.34682350343064 1207.4782508456847 0 0 0 0 -169.0556374144644 -85.053678063413827 0 -85.053678063413827 715.32680741481454 0 0 0 0 -190.41572438441017 -33.685399649242754 0 -33.685399649242754 699.02106406480016 0 0 0 0 -105.96798590385924 10.059635442001309 0 10.059635442001309 349.68938488021377 0 0 0 0 -181.96678739243771 -205.68374492129078 0 -205.68374492129078 227.70306203023938 0 0 0 0 -15.641365853560728 -86.190999675731291 0 -86.190999675731291 440.59375494992128 0 0 0 0 -2.8450761869257803 -119.73826725923573 0 -119.73826725923573 350.09231461984746 0 0 0 0 -107.34707036855912 -2.5204521698906319 0 -2.5204521698906319 421.6442660940229 0 0 0 0 24.436635195255235 -79.883653153767227 0 -79.883653153767227 440.49616288281004 0 0 0 0 -32.272677223310211 -149.06069444063178 0 -149.06069444063178 669.52762416811311 0 0 0 0 -155.78134440057647 -53.201935066565056 0 -53.201935066565056 743.20086477250879 0 0 0 0 -93.243984116657941 -128.16487865822273 0 -128.16487865822273 832.70760227154824 0 0 0 0 -108.89373290158886 100.59586059389403 0 100.59586059389403 531.38772162391979 0 0 0 0 1.9082816166521797 0.30891030559720889 0 0.30891030559720889 1.6258712811064697 0 0 0 0 -238.38933124472629 193.37836160723236 0 193.37836160723236 933.25020883165053 0 0 0 0 -30.709531667037822 229.32321420469088 0 229.32321420469088 914.31223640478856 0 0 0 0 -44.533682375737129 -94.782327889108274 0 -94.782327889108274 1485.7751751243777 0 0 0 0 8.7171346673353582 -36.152349413001502 0 -36.152349413001502 1029.808370592662 0 0 0 0 -55.698505019628101 -43.224482295758207 0 -43.224482295758207 725.08345589568489 0 0 0 0 -147.12038015273606 -207.65519221152499 0 -207.65519221152499 865.30631480936427 0 0 0 0 -65.943691968463099 -269.92898829527257 0 -269.92898829527257 670.46306749085488 0 0 0 0 5.5221769108779881 -20.851172712951666 0 -20.851172712951666 1010.5533329733989 0 0 0 0 6.1753370983576019 2.6295673146407523 0 2.6295673146407523 2.6596831626979593 0 0 0 0 60.220893440922964 -17.545802720249412 0 -17.545802720249412 503.85051012245822 0 0 0 0 -124.02605614944287 -97.008320579549036 0 -97.008320579549036 1256.9938413889467 0 0 0 0 15.927493511169814 -34.751867666534963 0 -34.751867666534963 1027.3665160090532 0 0 0 0 -34.775195801833206 -42.343962421135075 0 -42.343962421135075 1026.3016464979155 0 0 0 0 -3.9924219549382087 -134.29995591475017 0 -134.29995591475017 1093.7338351241924 0 0 0 0 0.28367534300986108 -19.544980218712226 0 -19.544980218712226 1055.6217195323406 0 0 0 0 14.332772082191241 -280.08778570297 0 -280.08778570297 1382.4814806684226 0 0 0 0 -2.5405684782756754 -0.20827401680674029 0 -0.20827401680674029 3.8130115699040914 0 0 0 0 39.524642769473985 -194.77365224227833 0 -194.77365224227833 971.49975057206757 0 0 0 0 -93.111092493475098 -219.24218627794471 0 -219.24218627794471 939.82153508341617 0 0 0 0 58.769427228212407 -153.48590880979464 0 -153.48590880979464 958.74471373285269 0 0 0 0 -63.383529145190195 -143.41823765195659 0 -143.41823765195659 830.52075920648349 0 0 0 0 13.186546929779524 -228.79898698742909 0 -228.79898698742909 872.38206230348442 0 0 0 0 -146.18801378788851 851.17098838713127 0 851.17098838713127 -368.12908530891582 0 0 0 0 -152.70838497258615 818.15877016415561 0 818.15877016415561 1265.1515796781314 0 0 0 0 223.66325602538291 194.6093022728528 0 194.6093022728528 297.33945991191285 0 0 0 0 -119.61112512627142 -121.58633191746048 0 -121.58633191746048 1186.4452806630288 0 0 0 0 222.98613283863517 189.31087038780515 0 189.31087038780515 257.28462975387811 0 0 0 0 148.12755309748354 -45.827986401767703 0 -45.827986401767703 795.15710412715271 0 0 0 0 7.9613701045052601 3.3599906908775097 0 3.3599906908775097 2.4777794762002543 0 0 0 0 -44.256044586313237 137.56590506823704 0 137.56590506823704 901.94358807045501 0 0 0 0 72.99892507852428 -163.31767406362633 0 -163.31767406362633 1187.1766535207789 0 0 0 0 -136.07212199807873 -196.41732202541607 0 -196.41732202541607 1087.5908621249182 0 0 0 0 -1.2056278406200391 -0.82132091788272987 0 -0.82132091788272987 2.4868457682601672 0 0 0 0 -48.889571887542957 -528.149039496353 0 -528.149039496353 2046.5609179227758 0 0 0 0 -245.61728324628166 73.419686586159514 0 73.419686586159514 1325.511856391171 0 0 0 0 -112.21116794391128 -176.79776990565006 0 -176.79776990565006 2118.6126901205935 0 0 0 0 -279.34299061253046 8.3857709287167381 0 8.3857709287167381 2020.1273628332856 0 0 0 0 -192.50130167830866 -561.18643350958155 0 -561.18643350958155 1825.1476983135508 0 0 0 0 -385.38709880668148 -310.58265817674328 0 -310.58265817674328 1654.8411895310128 0 0 0 0 -121.5999812596765 -357.45469912478438 0 -357.45469912478438 2108.4286741175893 0 0 0 0 5.4602910930711914 -439.32666041916127 0 -439.32666041916127 2121.0680977773736 0 0 0 0 253.24608530645401 122.15710468527323 0 122.15710468527323 2195.0810767724906 0 0 0 0 103.51247323221924 142.63956228226016 0 142.63956228226016 2942.7330319487664 0 0 0 0 189.94927593789726 -708.33378039392483 0 -708.33378039392483 1259.3911817336775 0 0 0 0 167.59842289464086 -588.00067906278127 0 -588.00067906278127 1603.9301054682073 0 0 0 0 -61.370105990915818 -563.59542787090322 0 -563.59542787090322 1613.5913088402449 0 0 0 0 -49.175203362700813 -570.4631346862061 0 -570.4631346862061 1370.0226121808228 0 0 0 0 -145.77297117589751 -527.27941643368831 0 -527.27941643368831 1506.2846803786961 0 0 0 0 -133.7982482892694 -558.59891152720957 0 -558.59891152720957 1578.1840712284757 0 0 0 0 113.89081348193577 -491.76084646009986 0 -491.76084646009986 1426.305521509792 0 0 0 0 -104.18730668269109 -403.26192470327805 0 -403.26192470327805 1454.3613156021675 0 0 0 0 -43.271716018904044 -113.11027856286819 0 -113.11027856286819 845.67191613501927 0 0 0 0 -62.10732523126353 -191.08026839027298 0 -191.08026839027298 1171.6142034690311 0 0 0 0 -48.116526191350204 -471.53965540640274 0 -471.53965540640274 1233.4052216264245 0 0 0 0 -61.232454630463508 -495.20453992084367 0 -495.20453992084367 1371.8974078183548 0 0 0 0 103.45890601677002 -248.42951062732027 0 -248.42951062732027 546.49901637629955 0 0 0 0 243.98782673179039 -328.0370632613558 0 -328.0370632613558 305.12454324298596 0 0 0 0 68.351327394359032 -281.2152360821201 0 -281.2152360821201 853.7594555361843 0 0 0 0 124.001194859713 -485.92699836767861 0 -485.92699836767861 836.36144514221814 0 0 0 0 -83.378989413177578 -390.28655240506487 0 -390.28655240506487 1669.3547410825486 0 0 0 0 -150.77543534908349 -463.06740015917239 0 -463.06740015917239 1310.1098201217683 0 0 0 0 -114.09495334796394 -235.84889492136972 0 -235.84889492136972 1297.7412129665172 0 0 0 0 10.391432436138984 -132.99009675972775 0 -132.99009675972775 879.7570844507718 0 0 0 0 -0.67216131969467696 -0.39967538220568599 0 -0.39967538220568599 2.2573991494481618 0 0 0 0 243.21637776847319 -453.05160575832997 0 -453.05160575832997 1626.2125473718406 0 0 0 0 115.14924118420788 -492.57103626366552 0 -492.57103626366552 1394.1634811755503 0 0 0 0 209.22845771302764 -553.142283847199 0 -553.142283847199 1426.5829464962007 0 0 0 0 304.30979505289696 -104.35200770214942 0 -104.35200770214942 1825.4369222153473 0 0 0 0 135.07655429448209 -668.43775357026971 0 -668.43775357026971 1634.8604665756866 0 0 0 0 507.62936247896005 -415.57651597443328 0 -415.57651597443328 1471.682452694251 0 0 0 0 -74.229203178707394 539.00457110216666 0 539.00457110216666 1114.8373233499951 0 0 0 0 0.9811623316887621 -2.3275204063613018 0 -2.3275204063613018 12.920044622579496 0 0 0 0 -295.87795901512891 -162.69496405340215 0 -162.69496405340215 1939.473200338849 0 0 0 0 -154.66521422371034 -584.93737855579093 0 -584.93737855579093 2162.56114330321 0 0 0 0 -85.674500899258646 -517.89953660736137 0 -517.89953660736137 1419.0025586778211 0 0 0 0 -117.91521849111805 -303.2288946049357 0 -303.2288946049357 1718.0017384266685 0 0 0 0 -254.69267090632536 -444.00604128611667 0 -444.00604128611667 1638.8468513286498 0 0 0 0 -205.7579363910271 -524.02090532870352 0 -524.02090532870352 1766.0307949633716 0 0 0 0 -254.58417413001456 -431.44611722620903 0 -431.44611722620903 1846.4757160290319 0 0 0 0 303.48074222710346 -347.43435330458306 0 -347.43435330458306 1539.8894268276563 0 0 0 0 -160.49141606820746 -365.27104955971117 0 -365.27104955971117 1851.5578456812364 0 0 0 0 -110.33888943944056 -505.18674576942794 0 -505.18674576942794 1650.3520913227621 0 0 0 0 -216.13916537250867 -337.95726340749388 0 -337.95726340749388 1501.8738089762701 0 0 0 0 -166.66786989801494 -520.67165090985509 0 -520.67165090985509 1183.4783033336134 0 0 0 0 51.516427294756873 -395.28020634255154 0 -395.28020634255154 617.56401874313451 0 0 0 0 -33.995503884917014 -63.914498890710092 0 -63.914498890710092 655.09677274055139 0 0 0 0 -210.50955503660941 -243.72629340289132 0 -243.72629340289132 1237.8033068520399 0 0 0 0 49.337728496541843 -426.8083415336805 0 -426.8083415336805 1308.3394838407476 0 0 0 0 -61.528737616637514 -179.01054512755036 0 -179.01054512755036 1950.4584139887738 0 0 0 0 -145.61678405321152 -412.22978908945515 0 -412.22978908945515 1734.9123058455734 0 0 0 0 212.56579194832801 135.9985269127319 0 135.9985269127319 2406.913347359412 0 0 0 0 162.61862515209671 -138.19336915173335 0 -138.19336915173335 1786.4157976591105 0 0 0 0 -18.049525705670646 80.787110976369149 0 80.787110976369149 2399.6325117858069 0 0 0 0 -211.14199000847964 -218.90119707634585 0 -218.90119707634585 2473.8923185220256 0 0 0 0 -172.72627532992385 -190.13803028284019 0 -190.13803028284019 1970.2271954334865 0 0 0 0 -289.62595437735854 -195.0530655746079 0 -195.0530655746079 2928.2194518111792 0 0 0 0 582.34870005762036 -1130.7305388272434 0 -1130.7305388272434 2037.1228370410536 0 0 0 0 0.787329568571972 -987.81806611081993 0 -987.81806611081993 3648.0128012976347 0 0 0 0 57.145949995643377 -176.24866363751062 0 -176.24866363751062 3546.6396115561511 0 0 0 0 223.54090844291227 -586.42946324412333 0 -586.42946324412333 4305.1624563969672 0 0 0 0 149.22573544029092 -610.15881521758274 0 -610.15881521758274 3140.3225501559791 0 0 0 0 -258.99467572900949 -489.41874427669973 0 -489.41874427669973 4184.3601463989908 0 0 0 0 -342.29602058535141 486.66221869848778 0 486.66221869848778 -104.97636310274538 0 0 0 0 -1.9696151739118453 3.8824924392254161 0 3.8824924392254161 14.49481726156273 0 0 0 0 627.48427197685965 -1932.4344001562349 0 -1932.4344001562349 4036.9446159968611 0 0 0 0 -543.65453312003308 87.203061586355034 0 87.203061586355034 1647.5925483583851 0 0 0 0 -0.73377255621166915 -284.32272511742485 0 -284.32272511742485 162.17227397557872 0 0 0 0 101.60191186465704 -363.0492313462164 0 -363.0492313462164 299.93303685148203 0 0 0 0 -48.046504914292484 -449.21830670465715 0 -449.21830670465715 678.67372964172682 0 0 0 0 180.02536147350622 -640.11105055591906 0 -640.11105055591906 1223.4119378770629 0 0 0 0 176.5694719814914 -453.65819905021635 0 -453.65819905021635 1460.3122367063042 0 0 0 0 -4.5651636016515003 11.796681782410161 0 11.796681782410161 29.886769193863188 0 0 0 0 -43.804876973139699 62.683915971825627 0 62.683915971825627 343.61521414094022 0 0 0 0 157.95639562321634 -533.18370044006292 0 -533.18370044006292 778.7113626756327 0 0 0 0 218.03955069107172 -318.46889381435903 0 -318.46889381435903 1104.0609628440361 0 0 0 0 -4.7303576925496316 13.785261140715647 0 13.785261140715647 32.523567322055385 0 0 0 0 184.84091654912601 -209.42471655898407 0 -209.42471655898407 571.90893519886595 0 0 0 0 214.07356363204002 -974.7954316173782 0 -974.7954316173782 1867.915238632595 0 0 0 0 1.9906239248351283 -243.7765123529316 0 -243.7765123529316 852.29457438285317 0 0 0 0 -1.3722570981853734 1.2923332073955578 0 1.2923332073955578 5.5519118256465561 0 0 0 0 -0.002892346947818245 7.7040617969948597 0 7.7040617969948597 11.839537015839596 0 0 0 0 -0.10682412546695197 -0.110039723556838 0 -0.110039723556838 18.459128875358147 0 0 0 0 1.1481182575752484 8.1628087803728704 0 8.1628087803728704 29.850852679708623 0 0 0 0 -3.6548023813314856 4.7752699409284105 0 4.7752699409284105 30.978637687017908 0 0 0 0 -0.00054002097123628963 7.7667068222905131 0 7.7667068222905131 27.001792389710317 0 0 0 0 183.60812006503244 -493.92316651010515 0 -493.92316651010515 1165.2611757624836 0 0 0 0 159.46183980346211 -504.93628152624296 0 -504.93628152624296 1188.1440297896115 0 0 0 0 -2.3810883309826107 6.8615910038801644 0 6.8615910038801644 12.268998445421886 0 0 0 0 270.98741902257234 -795.39598074810783 0 -795.39598074810783 1445.4422522715722 0 0 0 0 147.29140069270829 -409.29362793471955 0 -409.29362793471955 1108.4757673788845 0 0 0 0 191.31651169683209 -435.45280784514034 0 -435.45280784514034 1078.0746734392305 0 0 0 0 0.0071991228163886811 12.599652114350249 0 12.599652114350249 21.5129491737151 0 0 0 0 71.074687213707875 -452.45095780052361 0 -452.45095780052361 1306.7749292094813 0 0 0 0 133.1766549777758 -316.88305743837554 0 -316.88305743837554 861.55416290853464 0 0 0 0 220.46855605926726 -542.34122404233494 0 -542.34122404233494 1203.0110320098174 0 0 0 0 125.23275683605414 -667.8653073115056 0 -667.8653073115056 1539.8303295654187 0 0 0 0 699.64859304255424 -713.68892424053047 0 -713.68892424053047 1155.3576076802347 0 0 0 0 460.6407175592318 -826.06279760894722 0 -826.06279760894722 1505.1319550095359 0 0 0 0 334.74071700164905 -407.93482523306739 0 -407.93482523306739 1359.4748593427794 0 0 0 0 22.547690421426182 -465.42745866337646 0 -465.42745866337646 1386.1369057764823 0 0 0 0 -59.992259964552659 -685.93594957644382 0 -685.93594957644382 2603.2447656563018 0 0 0 0 268.38098911310578 -11.542215660534566 0 -11.542215660534566 1906.0075481737149 0 0 0 0 150.24563188747243 -257.22685928903957 0 -257.22685928903957 1596.6510300633381 0 0 0 0 242.94392331498409 -295.90401363572164 0 -295.90401363572164 1017.91782499291 0 0 0 0 -210.79148496716783 -23.17547888707486 0 -23.17547888707486 1454.7778213302518 0 0 0 0 -27.429616500512694 237.79053566742823 0 237.79053566742823 409.31951518131245 0 0 0 0 -687.203297545547 208.83549349642271 0 208.83549349642271 1343.4215879715412 0 0 0 0 770.96746402085728 -1617.1158966172577 0 -1617.1158966172577 2191.2141138635634 0 0 0 0 -1.8518117604736961 3.62186935711145 0 3.62186935711145 11.250348874937004 0 0 0 0 -628.73887500622902 941.52851004397235 0 941.52851004397235 -218.98869773169281 0 0 0 0 -204.2218494958226 -223.06201171490102 0 -223.06201171490102 199.92132516557831 0 0 0 0 -149.8783101535858 -305.6720283659306 0 -305.6720283659306 527.09576119259327 0 0 0 0 -113.50094716848731 -393.39511866121029 0 -393.39511866121029 955.99563118962396 0 0 0 0 -114.19700567346908 -247.18641558756877 0 -247.18641558756877 730.9402739450743 0 0 0 0 -321.55418297861797 -171.4769230528691 0 -171.4769230528691 820.0702061719785 0 0 0 0 266.90242852768506 -604.96171288793994 0 -604.96171288793994 1089.7514391853547 0 0 0 0 -407.4377486119036 212.10798904380317 0 212.10798904380317 267.15936017564673 0 0 0 0 274.71191995352751 -576.05335071846639 0 -576.05335071846639 1120.2334811067321 0 0 0 0 -4.9657943857149967 10.6426614526479 0 10.6426614526479 27.047972280872386 0 0 0 0 -93.274456749436425 200.98019905591354 0 200.98019905591354 1347.4785081039954 0 0 0 0 -59.239842980664491 -357.83992050519737 0 -357.83992050519737 1633.7213990784403 0 0 0 0 83.036137537930415 -252.88434439785124 0 -252.88434439785124 1019.5415386978129 0 0 0 0 3.6273166405760264 117.26906531119539 0 117.26906531119539 741.47673861029034 0 0 0 0 -107.48425786747396 -84.838840744734625 0 -84.838840744734625 608.27698119572597 0 0 0 0 2.5693380993273536 190.83511151695711 0 190.83511151695711 510.84760667607043 0 0 0 0 41.388929391671695 -121.16364600520001 0 -121.16364600520001 691.47874709198368 0 0 0 0 13.337102767563106 -26.284079084501386 0 -26.284079084501386 34.453115410188616 0 0 0 0 -45.614275638708193 -39.948437958853901 0 -39.948437958853901 626.74556419510259 0 0 0 0 23.560885169110406 -544.54099403524015 0 -544.54099403524015 -135.26989653341298 0 0 0 0 -299.07460635769576 190.98505889556009 0 190.98505889556009 348.33929284958867 0 0 0 0 142.94263724439625 823.20853223915765 0 823.20853223915765 2451.2423768081499 0 0 0 0 8.4945177523930049 -8.9787400967028077 0 -8.9787400967028077 12.422695344381964 0 0 0 0 54.009972772923732 181.61883036247309 0 181.61883036247309 622.86785428207565 0 0 0 0 -205.7210046101587 -415.95732533308183 0 -415.95732533308183 1637.5753417696833 0 0 0 0 -190.15516273390534 -567.43488181577686 0 -567.43488181577686 2572.8025186432933 0 0 0 0 23.77067482269868 -6.5998189548899262 0 -6.5998189548899262 0.59190488835363908 0 0 0 0 16.891465870374414 -5.9819976902049348 0 -5.9819976902049348 0.84455410142485476 0 0 0 0 174.83239070337095 -240.07110072070645 0 -240.07110072070645 347.45612306827752 0 0 0 0 -58.977205134924986 -506.26843338275648 0 -506.26843338275648 1692.6031661807147 0 0 0 0 -177.47933231095655 -165.23224287639096 0 -165.23224287639096 1449.4171750967653 0 0 0 0 165.14265730489123 -306.29941209892968 0 -306.29941209892968 1477.4320066319269 0 0 0 0 5.0031207639696467 -1.2639203653594251 0 -1.2639203653594251 1.6164814840115902 0 0 0 0 -161.09829853208424 -321.78336719017716 0 -321.78336719017716 2209.218026952236 0 0 0 0 -54.05217362979738 -211.68736768217786 0 -211.68736768217786 1174.5528994881861 0 0 0 0 102.96082002713933 -444.94382812636468 0 -444.94382812636468 1277.9001726081842 0 0 0 0 288.91833040892334 -656.99951152380891 0 -656.99951152380891 1151.9354116883751 0 0 0 0 -24.729702778575529 -305.55635416275254 0 -305.55635416275254 772.92263749019185 0 0 0 0 533.54819117305465 -36.797402822776348 0 -36.797402822776348 509.81706775778002 0 0 0 0 162.70764656935432 122.28679295790425 0 122.28679295790425 249.93920948493178 0 0 0 0 -116.06595157810966 -12.841715165573987 0 -12.841715165573987 797.16285997164232 0 0 0 0 183.39788206341791 -1.8888996859932377 0 -1.8888996859932377 347.94177859061892 0 0 0 0 71.505170023845494 152.07918053679168 0 152.07918053679168 295.05041994523708 0 0 0 0 -300.7610652065141 59.62894620768202 0 59.62894620768202 597.00531805068294 0 0 0 0 50.888301549512619 -113.32235395312273 0 -113.32235395312273 634.91592587018386 0 0 0 0 -99.352915064339527 54.137795311809896 0 54.137795311809896 1028.5746385156563 0 0 0 0 -131.27040287443606 129.70308362770447 0 129.70308362770447 45.806156959530199 0 0 0 0 48.211999774167964 43.029956797174236 0 43.029956797174236 201.95675983458204 0 0 0 0 -4.3255377866329825 2.7095056425167314 0 2.7095056425167314 -1.6468303454498923 0 0 0 0 -234.88938811724154 82.809796376946906 0 82.809796376946906 313.33555913966848 0 0 0 0 -204.94114545315119 132.62123634238014 0 132.62123634238014 95.666674062544189 0 0 0 0 92.722080759102937 221.75742636789346 0 221.75742636789346 152.2239938518178 0 0 0 0 89.564663197853406 213.03183560841717 0 213.03183560841717 145.39100476157182 0 0 0 0 60.351155243761013 244.53690873659252 0 244.53690873659252 58.119183396316657 0 0 0 0 -87.995262095374528 5.2260315173043637 0 5.2260315173043637 136.35009448654455 0 0 0 0 19.370648070263087 159.39111148112715 0 159.39111148112715 249.96367739737616 0 0 0 0 23.639091452048774 140.97889087704516 0 140.97889087704516 301.42716625172761 0 0 0 0 22.744014904902542 215.62079516146332 0 215.62079516146332 398.99486604086997 0 0 0 0 -64.960242760287883 145.17104305664543 0 145.17104305664543 569.02004499705799 0 0 0 0 -4.7359956735845117 182.73083266571484 0 182.73083266571484 395.71913230887731 0 0 0 0 -82.453500373528186 80.640781134025019 0 80.640781134025019 385.58333731374296 0 0 0 0 -182.66499951693277 5.1163422533863923 0 5.1163422533863923 426.7506104917411 0 0 0 0 -86.741294927755007 29.02212194405729 0 29.02212194405729 312.47680991609559 0 0 0 0 -180.08948625438052 -17.702288571153986 0 -17.702288571153986 592.52349879355461 0 0 0 0 -167.49602438651527 59.671549684862839 0 59.671549684862839 583.14511485245021 0 0 0 0 -277.56754288007119 32.643649621877557 0 32.643649621877557 596.84912981983507 0 0 0 0 -257.27940116314585 98.896778752663522 0 98.896778752663522 609.8669987172334 0 0 0 0 -221.65376306150574 106.0814130181825 0 106.0814130181825 609.14543655097532 0 0 0 0 -164.61092756952075 66.107171950992779 0 66.107171950992779 585.20903784479015 0 0 0 0 -82.15064430804523 70.337602140600211 0 70.337602140600211 543.04462161792617 0 0 0 0 -133.13290855259675 100.19431691486534 0 100.19431691486534 586.93181245445157 0 0 0 0 -178.7623956836826 62.767121550710726 0 62.767121550710726 200.04957437066332 0 0 0 0 -139.49342213315958 -87.093866439696285 0 -87.093866439696285 189.53477217102773 0 0 0 0 -418.2844075654375 59.736950304009952 0 59.736950304009952 671.19374794702162 0 0 0 0 -248.40421387579715 -232.19646551938422 0 -232.19646551938422 746.92771075534256 0 0 0 0 -414.26489968448936 11.799961724536843 0 11.799961724536843 1237.5290768460909 0 0 0 0 2.4720803952074402 -4.628459564450452 0 -4.628459564450452 10.247468552097075 0 0 0 0 704.62586929640167 1283.1416901962948 0 1283.1416901962948 1706.1011790545708 0 0 0 0 -266.21601512910547 -360.53188885130112 0 -360.53188885130112 -11.23597696289653 0 0 0 0 75.809025789593079 274.63381159031269 0 274.63381159031269 1114.5946820099489 0 0 0 0 673.81973158575056 594.72821648172976 0 594.72821648172976 695.06755157555017 0 0 0 0 -8.326376329888717 347.61909514319268 0 347.61909514319268 742.90453148653614 0 0 0 0 54.776010760568624 316.891951638303 0 316.891951638303 93.379006554590887 0 0 0 0 173.11412097156472 619.00288141203055 0 619.00288141203055 551.16780548782117 0 0 0 0 35.040118698206157 656.17837190541877 0 656.17837190541877 980.07783946134441 0 0 0 0 160.43913806689352 766.64776776935469 0 766.64776776935469 825.77741657958541 0 0 0 0 24.53256349741423 572.05211684163805 0 572.05211684163805 864.7377796660312 0 0 0 0 205.0083023260475 515.89382496519102 0 515.89382496519102 873.63912049772625 0 0 0 0 7.7185701967469784 -15.801679082640746 0 -15.801679082640746 28.44419187895258 0 0 0 0 -260.91126153916798 -73.90505092901185 0 -73.90505092901185 30.808457292769162 0 0 0 0 28.860295083080018 -7.9167266284057405 0 -7.9167266284057405 32.757844828914813 0 0 0 0 12.010628231697172 -28.024036471259166 0 -28.024036471259166 39.553700549686454 0 0 0 0 14.430491155686923 -601.88136193914397 0 -601.88136193914397 702.14649557739904 0 0 0 0 65.119091830606521 209.32264401830616 0 209.32264401830616 265.08636658442992 0 0 0 0 -14.355662227976985 -0.61346142254144809 0 -0.61346142254144809 10.816424927360877 0 0 0 0 -85.768351755773892 -39.446091797926783 0 -39.446091797926783 131.28612699557561 0 0 0 0 152.15904688146352 -14.141025928725867 0 -14.141025928725867 78.308326628968643 0 0 0 0 -22.39118559351823 311.09330837058951 0 311.09330837058951 -155.55854696441384 0 0 0 0 -4.4914492525079428 4.0082641753861594 0 4.0082641753861594 0.24716149261810827 0 0 0 0 -344.38720760869705 456.02271652346826 0 456.02271652346826 -95.594886814948495 0 0 0 0 -278.66851129941591 -102.57220846096675 0 -102.57220846096675 82.064268727612216 0 0 0 0 -16.079116676624775 -3.5504518017391717 0 -3.5504518017391717 18.686790958757534 0 0 0 0 162.88871807072655 340.80723186948308 0 340.80723186948308 -481.86502038202252 0 0 0 0 835.91259317799813 -457.49419760031742 0 -457.49419760031742 424.94294537734822 0 0 0 0 -107.5929170008967 270.22138908312627 0 270.22138908312627 2103.9985395487893 0 0 0 0 259.52473027228768 839.18032473087806 0 839.18032473087806 657.43672872061143 0 0 0 0 -420.76788072892816 635.61460888999864 0 635.61460888999864 1544.084909881436 0 0 0 0 -41.622848979766786 -516.96249196994177 0 -516.96249196994177 598.88362529969891 0 0 0 0 -362.56295307157711 -32.581855441007065 0 -32.581855441007065 1634.471312033289 0 0 0 0 1112.2075546664187 1180.4802780342361 0 1180.4802780342361 934.23078019422974 0 0 0 0 0.80686017517340192 -0.84516965121177279 0 -0.84516965121177279 15.085961994592765 0 0 0 0 267.55531775405393 460.32282854025016 0 460.32282854025016 331.15858941226907 0 0 0 0 49.537310780487132 54.640075589297339 0 54.640075589297339 72.491913649020717 0 0 0 0 -7.6758805704887267 2.6062098570699455 0 2.6062098570699455 42.02168778419724 0 0 0 0 -206.72683354985202 210.21158075779385 0 210.21158075779385 448.50515051514958 0 0 0 0 -45.398156927186619 123.96689631303161 0 123.96689631303161 95.802385919014341 0 0 0 0 -258.28944605860897 59.617241895546613 0 59.617241895546613 115.31166872257745 0 0 0 0 34.135698702482387 104.92743805683858 0 104.92743805683858 77.615035782619088 0 0 0 0 -13.52904863599656 -53.652604932643044 0 -53.652604932643044 276.52427783340681 0 0 0 0 -73.346012352509661 149.71523432782851 0 149.71523432782851 602.57167740872683 0 0 0 0 -361.50306768700534 87.62437729582598 0 87.62437729582598 688.83447938862082 0 0 0 0 -13.375937629720511 146.19999191453462 0 146.19999191453462 249.58632866576954 0 0 0 0 91.445230302942946 287.02681415566985 0 287.02681415566985 431.87672091862623 0 0 0 0 10.894351269301524 34.307647020388686 0 34.307647020388686 220.44443831252465 0 0 0 0 125.43708562245845 94.851800304221797 0 94.851800304221797 56.187887317311834 0 0 0 0 95.22842287057847 58.11708244458714 0 58.11708244458714 104.39412215686025 0 0 0 0 -121.9587113464404 148.90638257098908 0 148.90638257098908 167.94130173158192 0 0 0 0 -1.9863777493228429 0.45055758718186922 0 0.45055758718186922 13.179088044121386 0 0 0 0 -281.76203962718819 -21.545602905676787 0 -21.545602905676787 90.843006116032484 0 0 0 0 -279.3290696421459 -149.35709950019918 0 -149.35709950019918 54.204695505439304 0 0 0 0 188.86515787254484 172.02904610117912 0 172.02904610117912 281.05481483527547 0 0 0 0 -0.29943562882649388 -2.2164231845189235 0 -2.2164231845189235 18.878970390377503 0 0 0 0 302.15475391229938 136.47117029602668 0 136.47117029602668 38.1782739716582 0 0 0 0 392.86350476534676 697.16741731890943 0 697.16741731890943 799.92473838063597 0 0 0 0 741.77317028220295 297.17425072498008 0 297.17425072498008 107.89902580736452 0 0 0 0 789.74766172365435 1072.4131930557232 0 1072.4131930557232 1734.1368860656003 0 0 0 0 152.18078398605121 106.83005241253704 0 106.83005241253704 1463.810180211658 0 0 0 0 67.138962201562435 228.80542902584966 0 228.80542902584966 773.46237637101149 0 0 0 0 105.6036645401573 283.5878283090824 0 283.5878283090824 848.33765006128669 0 0 0 0 -407.26990156383181 -59.755342647360521 0 -59.755342647360521 576.88407965370425 0 0 0 0 -712.84277761853411 500.19533844602847 0 500.19533844602847 785.94197828799952 0 0 0 0 -91.946515132901823 608.5496657841577 0 608.5496657841577 -21.988911247259239 0 0 0 0 -283.53704668684748 411.72408285330675 0 411.72408285330675 944.9068234651204 0 0 0 0 -371.08764712707455 532.89025766894338 0 532.89025766894338 786.66830790641006 0 0 0 0 -149.72847421322012 584.20801574309189 0 584.20801574309189 723.63106353998592 0 0 0 0 212.8103433510214 416.15300490094523 0 416.15300490094523 369.89780538087143 0 0 0 0 411.1847407834648 -625.52631815549103 0 -625.52631815549103 631.25713157964492 0 0 0 0 118.1658865679783 -130.44497188862442 0 -130.44497188862442 343.67839291616838 0 0 0 0 0.76933480496956719 0.57454462261598849 0 0.57454462261598849 2.2169134549643559 0 0 0 0 236.26502026285289 -317.60596708903904 0 -317.60596708903904 692.92238664031902 0 0 0 0 497.10660712585741 -111.91121410913183 0 -111.91121410913183 35.660374029102059 0 0 0 0 0.2417740682367473 -0.0054139288955497022 0 -0.0054139288955497022 1.868866562863559 0 0 0 0 103.11860708385029 22.639285449818999 0 22.639285449818999 62.073397636408117 0 0 0 0 174.28578223614204 60.222333056637581 0 60.222333056637581 1.6676773515646346 0 0 0 0 -57.566072281150809 166.36669352357058 0 166.36669352357058 427.02924909807916 0 0 0 0 844.31989702939336 -191.6116303943636 0 -191.6116303943636 22.762805959129764 0 0 0 0 490.98491704349908 -1351.5660962646725 0 -1351.5660962646725 1233.1012650306293 0 0 0 0 1.4585362445710999 -2.395311275831169 0 -2.395311275831169 9.7179637625673649 0 0 0 0 709.88916324762977 -891.87291659816401 0 -891.87291659816401 1357.0539338906383 0 0 0 0 259.28639120073058 -455.27090076450622 0 -455.27090076450622 949.74565856989648 0 0 0 0 598.87083110971616 -534.3978067113203 0 -534.3978067113203 708.22157135198768 0 0 0 0 493.91413821368769 -594.91886439141672 0 -594.91886439141672 1561.4650029926779 0 0 0 0 485.24049279091923 -889.0917144464911 0 -889.0917144464911 1630.0582097086553 0 0 0 0 276.61919514223837 -719.88358625197361 0 -719.88358625197361 1588.2161231516657 0 0 0 0 72.078427950307741 163.32506191458106 0 163.32506191458106 3600.4864310084959 0 0 0 0 205.60407923569255 -83.325020222029707 0 -83.325020222029707 2453.6958514470898 0 0 0 0 124.10877419519511 -133.23360600996784 0 -133.23360600996784 2545.8149595320428 0 0 0 0 220.50890680397606 -398.17307278671615 0 -398.17307278671615 2449.165315633858 0 0 0 0 103.6328357712182 -652.34770864455277 0 -652.34770864455277 2179.4592854697112 0 0 0 0 -50.187536857723899 -621.63732913369313 0 -621.63732913369313 2830.4917620660126 0 0 0 0 -255.8692902112507 -423.89999354619795 0 -423.89999354619795 4002.190380809112 0 0 0 0 -630.93605715913145 383.79311929474352 0 383.79311929474352 4827.7596794600886 0 0 0 0 886.49036600604086 -1623.6563209040687 0 -1623.6563209040687 4371.8697153982794 0 0 0 0 856.90656592511368 -1380.5501892258835 0 -1380.5501892258835 2558.5339735605085 0 0 0 0 -46.214518826911444 -578.28915400413825 0 -578.28915400413825 3200.2634758789791 0 0 0 0 2426.1174762358751 -601.03500931964663 0 -601.03500931964663 2652.7674799531123 0 0 0 0 1726.0250329834989 104.02719129448815 0 104.02719129448815 3019.5575668249803 0 0 0 0 701.14333983797542 -289.80262430470066 0 -289.80262430470066 2640.6223238092352 0 0 0 0 315.61034792822829 1143.3021191155312 0 1143.3021191155312 1437.6054362942668 0 0 0 0 1.3717803293849276 1.8498362931540271 0 1.8498362931540271 29.372731281232063 0 0 0 0 2288.3862041629582 -2905.1451164592263 0 -2905.1451164592263 2900.8409746035832 0 0 0 0 -18.202810531885639 -11.876009543286813 0 -11.876009543286813 26.984870137745389 0 0 0 0 -3.3929124886343924 7.2936079113711259 0 7.2936079113711259 75.231343642366909 0 0 0 0 -205.38397304066166 -203.61467428228934 0 -203.61467428228934 4.8359035692774341 0 0 0 0 -29.535933664318009 212.701441358181 0 212.701441358181 -35.595428671804257 0 0 0 0 433.67725670682194 -627.23734102219169 0 -627.23734102219169 1643.9060719839617 0 0 0 0 -16.229991459515077 350.80773065263929 0 350.80773065263929 -138.64249542655307 0 0 0 0 -97.011444408679381 -199.5522996617874 0 -199.5522996617874 49.383588545322709 0 0 0 0 -5.293875451442414 3.7772559705693141 0 3.7772559705693141 5.7244915929225613 0 0 0 0 440.08939891131376 645.73651157299992 0 645.73651157299992 1087.2425335831358 0 0 0 0 184.67367259456114 -329.2729269233605 0 -329.2729269233605 6.2379085332868272 0 0 0 0 -0.82394310469739196 2.7763936755381735 0 2.7763936755381735 6.3218096423958627 0 0 0 0 -101.89079055908223 -490.21578713425697 0 -490.21578713425697 1695.634317485572 0 0 0 0 2.5873711694296802 12.0585649401377 0 12.0585649401377 22.550741546195496 0 0 0 0 -311.38923193210076 -130.38112800725139 0 -130.38112800725139 610.57060189594631 0 0 0 0 245.95004977903045 -590.63648959746934 0 -590.63648959746934 381.45597098088911 0 0 0 0 -612.46674894729222 432.94849461295053 0 432.94849461295053 -15.345646511341329 0 0 0 0 -96.684131146898835 93.753484902550554 0 93.753484902550554 50.148352361517027 0 0 0 0 -500.00343532701663 -44.303154971537879 0 -44.303154971537879 40.265379096981633 0 0 0 0 351.39230179189872 280.90410242951475 0 280.90410242951475 -279.40879687321285 0 0 0 0 88.176602633788207 -298.71805589288851 0 -298.71805589288851 3135.8508906018396 0 0 0 0 2.2170501239708678 4.1431289153660487 0 4.1431289153660487 7.1852964003441002 0 0 0 0 -260.6650776540223 -904.37494410249201 0 -904.37494410249201 2654.3825397509208 0 0 0 0 -121.53197946144064 -741.3739115327262 0 -741.3739115327262 1778.1236748093979 0 0 0 0 106.70827694480158 -1089.2859027982404 0 -1089.2859027982404 1447.1606263762515 0 0 0 0 -7.0405922345516956 -99.988014929738711 0 -99.988014929738711 382.89442593352578 0 0 0 0 -6.9518610785535264 -483.16535162520438 0 -483.16535162520438 1887.7971437764209 0 0 0 0 206.2520456823222 398.70096574344643 0 398.70096574344643 2147.7150869228935 0 0 0 0 570.82083950999913 -283.10602862361702 0 -283.10602862361702 2991.2560545316301 0 0 0 0 543.35156251532953 -757.37439059786266 0 -757.37439059786266 4258.8653890750938 0 0 0 0 537.12132740420111 -931.14019366115826 0 -931.14019366115826 2428.7082502259882 0 0 0 0 -7.0553091532246981 -483.62855290231528 0 -483.62855290231528 2139.0991836900066 0 0 0 0 1152.003364171801 -1508.2498402165438 0 -1508.2498402165438 2108.2249191942683 0 0 0 0 1177.575306378737 -1592.0888170344242 0 -1592.0888170344242 1641.6423225809413 0 0 0 0 839.94549362693942 -1018.8599223686979 0 -1018.8599223686979 1131.7749415060243 0 0 0 0 983.34073635632467 -266.54157121750177 0 -266.54157121750177 1315.2178287680154 0 0 0 0 11.784396654098593 -1.4332054378112673 0 -1.4332054378112673 2.1955305736161144 0 0 0 0 440.44627281363319 -1359.0289388553429 0 -1359.0289388553429 3033.270043213156 0 0 0 0 418.11997047273371 -103.66879767311548 0 -103.66879767311548 -12.755388252109697 0 0 0 0 -238.36325364821664 213.9566953101712 0 213.9566953101712 2372.3269298383284 0 0 0 0 807.36860242643957 -686.1816026704073 0 -686.1816026704073 663.63241106300848 0 0 0 0 418.41658985116737 -432.608138717158 0 -432.608138717158 1028.6260669128951 0 0 0 0 563.99095481927998 -591.81219685580436 0 -591.81219685580436 1012.805757376831 0 0 0 0 583.83321598106841 -510.98081819378058 0 -510.98081819378058 1342.044903532631 0 0 0 0 431.80015891800895 -791.60112952372219 0 -791.60112952372219 1556.0276727895107 0 0 0 0 893.75621447156118 -1261.9750732309258 0 -1261.9750732309258 1161.3137093475052 0 0 0 0 248.59474254039196 -525.57190421322412 0 -525.57190421322412 1223.6816200782123 0 0 0 0 1189.0928864712228 -1121.3402735814307 0 -1121.3402735814307 794.39517057770718 0 0 0 0 229.00622508407105 -630.02881231377069 0 -630.02881231377069 1476.6746300911764 0 0 0 0 1153.7141135706306 -1009.0235530368009 0 -1009.0235530368009 1381.8030972966444 0 0 0 0 972.39105745871348 -1729.1274640504707 0 -1729.1274640504707 1592.6351279366791 0 0 0 0 -58.89737455381146 -74.627347595582251 0 -74.627347595582251 219.32800993852652 0 0 0 0 956.15953703693776 -569.51934133335089 0 -569.51934133335089 290.52272742635978 0 0 0 0 1.6114946335373403 -6.8963918233733921 0 -6.8963918233733921 16.405056551210947 0 0 0 0 57.264896665838933 19.009560713631799 0 19.009560713631799 66.354161931274575 0 0 0 0 106.3873301693402 -60.18777842083 0 -60.18777842083 116.59680683577608 0 0 0 0 1.7768281744169236 0.9371877945426661 0 0.9371877945426661 -0.87545544494162186 0 0 0 0 5.0580311256944697 -206.58189037963893 0 -206.58189037963893 480.47659618722537 0 0 0 0 -56.118253571657988 -3.9622759894118644 0 -3.9622759894118644 210.00568922105595 0 0 0 0 16.382778755374602 71.179027530996791 0 71.179027530996791 76.380762523331214 0 0 0 0 -23.619014740856073 -5.4524744770751568 0 -5.4524744770751568 -10.768765416738461 0 0 0 0 27.424181259503939 5.9865014349024932 0 5.9865014349024932 120.59787721015164 0 0 0 0 -21.061963007129691 9.0650871573620861 0 9.0650871573620861 237.1670660963573 0 0 0 0 -120.60771497779933 43.946034818953194 0 43.946034818953194 124.11917481172713 0 0 0 0 -20.302910879664523 -6.1499523384736676 0 -6.1499523384736676 381.21247981861234 0 0 0 0 -10.687602547001514 -11.07193854859878 0 -11.07193854859878 97.706309452567837 0 0 0 0 -54.032770500540209 86.728665047870891 0 86.728665047870891 125.04782288242859 0 0 0 0 9.477800109600647 -50.147442481450611 0 -50.147442481450611 -26.94018197166011 0 0 0 0 33.976813984468208 -28.45844527985173 0 -28.45844527985173 11.485017313418211 0 0 0 0 4.3690302950760813 3.013192378635722 0 3.013192378635722 -1.9350112051741064 0 0 0 0 2.1581774207530859 -14.455590596506376 0 -14.455590596506376 1.1924560865651301 0 0 0 0 -13.633134487876305 -58.523845226300182 0 -58.523845226300182 64.124682388603105 0 0 0 0 -26.482266171195079 34.260077103041112 0 34.260077103041112 -6.3144040461775148 0 0 0 0 100.80452535764562 -39.794018777494784 0 -39.794018777494784 -89.252237633081677 0 0 0 0 -5.3610278037449461 -41.917322944640546 0 -41.917322944640546 -84.963768796471413 0 0 0 0 -4.1313592870173572 -13.517474436502397 0 -13.517474436502397 10.416391368174743 0 0 0 0 74.531495121319495 -127.73095075375204 0 -127.73095075375204 -78.785842938959831 0 0 0 0 34.659711656240233 -22.948256002505332 0 -22.948256002505332 -125.7804963432427 0 0 0 0 -55.913255575494986 -64.973269579480984 0 -64.973269579480984 -12.938458333439485 0 0 0 0 17.070123370009242 15.910564030091336 0 15.910564030091336 -25.641674454585882 0 0 0 0 -0.098561348353234379 -12.118010883032218 0 -12.118010883032218 18.424674268648886 0 0 0 0 -234.55914224262779 -116.43618338036504 0 -116.43618338036504 149.03781170872389 0 0 0 0 -53.353459770605696 17.50071058364847 0 17.50071058364847 68.530005818307473 0 0 0 0 268.39647655657018 -459.30302753866818 0 -459.30302753866818 222.6301030553368 0 0 0 0 842.99160006450256 -296.39190707375383 0 -296.39190707375383 -119.21123054080817 0 0 0 0 534.82067497671096 -922.11111783182969 0 -922.11111783182969 560.36385665887792 0 0 0 0 563.25735403066756 -832.83677891574189 0 -832.83677891574189 609.15914767677896 0 0 0 0 -122.52885068890828 116.08197590682539 0 116.08197590682539 357.0889898602436 0 0 0 0 -73.948295452820275 183.95914207888018 0 183.95914207888018 195.70696775169927 0 0 0 0 1429.1588357614701 -770.10917279853493 0 -770.10917279853493 261.50687786923663 0 0 0 0 72.990998909594055 -203.31571005500155 0 -203.31571005500155 668.2104803295224 0 0 0 0 3.8602803250122992 -5.534676916970497 0 -5.534676916970497 7.2715821836693522 0 0 0 0 38.342282042056468 143.69058385411336 0 143.69058385411336 -90.887169152749266 0 0 0 0 -135.33228570340543 -171.04631279817841 0 -171.04631279817841 246.92266583812307 0 0 0 0 -242.64303656740049 -158.49511493208411 0 -158.49511493208411 288.853828591411 0 0 0 0 -468.07068964093014 -16.57491889391531 0 -16.57491889391531 288.94674698617018 0 0 0 0 -156.35046250192499 -98.04005487275208 0 -98.04005487275208 175.59193391527515 0 0 0 0 -231.7447380097974 175.54816473476603 0 175.54816473476603 -158.07149997042143 0 0 0 0 -219.91783495442905 -14.09080303562223 0 -14.09080303562223 52.439165626667091 0 0 0 0 -178.36485595586964 29.107097603278817 0 29.107097603278817 87.38191522845591 0 0 0 0 -167.01025175195173 -64.051523982008803 0 -64.051523982008803 206.63764592530788 0 0 0 0 -17.238113953106222 94.168914866095292 0 94.168914866095292 -11.925667551455263 0 0 0 0 -241.84583484663017 177.2695927815862 0 177.2695927815862 17.483008693423471 0 0 0 0 78.589755578263066 -329.93683011896064 0 -329.93683011896064 347.42166339737014 0 0 0 0 6.9578254026498314 20.354180479695287 0 20.354180479695287 32.589191871015061 0 0 0 0 254.05828616337379 78.992428813082881 0 78.992428813082881 269.63894271205936 0 0 0 0 144.33601284838926 -106.59864095828561 0 -106.59864095828561 102.38035108812619 0 0 0 0 -11.927569440248389 -2.4599564145680048 0 -2.4599564145680048 99.800482410334723 0 0 0 0 -113.55908330839429 74.121132026368286 0 74.121132026368286 237.33923142603544 0 0 0 0 57.664156852742735 -261.44740917984745 0 -261.44740917984745 171.97434882946254 0 0 0 0 0.49479047817091981 -75.286718326893066 0 -75.286718326893066 80.760255463202185 0 0 0 0 13.119727816026973 24.025854938669227 0 24.025854938669227 55.435194802919455 0 0 0 0 -93.390316141947551 -28.340625645942055 0 -28.340625645942055 125.0927115741797 0 0 0 0 -96.496993195816685 43.398050948926539 0 43.398050948926539 149.00398959469749 0 0 0 0 54.756834895893917 -226.18715181919106 0 -226.18715181919106 -70.088545246180729 0 0 0 0 -28.688710413348417 -111.91127333327859 0 -111.91127333327859 -67.195205312076723 0 0 0 0 -51.220264278445029 -128.26981321571657 0 -128.26981321571657 -38.712549501782632 0 0 0 0 180.70293019174278 -82.439974044107657 0 -82.439974044107657 -62.135120794016984 0 0 0 0 147.65005592568559 -340.56356064863212 0 -340.56356064863212 84.869590586124104 0 0 0 0 23.759548694557452 -240.62829895789037 0 -240.62829895789037 66.436922428871185 0 0 0 0 3.7206064941836985 -83.31778042229908 0 -83.31778042229908 88.439658162787424 0 0 0 0 -93.09042904830676 -15.617007013694092 0 -15.617007013694092 344.61336632177699 0 0 0 0 -23.915353440623221 69.437465990107739 0 69.437465990107739 267.77957856151625 0 0 0 0 -91.825797962061188 -42.726648506548372 0 -42.726648506548372 256.50548305551638 0 0 0 0 -96.516777272194844 7.153184971862462 0 7.153184971862462 149.04667598463129 0 0 0 0 -26.296330563123774 35.879078393074451 0 35.879078393074451 160.74476008451893 0 0 0 0 -21.0279240245236 -51.601946653769119 0 -51.601946653769119 198.77945208836172 0 0 0 0 -73.284665723422222 -55.801568135939306 0 -55.801568135939306 668.82576358148071 0 0 0 0 188.94352007007183 -223.60240503892419 0 -223.60240503892419 329.6890993379493 0 0 0 0 -20.180728760078637 -68.591840024993871 0 -68.591840024993871 26.691857099503977 0 0 0 0 -6.0320943515989924 -54.067829235502955 0 -54.067829235502955 -20.454812638176918 0 0 0 0 -58.878721646589838 -3.2121857516322052 0 -3.2121857516322052 -48.751836890703999 0 0 0 0 130.77711863371496 -92.987230960629404 0 -92.987230960629404 -74.091311878350098 0 0 0 0 1.4154981841761725 -3.6820409768878051 0 -3.6820409768878051 -8.113463951274241 0 0 0 0 1.6737475402987911 -135.96084410090407 0 -135.96084410090407 366.16660657117609 0 0 0 0 0.86200108727643965 -77.068545371774235 0 -77.068545371774235 -17.623528323878418 0 0 0 0 -72.675126175712649 -92.346125205731369 0 -92.346125205731369 -33.316929055203218 0 0 0 0 -4.0196143056959635 -40.671797285615312 0 -40.671797285615312 31.266618643960783 0 0 0 0 -3.8517465487859468 -4.2093924013772153 0 -4.2093924013772153 10.354972548505714 0 0 0 0 -123.5075444961476 -119.25546802383906 0 -119.25546802383906 203.08811944025365 0 0 0 0 -132.74761570364353 -117.25151695949899 0 -117.25151695949899 421.6812934113841 0 0 0 0 -114.45916347324601 -208.4611213147291 0 -208.4611213147291 271.58714216019143 0 0 0 0 -89.1585886328171 -256.44501324954763 0 -256.44501324954763 355.15636961729615 0 0 0 0 -117.89304294000613 -209.9583648587577 0 -209.9583648587577 272.1032198950561 0 0 0 0 42.929278884499581 -28.206425220912934 0 -28.206425220912934 192.8267549439006 0 0 0 0 -8.1828935006128631 -22.811825386343116 0 -22.811825386343116 191.35382071069034 0 0 0 0 28.925662586581893 -57.080567759163387 0 -57.080567759163387 53.410408424795605 0 0 0 0 -26.710979204111936 -67.302721572952578 0 -67.302721572952578 140.26185682660434 0 0 0 0 -4.0742260184879342 -38.624900572373008 0 -38.624900572373008 23.962413625515183 0 0 0 0 0.27692664831057812 -34.187952357545925 0 -34.187952357545925 20.866182987541436 0 0 0 0 0.3333284293039469 -29.018959505920066 0 -29.018959505920066 5.768145560828998 0 0 0 0 16.852272524994078 -47.38418979663038 0 -47.38418979663038 -16.386666359307128 0 0 0 0 -2.872931191189803 -23.445694149615662 0 -23.445694149615662 24.584567296123844 0 0 0 0 -15.735782956746306 -14.348787974729461 0 -14.348787974729461 72.378517929070568 0 0 0 0 -16.01563435296157 -29.618669513969508 0 -29.618669513969508 37.041777139267651 0 0 0 0 -0.73941919263715761 -21.920818818314601 0 -21.920818818314601 11.460032782713064 0 0 0 0 49.45527580092039 -51.316648378382524 0 -51.316648378382524 -0.42935199705971172 0 0 0 0 -35.652248862270426 -63.279554187542089 0 -63.279554187542089 185.53402951207681 0 0 0 0 -4.348541068870329 -9.0190786147489774 0 -9.0190786147489774 5.4018270677655096 0 0 0 0 107.90063567870311 -134.77257756383187 0 -134.77257756383187 83.736995981540531 0 0 0 0 10.465641650176167 -18.911718374851262 0 -18.911718374851262 94.982609818442143 0 0 0 0 -91.440658141460517 -190.64345624836642 0 -190.64345624836642 225.89657537170569 0 0 0 0 -110.39550173718817 -133.76322674615949 0 -133.76322674615949 93.893739696788543 0 0 0 0 -319.48034668981745 151.34650786657949 0 151.34650786657949 82.827110800362789 0 0 0 0 106.00422237999555 -293.17132923094323 0 -293.17132923094323 126.82282298995415 0 0 0 0 365.12656394975784 -343.17791503357148 0 -343.17791503357148 136.36790165730781 0 0 0 0 -311.60006995592994 -129.26625223446536 0 -129.26625223446536 680.95961222287951 0 0 0 0 -51.483508079320018 272.8924611388029 0 272.8924611388029 -258.31683391769184 0 0 0 0 101.69255040741302 -178.70858457015629 0 -178.70858457015629 702.86658470037219 0 0 0 0 -425.99521757966613 444.36869948271487 0 444.36869948271487 -170.80064536742793 0 0 0 0 -2.5128069033975287 -0.17704519513470984 0 -0.17704519513470984 0.41689060660650057 0 0 0 0 -44.967221959148446 -70.227609693807608 0 -70.227609693807608 1225.7658962221321 0 0 0 0 238.22283202192921 -324.20685614927788 0 -324.20685614927788 589.723895597519 0 0 0 0 -350.48208962117496 -545.62580116700701 0 -545.62580116700701 118.23453629402502 0 0 0 0 -211.60075663235057 -727.41000256032112 0 -727.41000256032112 -567.16515269455704 0 0 0 0 -323.40310864157436 -232.8131111045077 0 -232.8131111045077 602.34147143900191 0 0 0 0 -5.7988970588221491 -413.74114083040695 0 -413.74114083040695 -645.11068060895923 0 0 0 0 -209.06195738558199 -351.20199259400033 0 -351.20199259400033 -147.9036478849448 0 0 0 0 -91.648337270915363 -331.4991554182343 0 -331.4991554182343 -153.13224199896649 0 0 0 0 9.6108965492057905 368.86750922985084 0 368.86750922985084 910.82514115341473 0 0 0 0 -0.77486576550067099 -2.682939491552105 0 -2.682939491552105 3.1595419560184865 0 0 0 0 142.5781180709987 175.92886713381631 0 175.92886713381631 443.68754992350296 0 0 0 0 -69.834944975918916 304.76650239470473 0 304.76650239470473 1164.7113455162707 0 0 0 0 -152.98359282661113 -130.49018122287816 0 -130.49018122287816 -482.70864959207393 0 0 0 0 -10.64642222472321 -34.565531879004993 0 -34.565531879004993 780.74877137044678 0 0 0 0 -13.052804749178904 34.828369631621172 0 34.828369631621172 668.99992501358065 0 0 0 0 83.598719072783069 -314.85489505660189 0 -314.85489505660189 400.71230333256244 0 0 0 0 -42.56248034841974 -39.058367146320961 0 -39.058367146320961 354.66801503166425 0 0 0 0 -0.65013768017995943 -0.61346441718481515 0 -0.61346441718481515 0.58252308480623327 0 0 0 0 -38.429860424853587 -56.076628320344753 0 -56.076628320344753 364.15375763182965 0 0 0 0 -24.496834065690564 39.512359060146991 0 39.512359060146991 602.16343241886716 0 0 0 0 32.580697078818048 40.709931421457441 0 40.709931421457441 389.39253245386681 0 0 0 0 -1.1934736235889432 15.866962578307721 0 15.866962578307721 269.91446338866808 0 0 0 0 9.5120498836386105 -23.325732394230727 0 -23.325732394230727 410.48510663348497 0 0 0 0 -27.444346341364508 116.36931248364272 0 116.36931248364272 373.33566027770758 0 0 0 0 9.1607645755184421 -107.39110980292389 0 -107.39110980292389 256.05488645054356 0 0 0 0 28.17158989678137 96.587621263281108 0 96.587621263281108 313.5910540276891 0 0 0 0 -11.809507860368306 -10.662089452465381 0 -10.662089452465381 1.6526993777652592 0 0 0 0 -219.07584903894895 -121.19465517757999 0 -121.19465517757999 145.57507139004156 0 0 0 0 -734.46883620083827 516.21185101123046 0 516.21185101123046 -194.55366494492409 0 0 0 0 -313.9341190752184 -143.11268558568918 0 -143.11268558568918 265.8615455546169 0 0 0 0 -277.31111299389249 142.00823392930397 0 142.00823392930397 -30.984372270962922 0 0 0 0 38.413299444979202 -82.638187834207201 0 -82.638187834207201 49.203347012895392 0 0 0 0 -55.930432368611946 30.214618563979457 0 30.214618563979457 38.538895775989658 0 0 0 0 -0.99766178013372731 -2.2421249837256099 0 -2.2421249837256099 0.015575154048349305 0 0 0 0 -12.295711170162026 -13.341436846871687 0 -13.341436846871687 1.7428491564655815 0 0 0 0 63.687112637380778 -31.497958252191893 0 -31.497958252191893 -33.722371825322625 0 0 0 0 -28.284003259977908 -19.287063438256155 0 -19.287063438256155 81.44158657679327 0 0 0 0 207.24263064389834 -383.64104392691661 0 -383.64104392691661 655.59708329349814 0 0 0 0 171.22576613271667 -154.44873312552954 0 -154.44873312552954 104.92351984283596 0 0 0 0 248.48371209710695 86.051385754159128 0 86.051385754159128 -80.080392559393658 0 0 0 0 195.35709104851776 -252.59680142129218 0 -252.59680142129218 98.236991855686938 0 0 0 0 422.77631120429851 -25.3689224267182 0 -25.3689224267182 170.30059504043311 0 0 0 0 153.20398806319645 -96.469370153681666 0 -96.469370153681666 764.72529405230307 0 0 0 0 -93.350540478542143 50.483685635667371 0 50.483685635667371 -134.4657936400763 0 0 0 0 -0.10096727086754953 2.4225628971845481 0 2.4225628971845481 9.3714343858426616 0 0 0 0 21.855482989892153 -596.36784498095585 0 -596.36784498095585 435.69107864086254 0 0 0 0 37.026770130886689 -519.81861188651601 0 -519.81861188651601 776.56996268971216 0 0 0 0 148.37773922726137 -847.25889883621312 0 -847.25889883621312 745.30842757124628 0 0 0 0 761.03908263691756 -340.07295133805746 0 -340.07295133805746 71.213510830573796 0 0 0 0 -1.9625811014921011 -7.130265933654405 0 -7.130265933654405 8.9214500260233365 0 0 0 0 380.2732820777801 516.74861468028394 0 516.74861468028394 95.50181359508133 0 0 0 0 -429.02149939638366 109.04365117750348 0 109.04365117750348 150.36611291824374 0 0 0 0 -336.98490840496743 163.83688941218861 0 163.83688941218861 71.582371481112204 0 0 0 0 -58.66783672789461 29.856304821259982 0 29.856304821259982 75.449317432721728 0 0 0 0 -268.40181273031703 137.98092686393647 0 137.98092686393647 77.072383973049 0 0 0 0 -311.10819771499519 0.28521001515036914 0 0.28521001515036914 235.67100179684348 0 0 0 0 -220.55985956619224 -93.503069296682952 0 -93.503069296682952 24.294919955122168 0 0 0 0 -325.9591372127054 -116.43741063179039 0 -116.43741063179039 229.63825371200801 0 0 0 0 -12.313772857552976 -139.571187405214 0 -139.571187405214 -70.546446566426312 0 0 0 0 -24.129723566580651 -182.55285266218561 0 -182.55285266218561 25.526226977755186 0 0 0 0 -59.606314508756441 41.544588598819246 0 41.544588598819246 -54.774420095527603 0 0 0 0 2.8329962048935329 8.0002589841620875 0 8.0002589841620875 17.695258061604619 0 0 0 0 71.058286835621402 0.61214210213074693 0 0.61214210213074693 -139.67642392796552 0 0 0 0 177.46944319306863 -402.0597697219514 0 -402.0597697219514 260.26472093726625 0 0 0 0 -35.845028800689761 -92.024563232916989 0 -92.024563232916989 -82.3114149605899 0 0 0 0 -91.820682710553228 -254.90603074610772 0 -254.90603074610772 640.14186311740559 0 0 0 0 -40.892268647663059 -409.42822650906146 0 -409.42822650906146 478.09852718262118 0 0 0 0 -5.3387278425559437 -1.9812268214675726 0 -1.9812268214675726 0.13455059993809471 0 0 0 0 -48.890518573734539 -201.93913885295706 0 -201.93913885295706 188.90310425052303 0 0 0 0 -338.60530343506616 -268.48432230722756 0 -268.48432230722756 411.58976854305001 0 0 0 0 -484.19605343388776 76.252554532889917 0 76.252554532889917 407.66399522157008 0 0 0 0 101.75169270489914 136.34138837276259 0 136.34138837276259 306.66186466954241 0 0 0 0 -166.88231975404869 248.59519021343658 0 248.59519021343658 360.57059910694807 0 0 0 0 -138.56263811077497 -303.18849071422301 0 -303.18849071422301 321.97690894866855 0 0 0 0 140.90271154446236 83.197443772914994 0 83.197443772914994 974.21243711152965 0 0 0 0 446.34015535528124 222.96511331279544 0 222.96511331279544 298.6711495269119 0 0 0 0 106.02197745956596 221.74778667055307 0 221.74778667055307 792.25480401696404 0 0 0 0 351.47502353222535 70.883503891340297 0 70.883503891340297 1511.6834663816553 0 0 0 0 332.01827778419465 -128.74342279336997 0 -128.74342279336997 639.93624952434038 0 0 0 0 1009.0525839896113 -132.32855421219574 0 -132.32855421219574 819.08193757953086 0 0 0 0 811.79964805867667 -860.45930056642828 0 -860.45930056642828 1386.0006729891079 0 0 0 0 1332.1266211647135 -285.97570273281963 0 -285.97570273281963 1132.381157417738 0 0 0 0 336.13214939875718 -441.79226751150873 0 -441.79226751150873 1128.122578744973 0 0 0 0 348.65423711610583 -817.62275647219576 0 -817.62275647219576 641.2213097763015 0 0 0 0 435.58116802393306 -1031.5180925326385 0 -1031.5180925326385 1093.6162086730421 0 0 0 0 624.2369034876358 -584.05452551903545 0 -584.05452551903545 1391.5166160086665 0 0 0 0 -94.119882740846151 -572.59191326781365 0 -572.59191326781365 411.21806531441234 0 0 0 0 -746.74869298583076 -64.902676174635531 0 -64.902676174635531 513.41505162945396 0 0 0 0 -33.988172363836838 -42.963599488075488 0 -42.963599488075488 949.65871877868631 0 0 0 0 295.01977199930457 -593.96076779690793 0 -593.96076779690793 641.94945510358957 0 0 0 0 89.641097995048767 -758.20236024276164 0 -758.20236024276164 924.34808043033991 0 0 0 0 -13.992412193691507 -498.6790204821873 0 -498.6790204821873 463.036272217847 0 0 0 0 528.68924870517185 -833.75878932770866 0 -833.75878932770866 346.46467454385947 0 0 0 0 41.940588601059062 -562.76697440825956 0 -562.76697440825956 373.18293266307592 0 0 0 0 225.01708592858085 -843.0058282512764 0 -843.0058282512764 587.30797890957365 0 0 0 0 261.32733632461259 -864.07751301700227 0 -864.07751301700227 659.14691117488837 0 0 0 0 478.29015784363219 -1032.7917230475068 0 -1032.7917230475068 775.03077512705204 0 0 0 0 285.43997211882015 -871.35345180899458 0 -871.35345180899458 747.32896987861022 0 0 0 0 301.80124476853302 -941.20898488048715 0 -941.20898488048715 590.16633430610818 0 0 0 0 285.22216133806148 -948.69926303786633 0 -948.69926303786633 721.67688496181654 0 0 0 0 253.93066765303229 -856.92021127830594 0 -856.92021127830594 537.82273599824111 0 0 0 0 558.88556351080933 -1013.9574487854952 0 -1013.9574487854952 571.97856535618121 0 0 0 0 626.61627100534838 -1145.958694468869 0 -1145.958694468869 797.08230297239061 0 0 0 0 594.48528836513105 -749.42301543338181 0 -749.42301543338181 153.15390004112123 0 0 0 0 279.8008346736051 -511.08921049632409 0 -511.08921049632409 252.0787451855922 0 0 0 0 252.99840136415605 -760.30911777880101 0 -760.30911777880101 422.97821960680085 0 0 0 0 416.53898010564353 -673.18894899783118 0 -673.18894899783118 427.01223980241775 0 0 0 0 200.29195957572733 -135.39999730281124 0 -135.39999730281124 31.317129691204173 0 0 0 0 127.31807829534182 -406.33196387202406 0 -406.33196387202406 565.07365222016233 0 0 0 0 56.153291573247316 -286.24305659839865 0 -286.24305659839865 371.37299475630425 0 0 0 0 23.741161251256472 -254.02960448477825 0 -254.02960448477825 716.25626356477005 0 0 0 0 135.48601812269681 -520.22328805421785 0 -520.22328805421785 1260.9386220152373 0 0 0 0 269.59865561990409 -775.1164482663371 0 -775.1164482663371 1005.6021071669675 0 0 0 0 405.7689212979908 -898.88695871948039 0 -898.88695871948039 1113.8693187108729 0 0 0 0 38.332894630558712 -486.36260044045412 0 -486.36260044045412 976.20153903097889 0 0 0 0 273.1677881276903 -818.041986151331 0 -818.041986151331 692.16899188553361 0 0 0 0 -537.19908797773996 -368.63637485172148 0 -368.63637485172148 1479.4011440611303 0 0 0 0 307.85677798938241 -14.023447322069842 0 -14.023447322069842 -262.60378739817975 0 0 0 0 626.83610585237193 -750.24897873437658 0 -750.24897873437658 -331.93507252905692 0 0 0 0 6.5641875572171493 -7.5338482233200921 0 -7.5338482233200921 6.5956930009457153 0 0 0 0 70.63863169715296 -381.98141122174275 0 -381.98141122174275 33.686506749218097 0 0 0 0 -444.7283207769633 7.7824832001715549 0 7.7824832001715549 1074.9066643926417 0 0 0 0 124.66017555575354 -95.430911365245265 0 -95.430911365245265 53.696779349265853 0 0 0 0 406.7599114750787 -382.58560461301204 0 -382.58560461301204 51.254832026454096 0 0 0 0 -518.00305926825604 -556.58905825695911 0 -556.58905825695911 59.457352819098105 0 0 0 0 10.799261562438193 -14.574466215221591 0 -14.574466215221591 15.536629986227496 0 0 0 0 -83.44161294029459 6.3244550093386351 0 6.3244550093386351 -112.47862195272319 0 0 0 0 838.70739370350441 -727.10928701327066 0 -727.10928701327066 -275.0154658059555 0 0 0 0 6.6487002200923424 -7.4832403151193319 0 -7.4832403151193319 6.9733973126156172 0 0 0 0 -507.87945979224514 -571.67587440372154 0 -571.67587440372154 194.30052124438953 0 0 0 0 -25.237106044242864 -79.300405797632266 0 -79.300405797632266 248.18594691335943 0 0 0 0 97.705058317907287 -464.53270058255475 0 -464.53270058255475 1345.6942478263372 0 0 0 0 -315.68880103816321 -317.86999602830747 0 -317.86999602830747 1560.7883685610796 0 0 0 0 -332.88182223623369 -275.05954940451011 0 -275.05954940451011 1457.2938085897877 0 0 0 0 -110.38965090435295 -182.6153719003778 0 -182.6153719003778 1358.8707655459948 0 0 0 0 -503.14567590710578 -390.52982348463229 0 -390.52982348463229 1872.3815158526413 0 0 0 0 -481.48963960168203 104.29954743947019 0 104.29954743947019 1334.510499440039 0 0 0 0 743.65207203844875 -639.22888352485461 0 -639.22888352485461 1412.5259052995498 0 0 0 0 -103.25103970303292 -430.65272239052138 0 -430.65272239052138 1459.6974138898695 0 0 0 0 -111.52060384450778 -378.85298109300129 0 -378.85298109300129 1295.2788012992351 0 0 0 0 571.28933147884516 -59.860626540943485 0 -59.860626540943485 1157.8455953944285 0 0 0 0 1186.9808393514127 -121.13030592501309 0 -121.13030592501309 1079.5749673523169 0 0 0 0 2326.694885646466 -1439.006560436479 0 -1439.006560436479 495.46750943962252 0 0 0 0 444.34199063507504 -1022.5314189293285 0 -1022.5314189293285 1948.896569885037 0 0 0 0 10.196658668975001 2.7929218929137392 0 2.7929218929137392 2.9647977561549794 0 0 0 0 -1643.9100387458432 33.810978834384514 0 33.810978834384514 3132.7574040279178 0 0 0 0 1790.8105499694229 -1732.8166346788839 0 -1732.8166346788839 1059.5686763493068 0 0 0 0 251.22078955975485 236.72690243131365 0 236.72690243131365 114.73742299138394 0 0 0 0 0.71844066156278508 -6.6248250803146789 0 -6.6248250803146789 28.870753139626487 0 0 0 0 -676.11892470534394 53.256259139248868 0 53.256259139248868 1259.051884644321 0 0 0 0 -297.70914992495136 -127.46474153644886 0 -127.46474153644886 1499.3180131766012 0 0 0 0 301.79338429011159 279.37655452331092 0 279.37655452331092 387.50233399189528 0 0 0 0 -20.160956581140137 -2.2357141499791737 0 -2.2357141499791737 13.730552943908719 0 0 0 0 6.9328884760828613 7.2937996709812865 0 7.2937996709812865 2.8927051707389069 0 0 0 0 -186.25467886730371 -179.51345206601036 0 -179.51345206601036 1098.8285339153554 0 0 0 0 87.696389342434941 167.6919284396281 0 167.6919284396281 234.90744568304399 0 0 0 0 -221.39605423053126 -310.66577738160595 0 -310.66577738160595 783.83295397878464 0 0 0 0 179.1871861709169 -125.92342551592264 0 -125.92342551592264 125.8554108889366 0 0 0 0 260.63994056934189 -377.43654962798792 0 -377.43654962798792 89.117581516664359 0 0 0 0 562.99137622667956 -711.59446064645817 0 -711.59446064645817 436.69361950960683 0 0 0 0 1654.8654587313213 -855.4756795273106 0 -855.4756795273106 225.14846081003907 0 0 0 0 136.26658852912055 -710.21664328031943 0 -710.21664328031943 1783.9892105283488 0 0 0 0 327.00695434576528 597.0951044552271 0 597.0951044552271 550.18171324734885 0 0 0 0 33.256637405351512 -161.7999316517197 0 -161.7999316517197 123.90481354459553 0 0 0 0 -202.85056753426252 -74.386026027952681 0 -74.386026027952681 135.45331077207084 0 0 0 0 0.07837928404234662 -9.8647137479715656 0 -9.8647137479715656 113.21414211652358 0 0 0 0 -78.201136765690535 -53.290147332820197 0 -53.290147332820197 109.40158901008181 0 0 0 0 104.33534800329221 278.60558649242444 0 278.60558649242444 72.207930909268725 0 0 0 0 -617.57524151452981 -23.725688350236851 0 -23.725688350236851 570.67298213732647 0 0 0 0 -63.667768397756845 -43.959797380573946 0 -43.959797380573946 30.568160108563461 0 0 0 0 -443.65756495871256 -116.33750983207698 0 -116.33750983207698 137.60058990080142 0 0 0 0 -0.52499029401007313 -10.891728028212759 0 -10.891728028212759 77.774962682756438 0 0 0 0 -172.80371196303804 -471.288014310785 0 -471.288014310785 590.49948098494679 0 0 0 0 581.27127569137042 -705.19819278360228 0 -705.19819278360228 307.26129103464336 0 0 0 0 12.68751445523958 -202.57569698675434 0 -202.57569698675434 -96.16983360962513 0 0 0 0 255.14643752599113 149.71250518571105 0 149.71250518571105 58.191946215294593 0 0 0 0 137.09370418372237 158.44331075631271 0 158.44331075631271 286.15370232287296 0 0 0 0 -55.296712626039607 -73.306506885834096 0 -73.306506885834096 77.381883121578312 0 0 0 0 -98.714476325162195 117.38430551743204 0 117.38430551743204 270.51719963298819 0 0 0 0 -20.313102905133746 134.21937034002985 0 134.21937034002985 269.91304929947 0 0 0 0 -37.30196454007455 262.58198635666849 0 262.58198635666849 373.40138532780111 0 0 0 0 194.10045541297154 250.97341364924705 0 250.97341364924705 212.56528139046713 0 0 0 0 64.598908779545127 193.32996815933802 0 193.32996815933802 187.18527102657754 0 0 0 0 64.515320684779425 188.78694953334053 0 188.78694953334053 185.99060974357417 0 0 0 0 15.015412913882756 349.37948321405202 0 349.37948321405202 438.26660056838955 0 0 0 0 -72.439511882434601 30.021577604273034 0 30.021577604273034 763.56501474531251 0 0 0 0 -70.861453955997945 34.966034329614786 0 34.966034329614786 247.83855702243454 0 0 0 0 2.1384768561592864 93.995245265996346 0 93.995245265996346 295.44108063249223 0 0 0 0 -49.694740522888424 -70.395887555219815 0 -70.395887555219815 311.6149917657749 0 0 0 0 -2.7699889502437145 -174.16496247061286 0 -174.16496247061286 133.46925383891357 0 0 0 0 163.1702369425393 -326.25511046362953 0 -326.25511046362953 448.76382895986535 0 0 0 0 13.693833867785543 -65.504848551219766 0 -65.504848551219766 106.3651742402435 0 0 0 0 43.004447045193615 10.575819122628218 0 10.575819122628218 126.94706726990989 0 0 0 0 -15.593530622723847 -86.14687580525424 0 -86.14687580525424 116.64037378396461 0 0 0 0 -45.004264072639216 -104.1403360743152 0 -104.1403360743152 123.62576751466986 0 0 0 0 -71.670960886189278 -90.830854338608333 0 -90.830854338608333 121.17170285883185 0 0 0 0 -35.606721758559615 -97.293895365131903 0 -97.293895365131903 88.781934685932356 0 0 0 0 -13.047523558491775 -62.019181398613 0 -62.019181398613 83.556974109683324 0 0 0 0 -31.21033819537206 -111.62363397103036 0 -111.62363397103036 126.97042329618853 0 0 0 0 -10.492676948126586 -52.416811504403086 0 -52.416811504403086 0.28682164277415723 0 0 0 0 -18.151825822147995 -4.5043366048218019 0 -4.5043366048218019 6.6649789095221763 0 0 0 0 10.135401847965454 -47.266394498146838 0 -47.266394498146838 84.897738070365449 0 0 0 0 -38.909469269742658 -55.532700332681998 0 -55.532700332681998 111.24808595866853 0 0 0 0 -47.960217339935298 -58.823629044971312 0 -58.823629044971312 114.04852621215105 0 0 0 0 105.00833465850246 96.091603964327078 0 96.091603964327078 -116.69383256256697 0 0 0 0 -100.89736502598407 -104.15446387814154 0 -104.15446387814154 93.374339755562687 0 0 0 0 -39.488149513572353 -180.56987013239632 0 -180.56987013239632 -16.945619989885017 0 0 0 0 2.7738973443410941 -143.04326172589208 0 -143.04326172589208 43.478483547522046 0 0 0 0 -16.511697285744958 -94.595570564968511 0 -94.595570564968511 83.729042672370269 0 0 0 0 37.457708228720549 -85.75708420454248 0 -85.75708420454248 -122.64909997171344 0 0 0 0 -9.6283815139781836 -49.382748433825327 0 -49.382748433825327 142.69687211409291 0 0 0 0 17.589515287770155 -37.342680240326445 0 -37.342680240326445 136.72720329008007 0 0 0 0 -8.7911389171331464 -2.5595227374482903 0 -2.5595227374482903 -1.6515390093159752 0 0 0 0 -17.81628840452413 10.097143153536308 0 10.097143153536308 52.079761981673073 0 0 0 0 8.8377021806045377 -52.856910918241738 0 -52.856910918241738 118.56495582954813 0 0 0 0 -16.275448799604582 13.525971405856865 0 13.525971405856865 16.271071146593897 0 0 0 0 -8.559805480925359 -6.9000665308194584 0 -6.9000665308194584 83.261393613713153 0 0 0 0 -11.370147221808475 15.702860159032397 0 15.702860159032397 19.289042162295331 0 0 0 0 -12.005196285046393 12.02697005335223 0 12.02697005335223 14.666655522232567 0 0 0 0 -24.280394007225141 6.8800035997264786 0 6.8800035997264786 238.33687202918372 0 0 0 0 -45.681334058267112 -13.942634640268807 0 -13.942634640268807 282.21371919102239 0 0 0 0 -45.194825168448006 -18.684486874048162 0 -18.684486874048162 289.43518518403289 0 0 0 0 -22.925496443556312 15.057606481383118 0 15.057606481383118 249.63292286676733 0 0 0 0 -23.499608527756976 21.033352159457763 0 21.033352159457763 263.13841061337007 0 0 0 0 40.506492907611573 -69.365241445135325 0 -69.365241445135325 212.10990537942416 0 0 0 0 -33.531848568011583 -30.520214801283146 0 -30.520214801283146 239.88175760907905 0 0 0 0 -15.55491492983173 48.180627773940664 0 48.180627773940664 50.831705813038155 0 0 0 0 6.941446612072621 -20.45815138185862 0 -20.45815138185862 20.434872442531049 0 0 0 0 -15.857070288357022 -105.48048494614341 0 -105.48048494614341 -248.96531489084009 0 0 0 0 -38.630553477046504 -57.213977394907488 0 -57.213977394907488 142.05389608252153 0 0 0 0 -50.011233768771945 36.110434200549207 0 36.110434200549207 279.81389909597056 0 0 0 0 -1.2779004915600871 0.13265012434759171 0 0.13265012434759171 7.5659005672916493 0 0 0 0 -14.528282515361752 -7.2854446123419621 0 -7.2854446123419621 193.90952710447891 0 0 0 0 -122.05944799853569 -219.66380787083472 0 -219.66380787083472 112.69152873415442 0 0 0 0 -8.6498800203180508 4.1096240804617992 0 4.1096240804617992 60.069917037923005 0 0 0 0 -60.086987252597282 -65.504856340980041 0 -65.504856340980041 200.63477945732484 0 0 0 0 -12.501608855312043 15.067796157993143 0 15.067796157993143 210.34120923011506 0 0 0 0 -107.14761468920278 -20.120075913655455 0 -20.120075913655455 352.93997744437183 0 0 0 0 -77.721747441344633 -91.45225552078773 0 -91.45225552078773 362.3668088762206 0 0 0 0 -83.62381038393687 150.54995632264036 0 150.54995632264036 634.20657795353191 0 0 0 0 -257.82338372751838 -200.37515770588652 0 -200.37515770588652 622.85750494681997 0 0 0 0 -450.41935550571657 -601.81387887846722 0 -601.81387887846722 -64.062670434781467 0 0 0 0 -1953.0219308256551 40.113851317844819 0 40.113851317844819 2228.538571966812 0 0 0 0 118.62442132034857 -121.63758028748634 0 -121.63758028748634 123.8860988141605 0 0 0 0 1724.2626749735209 1187.8277230335079 0 1187.8277230335079 931.31552938985988 0 0 0 0 -10.386355653413709 54.212931570360013 0 54.212931570360013 53.343508491255434 0 0 0 0 633.83656612611958 499.57922395644709 0 499.57922395644709 597.85020049587183 0 0 0 0 61.91535852916968 -133.33137581962364 0 -133.33137581962364 185.06324613743345 0 0 0 0 1.0740022721603262 -4.869374664740433 0 -4.869374664740433 6.81245207476654 0 0 0 0 238.36230302329204 -546.47081420149334 0 -546.47081420149334 45.188129514146567 0 0 0 0 0.21170603133558608 -15.802606120771294 0 -15.802606120771294 10.074276884191434 0 0 0 0 66.715543901268575 -80.650071819942241 0 -80.650071819942241 84.832704489348544 0 0 0 0 15.090971085810452 -100.14517133901973 0 -100.14517133901973 176.35690160819649 0 0 0 0 3.7764531125512804 42.213016617613903 0 42.213016617613903 209.46161470039146 0 0 0 0 103.70788443517949 -101.02491138978803 0 -101.02491138978803 95.618668024075305 0 0 0 0 -7.8925779667906655 21.969011625766072 0 21.969011625766072 49.116519316106611 0 0 0 0 13.468991139974131 3.0155849348789125 0 3.0155849348789125 144.7039212644595 0 0 0 0 -4.8928657408058136 17.001055467863637 0 17.001055467863637 54.57030562856653 0 0 0 0 -7.8305299721050687 22.830340674969193 0 22.830340674969193 144.56470364379129 0 0 0 0 -36.75096645392216 69.379057052997723 0 69.379057052997723 146.78046045764495 0 0 0 0 416.22524393207499 216.17623195774397 0 216.17623195774397 176.95696850656532 0 0 0 0 3.8983909519350117 31.90744956841128 0 31.90744956841128 25.546658430251838 0 0 0 0 -0.2758960048944612 -0.41015494202803637 0 -0.41015494202803637 7.5296401303957055 0 0 0 0 25.141239368656798 -13.767857618602566 0 -13.767857618602566 47.262167296677944 0 0 0 0 23.660311274134983 201.71951394867028 0 201.71951394867028 299.2654315456457 0 0 0 0 220.62496810492667 -40.28824172912573 0 -40.28824172912573 -99.006938048506072 0 0 0 0 -70.740723461989546 -101.48597785420316 0 -101.48597785420316 59.626080116229787 0 0 0 0 265.16077724586694 379.66446901255222 0 379.66446901255222 430.19892107376654 0 0 0 0 -1198.9928393146693 127.90690435931174 0 127.90690435931174 1625.8263917204749 0 0 0 0 1.5039663531179031 9.6257134695315472 0 9.6257134695315472 200.97672341152156 0 0 0 0 -25.219149247389396 -23.412730261454271 0 -23.412730261454271 187.42825368889226 0 0 0 0 -55.977582611496473 -56.474944843555932 0 -56.474944843555932 171.55491164792875 0 0 0 0 -16.710839525760093 -17.495146411849419 0 -17.495146411849419 196.08515665139566 0 0 0 0 -15.388347442486747 -31.271970554339077 0 -31.271970554339077 145.96179309747458 0 0 0 0 18.102215687951229 54.131831558813474 0 54.131831558813474 27.409217073553464 0 0 0 0 7.8820867067934763 33.170916432113899 0 33.170916432113899 11.154288773312313 0 0 0 0 -5.7049714143759047 41.79879689142399 0 41.79879689142399 82.597596810134746 0 0 0 0 8.3256823948242413 34.00158687063373 0 34.00158687063373 91.725827301499521 0 0 0 0 6.4955004648045076 57.43803533519079 0 57.43803533519079 95.12892813534927 0 0 0 0 130.702762893054 93.632332243956853 0 93.632332243956853 -213.00244417459908 0 0 0 0 -12.47305258641007 11.558969500788407 0 11.558969500788407 -11.016349224989373 0 0 0 0 -216.72385711849802 170.09740729624593 0 170.09740729624593 95.824938119975059 0 0 0 0 -48.602309401968341 -60.649465553509799 0 -60.649465553509799 110.44167939903127 0 0 0 0 -80.471918561777784 -46.925974022869923 0 -46.925974022869923 129.25463162155938 0 0 0 0 -7.283827224746025 -10.212251147482114 0 -10.212251147482114 141.21059119832148 0 0 0 0 -20.708005173904667 -12.692016249322478 0 -12.692016249322478 148.84178783553944 0 0 0 0 -17.074251714333968 15.882660312337975 0 15.882660312337975 72.425399848201778 0 0 0 0 -17.835619668390972 -11.837875960550079 0 -11.837875960550079 66.882199363833223 0 0 0 0 -21.995989878443307 16.175059954523565 0 16.175059954523565 73.974413707309992 0 0 0 0 -5.8909653251048439 39.345289012740977 0 39.345289012740977 122.56786992991329 0 0 0 0 -3.3376944206947883 48.98978485663929 0 48.98978485663929 104.13730755859251 0 0 0 0 -29.744194235968155 25.099864808468269 0 25.099864808468269 13.179967646889352 0 0 0 0 -464.72711870053081 67.772560306439118 0 67.772560306439118 133.58572662090592 0 0 0 0 -0.015348719519423071 2.1858703658759566 0 2.1858703658759566 11.772598550232544 0 0 0 0 -1.4485539887350569 -32.779293687306563 0 -32.779293687306563 87.984731964323146 0 0 0 0 -316.84580518442544 -0.97207719994548825 0 -0.97207719994548825 39.677953300008085 0 0 0 0 -185.95887644349023 105.91316195320542 0 105.91316195320542 117.91729768995719 0 0 0 0 -248.75258468853281 -41.948733943754632 0 -41.948733943754632 142.95872546626742 0 0 0 0 -235.05965198250124 -74.573314230827236 0 -74.573314230827236 76.084370732719435 0 0 0 0 -316.21621547373206 57.578143031292711 0 57.578143031292711 50.433486313493631 0 0 0 0 -205.02644624614959 -63.874156399904678 0 -63.874156399904678 11.946143318709801 0 0 0 0 -156.96983393866503 -93.00329527566646 0 -93.00329527566646 -12.2826861549147 0 0 0 0 -3.6243903106200541 -6.0097737627433787 0 -6.0097737627433787 10.068880887056253 0 0 0 0 23.7450873080561 103.09577167050884 0 103.09577167050884 241.69149527669651 0 0 0 0 3.1703959376980038 -38.569805442680263 0 -38.569805442680263 198.92343651942065 0 0 0 0 -169.2055359356782 -255.8092584217593 0 -255.8092584217593 -249.67664827833505 0 0 0 0 -2.2487054192071412 -6.1275089530029589 0 -6.1275089530029589 6.9087568614272925 0 0 0 0 -263.62417133513009 -358.77661113924114 0 -358.77661113924114 -251.298572916392 0 0 0 0 -161.34067188269182 -139.69255093892571 0 -139.69255093892571 -70.528528578259284 0 0 0 0 -244.29175183534971 -66.670572959892525 0 -66.670572959892525 150.01718348320719 0 0 0 0 -268.00781512027788 -207.06866285885553 0 -207.06866285885553 108.49896263249684 0 0 0 0 -110.76110051954493 -157.70719495770754 0 -157.70719495770754 234.85798841849464 0 0 0 0 -247.22510924764356 -130.91060011901754 0 -130.91060011901754 249.78207042327267 0 0 0 0 -188.42175933848921 -189.17264395618258 0 -189.17264395618258 -4.3810109772675787 0 0 0 0 -296.83987854478983 -207.03626798694313 0 -207.03626798694313 15.856945001272834 0 0 0 0 -124.14100185891584 -268.35234465092799 0 -268.35234465092799 -9.4624491001304705 0 0 0 0 -258.19233492333478 -188.97276369881729 0 -188.97276369881729 -52.008233024447691 0 0 0 0 -386.71736400460759 -185.64227249225951 0 -185.64227249225951 -205.01535310984764 0 0 0 0 -203.97976425903926 -298.37761732598483 0 -298.37761732598483 -151.33403962830198 0 0 0 0 90.724044649887219 -208.47326202214754 0 -208.47326202214754 -181.2508598785862 0 0 0 0 -114.32198370893821 -304.50580649706535 0 -304.50580649706535 -331.37365141598275 0 0 0 0 -148.01542380220144 -287.0016649928566 0 -287.0016649928566 -18.789461450607632 0 0 0 0 -80.736668103738339 -119.85581065842416 0 -119.85581065842416 -1.7497398146788328 0 0 0 0 34.553329929322445 -292.17923016451641 0 -292.17923016451641 236.93054355030472 0 0 0 0 9.2468816121436248 -166.5252100002217 0 -166.5252100002217 858.31879324188048 0 0 0 0 -32.23867146594057 20.436310163757298 0 20.436310163757298 369.73897286930696 0 0 0 0 180.91140400473523 438.22554300909906 0 438.22554300909906 674.87429513497773 0 0 0 0 124.32696804083662 269.7255089502097 0 269.7255089502097 372.21394455891277 0 0 0 0 118.41898540995317 97.384656174377596 0 97.384656174377596 242.6411070702743 0 0 0 0 -181.89322601186541 48.769859222786181 0 48.769859222786181 259.13222400560335 0 0 0 0 -215.63535987145497 -102.48721750756886 0 -102.48721750756886 192.6076721099671 0 0 0 0 -124.00727217850908 61.287720560867456 0 61.287720560867456 408.00266789974557 0 0 0 0 -28.797859547999678 106.07991510697229 0 106.07991510697229 308.87911212410836 0 0 0 0 119.86263770998812 225.22763472864972 0 225.22763472864972 180.29823198515805 0 0 0 0 -20.579952079549912 60.864609631440544 0 60.864609631440544 151.11449607158283 0 0 0 0 -159.76978291917021 51.788170871659531 0 51.788170871659531 190.13955034813262 0 0 0 0 236.00553939014026 131.8493195502233 0 131.8493195502233 58.542382384403027 0 0 0 0 -1.0252473649757903 2.3690342012268815 0 2.3690342012268815 -0.19902412479109444 0 0 0 0 167.37460537322113 298.18489932693774 0 298.18489932693774 314.51703059310967 0 0 0 0 -39.122756040974309 -39.920533065621385 0 -39.920533065621385 9.0899235141550889 0 0 0 0 50.97149678246933 -61.173970098141581 0 -61.173970098141581 -46.829384548611415 0 0 0 0 -9.4810335450491827 2.8201576451147048 0 2.8201576451147048 14.658656520407661 0 0 0 0 -13.130885625643714 6.1675605395284947 0 6.1675605395284947 12.053817495427211 0 0 0 0 -8.9225300068258306 8.0967469646120662 0 8.0967469646120662 13.43041691180494 0 0 0 0 -12.997860128830565 -0.30345183057648484 0 -0.30345183057648484 24.291077691058803 0 0 0 0 -132.96264291787702 156.98766471094132 0 156.98766471094132 -1.2245886634082126 0 0 0 0 -177.24570400147786 -4.7041646354191471 0 -4.7041646354191471 80.801664801976585 0 0 0 0 -236.34784011865077 50.179949861611021 0 50.179949861611021 302.11702936279471 0 0 0 0 -266.61022050489373 -42.210379496802489 0 -42.210379496802489 65.534420657833834 0 0 0 0 -199.77708334029376 -106.29004964279011 0 -106.29004964279011 -17.117905617713404 0 0 0 0 5.1562081932759796 -6.5048723436684028 0 -6.5048723436684028 10.118962288880439 0 0 0 0 4.0703316675141004 -2.3906798827502058 0 -2.3906798827502058 1.6833661138683453 0 0 0 0 -112.35772214540293 191.38937831368821 0 191.38937831368821 1488.1601058819942 0 0 0 0 -108.95148823299314 188.93164392639301 0 188.93164392639301 881.99127182551456 0 0 0 0 458.91538496375506 309.33041730265177 0 309.33041730265177 255.07895536298747 0 0 0 0 116.33833905144274 -207.60875703798229 0 -207.60875703798229 367.71805362526356 0 0 0 0 -0.20764836748156856 -0.93856933620986638 0 -0.93856933620986638 6.1476113245162765 0 0 0 0 429.42139117535226 -144.84809189338193 0 -144.84809189338193 230.77129240924114 0 0 0 0 146.07661825808373 165.58734752007877 0 165.58734752007877 862.9882780957123 0 0 0 0 7.5896104170305989 -198.34648019637461 0 -198.34648019637461 76.545865163156122 0 0 0 0 179.60309676080487 -1.0089880899158743 0 -1.0089880899158743 148.01293081375479 0 0 0 0 166.27105205147018 -165.66364892158163 0 -165.66364892158163 -86.063029728422407 0 0 0 0 -28.798586088498269 -72.490819327525969 0 -72.490819327525969 175.52396530108672 0 0 0 0 163.13142791441169 -39.245519557596708 0 -39.245519557596708 -129.325927797021 0 0 0 0 151.67774618738622 -2.3181853390124161 0 -2.3181853390124161 202.77747101413843 0 0 0 0 83.936536511592749 -315.81526282229606 0 -315.81526282229606 1208.9400478834214 0 0 0 0 607.81090429011783 -392.77114291444377 0 -392.77114291444377 -304.51911196832953 0 0 0 0 -17.91165370323759 346.78642027786952 0 346.78642027786952 68.619398353184806 0 0 0 0 -198.70491103914264 63.867550154784112 0 63.867550154784112 53.188890295292367 0 0 0 0 -168.562493723638 -45.979724516791066 0 -45.979724516791066 79.501848540909123 0 0 0 0 3.1775702883937846 8.7913294374224265 0 8.7913294374224265 18.741696418231271 0 0 0 0 -85.631593767029699 -28.261468923004941 0 -28.261468923004941 52.038042641375796 0 0 0 0 -124.84630171384561 -2.2573542387690395 0 -2.2573542387690395 120.82697437947718 0 0 0 0 -108.74223795744456 -45.293627200157061 0 -45.293627200157061 39.534911472823296 0 0 0 0 63.007755920301861 289.66952913384375 0 289.66952913384375 34.838175594587938 0 0 0 0 0.66304184075638339 3.3425023566412193 0 3.3425023566412193 10.095781594680915 0 0 0 0 -28.508626319298855 -580.38067131865319 0 -580.38067131865319 931.22041333631205 0 0 0 0 -4.7101894562188136 -450.9788918521881 0 -450.9788918521881 1097.629014671973 0 0 0 0 -0.75790758491166343 -482.86471110871935 0 -482.86471110871935 -158.00946681915957 0 0 0 0 -178.21445532151665 156.59367064390972 0 156.59367064390972 186.13380412102015 0 0 0 0 -58.58551742646705 174.57530763294926 0 174.57530763294926 819.08707751883594 0 0 0 0 -47.549770053021348 55.162844241014682 0 55.162844241014682 134.72649069441104 0 0 0 0 465.47965224474319 -207.82080986342044 0 -207.82080986342044 -14.774340194569959 0 0 0 0 427.13130436288429 226.97561722687897 0 226.97561722687897 169.22281915368512 0 0 0 0 276.23810533808864 -38.546288392208226 0 -38.546288392208226 -454.49101484893617 0 0 0 0 -2.7668139414853634 0.31396849457084386 0 0.31396849457084386 0.18196466989745375 0 0 0 0 -104.19622084932689 -26.07089440026175 0 -26.07089440026175 51.106066182925133 0 0 0 0 48.168498806612661 165.52973958948314 0 165.52973958948314 -164.83478767811175 0 0 0 0 232.17848227539071 -107.47038908816467 0 -107.47038908816467 -347.62459688743547 0 0 0 0 -21.443874724550263 11.436035304027286 0 11.436035304027286 14.555837829886755 0 0 0 0 -21.272659077924118 14.68842391103135 0 14.68842391103135 29.583911570101918 0 0 0 0 -24.688417587856293 8.7208684766956139 0 8.7208684766956139 34.002628872272908 0 0 0 0 -121.27461234492512 76.611613084663986 0 76.611613084663986 115.3149083403332 0 0 0 0 -81.721864451188594 61.494482933750987 0 61.494482933750987 235.07767227997829 0 0 0 0 -18.112469015937222 7.4458167426728323 0 7.4458167426728323 45.679247528365522 0 0 0 0 -21.220436718170717 14.329711169911349 0 14.329711169911349 -2.5767376187845619 0 0 0 0 -74.953263068083288 39.517641131787968 0 39.517641131787968 276.53907573062315 0 0 0 0 80.612781783283936 116.58703761298966 0 116.58703761298966 -194.31705286332362 0 0 0 0 8.3518600626011903 151.20264894034335 0 151.20264894034335 425.48141569491054 0 0 0 0 0.16500320789661416 -0.53851067188695367 0 -0.53851067188695367 -0.1759252680968757 0 0 0 0 -70.394983530111404 63.93932540744936 0 63.93932540744936 44.475877092561859 0 0 0 0 -29.016951286892759 16.201566245890007 0 16.201566245890007 1.6723552242322022 0 0 0 0 4.5518916850633104 17.646561376823229 0 17.646561376823229 -24.674866181267134 0 0 0 0 -29.821399457899133 13.368219007592415 0 13.368219007592415 36.114840369595186 0 0 0 0 -26.806243981810898 19.86624053246392 0 19.86624053246392 -2.8388867146919665 0 0 0 0 51.000693160246556 66.456749211676652 0 66.456749211676652 70.65094884687278 0 0 0 0 -2.1966650913456611 2.3787636462250532 0 2.3787636462250532 1.7827249442972999 0 0 0 0 8.6937978269188534 74.980878561262216 0 74.980878561262216 82.631288045111432 0 0 0 0 33.313782130526306 63.683606761318515 0 63.683606761318515 87.814340723198256 0 0 0 0 -2.92122203177688 4.707702690103214 0 4.707702690103214 11.142828188422499 0 0 0 0 37.326287821747428 82.351718274298037 0 82.351718274298037 58.903241840962437 0 0 0 0 -123.6446817761489 81.100939827076218 0 81.100939827076218 13.767270352174819 0 0 0 0 19.68959391876524 61.411446080921451 0 61.411446080921451 -67.944267515988031 0 0 0 0 -25.633750167537187 5.0389200337266402 0 5.0389200337266402 4.9442204557837908 0 0 0 0 -17.884922444016329 10.576235034254012 0 10.576235034254012 2.8956483838752476 0 0 0 0 -12.019777645555052 8.0597447859790918 0 8.0597447859790918 9.8137756218129653 0 0 0 0 -37.306461933038008 20.031640848865209 0 20.031640848865209 23.785422112545348 0 0 0 0 -56.754667997400247 17.137373602988191 0 17.137373602988191 33.661948495049728 0 0 0 0 -27.199375277514264 19.083541978783614 0 19.083541978783614 10.519204414355045 0 0 0 0 -6.4819510670206881 9.2160784727990332 0 9.2160784727990332 21.099175314925759 0 0 0 0 -24.764435803758715 10.06537173977631 0 10.06537173977631 17.930435531172407 0 0 0 0 -35.955313649693096 20.187945931156264 0 20.187945931156264 28.691254088844289 0 0 0 0 -38.332571405384442 11.672425282860786 0 11.672425282860786 20.493859441950917 0 0 0 0 -27.636657614433076 7.2667784020785433 0 7.2667784020785433 19.57529291555413 0 0 0 0 -33.257209159854028 27.344958864800901 0 27.344958864800901 25.812711203660001 0 0 0 0 -2.2676887801242951 9.4779222103446052 0 9.4779222103446052 18.087728030582696 0 0 0 0 -5.5121611195490914 14.241579014586023 0 14.241579014586023 19.510207225477643 0 0 0 0 -9.840386483845311 8.4882378467307547 0 8.4882378467307547 -3.296166969181229 0 0 0 0 1.4812725042147576 33.345673993855598 0 33.345673993855598 19.514384947333383 0 0 0 0 -12.306383598869161 35.789448934937354 0 35.789448934937354 19.46104287912749 0 0 0 0 71.081773526053439 107.69093259236979 0 107.69093259236979 104.77030335427116 0 0 0 0 -4.0330584978425144 2.5164154814285666 0 2.5164154814285666 -1.7344120678186243 0 0 0 0 1.1657489166054802 31.378918983518815 0 31.378918983518815 17.895522214676021 0 0 0 0 63.943104523836155 -6.9140400644537294 0 -6.9140400644537294 -7.0727112214080989 0 0 0 0 28.063499804682579 102.05163372466632 0 102.05163372466632 29.453269643861859 0 0 0 0 -24.522151594118554 36.934884828046052 0 36.934884828046052 39.379149722924922 0 0 0 0 -30.975804206291286 11.584687817878148 0 11.584687817878148 35.055692591568004 0 0 0 0 -53.704990374404815 5.5128014474794327 0 5.5128014474794327 17.867280467973615 0 0 0 0 -136.75771447970419 -72.888976940688735 0 -72.888976940688735 7.6710877034165605 0 0 0 0 52.651463770921509 -41.364381382103602 0 -41.364381382103602 -57.30387315882399 0 0 0 0 -44.35535282519686 -80.821018563656253 0 -80.821018563656253 -0.35868557979119942 0 0 0 0 -17.210959910388937 3.1397159190332786 0 3.1397159190332786 -2.0325421669479411 0 0 0 0 -25.870743790616871 45.15064097593131 0 45.15064097593131 128.28386763219169 0 0 0 0 -25.796458785820505 22.359631229672232 0 22.359631229672232 -24.664623047305213 0 0 0 0 -25.482827592397889 7.9730374004664242 0 7.9730374004664242 1.4795321081812949 0 0 0 0 -9.6177223995913828 0.0068192765379961884 0 0.0068192765379961884 1.2035996974910432 0 0 0 0 -29.738921903631283 11.847573988844729 0 11.847573988844729 -0.85014158189149747 0 0 0 0 -1.1451679617675836 59.378122416688711 0 59.378122416688711 -72.205881667472568 0 0 0 0 -267.64163781407842 -15.89969978260342 0 -15.89969978260342 520.15803510892147 0 0 0 0 -115.4880316777917 15.053653849932743 0 15.053653849932743 70.302382918038347 0 0 0 0 -41.302538987491062 47.575051144143799 0 47.575051144143799 14.857427409799129 0 0 0 0 -14.194811404144275 -41.86673896452703 0 -41.86673896452703 -45.119008657318773 0 0 0 0 -116.90641195254921 96.818029492700589 0 96.818029492700589 -78.361771703277554 0 0 0 0 -52.482386791388308 16.113571185560431 0 16.113571185560431 11.072153924847953 0 0 0 0 -196.52356624838103 16.19057659504324 0 16.19057659504324 18.672161479742499 0 0 0 0 -1.9512497412752516 -1.282327787586425 0 -1.282327787586425 0.54419604529017818 0 0 0 0 250.36798245913178 -83.718183342461998 0 -83.718183342461998 342.65643254810129 0 0 0 0 -4.5358074643881992 -14.081508156821656 0 -14.081508156821656 -39.541717000178323 0 0 0 0 -23.250829364569654 93.922372902874486 0 93.922372902874486 -21.537092435348313 0 0 0 0 9.1833783637857778 -84.74531166410452 0 -84.74531166410452 -98.643171862109739 0 0 0 0 53.389904822684002 -161.95812235441554 0 -161.95812235441554 532.5702108018304 0 0 0 0 350.8079478644795 143.97323651070474 0 143.97323651070474 297.79651912511326 0 0 0 0 0.13424554601119354 -0.098005633119555569 0 -0.098005633119555569 0.57178217445003554 0 0 0 0 173.38800709057705 -190.04087475406777 0 -190.04087475406777 81.181703985217609 0 0 0 0 -353.60556106740842 174.0029303470219 0 174.0029303470219 170.58125792490318 0 0 0 0 -557.85609870664302 -363.03828812834035 0 -363.03828812834035 164.12186284794006 0 0 0 0 118.82786735633363 -170.18129420389232 0 -170.18129420389232 202.03967901557917 0 0 0 0 -865.48434885711322 284.9476556651789 0 284.9476556651789 -7.026714431529399 0 0 0 0 -350.38573525072388 392.58516657773725 0 392.58516657773725 281.83518651291888 0 0 0 0 -214.93286050735378 310.16728944523675 0 310.16728944523675 85.561012789192318 0 0 0 0 -235.39553685702685 228.03475522632107 0 228.03475522632107 -30.032604485852062 0 0 0 0 -167.58154041900343 97.190714272808691 0 97.190714272808691 187.45377592582372 0 0 0 0 0.29484551000670578 1.3470176450495615 0 1.3470176450495615 4.168541502854481 0 0 0 0 -293.43588448244373 -799.01197657686862 0 -799.01197657686862 3092.4596421405295 0 0 0 0 -1458.2451196499969 -69.28977917004886 0 -69.28977917004886 2751.4267479975388 0 0 0 0 470.64157413857174 -1001.6654972349133 0 -1001.6654972349133 1772.8444244946295 0 0 0 0 -2262.2300715124838 799.77754111029208 0 799.77754111029208 1981.6867134267377 0 0 0 0 488.20303440315001 297.24923151620169 0 297.24923151620169 2655.0664718728513 0 0 0 0 331.80537825288911 501.3702118156707 0 501.3702118156707 1807.1411091096234 0 0 0 0 431.89705703127493 180.2938031408994 0 180.2938031408994 428.08309140677738 0 0 0 0 1573.991502181028 -122.1448296986091 0 -122.1448296986091 492.59340455684287 0 0 0 0 110.39600519139185 -497.96682188758859 0 -497.96682188758859 719.3964097944795 0 0 0 0 -1027.5608676822449 204.29787105295691 0 204.29787105295691 1382.200632533466 0 0 0 0 -665.84781970487438 112.16402220095188 0 112.16402220095188 735.21858916082419 0 0 0 0 -645.78013832029956 339.28715837497657 0 339.28715837497657 -194.21079473172722 0 0 0 0 -498.03146396963785 -212.17364145496913 0 -212.17364145496913 83.351483149628621 0 0 0 0 57.052403630019398 -403.27045873191673 0 -403.27045873191673 -92.645353004212666 0 0 0 0 242.07018263076998 -205.86754912972901 0 -205.86754912972901 61.631022946792655 0 0 0 0 219.69261275882948 -469.46889601036537 0 -469.46889601036537 244.00110192299326 0 0 0 0 38.812822993222653 -205.49407441604853 0 -205.49407441604853 44.104447966208681 0 0 0 0 59.342065438457468 -447.86771024897075 0 -447.86771024897075 72.886544072360266 0 0 0 0 -78.719326267714678 -92.5825538067038 0 -92.5825538067038 169.89328200207819 0 0 0 0 175.77991825071786 -311.30644148484862 0 -311.30644148484862 217.76018761330306 0 0 0 0 568.63396738821189 1.3686253292326001 0 1.3686253292326001 162.1051307128364 0 0 0 0 249.54999204462365 -244.30269234528532 0 -244.30269234528532 167.01654689974021 0 0 0 0 141.99407116228258 323.62694163959895 0 323.62694163959895 726.61871332267037 0 0 0 0 69.959805791032522 112.09544303650728 0 112.09544303650728 288.45482505220571 0 0 0 0 191.17879344649646 -87.977080037246196 0 -87.977080037246196 -90.523589417578478 0 0 0 0 77.335826075735895 31.087402967335947 0 31.087402967335947 22.367352259798281 0 0 0 0 37.464029870589911 75.369541961648792 0 75.369541961648792 301.00126465714311 0 0 0 0 -8.5873284101744503 179.84104997970462 0 179.84104997970462 592.75193627674889 0 0 0 0 58.95062464400155 82.446799097786425 0 82.446799097786425 430.45671712586045 0 0 0 0 109.62729439225768 -61.481648457396659 0 -61.481648457396659 784.30521335445655 0 0 0 0 516.90736529705509 -915.36541654263783 0 -915.36541654263783 1435.52178167287 0 0 0 0 -1.2855693336829024 0.35950701133879193 0 0.35950701133879193 1.1261835471476829 0 0 0 0 -6.5585219767535818 42.016927922770265 0 42.016927922770265 1080.6223208850297 0 0 0 0 76.099397980622598 -31.616644481819094 0 -31.616644481819094 465.57514410145086 0 0 0 0 -199.65311111051778 -43.491596378877148 0 -43.491596378877148 613.8364249016704 0 0 0 0 -4.2921657896866527 -0.48014487870159428 0 -0.48014487870159428 1.4272476480518179 0 0 0 0 165.69001614295166 -19.166010779781573 0 -19.166010779781573 445.85288840363501 0 0 0 0 -12.197479086396925 166.02149908272258 0 166.02149908272258 601.48932203719596 0 0 0 0 -34.055256495428694 100.7966686675245 0 100.7966686675245 525.32069989151933 0 0 0 0 -81.628139684157759 203.09576343970775 0 203.09576343970775 798.93387295784487 0 0 0 0 -62.689916039865238 31.103093567078758 0 31.103093567078758 358.38328087393893 0 0 0 0 25.012876091686394 7.2053103122234461 0 7.2053103122234461 -33.265148523278185 0 0 0 0 -23.746047271919906 45.729333828843664 0 45.729333828843664 354.66308473786921 0 0 0 0 -181.0289192035516 -122.91255728420947 0 -122.91255728420947 425.47046456370299 0 0 0 0 0.345215201054768 0.82646055423457288 0 0.82646055423457288 4.5640006990961695 0 0 0 0 543.43023153052854 317.51952560233622 0 317.51952560233622 117.98515280528227 0 0 0 0 267.09116781341982 -117.99985914130957 0 -117.99985914130957 486.94904364536342 0 0 0 0 34.884505426333817 398.14691309599948 0 398.14691309599948 654.88730545922408 0 0 0 0 408.37611880315762 256.42472028169868 0 256.42472028169868 580.02878908522689 0 0 0 0 -774.06931317336694 128.29641914860986 0 128.29641914860986 490.82377480663854 0 0 0 0 -225.61193670256534 292.3567084610695 0 292.3567084610695 345.38939992849919 0 0 0 0 -4.9109258716952127 232.8053920669463 0 232.8053920669463 199.65956781689601 0 0 0 0 -249.30919763177207 -4.0439408502552396 0 -4.0439408502552396 449.80859416093153 0 0 0 0 -83.943630904341262 -160.83205294284562 0 -160.83205294284562 592.20044295939442 0 0 0 0 158.3036348518408 -356.88116529068793 0 -356.88116529068793 499.90479892648 0 0 0 0 -3.6681987983447844 -1.6621202348327984 0 -1.6621202348327984 0.48474050982213157 0 0 0 0 -766.37002475823567 708.12899934370921 0 708.12899934370921 128.96957891334023 0 0 0 0 -2.7372226466757965 -0.092934920461090087 0 -0.092934920461090087 0.63492305564409435 0 0 0 0 -344.87502956382741 -43.520582558354363 0 -43.520582558354363 100.18787779966715 0 0 0 0 -521.15757783232493 287.98996298234852 0 287.98996298234852 586.88293413414067 0 0 0 0 26.453077708080855 -33.447093114842573 0 -33.447093114842573 498.4797631887559 0 0 0 0 62.859976482335696 107.93639579364753 0 107.93639579364753 268.24653925364692 0 0 0 0 -94.520289774758567 -5.3256023240173818 0 -5.3256023240173818 394.97825898532028 0 0 0 0 -396.60063066398197 -362.00068605726483 0 -362.00068605726483 48.764970762920711 0 0 0 0 -149.02721437452146 -284.42665654002849 0 -284.42665654002849 61.555207510373293 0 0 0 0 -242.13074659402173 -235.90514688503026 0 -235.90514688503026 37.449877958959405 0 0 0 0 -337.21413618383485 -317.51497862488395 0 -317.51497862488395 186.551815477942 0 0 0 0 -206.97030496481034 -260.41968828926292 0 -260.41968828926292 -303.3974835564004 0 0 0 0 -108.8079103423479 -580.07836871034669 0 -580.07836871034669 -618.77589866271228 0 0 0 0 29.036359281477417 -207.27021742348916 0 -207.27021742348916 15.744479494281222 0 0 0 0 25.523947425390642 -65.147553384908605 0 -65.147553384908605 67.377842342467147 0 0 0 0 -249.93089619201032 -403.72895866980343 0 -403.72895866980343 -49.485382183418551 0 0 0 0 -2.7663508694767365 16.232510786546776 0 16.232510786546776 4.9637849669872987 0 0 0 0 -69.185294675049249 -81.735518192743257 0 -81.735518192743257 465.45105484845772 0 0 0 0 24.450801733441608 79.136958652898102 0 79.136958652898102 161.38819494550717 0 0 0 0 -124.96300698308808 -6.2291980197569501 0 -6.2291980197569501 4358.0501690434357 0 0 0 0 -124.59705557938111 -114.74741361462293 0 -114.74741361462293 3821.8225283598804 0 0 0 0 -308.55406421646734 410.85273796822366 0 410.85273796822366 4498.4798403252207 0 0 0 0 23.417590857006079 -61.666456684630191 0 -61.666456684630191 62.927645833241947 0 0 0 0 202.82634378198065 448.54832126565088 0 448.54832126565088 3214.8960746008088 0 0 0 0 -13.010608714152085 -101.88301711870804 0 -101.88301711870804 237.86801337252291 0 0 0 0 -0.43961375064911301 21.58984918493411 0 21.58984918493411 20.273774314630518 0 0 0 0 -245.20562997327215 -701.50576862955495 0 -701.50576862955495 -559.67567198856705 0 0 0 0 -293.28491887406926 -484.61570193148509 0 -484.61570193148509 -486.01231029200426 0 0 0 0 -356.24202544971922 -552.04978335324267 0 -552.04978335324267 -734.91358730735374 0 0 0 0 -387.40225298728183 -740.31776498565159 0 -740.31776498565159 -371.75116231469292 0 0 0 0 -530.72881550300372 -690.27962475753156 0 -690.27962475753156 -389.02217401551025 0 0 0 0 -888.32222498210649 -719.36477718893002 0 -719.36477718893002 -658.926806678297 0 0 0 0 -594.72698322684619 -375.43592337986047 0 -375.43592337986047 -524.29226133867633 0 0 0 0 -394.71441965859776 -786.68385109781229 0 -786.68385109781229 -2165.8112050153431 0 0 0 0 -0.00090452930679418841 -6.6157291076168292 0 -6.6157291076168292 17.646934206833119 0 0 0 0 -81.977509879167428 652.48903704557597 0 652.48903704557597 3553.3175073139428 0 0 0 0 -26.243794571836382 738.89945304423418 0 738.89945304423418 3586.8318745754805 0 0 0 0 -151.42017954415962 682.08975757117332 0 682.08975757117332 3608.907423585697 0 0 0 0 -188.45452159952919 598.19711504886072 0 598.19711504886072 3578.8266740841682 0 0 0 0 855.45964894785311 1968.8150351544173 0 1968.8150351544173 3530.2479559077256 0 0 0 0 -116.04854129057999 1267.3872368184821 0 1267.3872368184821 4501.5365512311546 0 0 0 0 19.304376616722383 -23.93140191509049 0 -23.93140191509049 40.479676779152115 0 0 0 0 273.31231416824488 620.34959841144155 0 620.34959841144155 2829.4853309674654 0 0 0 0 -743.57703092595636 48.728266247235297 0 48.728266247235297 -833.70596144466253 0 0 0 0 -496.49049384199679 -1179.6364198490555 0 -1179.6364198490555 -984.58655562726199 0 0 0 0 -500.78034466017198 -328.58787251185277 0 -328.58787251185277 -953.28340719447624 0 0 0 0 -684.22574307461218 -992.46808952782885 0 -992.46808952782885 -1160.4365347605453 0 0 0 0 -591.9046479063727 -254.80886834575358 0 -254.80886834575358 -172.00515168128186 0 0 0 0 -199.27542173579604 -703.34931667974161 0 -703.34931667974161 -580.53033918622532 0 0 0 0 -197.86923025948332 -76.732776438738 0 -76.732776438738 -228.0807140305551 0 0 0 0 45.762830743249083 -394.20211488472887 0 -394.20211488472887 358.11483352624055 0 0 0 0 52.322484583235564 -353.73259013172719 0 -353.73259013172719 -209.87056625107653 0 0 0 0 -336.67932692771865 -546.07797915413539 0 -546.07797915413539 -147.02463295726193 0 0 0 0 -182.60971858719131 -474.97590506511187 0 -474.97590506511187 -233.98441192541213 0 0 0 0 -323.28177235895055 -260.78876116175161 0 -260.78876116175161 263.27295430686354 0 0 0 0 -225.78505265639274 -89.238720580095105 0 -89.238720580095105 547.66517791021033 0 0 0 0 -124.13494843632179 -271.97772612829431 0 -271.97772612829431 132.52808966358862 0 0 0 0 92.406777939326389 -21.66277828955208 0 -21.66277828955208 416.81849679055449 0 0 0 0 35.350733483506701 -300.74528450742946 0 -300.74528450742946 225.72078426543885 0 0 0 0 417.69944939603874 -283.28365844416112 0 -283.28365844416112 627.21705265909986 0 0 0 0 291.16557276330877 -494.16444618585956 0 -494.16444618585956 738.81662086783035 0 0 0 0 583.14499256447084 -692.92730911963349 0 -692.92730911963349 521.39965174103418 0 0 0 0 1128.5266869536986 -167.77783073613318 0 -167.77783073613318 -360.3238048102794 0 0 0 0 963.58735750067217 -1083.7254975356227 0 -1083.7254975356227 832.93906048119607 0 0 0 0 964.43948816215834 -819.71170476524867 0 -819.71170476524867 160.28388056327822 0 0 0 0 1014.3905688454697 -641.46847206307575 0 -641.46847206307575 -649.27548108199335 0 0 0 0 1659.9209969778997 -1103.167870283818 0 -1103.167870283818 -1254.693970585362 0 0 0 0 2453.0331337894386 -2043.7626296731396 0 -2043.7626296731396 4502.5124291719949 0 0 0 0 2332.6486517111525 -2178.8714519461901 0 -2178.8714519461901 -188.6986095377506 0 0 0 0 10.78952513463868 -8.7697056649669776 0 -8.7697056649669776 9.8062804924965121 0 0 0 0 914.53359892693106 776.37364691300172 0 776.37364691300172 6906.8329151516082 0 0 0 0 -327.7111125161112 -1715.4199130025299 0 -1715.4199130025299 4464.1810986933706 0 0 0 0 -508.4666985515293 -496.6011632314403 0 -496.6011632314403 1458.8066667495514 0 0 0 0 -299.43862318056875 -352.38112777774404 0 -352.38112777774404 1459.5301014391443 0 0 0 0 3.4297355781344541 -0.046337033856048038 0 -0.046337033856048038 -1.9591286569550874 0 0 0 0 859.80951141665969 395.5634709682854 0 395.5634709682854 -1496.8386867784175 0 0 0 0 391.88910541262089 -569.50035362342169 0 -569.50035362342169 37.513658895804838 0 0 0 0 -849.50614969092385 26.607161120227829 0 26.607161120227829 4490.4886608163797 0 0 0 0 2.7563308914443008 -4.6224493778854558 0 -4.6224493778854558 19.519397315867053 0 0 0 0 141.19254173203103 1391.9164689303107 0 1391.9164689303107 1942.7835972786052 0 0 0 0 4.2584250166766173 -13.484831585037206 0 -13.484831585037206 43.052043855616262 0 0 0 0 83.787243369920361 -29.931060267259454 0 -29.931060267259454 47.413043103530072 0 0 0 0 6.2147792385857281 -8.8865630006679197 0 -8.8865630006679197 5.3427825042316641 0 0 0 0 -62.048995243572477 -175.21493860645205 0 -175.21493860645205 -229.19137228051113 0 0 0 0 624.73927270189358 -221.07549599128856 0 -221.07549599128856 125.42433683181298 0 0 0 0 1271.4066229944597 -724.28123078055432 0 -724.28123078055432 443.52071692518803 0 0 0 0 15.228139079206235 -1.4759382531382101 0 -1.4759382531382101 7.0041313477128995 0 0 0 0 2.9782879566998854 -8.0783559962495914 0 -8.0783559962495914 22.457958851117922 0 0 0 0 -751.08048024007758 118.15286552599173 0 118.15286552599173 1651.3798691119591 0 0 0 0 1004.932598725487 1043.8630396829103 0 1043.8630396829103 -1351.8838785198241 0 0 0 0 50.0634715850465 -85.949368684679939 0 -85.949368684679939 2.9527694710122887 0 0 0 0 -13.083652968754905 -8.0471343681019789 0 -8.0471343681019789 7.8335598995763576 0 0 0 0 85.978786600340754 -151.89073989924873 0 -151.89073989924873 92.913965604086115 0 0 0 0 8.022241879452519 0.1813744505606536 0 0.1813744505606536 -3.8403020475939655 0 0 0 0 80.083705690429269 -107.43860268968228 0 -107.43860268968228 -65.001965161878616 0 0 0 0 42.542600843597938 -110.76626896249945 0 -110.76626896249945 91.011243237365306 0 0 0 0 15.00087439783573 -73.410494047173415 0 -73.410494047173415 66.603991926909657 0 0 0 0 15.618095809304123 -75.241884759620007 0 -75.241884759620007 58.454377591202501 0 0 0 0 -32.992570307941492 -46.785632721768707 0 -46.785632721768707 100.66254734526592 0 0 0 0 -3.0664763018958183 -135.46560855815187 0 -135.46560855815187 203.64388001474435 0 0 0 0 -39.190458024754662 -72.667582217360177 0 -72.667582217360177 104.77871667968611 0 0 0 0 -59.040326147399355 -9.4915256410640723 0 -9.4915256410640723 143.74294774107602 0 0 0 0 246.17667998614343 -380.74451356606914 0 -380.74451356606914 -6.5123462440806179 0 0 0 0 -449.16468240002541 516.42327579511766 0 516.42327579511766 460.3854544973492 0 0 0 0 -26.194731613148178 -46.570326238360394 0 -46.570326238360394 112.0531840946478 0 0 0 0 6.1911989524401223 -28.030425901175796 0 -28.030425901175796 80.490321692829994 0 0 0 0 -7.7894710615664735 -2.9913471821735129 0 -2.9913471821735129 419.8632828616901 0 0 0 0 -44.106760904261279 -163.44147042349323 0 -163.44147042349323 183.44325673846834 0 0 0 0 61.921159730623913 6.3868417935318575 0 6.3868417935318575 30.117736681659153 0 0 0 0 52.235835866735215 -83.253504879899992 0 -83.253504879899992 160.06255178090942 0 0 0 0 19.537912478812 -40.86358209839203 0 -40.86358209839203 71.28865436976632 0 0 0 0 -47.939530593235759 -83.596995514904847 0 -83.596995514904847 46.713445196313842 0 0 0 0 4.0520411931912008 1.7949438070732242 0 1.7949438070732242 23.405339329124843 0 0 0 0 13.104533208417706 -118.12900394841563 0 -118.12900394841563 206.28947733296809 0 0 0 0 40.264595953723983 -67.088539723310532 0 -67.088539723310532 131.89041319055832 0 0 0 0 -59.641279483896142 -47.657261409021885 0 -47.657261409021885 178.46004172389803 0 0 0 0 -3.1495190175937751 -8.9901194593039691 0 -8.9901194593039691 106.59075787675101 0 0 0 0 11.475073368727632 -38.341169803708304 0 -38.341169803708304 79.762011844502126 0 0 0 0 14.801335342992388 -10.756891619061207 0 -10.756891619061207 83.108578821396804 0 0 0 0 5.5056751230049876 -14.696894907664131 0 -14.696894907664131 56.484233257633022 0 0 0 0 -38.887284610902952 -65.405036106813895 0 -65.405036106813895 139.23667811432642 0 0 0 0 11.987899100743547 -33.077859273589091 0 -33.077859273589091 64.750857487414663 0 0 0 0 2.9270660404508817 -97.777647456234263 0 -97.777647456234263 112.82808329351246 0 0 0 0 -10.141896895870872 -11.565831554206682 0 -11.565831554206682 32.143811920167103 0 0 0 0 36.161394704453414 -20.617716407694388 0 -20.617716407694388 183.67505133122904 0 0 0 0 -25.731924015445728 -42.26071301452766 0 -42.26071301452766 93.225587506914195 0 0 0 0 -2.1562570204732765 -26.722224551966065 0 -26.722224551966065 80.764689669158543 0 0 0 0 -13.468411300118824 -25.375435995990959 0 -25.375435995990959 97.381840343862606 0 0 0 0 -25.590191113304172 -12.224451391404727 0 -12.224451391404727 77.222162128135096 0 0 0 0 -1.0126020309974564 -36.1891236630496 0 -36.1891236630496 104.16601482699879 0 0 0 0 2.2023328895629675 -88.853850894116476 0 -88.853850894116476 270.58094839773185 0 0 0 0 -3.205033176422603 11.756069972223486 0 11.756069972223486 138.76520492164855 0 0 0 0 -38.908841704208669 32.708043843679974 0 32.708043843679974 56.453005128166183 0 0 0 0 -11.496208689738523 15.027583021936152 0 15.027583021936152 175.37821546340274 0 0 0 0 45.742873132056047 -44.419159151824715 0 -44.419159151824715 43.058648592676036 0 0 0 0 -2.0115884556616948 -9.2086885313838138 0 -9.2086885313838138 18.827087447090889 0 0 0 0 -9.5259082591473998 2.666015442864591 0 2.666015442864591 166.84381052531899 0 0 0 0 -12.114754429457662 -21.818197653210518 0 -21.818197653210518 150.98957070001416 0 0 0 0 -200.66925372399055 -50.53221665732417 0 -50.53221665732417 291.12397707584023 0 0 0 0 -20.020805892962017 -9.9350473368212988 0 -9.9350473368212988 240.19610299712076 0 0 0 0 -22.320936693038902 48.648644794336668 0 48.648644794336668 49.413676004341312 0 0 0 0 -304.5942124293781 -259.2156615128024 0 -259.2156615128024 214.93781798964483 0 0 0 0 -54.681067876078941 -82.580572795770422 0 -82.580572795770422 110.71351783280988 0 0 0 0 14.766635061827856 -58.282651732708473 0 -58.282651732708473 98.413436466187704 0 0 0 0 86.403540114796158 -98.646926985420578 0 -98.646926985420578 26.933045995159773 0 0 0 0 15.95713489608579 -95.294048516101611 0 -95.294048516101611 69.711901676757407 0 0 0 0 620.42568926026775 -139.42144973703944 0 -139.42144973703944 -27.828401917911833 0 0 0 0 22.867149520126986 -192.52719989552679 0 -192.52719989552679 220.05944962106878 0 0 0 0 111.40987093037552 141.55816180820148 0 141.55816180820148 321.44051584303088 0 0 0 0 26.038394823914587 27.024375542361668 0 27.024375542361668 199.33156987070106 0 0 0 0 3.6755239748349622 -6.2427821098739287 0 -6.2427821098739287 14.084429618283167 0 0 0 0 476.92923130489135 965.73177574208603 0 965.73177574208603 872.33207731615403 0 0 0 0 -156.89040791858542 10.189379172406916 0 10.189379172406916 369.18940186235704 0 0 0 0 -90.411911481488914 -12.273106366283173 0 -12.273106366283173 327.06548923795344 0 0 0 0 -86.638462272701304 27.025959506596337 0 27.025959506596337 319.31348263262771 0 0 0 0 -80.02607204470678 55.22075874213624 0 55.22075874213624 376.25607882028908 0 0 0 0 -20.467206345814816 18.011847733812829 0 18.011847733812829 92.170947908249218 0 0 0 0 -28.288067198989893 13.224340957831373 0 13.224340957831373 216.32884188699245 0 0 0 0 25.992223182053976 -84.164838941025664 0 -84.164838941025664 37.113187609626038 0 0 0 0 -83.511756918034507 9.6372670580858539 0 9.6372670580858539 215.42626391912927 0 0 0 0 5.9704265286845626 -15.508879436809089 0 -15.508879436809089 44.318523050988858 0 0 0 0 -23.907016302600482 7.9673863957978028 0 7.9673863957978028 299.62673231170629 0 0 0 0 7.5383618147789093 -34.61034455299523 0 -34.61034455299523 339.32324512247578 0 0 0 0 -35.931879509066675 -20.748113752728386 0 -20.748113752728386 363.59046033509367 0 0 0 0 -56.426800210484089 12.577493220749602 0 12.577493220749602 271.58831711970561 0 0 0 0 -41.743809254558983 -19.530973080960393 0 -19.530973080960393 332.33069394510676 0 0 0 0 -22.438475260521955 -27.557696799878613 0 -27.557696799878613 265.67422368389816 0 0 0 0 63.231415640860178 -101.9089791704755 0 -101.9089791704755 222.20278673310531 0 0 0 0 -24.655895134811544 -30.359274952839769 0 -30.359274952839769 271.83490531799907 0 0 0 0 0.078152782341021521 -55.145900448012981 0 -55.145900448012981 296.32202266452805 0 0 0 0 -9.3061205301819427 -77.291137448530208 0 -77.291137448530208 408.29604834406928 0 0 0 0 74.074952209362891 -88.979385282713338 0 -88.979385282713338 187.98211871234525 0 0 0 0 152.93812939325107 -168.90352573474229 0 -168.90352573474229 262.85736751182412 0 0 0 0 88.208544633862402 -116.85442845043144 0 -116.85442845043144 176.97290996732772 0 0 0 0 -7.8439799083646378 -4.6601196363057653 0 -4.6601196363057653 -3.2774760639910312 0 0 0 0 -416.61048188997302 111.46110698788834 0 111.46110698788834 116.17616304908734 0 0 0 0 -354.35164330656767 -119.64059596977131 0 -119.64059596977131 -126.76758371743199 0 0 0 0 90.0249672034779 -109.79481404034959 0 -109.79481404034959 113.29960326006403 0 0 0 0 25.367554891360669 -56.087561651496799 0 -56.087561651496799 173.16892040538369 0 0 0 0 19.844601069914461 -72.398805373464711 0 -72.398805373464711 143.79322028325259 0 0 0 0 19.27107392365042 -102.21764008478203 0 -102.21764008478203 80.184214263310423 0 0 0 0 45.109252601676417 -67.16569164692919 0 -67.16569164692919 72.877151162785594 0 0 0 0 57.269713633264473 -95.897036480180759 0 -95.897036480180759 57.835621469152102 0 0 0 0 25.581183164892536 -95.555477354151662 0 -95.555477354151662 64.176794935125145 0 0 0 0 -8.1512373891880792 -19.458605496283653 0 -19.458605496283653 12.400450239443416 0 0 0 0 -593.56224380030562 -82.734326214726025 0 -82.734326214726025 199.4057573498867 0 0 0 0 -57.888374007989114 100.07491126828245 0 100.07491126828245 55.450358306028647 0 0 0 0 -330.98421524552396 -96.120487332067569 0 -96.120487332067569 112.55727574315824 0 0 0 0 -76.616222952767885 -54.212971575756455 0 -54.212971575756455 131.77020593358611 0 0 0 0 -47.796073619506387 -14.907150041100977 0 -14.907150041100977 62.251796383254259 0 0 0 0 -31.585546843550674 -38.794625135782553 0 -38.794625135782553 93.892134996589448 0 0 0 0 -4.2052788695023082 -42.119288093352225 0 -42.119288093352225 19.699005254311487 0 0 0 0 7.381824626105054 -29.761118301473175 0 -29.761118301473175 68.9154752005158 0 0 0 0 -10.109147904538986 -87.284102133024135 0 -87.284102133024135 39.396412835769297 0 0 0 0 -72.105949723707909 -109.79492442657647 0 -109.79492442657647 83.589628446403367 0 0 0 0 0.47670321717532715 -50.381893572863191 0 -50.381893572863191 120.15247819227807 0 0 0 0 -36.4540774377449 -65.915211520190496 0 -65.915211520190496 68.250404793005146 0 0 0 0 3.8684823485459932 -33.656820051691341 0 -33.656820051691341 41.887879042016721 0 0 0 0 28.108331583683992 -80.90271411139156 0 -80.90271411139156 24.799612537346547 0 0 0 0 -13.352177844651919 -40.110276260806131 0 -40.110276260806131 25.345277032494778 0 0 0 0 7.5269397251055299 -36.181141348923028 0 -36.181141348923028 11.420521667736367 0 0 0 0 -33.662056983686682 -35.6755733083628 0 -35.6755733083628 107.47261785959927 0 0 0 0 -26.954759032768834 -42.885424311654788 0 -42.885424311654788 13.707754123264749 0 0 0 0 -15.615366167518914 -55.821907852237928 0 -55.821907852237928 6.7674052287911763 0 0 0 0 -5.6888071951373149 -0.36722111137815006 0 -0.36722111137815006 16.591653763794909 0 0 0 0 3.3479360603218993 -21.792506832010986 0 -21.792506832010986 -22.541176273542078 0 0 0 0 -0.18780530119829564 -31.530548972787074 0 -31.530548972787074 15.591524943931745 0 0 0 0 -7.3015909966470645 -49.083611813683092 0 -49.083611813683092 8.4415608589770272 0 0 0 0 39.283255482448226 -27.653726575596011 0 -27.653726575596011 -47.343087925350119 0 0 0 0 -1.7152597396598139 -42.701025978718462 0 -42.701025978718462 1.4223056515565986 0 0 0 0 4.8366748888652573 -51.42253156638823 0 -51.42253156638823 -0.016455119098154114 0 0 0 0 2.9588021263789677 -11.059559304972776 0 -11.059559304972776 -8.5779899335708762 0 0 0 0 -3.6708081985265437 -49.879004864049421 0 -49.879004864049421 -151.46714488515863 0 0 0 0 -10.841044731105873 -21.215480086507114 0 -21.215480086507114 -14.271025216919298 0 0 0 0 365.08814744823292 -312.6287432409481 0 -312.6287432409481 127.79543142879993 0 0 0 0 207.73455576598772 -48.844303907121684 0 -48.844303907121684 -151.64579162617883 0 0 0 0 -11.898814201449742 -12.625388811424401 0 -12.625388811424401 -0.74769901729001731 0 0 0 0 -16.997988441232337 -50.407148689556379 0 -50.407148689556379 -3.5091830214660149 0 0 0 0 14.525444571712313 244.54351059509827 0 244.54351059509827 -12.123349395700643 0 0 0 0 -125.02889872414926 -79.286974440121412 0 -79.286974440121412 113.17170249462288 0 0 0 0 24.962550617786878 -68.851867266803666 0 -68.851867266803666 58.235205822619264 0 0 0 0 20.553384559204474 -111.32404601836788 0 -111.32404601836788 -31.715414768812479 0 0 0 0 -115.88946649284571 -81.367936170310713 0 -81.367936170310713 68.372163380479833 0 0 0 0 83.611405489804156 -152.0444496906257 0 -152.0444496906257 -118.17902209134627 0 0 0 0 66.90443050578105 -310.74008871175192 0 -310.74008871175192 29.779515785408876 0 0 0 0 17.935270645077139 -90.792993286322599 0 -90.792993286322599 255.59856746130754 0 0 0 0 -9.0453505807211059 -149.41601904297386 0 -149.41601904297386 257.94946108891236 0 0 0 0 -87.432503819555563 -123.26473363253081 0 -123.26473363253081 227.61633758734388 0 0 0 0 3.4199270736248764 -30.858953512599328 0 -30.858953512599328 8.134392321915584 0 0 0 0 67.585935548244606 -113.26197059858532 0 -113.26197059858532 215.24536749929212 0 0 0 0 23.925873592935261 34.9087689316666 0 34.9087689316666 410.2552053734471 0 0 0 0 -1.6646726362294844 5.2128667010962602 0 5.2128667010962602 5.0186715992731852 0 0 0 0 -86.657512971788037 -48.849169442584753 0 -48.849169442584753 599.77934134328825 0 0 0 0 -252.7060226844456 92.880751245309511 0 92.880751245309511 4307.9857584393249 0 0 0 0 -109.06291674399016 -183.54982126223513 0 -183.54982126223513 4688.7889752772026 0 0 0 0 -4.5264957868154969 -139.62784702948557 0 -139.62784702948557 4500.1953966595211 0 0 0 0 460.30597695150175 -437.01118519178453 0 -437.01118519178453 258.96194343050229 0 0 0 0 -65.50545788261222 -342.73756906599067 0 -342.73756906599067 2552.6864827638128 0 0 0 0 3.2872410742215998 -1.9138995062221191 0 -1.9138995062221191 5.7158218943928745 0 0 0 0 -52.470369918636607 -214.69077689310143 0 -214.69077689310143 675.8966759093164 0 0 0 0 -46.66066807728464 -233.5167332523306 0 -233.5167332523306 450.40520081112118 0 0 0 0 -20.441522916785061 -35.151565706317342 0 -35.151565706317342 632.84980614819597 0 0 0 0 -26.537305655273599 -69.688528982918797 0 -69.688528982918797 493.89250447004633 0 0 0 0 58.373288909093354 -822.00942114098143 0 -822.00942114098143 2945.7267621099963 0 0 0 0 -126.44010401959005 175.59497051159724 0 175.59497051159724 3180.5841421633013 0 0 0 0 -411.99126656767453 -130.67720661792191 0 -130.67720661792191 4499.2592848819877 0 0 0 0 -18.327965050700676 -330.67431052107531 0 -330.67431052107531 3900.4445505070034 0 0 0 0 366.35148689555291 -655.58809301029123 0 -655.58809301029123 4501.8744871199078 0 0 0 0 -18.3813332214594 -370.89499376567625 0 -370.89499376567625 4297.1341644879649 0 0 0 0 19.702380631649476 -1458.7730182037885 0 -1458.7730182037885 2854.457054659093 0 0 0 0 2249.5171919205013 256.1779498476717 0 256.1779498476717 4930.3095512234368 0 0 0 0 2699.4030450955247 1713.7192416495991 0 1713.7192416495991 7175.6753834892043 0 0 0 0 167.27033203114911 1072.8683786703132 0 1072.8683786703132 7412.5739437600878 0 0 0 0 4.7177436070771748 1.7713643330948905 0 1.7713643330948905 14.274079049273141 0 0 0 0 7.6719664156698082 5.6096288422602125 0 5.6096288422602125 13.561394409098416 0 0 0 0 1376.9464652775853 -2178.4384503478786 0 -2178.4384503478786 639.44535136283594 0 0 0 0 -82.687733612696604 -1533.581946427918 0 -1533.581946427918 4750.5793687706355 0 0 0 0 3481.851512325803 2025.984649946967 0 2025.984649946967 4501.3671196792266 0 0 0 0 4992.7111107754681 1845.2281661379789 0 1845.2281661379789 -463.66493161307881 0 0 0 0 1262.4225721854798 1890.5909166957431 0 1890.5909166957431 2186.5440098346639 0 0 0 0 1.2898816829700923 -6.4320315674616513 0 -6.4320315674616513 44.490380780584061 0 0 0 0 3180.7377029480035 3459.1565947004642 0 3459.1565947004642 1960.8480304312889 0 0 0 0 1507.7984978005243 289.37979808399677 0 289.37979808399677 850.51983922850172 0 0 0 0 13.816969132185932 -1.7630317198122611 0 -1.7630317198122611 48.954195350369446 0 0 0 0 5.9179227614503098 7.6656656553538305 0 7.6656656553538305 26.586144042489046 0 0 0 0 25.287351052772067 735.69788224818774 0 735.69788224818774 713.280875190394 0 0 0 0 0.42960992627848782 -14.833986337021333 0 -14.833986337021333 42.300434919301992 0 0 0 0 39.82124230080899 -3.7726987271998951 0 -3.7726987271998951 48.030789151664067 0 0 0 0 66.116463400973771 -0.77676952988531411 0 -0.77676952988531411 48.200582362343994 0 0 0 0 7.7978350924729618 -28.985219648114608 0 -28.985219648114608 60.883858853900605 0 0 0 0 2.0334967472222161 -17.671745907482546 0 -17.671745907482546 71.335564387070008 0 0 0 0 -33.005118836738802 10.027821141966342 0 10.027821141966342 14.172901064630423 0 0 0 0 555.18751844097164 959.83865456905778 0 959.83865456905778 996.00629947904554 0 0 0 0 292.77129029969376 467.97772725033474 0 467.97772725033474 975.56027907553198 0 0 0 0 3.3819617188032662 -21.602058789719688 0 -21.602058789719688 64.790907357607949 0 0 0 0 1094.2039499180141 1273.446391380694 0 1273.446391380694 608.49697368126613 0 0 0 0 192.09761466267989 868.91284458134805 0 868.91284458134805 1329.1756098515616 0 0 0 0 511.79069067827891 1769.5888332622012 0 1769.5888332622012 2823.3222688339747 0 0 0 0 525.98502645878443 1804.4701909319142 0 1804.4701909319142 2802.5668021856013 0 0 0 0 595.11974021661035 2232.6835545853683 0 2232.6835545853683 5018.2202626903709 0 0 0 0 -298.48901544910069 1907.6333604900224 0 1907.6333604900224 4498.7930045002604 0 0 0 0 -766.73349359407769 1195.2906318720352 0 1195.2906318720352 4499.6916362843504 0 0 0 0 -460.1174860621328 1466.568506892871 0 1466.568506892871 3311.5742073778174 0 0 0 0 -381.41840152456177 846.09727907403249 0 846.09727907403249 3057.6055654737684 0 0 0 0 -717.386020030758 616.98205996737943 0 616.98205996737943 4499.4511579686268 0 0 0 0 -748.00032954227004 993.774912911299 0 993.774912911299 3701.1678274783853 0 0 0 0 -418.65705601452282 609.30028302305163 0 609.30028302305163 3610.3301350615457 0 0 0 0 -380.06849230868158 640.93061056980264 0 640.93061056980264 3272.9191743522897 0 0 0 0 57.537861761562681 292.93000944258074 0 292.93000944258074 3013.644054388832 0 0 0 0 -339.2829546437099 254.15963852050936 0 254.15963852050936 2525.3195180253529 0 0 0 0 -199.97203242179341 569.03137790551773 0 569.03137790551773 2727.2425246284565 0 0 0 0 -52.836141301415182 -102.07102627920358 0 -102.07102627920358 1851.2144549720597 0 0 0 0 103.51948240487323 448.23300527783249 0 448.23300527783249 3187.317506358635 0 0 0 0 170.31506425456507 1271.9142314394674 0 1271.9142314394674 2123.8295456439582 0 0 0 0 -340.80455863376289 1021.6453099863693 0 1021.6453099863693 2818.3234452978086 0 0 0 0 15.830142854118435 558.34092426701045 0 558.34092426701045 1655.8691878487207 0 0 0 0 -136.4641205209083 244.47448228455232 0 244.47448228455232 1427.8250907924821 0 0 0 0 224.97188979572678 485.52108335459207 0 485.52108335459207 794.6914319047537 0 0 0 0 73.432583865588299 -115.60288644564207 0 -115.60288644564207 155.33656420982697 0 0 0 0 -25.729593577528476 -188.84933721894049 0 -188.84933721894049 246.06738306550233 0 0 0 0 266.62931469915986 249.11164278986871 0 249.11164278986871 580.80910347765712 0 0 0 0 -192.68454391110572 -160.55314655554321 0 -160.55314655554321 1348.2880144143546 0 0 0 0 24.077485456945169 -262.27602722834854 0 -262.27602722834854 615.26194961178408 0 0 0 0 271.67029085877613 45.948428802347735 0 45.948428802347735 517.56360620218402 0 0 0 0 -172.43750942625343 -32.935986347650214 0 -32.935986347650214 1823.5176566033283 0 0 0 0 1.8516414410195785 1.6707479995066876 0 1.6707479995066876 2.2741043442704623 0 0 0 0 253.903632571103 -178.93979731329273 0 -178.93979731329273 184.60078053777215 0 0 0 0 185.84398513836618 152.73300224189461 0 152.73300224189461 239.71368586406697 0 0 0 0 4.1565835989065523 2.6938304924153016 0 2.6938304924153016 -2.1568368164152076 0 0 0 0 54.832316285047597 -38.791288843335678 0 -38.791288843335678 110.86458244337337 0 0 0 0 23.25435663176512 -62.382811109359864 0 -62.382811109359864 158.14949376928598 0 0 0 0 58.170131118649593 -41.78958878843514 0 -41.78958878843514 97.789638296638259 0 0 0 0 113.36609849551812 -16.8283460818393 0 -16.8283460818393 84.80835918585035 0 0 0 0 38.131667816215838 -12.94480352001483 0 -12.94480352001483 46.753942907190321 0 0 0 0 43.876628052924119 12.792018412413199 0 12.792018412413199 75.062383298540226 0 0 0 0 34.878205034188113 -39.242786719991727 0 -39.242786719991727 66.38423554856854 0 0 0 0 13.537112665216227 -30.787481423330064 0 -30.787481423330064 112.58423887494632 0 0 0 0 21.990447631145798 -2.3706590472465905 0 -2.3706590472465905 92.147555260475428 0 0 0 0 14.287500754393909 -28.584223869192094 0 -28.584223869192094 14.442289177636825 0 0 0 0 30.617008112370058 -1.1734200854330084 0 -1.1734200854330084 77.58058414753441 0 0 0 0 -9.1622853637597927 -19.585037519662365 0 -19.585037519662365 146.78005891848079 0 0 0 0 28.161440738620058 5.3588089191604809 0 5.3588089191604809 101.06135598876699 0 0 0 0 28.154630914305926 -51.685769311192416 0 -51.685769311192416 171.01394180671377 0 0 0 0 129.07384904668379 10.633089710021522 0 10.633089710021522 -201.31562362559998 0 0 0 0 116.14757522748869 39.007167782565375 0 39.007167782565375 129.49418596884789 0 0 0 0 77.221444192286981 176.95306769172021 0 176.95306769172021 237.12463602921343 0 0 0 0 58.142032103986821 25.795440734793374 0 25.795440734793374 -23.241857844102924 0 0 0 0 5.0981527692036632 -29.73028491125234 0 -29.73028491125234 39.996935242957953 0 0 0 0 17.376200122412659 -26.311864145970326 0 -26.311864145970326 41.609805243375213 0 0 0 0 3.1562657911861134 -9.0634408181411388 0 -9.0634408181411388 -3.6607502400652692 0 0 0 0 1.6053187127290585 62.578846467530639 0 62.578846467530639 261.54077587603388 0 0 0 0 42.767287445122292 -58.730702566247601 0 -58.730702566247601 45.301778145018034 0 0 0 0 -14.293985362473993 -37.763053896113064 0 -37.763053896113064 163.95624157332654 0 0 0 0 28.604903370873217 -59.359731950749847 0 -59.359731950749847 57.180929402020411 0 0 0 0 3.6665724299975841 -10.407262325286318 0 -10.407262325286318 32.040831050527387 0 0 0 0 12.393320339902857 -66.091309082279622 0 -66.091309082279622 193.96566118919509 0 0 0 0 15.657515157379748 -16.694582392139637 0 -16.694582392139637 190.69302115278333 0 0 0 0 87.533647559924759 -2.7023236336563059 0 -2.7023236336563059 31.044401281767932 0 0 0 0 0.38583949204881662 -14.613710218596339 0 -14.613710218596339 63.98778837975496 0 0 0 0 2.8285476052187732 -25.265127412596485 0 -25.265127412596485 47.401965566692525 0 0 0 0 7.3469153175587802 -39.960009276140823 0 -39.960009276140823 128.87282744422691 0 0 0 0 11.146098831407752 -69.021737805911044 0 -69.021737805911044 59.141947503048229 0 0 0 0 66.209786795288892 -42.748463723706664 0 -42.748463723706664 177.10620325760101 0 0 0 0 43.808238490546955 -57.266704520833628 0 -57.266704520833628 140.54494588793932 0 0 0 0 -49.407509756975969 13.306383797797935 0 13.306383797797935 96.80164207726375 0 0 0 0 -42.753330965698524 -0.90942601970527903 0 -0.90942601970527903 87.714762847786005 0 0 0 0 7.9105921770270662 -6.1531514861139698 0 -6.1531514861139698 30.555047057649016 0 0 0 0 83.883004957580226 -98.109641994718913 0 -98.109641994718913 6.5883096202305751 0 0 0 0 48.510072281794578 187.76729797431108 0 187.76729797431108 -24.229653649919783 0 0 0 0 -43.426394706989569 328.04757539264938 0 328.04757539264938 -10.280522713452228 0 0 0 0 10.841911778431061 56.403087858906879 0 56.403087858906879 99.253615170174371 0 0 0 0 8.3194324913191746 3.5809693072414639 0 3.5809693072414639 -8.6199926240536371 0 0 0 0 -2712.7397529391856 1338.6464135517308 0 1338.6464135517308 -958.57355273775465 0 0 0 0 -66.567162562680579 16.012332586496996 0 16.012332586496996 -37.624879487935686 0 0 0 0 2.7705405101042313 71.11210509077091 0 71.11210509077091 -26.969801922513909 0 0 0 0 24.205870843550656 34.684331764408853 0 34.684331764408853 -74.574569802061887 0 0 0 0 14.389632565311489 10.998217931222996 0 10.998217931222996 -17.923792940789554 0 0 0 0 -3141.6606352706622 838.42256540356902 0 838.42256540356902 211.69310309030698 0 0 0 0 -3668.0908147490263 -109.23994465157739 0 -109.23994465157739 -1438.9964871288248 0 0 0 0 -31.4977815379616 179.21677809202811 0 179.21677809202811 -294.85798659933789 0 0 0 0 -1.0415905517679978 8.4962511186885337 0 8.4962511186885337 13.469582975034427 0 0 0 0 -2508.7415777141509 -144.22824544384639 0 -144.22824544384639 904.70631786939339 0 0 0 0 -2037.8276887045154 1013.7684298514378 0 1013.7684298514378 668.18369410440209 0 0 0 0 -144.14463033468019 320.37366943655798 0 320.37366943655798 374.27945234374783 0 0 0 0 -260.27597203955429 16.067154362921428 0 16.067154362921428 210.02843308581578 0 0 0 0 -56.711809155051697 17.901088594951943 0 17.901088594951943 100.39323604617039 0 0 0 0 -64.88180190092794 245.42345992089031 0 245.42345992089031 320.14520298530988 0 0 0 0 -4.642147427643156 50.71251252844646 0 50.71251252844646 115.59237653863418 0 0 0 0 35.156474143324658 14.269420284028456 0 14.269420284028456 90.757686806820857 0 0 0 0 -53.471313486086956 -8.6472299999951474 0 -8.6472299999951474 105.54614556760134 0 0 0 0 64.551983611210744 -26.89376369317506 0 -26.89376369317506 72.499324136226278 0 0 0 0 96.588798772934297 80.838120955264458 0 80.838120955264458 99.92663124325918 0 0 0 0 18.521767679255618 52.674871598554091 0 52.674871598554091 198.94370774615618 0 0 0 0 14.522626384160958 44.874744543538327 0 44.874744543538327 102.34743099492869 0 0 0 0 28.430512202260388 21.688903693468092 0 21.688903693468092 118.99112373959451 0 0 0 0 42.490407985325874 63.863416831629365 0 63.863416831629365 103.29978484022377 0 0 0 0 88.235410722936479 62.244149238185855 0 62.244149238185855 66.961365516828664 0 0 0 0 16.276161992211655 83.984943167848542 0 83.984943167848542 62.688562757390173 0 0 0 0 -7.2083516734148816 59.310826091757917 0 59.310826091757917 79.006706069240863 0 0 0 0 49.477983673905783 45.703372441513238 0 45.703372441513238 79.116501294840418 0 0 0 0 86.965303054484139 -96.85109412093334 0 -96.85109412093334 585.89389727446269 0 0 0 0 35.491767679291172 51.968755323614687 0 51.968755323614687 59.625271231190709 0 0 0 0 -343.351987864021 4.6844566781528556 0 4.6844566781528556 86.620509374290123 0 0 0 0 5.8989295727250948 -12.468010985779042 0 -12.468010985779042 17.711391162066661 0 0 0 0 458.32008603703463 56.79160006570055 0 56.79160006570055 -72.268334919441259 0 0 0 0 193.5411146262079 347.22933454664417 0 347.22933454664417 -79.227753401290101 0 0 0 0 243.60856189529596 -782.9822460063715 0 -782.9822460063715 105.2313845814715 0 0 0 0 2.4684844347061556 -5.0276050766414428 0 -5.0276050766414428 9.8809155334190066 0 0 0 0 130.29482429994451 847.43304152936457 0 847.43304152936457 3365.8358307136041 0 0 0 0 211.19046545724774 -838.48949568285934 0 -838.48949568285934 1736.7143979125121 0 0 0 0 310.07548559635109 855.24516935591419 0 855.24516935591419 1296.2044700211336 0 0 0 0 131.72289242872785 913.2475171837491 0 913.2475171837491 1988.8668416096989 0 0 0 0 -63.34309552906916 62.455425963658854 0 62.455425963658854 1880.0674252189219 0 0 0 0 7.0545350428662914 31.379220908887874 0 31.379220908887874 1584.2442987384729 0 0 0 0 -128.38676061656832 -55.860240032097863 0 -55.860240032097863 1555.5440849610786 0 0 0 0 116.94879600217405 340.63820925000982 0 340.63820925000982 813.97412686322969 0 0 0 0 252.23837765578338 98.812635661979584 0 98.812635661979584 25.372928317803598 0 0 0 0 238.31259079280784 178.45943481394784 0 178.45943481394784 -173.41519428493484 0 0 0 0 201.46681003932346 3.9330889845277852 0 3.9330889845277852 166.22041535041717 0 0 0 0 146.82190750911059 210.00280074894363 0 210.00280074894363 646.01649208511662 0 0 0 0 -58.492361603558493 1.3637174239593151 0 1.3637174239593151 1477.902552390311 0 0 0 0 115.30765454804657 -107.36855006868427 0 -107.36855006868427 812.94353919658715 0 0 0 0 -107.75336342731561 -407.09761581359271 0 -407.09761581359271 2655.9941851566837 0 0 0 0 34.915216309742249 -182.60291883254968 0 -182.60291883254968 1492.2400224569828 0 0 0 0 -210.3651943233001 33.950118871680388 0 33.950118871680388 2971.6947108866916 0 0 0 0 -234.6498937281001 25.674664719494103 0 25.674664719494103 2699.6085814375474 0 0 0 0 -108.86531555054935 -253.16065564163409 0 -253.16065564163409 2715.7884961675627 0 0 0 0 12.492390323433852 -274.16143317444767 0 -274.16143317444767 3274.6833389578933 0 0 0 0 -80.89120703813569 244.4285444553675 0 244.4285444553675 3620.4643647811026 0 0 0 0 919.66024498119657 -3.3376547634770759 0 -3.3376547634770759 2863.2798927829645 0 0 0 0 156.86156664956434 -224.76091034966521 0 -224.76091034966521 3487.7354006023684 0 0 0 0 -131.28259866056351 -192.10131555851331 0 -192.10131555851331 3072.5045415699788 0 0 0 0 43.502149683265884 26.158615272463976 0 26.158615272463976 2933.5847415215576 0 0 0 0 -124.17125353386405 54.902210189287871 0 54.902210189287871 3072.0098080273601 0 0 0 0 -218.25946614347947 -78.903147375838671 0 -78.903147375838671 3324.672972968805 0 0 0 0 -206.12064036063862 -103.26718855142281 0 -103.26718855142281 3323.1929998354494 0 0 0 0 -174.82587720492825 -39.264683915062051 0 -39.264683915062051 3391.6666456870116 0 0 0 0 45.765780795571118 251.5585739987946 0 251.5585739987946 2901.4765121643068 0 0 0 0 147.24395590628563 38.00400479459222 0 38.00400479459222 3258.4023507002585 0 0 0 0 -319.08964899829095 253.41025235532834 0 253.41025235532834 3675.7889938234657 0 0 0 0 -307.34502211723367 296.9963481375662 0 296.9963481375662 3834.6562907614662 0 0 0 0 -394.21115742813595 -18.41046895308375 0 -18.41046895308375 3991.8540471910055 0 0 0 0 -644.04470697356192 468.96668478841639 0 468.96668478841639 3886.5047119508499 0 0 0 0 -574.42299902257059 220.49161758042919 0 220.49161758042919 4499.3205643899764 0 0 0 0 -385.9326821594284 33.088442443736085 0 33.088442443736085 3918.4823884622183 0 0 0 0 -341.85918595586054 -210.67711628678626 0 -210.67711628678626 3911.3608938348098 0 0 0 0 -134.63485194697071 -380.78404725896507 0 -380.78404725896507 4501.4355008935545 0 0 0 0 -25.014475171798424 -197.94971086327178 0 -197.94971086327178 3614.1182909882809 0 0 0 0 528.68593276724596 -918.52336958632623 0 -918.52336958632623 4490.7397057890485 0 0 0 0 775.71092488130921 -91.517327282066617 0 -91.517327282066617 3514.3254722311394 0 0 0 0 706.59317586858276 474.38036550511606 0 474.38036550511606 2032.0294219409807 0 0 0 0 1787.1432681491322 -859.40297212711266 0 -859.40297212711266 3295.8829190755787 0 0 0 0 203.22013245692708 1596.3049059373261 0 1596.3049059373261 4499.8290977753531 0 0 0 0 5.9880626727200372 -8.2609743003251381 0 -8.2609743003251381 13.578527960319079 0 0 0 0 1748.0444377309846 -459.88861043565043 0 -459.88861043565043 -437.89973351511071 0 0 0 0 -62.028719838526428 793.74338502223236 0 793.74338502223236 2087.8370432626034 0 0 0 0 2.6210482943628892 -17.28813298060831 0 -17.28813298060831 23.147426346482519 0 0 0 0 -204.9283796317057 -876.81264278046228 0 -876.81264278046228 1771.5575211403484 0 0 0 0 123.46818528375718 -265.61450785216221 0 -265.61450785216221 1790.3561529391745 0 0 0 0 -555.54318792972526 10.860975671374035 0 10.860975671374035 2483.0501154484446 0 0 0 0 561.38568965827835 1181.758525292953 0 1181.758525292953 1670.5759559939797 0 0 0 0 1639.9461221901615 -601.97875938450306 0 -601.97875938450306 2593.4451480556727 0 0 0 0 2423.9844499758683 667.74819979603672 0 667.74819979603672 1741.1635724535226 0 0 0 0 -334.9803474654102 648.04217652087686 0 648.04217652087686 2345.1031045386117 0 0 0 0 1516.9684899558943 2149.970449917364 0 2149.970449917364 1934.386274069715 0 0 0 0 -284.89831218657218 239.65842993704655 0 239.65842993704655 5245.691304736778 0 0 0 0 12.607757451286492 19.879185335520951 0 19.879185335520951 32.656292084462777 0 0 0 0 -18.548076235247208 -756.52881811406769 0 -756.52881811406769 5309.7366385289761 0 0 0 0 -85.720073588643345 -543.86838154655743 0 -543.86838154655743 3002.7218296685751 0 0 0 0 226.36404666496628 -429.90689012759412 0 -429.90689012759412 1285.7798372748694 0 0 0 0 1489.5473968836648 1742.8294308332124 0 1742.8294308332124 3954.3092913299333 0 0 0 0 -215.96076550523503 -1913.8505305090657 0 -1913.8505305090657 1728.9948297133997 0 0 0 0 -526.17247206004674 -855.98282781956732 0 -855.98282781956732 4500.0022878318123 0 0 0 0 -1003.6999779954409 269.32360480791363 0 269.32360480791363 206.53209263965255 0 0 0 0 -1721.1774708973398 -2384.7746037185098 0 -2384.7746037185098 1896.6086637651442 0 0 0 0 -991.18274756132143 49.886643408372038 0 49.886643408372038 2906.18200567444 0 0 0 0 -1296.9744321330795 -179.44823108224227 0 -179.44823108224227 90.677925956750187 0 0 0 0 -1616.1094807814991 1132.5644951685863 0 1132.5644951685863 4491.6911031440031 0 0 0 0 -2.2513165801263986 -3.6453488047775622 0 -3.6453488047775622 14.472324228907013 0 0 0 0 -1245.5336169028315 -1850.4054341553874 0 -1850.4054341553874 1817.5663810947226 0 0 0 0 -1034.5965800790032 -110.4107762882777 0 -110.4107762882777 4489.9598702694311 0 0 0 0 60.066418771159533 119.00800067972159 0 119.00800067972159 127.93344614745001 0 0 0 0 -362.76573662360192 409.76556097168759 0 409.76556097168759 2793.1045234312005 0 0 0 0 -365.70199809144322 1293.2834445663705 0 1293.2834445663705 4419.9755708107841 0 0 0 0 -878.28324073966633 578.48215160992913 0 578.48215160992913 2813.6126982846085 0 0 0 0 -236.10703977593585 338.29572763622127 0 338.29572763622127 2534.7329916659178 0 0 0 0 -836.89626223308915 -417.16405816331462 0 -417.16405816331462 2480.4876107926184 0 0 0 0 -151.2103079868848 -722.47831205241528 0 -722.47831205241528 2653.7130559537763 0 0 0 0 -931.2258756206711 -169.00221885984138 0 -169.00221885984138 5434.5476508182328 0 0 0 0 -2.5173946471792199 -6.9667639816665599 0 -6.9667639816665599 14.1415062582779 0 0 0 0 -1047.8103692184341 1415.1449398277073 0 1415.1449398277073 5819.8193815354898 0 0 0 0 -1587.4577229426745 162.93593699426492 0 162.93593699426492 4327.1795152169361 0 0 0 0 -0.94068970506939165 -5.0478411275296651 0 -5.0478411275296651 12.71737914615079 0 0 0 0 -1413.0987004405793 -1556.4427437935756 0 -1556.4427437935756 3156.7547969664156 0 0 0 0 -212.92883928312938 -921.29634299350437 0 -921.29634299350437 3478.3863137906519 0 0 0 0 -166.23986512015745 -785.01577483353321 0 -785.01577483353321 4367.6106897499603 0 0 0 0 26.757978590857824 43.450568667377681 0 43.450568667377681 46.154496194911573 0 0 0 0 95.937825720752699 957.8975306979446 0 957.8975306979446 914.2875065520002 0 0 0 0 680.80832843775738 -805.06597993850482 0 -805.06597993850482 1506.5710112162997 0 0 0 0 556.70494545031579 -716.82849921080924 0 -716.82849921080924 1629.4613984317257 0 0 0 0 15.541621665768576 38.103654573648285 0 38.103654573648285 47.208566275130551 0 0 0 0 310.97561418549992 -1064.547708548107 0 -1064.547708548107 2778.6687455152205 0 0 0 0 -382.69689123969556 -1397.9200144892702 0 -1397.9200144892702 2912.1070739917268 0 0 0 0 282.03987488758298 -787.99155922436512 0 -787.99155922436512 1971.9831419739567 0 0 0 0 509.69176189565337 -923.59045303580388 0 -923.59045303580388 1849.9324659643971 0 0 0 0 461.96725421097017 -978.90620884206146 0 -978.90620884206146 2027.3626482145337 0 0 0 0 418.05096800400952 -947.0077964961165 0 -947.0077964961165 2104.8744477698492 0 0 0 0 639.51565299561696 -1233.815553776702 0 -1233.815553776702 2392.7148568271514 0 0 0 0 548.87251543255843 -921.05585895137483 0 -921.05585895137483 2002.8358040213861 0 0 0 0 31.912813665041874 35.212782182997842 0 35.212782182997842 33.483561900269152 0 0 0 0 -200.86669916024277 903.54093333610399 0 903.54093333610399 -553.21143990177734 0 0 0 0 588.24102656454488 -1032.3148010910591 0 -1032.3148010910591 2306.2791265308115 0 0 0 0 911.66139145699663 -1470.0227276709666 0 -1470.0227276709666 2852.6448242730839 0 0 0 0 258.73254469909693 -865.16108615768644 0 -865.16108615768644 3400.8142662171304 0 0 0 0 172.24578421069691 -685.88048004293523 0 -685.88048004293523 2641.9405190845282 0 0 0 0 -257.06430752232245 -232.19344566046857 0 -232.19344566046857 2651.6169597486005 0 0 0 0 294.0821093723589 -952.82091009896976 0 -952.82091009896976 2590.0798530701359 0 0 0 0 372.63753077615615 -701.0529767920807 0 -701.0529767920807 2338.1732634746004 0 0 0 0 237.89742591364484 -590.30418227674454 0 -590.30418227674454 2078.4323657639543 0 0 0 0 205.30709437153837 -601.13839348352485 0 -601.13839348352485 2086.9246380682744 0 0 0 0 72.691201579285917 -124.61879721751757 0 -124.61879721751757 1847.582577269628 0 0 0 0 251.36105061202753 -379.87732264059105 0 -379.87732264059105 1378.94272237322 0 0 0 0 -247.00287161141455 313.10395952500403 0 313.10395952500403 -702.62535965159623 0 0 0 0 -1780.3005226915757 2926.5317386042443 0 2926.5317386042443 -493.88227888168785 0 0 0 0 23.407119688464718 -195.34773107291221 0 -195.34773107291221 576.50651709287922 0 0 0 0 20.073285630342454 46.535574232685327 0 46.535574232685327 86.365140837184924 0 0 0 0 -134.80650146251645 244.04367956829401 0 244.04367956829401 1094.2509520309686 0 0 0 0 1850.3992864099264 1688.3790513116783 0 1688.3790513116783 -1506.4958836153673 0 0 0 0 -524.35860429689853 543.67060173199934 0 543.67060173199934 2289.1618791351029 0 0 0 0 723.74151085396579 198.18529673714693 0 198.18529673714693 -1212.2514338162437 0 0 0 0 17.563023370394543 12.570502856430934 0 12.570502856430934 11.33178500264016 0 0 0 0 2107.847589111042 638.1822323090164 0 638.1822323090164 -1618.9046483957718 0 0 0 0 1979.6365571478473 1927.0612819581147 0 1927.0612819581147 85.220830405502056 0 0 0 0 1164.3397327624698 -702.62716555370571 0 -702.62716555370571 2308.9690875142842 0 0 0 0 3524.4989075007197 -124.52115506123664 0 -124.52115506123664 1453.9889338530993 0 0 0 0 1744.3532519476721 -303.80048343533781 0 -303.80048343533781 3962.8689620485675 0 0 0 0 700.5847951278065 -287.04105243573576 0 -287.04105243573576 2942.6981536440944 0 0 0 0 2255.023703176149 -2114.5450341908399 0 -2114.5450341908399 4298.272241146944 0 0 0 0 2731.4290797118101 -1169.4821286510996 0 -1169.4821286510996 1820.0357365744967 0 0 0 0 4467.7977156300785 -579.03463537055723 0 -579.03463537055723 1954.963193240299 0 0 0 0 826.09657046983193 -969.56146950045513 0 -969.56146950045513 2550.6905886160966 0 0 0 0 342.24181357075213 226.10048901921982 0 226.10048901921982 1419.8563340717228 0 0 0 0 2468.7124268687994 414.37821202866735 0 414.37821202866735 1219.6776029729081 0 0 0 0 -825.19880321453456 221.82685748758377 0 221.82685748758377 -716.17272035716587 0 0 0 0 -35.393399547223453 -498.75161127207684 0 -498.75161127207684 1327.118692142787 0 0 0 0 20.1608526810478 1280.7702261772847 0 1280.7702261772847 587.27095538497088 0 0 0 0 -3055.9535893317188 1990.0857449645337 0 1990.0857449645337 188.98944339979789 0 0 0 0 -3577.203824030521 1036.0518614973262 0 1036.0518614973262 790.5920542703825 0 0 0 0 -995.80935997603046 1096.8612920165215 0 1096.8612920165215 849.19518528817571 0 0 0 0 -1469.5146295224367 705.69236670916143 0 705.69236670916143 576.83478731564537 0 0 0 0 -2477.3310122660732 1650.8393499510858 0 1650.8393499510858 -548.30786551057827 0 0 0 0 -2574.7439878802979 1028.6844963860203 0 1028.6844963860203 780.28876146381663 0 0 0 0 -2194.2301057132008 -130.92102985234669 0 -130.92102985234669 1264.9916421023809 0 0 0 0 -2099.5215781913066 272.06716017664439 0 272.06716017664439 -334.46974591028265 0 0 0 0 -1443.3020813053481 632.62657558405772 0 632.62657558405772 87.598579716461245 0 0 0 0 -1490.9053275364859 327.55062831328542 0 327.55062831328542 1602.5679995251994 0 0 0 0 -1457.4108043597062 -508.7257617268333 0 -508.7257617268333 1967.805802478957 0 0 0 0 -259.37816324024789 -433.36603610621751 0 -433.36603610621751 1131.0289485728135 0 0 0 0 -1519.161982803842 -230.67412035748566 0 -230.67412035748566 833.82495056186599 0 0 0 0 -1323.5210189975351 -229.19397169816966 0 -229.19397169816966 589.36930971739639 0 0 0 0 -1922.5900651856946 -325.72989705850341 0 -325.72989705850341 1332.8075565762629 0 0 0 0 -1508.9572882337488 -1423.195066778233 0 -1423.195066778233 826.58221395545115 0 0 0 0 15.339794522350402 -9.14489523577803 0 -9.14489523577803 4.7290389184759078 0 0 0 0 3096.3365652122629 -2552.3010656364095 0 -2552.3010656364095 -4150.3000129892316 0 0 0 0 3792.186188234311 -284.24661873539662 0 -284.24661873539662 1493.7142581754015 0 0 0 0 552.13056540338403 -921.42093458287763 0 -921.42093458287763 4068.9732526352018 0 0 0 0 729.80109884291232 -1515.4672726514691 0 -1515.4672726514691 1300.76103713052 0 0 0 0 -843.79545811199023 111.88538691310896 0 111.88538691310896 2213.7478488322231 0 0 0 0 74.507449643861037 -83.610796568667865 0 -83.610796568667865 -583.97820687947387 0 0 0 0 4327.6059305636481 -3075.6177676655934 0 -3075.6177676655934 3663.549340149686 0 0 0 0 33.197088192430698 7.5736303124489268 0 7.5736303124489268 27.213071751714203 0 0 0 0 4186.8068323184034 -3439.4462787492266 0 -3439.4462787492266 2999.8529966670176 0 0 0 0 3755.4848777669249 502.82466140223551 0 502.82466140223551 -1415.0119457421424 0 0 0 0 6759.6080160015445 -2738.9773511980602 0 -2738.9773511980602 -753.16617297603807 0 0 0 0 29.674958688845475 6.5721641343467354 0 6.5721641343467354 20.645937631793345 0 0 0 0 -602.05587220297457 405.92102650438756 0 405.92102650438756 4248.7051041793748 0 0 0 0 -93.758793727982265 -119.47538393743525 0 -119.47538393743525 460.06779647542862 0 0 0 0 27.057941871587659 -20.750587330840084 0 -20.750587330840084 123.85416122841167 0 0 0 0 -1432.7427215916514 -1559.9618385182353 0 -1559.9618385182353 1111.8335657942589 0 0 0 0 110.38576400412421 35.873958940588636 0 35.873958940588636 212.21113259662525 0 0 0 0 155.54815611332015 -2878.9593828335201 0 -2878.9593828335201 -2327.1524916736162 0 0 0 0 -1.6037640933726891 18.76466240432422 0 18.76466240432422 40.41066756823983 0 0 0 0 -1165.2743548486942 -1148.3631863127866 0 -1148.3631863127866 3398.7389651596532 0 0 0 0 -1520.7980222739352 438.02598457927888 0 438.02598457927888 -155.36373220074711 0 0 0 0 1946.253532484785 -2068.112556238073 0 -2068.112556238073 -659.07814584062726 0 0 0 0 -698.35804299838037 -76.729929680060195 0 -76.729929680060195 -563.86974268466292 0 0 0 0 2798.2372823259429 -557.94864970617709 0 -557.94864970617709 1948.113818527112 0 0 0 0 2769.0969228553149 591.30622205940017 0 591.30622205940017 -917.52770896916627 0 0 0 0 1132.56223420889 315.55865986350727 0 315.55865986350727 2311.5780174326292 0 0 0 0 1230.9198068354672 1802.8509327655847 0 1802.8509327655847 1411.3850252808006 0 0 0 0 12.341347298308783 -10.184804643704268 0 -10.184804643704268 10.258527531121217 0 0 0 0 914.23646633878889 -356.07397894925816 0 -356.07397894925816 264.40728812362795 0 0 0 0 975.00704066846174 -351.96149816272759 0 -351.96149816272759 -1055.4572234659354 0 0 0 0 -35.375333197374857 -30.250478171025179 0 -30.250478171025179 70.110541586333056 0 0 0 0 491.7720901556313 412.02991496710092 0 412.02991496710092 280.82682545524949 0 0 0 0 61.470290243814816 219.44838749587689 0 219.44838749587689 250.05524367888938 0 0 0 0 720.6087231993879 92.914496745943325 0 92.914496745943325 -210.3666604531536 0 0 0 0 1526.6976274940389 -86.614189730797989 0 -86.614189730797989 -832.69665697561504 0 0 0 0 1034.7488282399499 461.55285529146022 0 461.55285529146022 -50.439139491458263 0 0 0 0 479.35138722777447 402.32682918577439 0 402.32682918577439 -1184.9942256434624 0 0 0 0 1037.5329683035379 -521.65585157302121 0 -521.65585157302121 217.36928284388273 0 0 0 0 -126.63587011993513 443.8972127013858 0 443.8972127013858 469.17682814949876 0 0 0 0 -593.69322147683692 -2494.5651382136725 0 -2494.5651382136725 -399.45248799128967 0 0 0 0 39.031346647354184 -36.311579428489331 0 -36.311579428489331 26.193524304276547 0 0 0 0 266.09274739725424 -251.94951097262128 0 -251.94951097262128 1128.1301911996779 0 0 0 0 -351.75622164580454 -976.88664095275635 0 -976.88664095275635 2741.5510148212124 0 0 0 0 -288.39634487028525 -638.99417584139883 0 -638.99417584139883 6248.4940849940649 0 0 0 0 2954.9471851290946 -930.1608099408777 0 -930.1608099408777 187.75625356824821 0 0 0 0 119.55737575811872 52.700137898071262 0 52.700137898071262 -40.115027368250594 0 0 0 0 80.057852801986996 29.240719678069922 0 29.240719678069922 2.805394796084741 0 0 0 0 179.49015526820244 30.293127066737725 0 30.293127066737725 1350.0531359510423 0 0 0 0 100.89478008548825 33.540734699471372 0 33.540734699471372 1.258862673330869 0 0 0 0 143.64921138113641 85.759229625138687 0 85.759229625138687 31.432800738257356 0 0 0 0 60.671687201465829 48.541458862437139 0 48.541458862437139 97.988567023538053 0 0 0 0 109.35081592987262 72.72472979950544 0 72.72472979950544 150.07278886651693 0 0 0 0 86.293771628232207 46.063312256810605 0 46.063312256810605 162.42305189694525 0 0 0 0 73.842302684945025 69.50270712107158 0 69.50270712107158 191.88765419216361 0 0 0 0 146.03028031684244 -98.837062040198362 0 -98.837062040198362 1581.0173548416642 0 0 0 0 113.14749381234589 36.808900997606742 0 36.808900997606742 15.714048604277851 0 0 0 0 112.51975825545378 86.728466933549498 0 86.728466933549498 157.59721407790676 0 0 0 0 879.89122270683811 414.41508429317946 0 414.41508429317946 1206.3610703195081 0 0 0 0 22.286150469266488 -6.5457463574261538 0 -6.5457463574261538 46.58799950560271 0 0 0 0 -2.1917605443159118 104.70832279305614 0 104.70832279305614 313.84062766973511 0 0 0 0 102.16344723913062 129.83878752375313 0 129.83878752375313 215.97913352286378 0 0 0 0 -20.683294524096993 -27.501200675622822 0 -27.501200675622822 144.82805109274591 0 0 0 0 132.58864668090973 104.02764598443173 0 104.02764598443173 178.89863390762548 0 0 0 0 227.48117252915108 63.376913446292747 0 63.376913446292747 105.69200762694527 0 0 0 0 -947.84483747179911 593.58481269375261 0 593.58481269375261 1108.0423471756658 0 0 0 0 -165.04945220152877 -109.60350315758842 0 -109.60350315758842 373.30451077138423 0 0 0 0 522.13967938710994 990.13236181118918 0 990.13236181118918 455.3674010270588 0 0 0 0 -17.869444623292082 -42.175982016404106 0 -42.175982016404106 187.44932031453595 0 0 0 0 -998.55085478005822 -538.46966989480779 0 -538.46966989480779 538.38752044525609 0 0 0 0 15.067801166809318 -32.380116665071128 0 -32.380116665071128 46.520853334711163 0 0 0 0 468.77967248593632 -173.94634771467463 0 -173.94634771467463 -176.32465416819832 0 0 0 0 -62.548659869309631 101.83711217109521 0 101.83711217109521 267.83460998213923 0 0 0 0 19.868832374748308 -61.555079157296859 0 -61.555079157296859 526.13567144308763 0 0 0 0 6.5630612147911336 -11.533701458641232 0 -11.533701458641232 9.4237747399810985 0 0 0 0 100.13676501634109 167.06457180570578 0 167.06457180570578 232.14379332598764 0 0 0 0 -6.7505440302520583 238.62451698265431 0 238.62451698265431 572.7247180792474 0 0 0 0 103.57318885323366 120.44232916381952 0 120.44232916381952 243.01476996940619 0 0 0 0 -112.8428655897369 526.09552508144407 0 526.09552508144407 771.86174606748682 0 0 0 0 118.95484371169732 199.45300057041459 0 199.45300057041459 264.16227528927266 0 0 0 0 124.52046925092873 -35.944038668494613 0 -35.944038668494613 183.27503288022126 0 0 0 0 -1.2951974021486166 -4.117250173050536 0 -4.117250173050536 7.5307148560213477 0 0 0 0 251.27751719173648 -37.599240602237842 0 -37.599240602237842 418.70706449450518 0 0 0 0 181.16839563432586 150.19198987486016 0 150.19198987486016 69.231255439115557 0 0 0 0 36.00262990916417 115.67272179414431 0 115.67272179414431 320.22274345705227 0 0 0 0 -1.7476717403256998 -4.2547486818808977 0 -4.2547486818808977 4.9554800587784484 0 0 0 0 12.966990326291125 71.725379115785472 0 71.725379115785472 546.10096935462207 0 0 0 0 16.346834621810558 65.470416064643359 0 65.470416064643359 542.29981180429604 0 0 0 0 -15.154067644310999 -225.42158977346844 0 -225.42158977346844 -375.82643664054922 0 0 0 0 -124.14035616456567 -48.642137899078079 0 -48.642137899078079 643.60806955274893 0 0 0 0 -251.93402026172771 390.42360552419632 0 390.42360552419632 474.87152711459203 0 0 0 0 323.44823836274372 -147.41774292807531 0 -147.41774292807531 326.85106895826175 0 0 0 0 321.38986234604818 -210.08560538580059 0 -210.08560538580059 150.08464707728126 0 0 0 0 309.89288903835825 219.72349489730163 0 219.72349489730163 611.84665595809929 0 0 0 0 47.593544300281792 67.980616456101416 0 67.980616456101416 533.65065154420154 0 0 0 0 5.0291519463971781 -24.833709259480202 0 -24.833709259480202 624.76203061046544 0 0 0 0 -17.888800776940116 -308.89232682714464 0 -308.89232682714464 850.13583214132814 0 0 0 0 -22.814531798772805 -78.19719430092664 0 -78.19719430092664 384.47174284685752 0 0 0 0 118.02452122249815 -452.25395285322156 0 -452.25395285322156 280.43264325158088 0 0 0 0 -789.75447708063803 792.50763596008983 0 792.50763596008983 804.34236823825631 0 0 0 0 -12.537227717235268 -29.874674383527037 0 -29.874674383527037 36.801751587057481 0 0 0 0 -467.61927523473878 -706.72926456306232 0 -706.72926456306232 236.26881358283572 0 0 0 0 -10.174593594005756 -31.83391755061669 0 -31.83391755061669 146.2295762101279 0 0 0 0 327.09030731703024 -754.65231761796167 0 -754.65231761796167 8.5748530777636915 0 0 0 0 -1.2214450471774292 3.6087393192413373 0 3.6087393192413373 8.2768885912883547 0 0 0 0 -571.55147025207407 -12.66549201818998 0 -12.66549201818998 735.70067092783574 0 0 0 0 823.61629896683371 -109.3768925772747 0 -109.3768925772747 -211.72948039576295 0 0 0 0 -214.84150308254902 431.3090665689524 0 431.3090665689524 195.25018075623666 0 0 0 0 85.110138970456319 10.831402615331172 0 10.831402615331172 166.470840775939 0 0 0 0 -65.259214571509801 -105.11196115348866 0 -105.11196115348866 73.117944340261602 0 0 0 0 -19.957844201850349 -29.53000176468467 0 -29.53000176468467 111.76896514072334 0 0 0 0 -304.46311872558726 -82.918553432566114 0 -82.918553432566114 322.48567395430291 0 0 0 0 -15.658405556673735 -49.785255638090156 0 -49.785255638090156 210.96547494818449 0 0 0 0 -25.016196445532842 -206.16655204686685 0 -206.16655204686685 131.6153811056065 0 0 0 0 -2.1180526772392767 -17.259260654359082 0 -17.259260654359082 70.188041802064305 0 0 0 0 14.405597841281633 233.57577006515294 0 233.57577006515294 300.69285461382242 0 0 0 0 -327.23177808776427 159.93928172404708 0 159.93928172404708 500.94291734624858 0 0 0 0 -6.2330769886902999 -45.999157829697651 0 -45.999157829697651 153.3942017450513 0 0 0 0 -12.311680923383392 -14.820950660547169 0 -14.820950660547169 131.61127522879178 0 0 0 0 14.990045719940099 -34.845438439411282 0 -34.845438439411282 158.19559090895018 0 0 0 0 -29.929552140364791 15.598766485337649 0 15.598766485337649 142.88001390715519 0 0 0 0 -22.241632996468979 -38.325594979527978 0 -38.325594979527978 196.34175469245656 0 0 0 0 -47.527838845244332 -72.367368678977073 0 -72.367368678977073 262.10012386463131 0 0 0 0 -39.075816240983841 5.3998326993773844 0 5.3998326993773844 194.02581412449052 0 0 0 0 -34.008055768378895 20.318202494809839 0 20.318202494809839 161.54594650007346 0 0 0 0 16.965380716112122 -50.92436198618816 0 -50.92436198618816 268.83645511993018 0 0 0 0 45.490728232773108 -102.52571065114535 0 -102.52571065114535 243.88301278341532 0 0 0 0 20.604704509409203 -47.109449230396422 0 -47.109449230396422 199.26371038167053 0 0 0 0 118.2387553691442 -80.687458187025186 0 -80.687458187025186 208.29801980278717 0 0 0 0 86.026027115971374 -40.564117940772121 0 -40.564117940772121 57.215611905478909 0 0 0 0 -52.783607873643632 121.49680420189725 0 121.49680420189725 303.56321742790897 0 0 0 0 -9.7240004167495897 13.050591743417716 0 13.050591743417716 23.63195716554111 0 0 0 0 -176.04171820036208 -240.08859177381601 0 -240.08859177381601 318.47577706186712 0 0 0 0 -1.9626742149128305 -30.546485882933844 0 -30.546485882933844 168.89295170653412 0 0 0 0 69.452579648532264 -340.35998099842982 0 -340.35998099842982 -186.34203281804366 0 0 0 0 3.3522953439576213 -22.929713311430014 0 -22.929713311430014 15.034704575512592 0 0 0 0 38.35228123269917 82.70945214738822 0 82.70945214738822 299.10044910195165 0 0 0 0 -166.21998437325965 -55.166530781563779 0 -55.166530781563779 261.05426110233384 0 0 0 0 4.759663189346611 -193.86590620172501 0 -193.86590620172501 164.54970133700408 0 0 0 0 -310.11247250376618 116.00359163661778 0 116.00359163661778 643.97493790317094 0 0 0 0 -2.6643739096691448 -30.055126908594382 0 -30.055126908594382 217.39759224106484 0 0 0 0 -14.183910170034778 20.564834355466445 0 20.564834355466445 33.320628548908758 0 0 0 0 274.62456723560172 -57.198182034189813 0 -57.198182034189813 -68.749219048593659 0 0 0 0 -76.972316993720597 -34.485645957058296 0 -34.485645957058296 241.92391093148035 0 0 0 0 110.11774094178691 156.20993958847248 0 156.20993958847248 420.27303796304477 0 0 0 0 -128.22990898337594 -158.62358628407674 0 -158.62358628407674 260.72558188482071 0 0 0 0 -174.13444354185776 -89.51346026812098 0 -89.51346026812098 523.54072916158475 0 0 0 0 -53.000498285586218 -214.33995313023479 0 -214.33995313023479 -267.89407363516511 0 0 0 0 -22.972928044262517 -50.835743598872796 0 -50.835743598872796 12.698470089555485 0 0 0 0 36.990857752851298 -154.42221686475386 0 -154.42221686475386 -278.09427156583115 0 0 0 0 -174.90861217041675 -141.56243816907227 0 -141.56243816907227 10.678891189474143 0 0 0 0 -296.92167745448387 -278.84825933080901 0 -278.84825933080901 -141.40141959334142 0 0 0 0 -372.12690047077194 -1191.0445734855311 0 -1191.0445734855311 1532.8389760080845 0 0 0 0 -856.73700385741222 -270.96766947277496 0 -270.96766947277496 2173.7658329910541 0 0 0 0 -440.78393921712268 -119.69581229821324 0 -119.69581229821324 1168.4628081370038 0 0 0 0 -867.83920436396511 17.90138959497915 0 17.90138959497915 1155.7861081195897 0 0 0 0 -487.43163131695474 195.35224755605987 0 195.35224755605987 929.91780628103743 0 0 0 0 -1540.8265260716144 -1418.4726366158543 0 -1418.4726366158543 94.445994587358769 0 0 0 0 1610.2164667267425 -1030.0884495362532 0 -1030.0884495362532 -1848.7744791576688 0 0 0 0 22.337436200806764 -14.99596830373325 0 -14.99596830373325 7.7822067054899069 0 0 0 0 1675.5056626947298 -1347.0915375818522 0 -1347.0915375818522 -654.87351384579188 0 0 0 0 880.02742305536958 -763.80581326695028 0 -763.80581326695028 -1057.7978145533648 0 0 0 0 -459.33947363073094 -1.7502511112745651 0 -1.7502511112745651 94.263876804613801 0 0 0 0 -787.68955500279117 -835.26514515982944 0 -835.26514515982944 239.06845907538218 0 0 0 0 -29.335203542513199 2.3969630557377144 0 2.3969630557377144 51.904067602115305 0 0 0 0 208.14413611953933 -26.740617600769838 0 -26.740617600769838 33.153400311593032 0 0 0 0 129.19243217412441 -222.64706127573663 0 -222.64706127573663 -334.54828162584363 0 0 0 0 870.69920565339635 -724.78483588859831 0 -724.78483588859831 -72.738653573451302 0 0 0 0 19.829320709606691 -39.039838827711719 0 -39.039838827711719 80.446160250292451 0 0 0 0 -7.5390856455355788 5.3284886566128762 0 5.3284886566128762 97.126175470250018 0 0 0 0 17.208202221831016 -86.815710246628441 0 -86.815710246628441 171.10279969336443 0 0 0 0 3319.1300969898002 735.27370705166595 0 735.27370705166595 219.87688791727965 0 0 0 0 150.24095460573517 -1999.341180644009 0 -1999.341180644009 774.47937299418754 0 0 0 0 49.997373176887777 -27.940460927145523 0 -27.940460927145523 270.6183262685654 0 0 0 0 3.1574693562270113 -47.53511992625738 0 -47.53511992625738 268.04920968159513 0 0 0 0 -26.399998333458782 8.6878281445812675 0 8.6878281445812675 46.922888406666068 0 0 0 0 16.756239097462867 -85.883919820563008 0 -85.883919820563008 227.80251703300337 0 0 0 0 93.028193520636705 489.11360987141597 0 489.11360987141597 589.54855671184851 0 0 0 0 -20.528923123776622 -35.229466261643211 0 -35.229466261643211 181.89981912713029 0 0 0 0 -4.6218427463354601 -65.195254591859339 0 -65.195254591859339 230.49884522786033 0 0 0 0 -36.786854150435829 -7.4154782813470774 0 -7.4154782813470774 239.37743012408464 0 0 0 0 -17.696206308428373 -4.7879038193382257 0 -4.7879038193382257 206.09932697521526 0 0 0 0 706.38643496393343 -748.24401844037402 0 -748.24401844037402 -178.58183773481687 0 0 0 0 -10.140571807442868 2.0435593699908452 0 2.0435593699908452 31.183204699761234 0 0 0 0 -18.533317847592116 -27.046213601436989 0 -27.046213601436989 259.61289675090256 0 0 0 0 -28.754327951734012 -7.2269447244992122 0 -7.2269447244992122 221.20236943818148 0 0 0 0 -5.3241836942561349 5.7274976763653456 0 5.7274976763653456 502.74727288972508 0 0 0 0 0.88438454777470099 6.6156139708998687 0 6.6156139708998687 -4.3648638358633978 0 0 0 0 -1.8125667362692184 31.050982007840048 0 31.050982007840048 279.74112753073678 0 0 0 0 -20.778630173401325 -23.356506694741938 0 -23.356506694741938 313.63449161315839 0 0 0 0 1.8359238548655412 23.857309879380409 0 23.857309879380409 230.50156574127368 0 0 0 0 -31.527027093881312 -2.4709456091439321 0 -2.4709456091439321 32.891154947558867 0 0 0 0 -267.44694974662343 -224.91088827015574 0 -224.91088827015574 229.00834773430324 0 0 0 0 179.62876238110766 -241.6176820444025 0 -241.6176820444025 -117.68814946050406 0 0 0 0 -18.533208145952813 14.167066611044902 0 14.167066611044902 -13.161792094297994 0 0 0 0 533.24136855438701 -367.35869803760579 0 -367.35869803760579 -1192.3273709333444 0 0 0 0 77.413862296161824 -143.65720390211391 0 -143.65720390211391 386.38071505630296 0 0 0 0 -313.95417738010656 -481.19573284315493 0 -481.19573284315493 554.76710076229938 0 0 0 0 200.91437873900941 -698.27677355321885 0 -698.27677355321885 -98.639866344292386 0 0 0 0 -261.01980559334334 -731.0715423235074 0 -731.0715423235074 1266.9689497297877 0 0 0 0 286.08145913520275 -1053.4930748109155 0 -1053.4930748109155 442.36006472249755 0 0 0 0 -277.14611520136077 -346.82144514516858 0 -346.82144514516858 1044.0529154524602 0 0 0 0 -138.11864722673636 -71.589831489451171 0 -71.589831489451171 426.8314229414791 0 0 0 0 -43.439299059686164 -134.47269279441571 0 -134.47269279441571 288.63444164471184 0 0 0 0 -78.839827292304108 103.07774514555967 0 103.07774514555967 215.69214153823123 0 0 0 0 -108.55660588695537 -165.54269734458649 0 -165.54269734458649 398.56565537693132 0 0 0 0 -36.005009047139083 48.974919596786322 0 48.974919596786322 742.01180508989273 0 0 0 0 51.683073542243164 -406.36846628173998 0 -406.36846628173998 830.05869811015509 0 0 0 0 297.46226272457352 -302.49897583234815 0 -302.49897583234815 700.34669038178754 0 0 0 0 358.97632260315731 -240.03214446495258 0 -240.03214446495258 699.46950552845192 0 0 0 0 2.637244069164808 10.842971589996068 0 10.842971589996068 852.73011645278439 0 0 0 0 -139.33976073009057 -111.8066671912006 0 -111.8066671912006 760.35324353203396 0 0 0 0 -147.77539192143922 83.939039552528584 0 83.939039552528584 922.6229652900056 0 0 0 0 25.084645902359625 -193.21749511417966 0 -193.21749511417966 937.78257943741403 0 0 0 0 569.01996222466005 172.91043120858694 0 172.91043120858694 569.77108308567358 0 0 0 0 1540.2970655286827 -665.1011665374499 0 -665.1011665374499 741.88748516001942 0 0 0 0 3347.9498246972616 -164.14301633878904 0 -164.14301633878904 608.32696568298502 0 0 0 0 -859.81738534766828 762.48235784575536 0 762.48235784575536 2330.9104970368062 0 0 0 0 539.76141225984702 -600.24372232437224 0 -600.24372232437224 398.71670368751529 0 0 0 0 281.38127286770759 -617.59563150011991 0 -617.59563150011991 1534.412792893442 0 0 0 0 131.63422413162516 -639.00151050051318 0 -639.00151050051318 1646.7200209660223 0 0 0 0 1067.0969524354587 -1463.5236280423687 0 -1463.5236280423687 1597.4975086174743 0 0 0 0 685.0040550428057 -965.50023678807383 0 -965.50023678807383 1081.6016764784927 0 0 0 0 786.99434824163541 -748.18620488442434 0 -748.18620488442434 1072.0882992039624 0 0 0 0 730.85346976794244 -824.08972291770897 0 -824.08972291770897 1318.3969857870798 0 0 0 0 1014.9227010403501 -953.92841044717079 0 -953.92841044717079 1012.5057342563559 0 0 0 0 1118.7617238317143 -683.43389187326557 0 -683.43389187326557 999.4953666115689 0 0 0 0 1088.9691339452347 -687.07278256396239 0 -687.07278256396239 1083.8710896190541 0 0 0 0 826.18329991132487 -754.59666601551498 0 -754.59666601551498 959.92238502376495 0 0 0 0 740.34364394532895 -849.94328872891674 0 -849.94328872891674 1139.3294600547642 0 0 0 0 346.12576225100929 -302.42902127261186 0 -302.42902127261186 785.51069175539396 0 0 0 0 509.236105466965 -866.88650813811705 0 -866.88650813811705 1391.2051773515996 0 0 0 0 -264.92542844735362 441.07999020745228 0 441.07999020745228 617.46218312537667 0 0 0 0 2043.5702329250162 -838.5588732501019 0 -838.5588732501019 1018.5977437011716 0 0 0 0 689.50765524041344 -507.98859169860225 0 -507.98859169860225 1107.7728052855136 0 0 0 0 704.56248609031536 -830.88896686864609 0 -830.88896686864609 2264.3264856851565 0 0 0 0 1914.800388630093 -82.154708174126426 0 -82.154708174126426 780.48836059506721 0 0 0 0 3834.5452443836111 -1052.7034563657762 0 -1052.7034563657762 1410.6837195497055 0 0 0 0 1517.3510889162153 -545.69127707106054 0 -545.69127707106054 1309.4138254498466 0 0 0 0 1950.5628624500823 12.371526257487858 0 12.371526257487858 1178.9413547267759 0 0 0 0 661.9190264887402 190.10796408406713 0 190.10796408406713 807.10350861598045 0 0 0 0 -275.88304253928891 -413.5069275409578 0 -413.5069275409578 956.02873127055682 0 0 0 0 826.42065085992181 -129.25780849301918 0 -129.25780849301918 1341.0671601950344 0 0 0 0 374.33187543584563 -148.67220607362788 0 -148.67220607362788 1237.0756990885384 0 0 0 0 894.02837585981615 222.18247090234399 0 222.18247090234399 809.13604983818038 0 0 0 0 1452.5644245285748 -280.44198740599631 0 -280.44198740599631 1060.7418396135163 0 0 0 0 -1388.4465911461652 -789.0942807914962 0 -789.0942807914962 136.3412203504613 0 0 0 0 -1139.2445605157463 -781.17935450547884 0 -781.17935450547884 -43.949401575800948 0 0 0 0 -656.94823159320549 -2.0610032422609947 0 -2.0610032422609947 580.82272574401759 0 0 0 0 -472.08295015186195 149.3998219386749 0 149.3998219386749 219.62465669164339 0 0 0 0 -519.78032459440419 456.87974953557841 0 456.87974953557841 912.36961741595053 0 0 0 0 4.9845074727483718 -11.656610482343478 0 -11.656610482343478 18.299223174458234 0 0 0 0 -1426.9220401966138 169.49366679799641 0 169.49366679799641 1744.1956621642494 0 0 0 0 -578.95624417925592 -633.20938271385785 0 -633.20938271385785 2091.7318019479053 0 0 0 0 -684.70820307455415 -347.1029708018898 0 -347.1029708018898 1403.337305554327 0 0 0 0 124.55464381436468 333.44002696621828 0 333.44002696621828 536.22102087974963 0 0 0 0 -2.3939415612109016 3.8299484337428993 0 3.8299484337428993 -3.2131185483515772 0 0 0 0 866.58670272842323 -664.3861173974442 0 -664.3861173974442 -226.34167298883585 0 0 0 0 608.46642162601711 -174.49207656981434 0 -174.49207656981434 1607.8712085383704 0 0 0 0 779.65334580787021 -324.09724575185618 0 -324.09724575185618 1076.1916468039362 0 0 0 0 627.52151966756719 -115.30382793002082 0 -115.30382793002082 1224.9797877604406 0 0 0 0 241.40480390838866 215.02388013770565 0 215.02388013770565 136.86636612489201 0 0 0 0 -0.47077909746687396 3.4282546569118271 0 3.4282546569118271 8.2790060574047146 0 0 0 0 483.81123714594105 -664.24896874075785 0 -664.24896874075785 1557.419867954445 0 0 0 0 -38.436043755165429 -24.112630838490531 0 -24.112630838490531 81.211972475017319 0 0 0 0 5.2421277927733172 -94.863284093915354 0 -94.863284093915354 68.844777169033932 0 0 0 0 138.49360299026421 -27.692912001453578 0 -27.692912001453578 53.389163782410833 0 0 0 0 2.7416010156539414 -42.55632301805781 0 -42.55632301805781 53.964814073116543 0 0 0 0 99.296918148965688 -18.979668712105763 0 -18.979668712105763 23.265119552568649 0 0 0 0 3.5711753771247459 -38.159093161610656 0 -38.159093161610656 69.229077543175663 0 0 0 0 69.264958516687329 56.357979023133339 0 56.357979023133339 78.954140641878894 0 0 0 0 90.27227847879476 55.978100342450489 0 55.978100342450489 372.79324165174285 0 0 0 0 96.420605922482537 -26.790615757468458 0 -26.790615757468458 112.17522077724698 0 0 0 0 42.016655925985106 48.077803527786273 0 48.077803527786273 100.56387407428747 0 0 0 0 7.2649370283734243 64.714157972315206 0 64.714157972315206 76.133939419640228 0 0 0 0 18.71694309653094 4.4533642375541831 0 4.4533642375541831 32.115541712020786 0 0 0 0 79.273925114499434 25.62674416465552 0 25.62674416465552 -6.817599093064473 0 0 0 0 -44.898147774409608 -404.61249506329477 0 -404.61249506329477 171.51811075603473 0 0 0 0 391.6182412270191 115.75238091705251 0 115.75238091705251 125.92427127472183 0 0 0 0 7.9661007055597217 -31.511510866307614 0 -31.511510866307614 59.801738110183592 0 0 0 0 23.965827713597719 -11.819103267806099 0 -11.819103267806099 80.594160978091679 0 0 0 0 9.3321544921464934 30.449601680265822 0 30.449601680265822 26.452041207871492 0 0 0 0 -193.96616412983985 122.27416576596261 0 122.27416576596261 430.50249239217737 0 0 0 0 -131.10855087066011 -28.191839622959378 0 -28.191839622959378 244.48490317710093 0 0 0 0 12.658456335131518 3.674168107194987 0 3.674168107194987 90.710265970876208 0 0 0 0 -3.0779814123270626 -16.985527234517576 0 -16.985527234517576 23.667337396598725 0 0 0 0 12.178851777586871 -19.712804181339685 0 -19.712804181339685 42.311209783598073 0 0 0 0 11.462858422433925 9.3565323064186892 0 9.3565323064186892 28.632418315629934 0 0 0 0 20.311421241034623 -9.3457768165542348 0 -9.3457768165542348 90.459633647800587 0 0 0 0 22.524800198009871 -8.1655666064334014 0 -8.1655666064334014 89.352713324921751 0 0 0 0 12.666384737753788 -4.604897118651138 0 -4.604897118651138 105.2908119620032 0 0 0 0 17.338186592465718 -14.61457696306843 0 -14.61457696306843 113.95561196636208 0 0 0 0 10.831695133388424 -25.915462468932361 0 -25.915462468932361 17.640985456353718 0 0 0 0 9.8599781513244729 9.954826528733058 0 9.954826528733058 16.771410149000925 0 0 0 0 17.043358885440284 -20.87391264001144 0 -20.87391264001144 120.05881952768959 0 0 0 0 10.351047862529981 -2.6869384514094463 0 -2.6869384514094463 129.21980960653673 0 0 0 0 20.706917354862526 -31.762650639300773 0 -31.762650639300773 60.52853615834556 0 0 0 0 16.157439795565551 -13.052649711599315 0 -13.052649711599315 79.742965603980338 0 0 0 0 22.604794683101318 -37.258015070769943 0 -37.258015070769943 104.47684401233346 0 0 0 0 -504.54171866056663 -129.72699638357335 0 -129.72699638357335 -91.450142943179117 0 0 0 0 -3.7871641775756646 7.8272197612471999 0 7.8272197612471999 71.3192776816053 0 0 0 0 -522.02811692697378 1351.2183485089699 0 1351.2183485089699 39.117957744458636 0 0 0 0 9.8226954751408933 -12.1246469181962 0 -12.1246469181962 33.87988809038827 0 0 0 0 2.3216808167683416 -2.3901582327300623 0 -2.3901582327300623 11.654905626323991 0 0 0 0 -10.353904241726696 -17.309677215367628 0 -17.309677215367628 46.382474073973754 0 0 0 0 -26.056174443401346 -143.70260069109645 0 -143.70260069109645 113.60873169710976 0 0 0 0 11.696757296753503 184.66203431005306 0 184.66203431005306 189.3786220944412 0 0 0 0 -207.15766504152134 -120.38827480481996 0 -120.38827480481996 145.94169020888876 0 0 0 0 31.569520782054958 -35.064508556947295 0 -35.064508556947295 42.125463946876238 0 0 0 0 -7.7285487920356184 24.739663382479552 0 24.739663382479552 124.84684740757689 0 0 0 0 -112.48944448623786 13.971237731855581 0 13.971237731855581 152.61116230722109 0 0 0 0 -388.40919064869649 -24.37067286776437 0 -24.37067286776437 194.30752495793058 0 0 0 0 -1684.7706497762938 -13.587859462226334 0 -13.587859462226334 920.39661990957029 0 0 0 0 -1494.5082488019934 -126.05385344088063 0 -126.05385344088063 384.04406354895036 0 0 0 0 -354.29736020719884 -288.65659832366509 0 -288.65659832366509 342.93523426406318 0 0 0 0 -916.02223011926799 -857.51821898902745 0 -857.51821898902745 3089.5985429921166 0 0 0 0 28.629713576611717 -32.998736847650051 0 -32.998736847650051 15.92436919362946 0 0 0 0 -466.83147344045665 -1337.9242287498564 0 -1337.9242287498564 2950.6321241231744 0 0 0 0 -964.26623019286171 -1254.3951955654484 0 -1254.3951955654484 -987.49479599748156 0 0 0 0 588.50089944720139 -730.32575925340461 0 -730.32575925340461 -486.956929920736 0 0 0 0 2836.9278376914644 -547.87865362681623 0 -547.87865362681623 -603.88752985140854 0 0 0 0 -1451.530390787806 209.64784558892825 0 209.64784558892825 1752.3791067768325 0 0 0 0 -1389.1868769597913 -821.51186625309492 0 -821.51186625309492 2999.0696911406139 0 0 0 0 24.526998356534541 -19.269263054380787 0 -19.269263054380787 11.559326127562422 0 0 0 0 2854.7460978726895 -580.01202206417065 0 -580.01202206417065 -1042.0747575716468 0 0 0 0 3012.0328141266291 -2701.4990835009248 0 -2701.4990835009248 -2094.7208560366098 0 0 0 0 321.78442704090776 -417.43566232734338 0 -417.43566232734338 513.93609567217936 0 0 0 0 727.4449838058672 -1825.7725028094051 0 -1825.7725028094051 3522.0439168710436 0 0 0 0 26.560511672416766 -13.857462099069632 0 -13.857462099069632 5.3074548703031725 0 0 0 0 8.3274520687185181 -0.40157612738298987 0 -0.40157612738298987 27.475469573541673 0 0 0 0 181.13883849866761 -408.39871543194988 0 -408.39871543194988 580.84756769884484 0 0 0 0 147.14464378867888 -58.079257274873612 0 -58.079257274873612 501.24020740856781 0 0 0 0 14.232145426235007 -28.660274966763822 0 -28.660274966763822 40.976755223463385 0 0 0 0 -7.8694791638242521 -13.84031906808449 0 -13.84031906808449 53.455789720453382 0 0 0 0 -1092.9474969218236 487.29804297166811 0 487.29804297166811 454.13203878514105 0 0 0 0 276.86290494626815 1111.1923809348209 0 1111.1923809348209 1850.8806807865476 0 0 0 0 -455.98614083585824 -1195.9281645728406 0 -1195.9281645728406 1608.9355749098322 0 0 0 0 -480.64152802805165 -898.76202897840631 0 -898.76202897840631 -74.294685776938422 0 0 0 0 47.994165532283745 -39.722636825363075 0 -39.722636825363075 34.892999081546513 0 0 0 0 -10.592146306625182 38.44339399063756 0 38.44339399063756 62.657839861945831 0 0 0 0 -12.931431832617566 -22.773857509280788 0 -22.773857509280788 65.718485935998615 0 0 0 0 -12.062333100041201 7.6912490034956136 0 7.6912490034956136 68.065556099638343 0 0 0 0 -2.6881569554664302 -17.011311448899733 0 -17.011311448899733 22.886859465219715 0 0 0 0 0.63479959258452423 20.874167691719038 0 20.874167691719038 50.750239964653701 0 0 0 0 34.536768517042219 -20.438862788083497 0 -20.438862788083497 101.98498722609656 0 0 0 0 -11.003613696804678 5.140105027181562 0 5.140105027181562 74.125138330738991 0 0 0 0 -17.534608159835766 -11.68005183254904 0 -11.68005183254904 82.745640170364879 0 0 0 0 -23.404100487368851 -1.5507122385606635 0 -1.5507122385606635 60.624776144395582 0 0 0 0 -22.557409354735309 -12.374476834696225 0 -12.374476834696225 99.321849568797802 0 0 0 0 -26.753436087025129 -15.75490916733375 0 -15.75490916733375 84.013503479254723 0 0 0 0 -0.0176238770785331 4.5691689994710032 0 4.5691689994710032 39.741515469853766 0 0 0 0 -1.7525159639658512 -0.25768699604668655 0 -0.25768699604668655 27.275911059383361 0 0 0 0 -0.17444714097694813 9.658969192096265 0 9.658969192096265 42.897101065744209 0 0 0 0 -0.243173481037564 -1.1116159042669267 0 -1.1116159042669267 4.9608904736044366 0 0 0 0 -2.1421094092872304 7.123717962174851 0 7.123717962174851 47.202186334878206 0 0 0 0 -2.5116113557565476 13.588875315063007 0 13.588875315063007 37.058963876830717 0 0 0 0 0.80628139752071348 5.4626395294908434 0 5.4626395294908434 45.650290460383985 0 0 0 0 2.3807003214365707 8.769993842379435 0 8.769993842379435 11.486396625954967 0 0 0 0 1.8937355752000071 16.144835701721604 0 16.144835701721604 49.788720271037164 0 0 0 0 1.6091642477814654 13.899211857409682 0 13.899211857409682 32.963567093480378 0 0 0 0 0.017162751572804162 5.8331616936920909 0 5.8331616936920909 17.939670877865865 0 0 0 0 10.251205067481166 55.332374192286807 0 55.332374192286807 84.127735543836025 0 0 0 0 12.572674472498758 33.009965143298558 0 33.009965143298558 56.101073095127674 0 0 0 0 3.1663682871703713 44.294830104867287 0 44.294830104867287 42.566054475028068 0 0 0 0 -0.037876612782383745 40.393391204917862 0 40.393391204917862 62.93363614664122 0 0 0 0 14.495588017748986 39.884919520272817 0 39.884919520272817 60.680446157304516 0 0 0 0 -15.702134838873462 120.27855126750364 0 120.27855126750364 53.982826677456615 0 0 0 0 26.56134496588129 125.96400696746423 0 125.96400696746423 49.825710597695434 0 0 0 0 -17.632544920186774 48.716511359292781 0 48.716511359292781 30.914063157877536 0 0 0 0 50.803966223429597 73.089020032741246 0 73.089020032741246 90.432530104502803 0 0 0 0 60.709094765908958 81.9355409506461 0 81.9355409506461 29.829548873443855 0 0 0 0 -6.8877664464132167 6.0475559826270882 0 6.0475559826270882 12.713143521580207 0 0 0 0 -0.33178728094437027 0.147564792072572 0 0.147564792072572 2.5732215743579445 0 0 0 0 -13.564308605597034 105.54365092592343 0 105.54365092592343 297.31467907244223 0 0 0 0 131.42636829201729 103.89929455470701 0 103.89929455470701 91.785413170608081 0 0 0 0 43.172246153200831 56.562657195390784 0 56.562657195390784 288.9915634922454 0 0 0 0 355.65927090345031 378.65296380741711 0 378.65296380741711 339.90379826549906 0 0 0 0 -222.22236675070235 270.51165343267348 0 270.51165343267348 737.10428020212566 0 0 0 0 -36.795068912502757 53.504383408733702 0 53.504383408733702 314.88303774337692 0 0 0 0 -31.753181058472862 -13.695601873965558 0 -13.695601873965558 28.675625724500104 0 0 0 0 7.0543697331715691 33.019050926615435 0 33.019050926615435 90.83651370710129 0 0 0 0 -57.364427440195868 83.000397880619857 0 83.000397880619857 194.98236601435929 0 0 0 0 -64.500320040868246 11.642540277338412 0 11.642540277338412 148.64282025311695 0 0 0 0 -5.7109493697280413 97.116474179172656 0 97.116474179172656 219.50314545736182 0 0 0 0 -74.748159058013698 -10.539386122094584 0 -10.539386122094584 277.56561329151737 0 0 0 0 -91.056474207235738 -153.54418069667008 0 -153.54418069667008 96.25109109285404 0 0 0 0 -18.957007292517972 -37.426298319069204 0 -37.426298319069204 106.23428698999641 0 0 0 0 -53.78701360409741 -16.786062837818463 0 -16.786062837818463 191.36759852397154 0 0 0 0 -6.7966095006577234 -30.176086442399537 0 -30.176086442399537 125.73630477735423 0 0 0 0 -16.925552507638329 -30.732920374100772 0 -30.732920374100772 114.77741393221518 0 0 0 0 -63.685314300068967 -78.500432060918683 0 -78.500432060918683 135.68430310268013 0 0 0 0 -117.42945940614965 8.1652659669216519 0 8.1652659669216519 152.83759453034145 0 0 0 0 -109.55437042266158 51.200349461920268 0 51.200349461920268 379.92636557129299 0 0 0 0 64.277965366547392 -184.91412189269613 0 -184.91412189269613 90.684182197088376 0 0 0 0 110.61887330980593 -26.697504809726524 0 -26.697504809726524 69.363685847376473 0 0 0 0 -14.395948777993272 9.2108357290417189 0 9.2108357290417189 96.741545301745646 0 0 0 0 5.194372513798136 -70.932948001878685 0 -70.932948001878685 52.310034434747649 0 0 0 0 -5.1497544410853076 -12.180098564137538 0 -12.180098564137538 16.637379679275341 0 0 0 0 -2.6900457559916049 -37.69522614228481 0 -37.69522614228481 -20.242671690793941 0 0 0 0 20.504282411209225 -53.654519205709221 0 -53.654519205709221 92.866414988035103 0 0 0 0 58.86295342718234 55.698170868257876 0 55.698170868257876 133.31422627838037 0 0 0 0 0.93133492413241648 -4.4734439309058018 0 -4.4734439309058018 7.9096679723296006 0 0 0 0 -16.504142132197273 -54.940623892491203 0 -54.940623892491203 -29.100053140340606 0 0 0 0 376.23821962748195 265.40702409872029 0 265.40702409872029 537.67183181307155 0 0 0 0 44.333893404379261 -100.66757951868203 0 -100.66757951868203 556.03273911736323 0 0 0 0 -0.55745284288674646 40.274271300935652 0 40.274271300935652 291.59715681613307 0 0 0 0 19.856701651880073 189.8612295850543 0 189.8612295850543 901.407021004532 0 0 0 0 2.6803332151703332 0.94224146834922351 0 0.94224146834922351 -2.1887897269817245 0 0 0 0 20.002758193640155 75.995671542739728 0 75.995671542739728 69.795514646786614 0 0 0 0 4.7493224836059653 362.52096838456055 0 362.52096838456055 1271.6841832577484 0 0 0 0 2.7459817619547859 163.06601396530459 0 163.06601396530459 2133.440395294223 0 0 0 0 185.27779346002626 384.30643526045606 0 384.30643526045606 1257.0815369464108 0 0 0 0 90.838115385857051 186.91698564197213 0 186.91698564197213 1983.2180057236983 0 0 0 0 3.610908331736292 0.89219089287789188 0 0.89219089287789188 1.75704766100705 0 0 0 0 224.12417596081414 170.54641827955129 0 170.54641827955129 -85.228311530605424 0 0 0 0 271.08538060941703 571.5900046812676 0 571.5900046812676 1153.169808755003 0 0 0 0 206.84912168982947 790.9663218847636 0 790.9663218847636 2245.1781688345072 0 0 0 0 113.44874394611786 988.03479831082223 0 988.03479831082223 2495.0512522546851 0 0 0 0 86.143413369753347 509.92023797552974 0 509.92023797552974 2153.4230957519467 0 0 0 0 -191.64968628593655 485.03056946326979 0 485.03056946326979 3227.4843275751191 0 0 0 0 140.80092830923638 1824.4274361136122 0 1824.4274361136122 3070.1984685408788 0 0 0 0 291.39097038296734 1133.1841396364762 0 1133.1841396364762 1227.7157368550688 0 0 0 0 0.72604499267270672 0.1402043830457842 0 0.1402043830457842 206.15035379069741 0 0 0 0 -0.083107684703671358 1.0280208080501865 0 1.0280208080501865 8.4767275848361123 0 0 0 0 347.67640529275627 859.77741279450493 0 859.77741279450493 2555.7550662983267 0 0 0 0 -479.55737878346389 -43.830955223897035 0 -43.830955223897035 4492.141789560992 0 0 0 0 0.90521946126732222 647.11681528099143 0 647.11681528099143 4471.8733105997671 0 0 0 0 -0.080373839036024533 -0.46531787317110229 0 -0.46531787317110229 7.5795707090833275 0 0 0 0 -250.68491550042404 -1006.3313067858398 0 -1006.3313067858398 1675.8677885208981 0 0 0 0 48.79387302622748 1730.5089675112904 0 1730.5089675112904 4501.4145889958891 0 0 0 0 -101.64048554929236 885.45353326278837 0 885.45353326278837 2888.1699238284054 0 0 0 0 -91.440314082316434 798.21950370349805 0 798.21950370349805 2685.7534030540119 0 0 0 0 162.35628687659181 1249.1694841625067 0 1249.1694841625067 2667.8947881469649 0 0 0 0 751.74227465822923 950.1334144470311 0 950.1334144470311 1031.7606682201149 0 0 0 0 -189.17669536249034 246.44958564183617 0 246.44958564183617 1886.8506095952484 0 0 0 0 186.38501627820023 956.43304788883688 0 956.43304788883688 1880.3902007684228 0 0 0 0 -11.147452552693522 632.33373440703144 0 632.33373440703144 2671.9858298862819 0 0 0 0 5.3000134148837343 -0.039932558486583503 0 -0.039932558486583503 40.661622912527406 0 0 0 0 149.00968612623831 138.60642784508127 0 138.60642784508127 1121.6847529720981 0 0 0 0 10.678118754862215 -43.756165177197403 0 -43.756165177197403 89.478295092641417 0 0 0 0 328.93891149496613 396.3536366111075 0 396.3536366111075 624.39687446273456 0 0 0 0 -236.65645589454653 -63.642431862870581 0 -63.642431862870581 245.17243351310753 0 0 0 0 -101.22041463410187 86.139205441606464 0 86.139205441606464 127.72026943021774 0 0 0 0 -79.324747539818418 13.125224705116125 0 13.125224705116125 -20.731342583800142 0 0 0 0 -304.18248659347 -262.45642629847862 0 -262.45642629847862 3.1387318771376158 0 0 0 0 -292.59476356604466 64.1923953445081 0 64.1923953445081 896.10758062415698 0 0 0 0 11.369672055637842 -28.640489722688756 0 -28.640489722688756 66.448596826515313 0 0 0 0 749.90093313253738 1282.2454509330128 0 1282.2454509330128 2307.5822786333301 0 0 0 0 1643.8340550589737 -619.9657101977391 0 -619.9657101977391 -568.66712386612198 0 0 0 0 7.3843688002163059 -8.9138669788402325 0 -8.9138669788402325 27.103937308615514 0 0 0 0 1937.027324773077 3058.8837306177084 0 3058.8837306177084 4494.1645977376902 0 0 0 0 784.16033570135426 1468.4485721757301 0 1468.4485721757301 2301.1123758098229 0 0 0 0 76.67443735890177 -1802.8882120210474 0 -1802.8882120210474 4488.3075218078402 0 0 0 0 38.129477320552027 -1525.4623950893329 0 -1525.4623950893329 3365.0641671112535 0 0 0 0 1364.9341691517341 -2141.3981704263206 0 -2141.3981704263206 2442.5099355857819 0 0 0 0 265.95805865346813 -325.44822533415208 0 -325.44822533415208 425.60977244823152 0 0 0 0 -3.4941425512715556 -0.57015180047270064 0 -0.57015180047270064 7.6074135197864621 0 0 0 0 240.94669608642795 -522.41288968351864 0 -522.41288968351864 752.7671461563732 0 0 0 0 312.26337171695104 -15.4940189900517 0 -15.4940189900517 135.78836840881559 0 0 0 0 233.55429331434198 -321.26905032774812 0 -321.26905032774812 450.37964752716653 0 0 0 0 -9.200415718009026 135.50074577028863 0 135.50074577028863 123.9384783239866 0 0 0 0 173.75181588509957 -83.590161570740747 0 -83.590161570740747 72.378777539284783 0 0 0 0 158.51758959064429 -323.47512923134491 0 -323.47512923134491 326.5216576570092 0 0 0 0 50.221463641846981 -55.187270199661725 0 -55.187270199661725 248.07874035830901 0 0 0 0 24.614570784227681 299.12606393017631 0 299.12606393017631 -441.87874944059149 0 0 0 0 8.8926817613253206 -139.39427727866132 0 -139.39427727866132 -168.41155961697223 0 0 0 0 -71.110004112476759 24.399287961430673 0 24.399287961430673 247.11895971636113 0 0 0 0 397.66809088811078 89.894391377223656 0 89.894391377223656 476.0661814956693 0 0 0 0 143.424928117219 47.695852488610399 0 47.695852488610399 355.6148817101348 0 0 0 0 -5.4484073776531137 0.36527994199516911 0 0.36527994199516911 1.0146255489658529 0 0 0 0 -17.643413534192831 -20.463749652195133 0 -20.463749652195133 5.4720410168075837 0 0 0 0 -224.23810247296205 209.21385262627155 0 209.21385262627155 822.18272144241382 0 0 0 0 -124.56566304361047 -107.17573479092243 0 -107.17573479092243 453.65054276017327 0 0 0 0 -18.825149086195779 -1.2687478082963253 0 -1.2687478082963253 -2.7271530946441374 0 0 0 0 49.646329522035558 175.67583768498662 0 175.67583768498662 -188.17342515176279 0 0 0 0 -181.08261676781422 90.723295087707811 0 90.723295087707811 64.22786557281097 0 0 0 0 29.174189526865121 5.1449990565597545 0 5.1449990565597545 215.38461328842823 0 0 0 0 -13.989280958615836 -79.293162246023712 0 -79.293162246023712 179.24582084495341 0 0 0 0 -4.1578500200412236 -31.860567823314341 0 -31.860567823314341 133.65715800420003 0 0 0 0 -36.401605052462081 -10.57820611926374 0 -10.57820611926374 24.62061060337345 0 0 0 0 119.81688787617895 13.04272084106924 0 13.04272084106924 655.73946026417252 0 0 0 0 -38.029650073150378 -12.104233445170394 0 -12.104233445170394 276.44991278331872 0 0 0 0 -25.712150020043811 -19.238500374487643 0 -19.238500374487643 1.0124105792033973 0 0 0 0 -22.40661045534187 1.6007600772873332 0 1.6007600772873332 2.0412096604971453 0 0 0 0 228.10680532446895 56.238454564787389 0 56.238454564787389 299.3575416036183 0 0 0 0 15.938878498566282 -31.415432958269321 0 -31.415432958269321 286.38012213930779 0 0 0 0 -157.09940318272857 72.17858337306825 0 72.17858337306825 643.68792491266504 0 0 0 0 5.6144776897926931 30.213711148433504 0 30.213711148433504 -5.5025215211207978 0 0 0 0 -168.99653291368668 -85.409633018905879 0 -85.409633018905879 495.51537183261826 0 0 0 0 3.7375279598654743 118.71267260933382 0 118.71267260933382 219.76295662128541 0 0 0 0 -171.65838526732659 -149.17391094820778 0 -149.17391094820778 210.54826441884506 0 0 0 0 -35.186067656979844 14.48584794425193 0 14.48584794425193 5.5243940649736771 0 0 0 0 -54.688581853733467 60.054434715631942 0 60.054434715631942 10.128765286630369 0 0 0 0 -72.796265758381196 72.005815164658998 0 72.005815164658998 119.65004563534603 0 0 0 0 -103.28627868499098 7.2076111082133139 0 7.2076111082133139 122.88368198904936 0 0 0 0 -182.08682840763504 -147.07901320100791 0 -147.07901320100791 7.7708152744089602 0 0 0 0 -267.13183604549522 -105.70473511669843 0 -105.70473511669843 253.6103781601505 0 0 0 0 -147.01768899425042 35.316998567956034 0 35.316998567956034 140.53296942756424 0 0 0 0 16.711222107910999 -127.68871131206834 0 -127.68871131206834 298.52371349156601 0 0 0 0 -8.0812815853244615 -1.56680957452825 0 -1.56680957452825 3.2261910100242943 0 0 0 0 -144.16131763689509 -538.03091094538468 0 -538.03091094538468 -385.47613449646815 0 0 0 0 18.477115504334051 116.13202630320666 0 116.13202630320666 724.16583546737093 0 0 0 0 301.02603485613815 115.65276610557339 0 115.65276610557339 237.66450383152187 0 0 0 0 151.82794762402318 -191.07350103651697 0 -191.07350103651697 240.50684124795953 0 0 0 0 -433.34886365428883 -165.01769542248076 0 -165.01769542248076 500.54726226355706 0 0 0 0 -199.06436284557969 -286.24142903970642 0 -286.24142903970642 543.58644868663396 0 0 0 0 -210.19966807256878 43.779082087072311 0 43.779082087072311 181.12530399989191 0 0 0 0 227.87727263049658 -201.34728104374517 0 -201.34728104374517 304.91617244943336 0 0 0 0 -194.86543062953137 150.17386763137984 0 150.17386763137984 2357.4032380014396 0 0 0 0 285.23123678269349 399.20518089870166 0 399.20518089870166 518.0264198660966 0 0 0 0 270.26177687958739 -74.07649256685545 0 -74.07649256685545 797.89555112482958 0 0 0 0 -120.10527098010766 -153.20107975837527 0 -153.20107975837527 2048.6259346218358 0 0 0 0 112.79836201226703 302.84838101862624 0 302.84838101862624 1151.3137681994704 0 0 0 0 99.766722624887734 17.204557674507669 0 17.204557674507669 951.46362980067715 0 0 0 0 -43.210691689165287 -203.92281120538246 0 -203.92281120538246 440.18929009973363 0 0 0 0 65.474762919084242 209.02962587797265 0 209.02962587797265 862.53459216876945 0 0 0 0 -47.395321443714522 -278.04962942044222 0 -278.04962942044222 696.79333270517236 0 0 0 0 97.491261083710015 75.269897005011444 0 75.269897005011444 382.44280032764073 0 0 0 0 -163.5587215911064 -317.64806836703065 0 -317.64806836703065 118.56223964958554 0 0 0 0 13.547299889738435 -22.117457665718149 0 -22.117457665718149 4.0197264252727258 0 0 0 0 509.75327911746217 -328.27286602641834 0 -328.27286602641834 573.86684097073157 0 0 0 0 296.43793379920135 -150.28043713397346 0 -150.28043713397346 -411.72734915241745 0 0 0 0 -124.59156286643736 226.46405332884319 0 226.46405332884319 87.704366217483766 0 0 0 0 -1.8557462738789381 -0.15100957225810419 0 -0.15100957225810419 4.0519417029595104 0 0 0 0 -16.492060992238976 -1077.5739728983244 0 -1077.5739728983244 2503.502855011473 0 0 0 0 -422.61134786024979 393.02056129726589 0 393.02056129726589 452.91792600802728 0 0 0 0 681.39888639885771 -286.42365515112033 0 -286.42365515112033 574.70608519204688 0 0 0 0 502.10823421838336 -341.49687060853466 0 -341.49687060853466 943.7820352918352 0 0 0 0 219.30644346234112 -217.81903658239753 0 -217.81903658239753 501.26828513996588 0 0 0 0 50.636968085493436 -300.39229550308664 0 -300.39229550308664 526.42027033085469 0 0 0 0 504.6170562629618 -431.01099257685564 0 -431.01099257685564 515.67786643494037 0 0 0 0 157.74960795154379 -186.45718808723905 0 -186.45718808723905 560.42911691051086 0 0 0 0 92.802245699811465 -24.726444800035097 0 -24.726444800035097 247.52688250379288 0 0 0 0 18.521985518570091 -73.735823550792702 0 -73.735823550792702 193.77058666964149 0 0 0 0 138.31400896845344 151.42722079095256 0 151.42722079095256 -33.253435396720306 0 0 0 0 90.790040876919193 -59.203885500272008 0 -59.203885500272008 -31.228235496979323 0 0 0 0 -574.34446087142715 -484.35988059948431 0 -484.35988059948431 247.03596379371447 0 0 0 0 -380.91108697576419 279.76074636192061 0 279.76074636192061 277.29625097152166 0 0 0 0 -2.9387696073913601 -22.499344893493657 0 -22.499344893493657 4.4659951171610572 0 0 0 0 -39.449688442840625 -162.42600135145767 0 -162.42600135145767 146.48726243912824 0 0 0 0 -408.52485765138795 312.62633565724536 0 312.62633565724536 204.79900636139791 0 0 0 0 -25.057218666658059 -35.747563797136536 0 -35.747563797136536 264.89927626075223 0 0 0 0 -467.1637821257732 -111.36884604547231 0 -111.36884604547231 404.1047098388517 0 0 0 0 -105.16272350627469 -303.95455848597339 0 -303.95455848597339 589.94748040744889 0 0 0 0 81.922876636409455 -111.69659886675799 0 -111.69659886675799 48.640314656120609 0 0 0 0 261.14698229358305 -273.79786136402254 0 -273.79786136402254 456.96366663216759 0 0 0 0 331.96402413768976 -637.76073916872701 0 -637.76073916872701 765.41023509558727 0 0 0 0 554.32727507175787 -648.96760833856388 0 -648.96760833856388 654.38430519091344 0 0 0 0 481.34030081475532 -691.20616198089192 0 -691.20616198089192 1771.8094602636775 0 0 0 0 521.05943090125891 -856.38253927518144 0 -856.38253927518144 1212.574009990989 0 0 0 0 -6.6369861409761102 0.33491951661714836 0 0.33491951661714836 11.263977566665062 0 0 0 0 209.17616256915585 -242.40430472981825 0 -242.40430472981825 451.86544261753443 0 0 0 0 710.12878391614686 -1590.8901950500804 0 -1590.8901950500804 3369.5830196710886 0 0 0 0 670.94406939982434 -1324.7240482603229 0 -1324.7240482603229 2208.7238193081139 0 0 0 0 -32.984484444530125 -592.03860723077105 0 -592.03860723077105 2965.835943719343 0 0 0 0 -45.364861112353047 -608.69555776838752 0 -608.69555776838752 3296.3422552315169 0 0 0 0 -38.170799224761517 -1158.8224324094881 0 -1158.8224324094881 4503.5783277006776 0 0 0 0 423.31340364678846 268.32240695263681 0 268.32240695263681 2304.5195982984151 0 0 0 0 2.1571328264641538 5.0518263563532031 0 5.0518263563532031 14.416741106557026 0 0 0 0 371.65203879027626 -8.8130414221941464 0 -8.8130414221941464 1023.8258260073053 0 0 0 0 -138.75889014164105 248.63919694298238 0 248.63919694298238 4491.6745234052187 0 0 0 0 519.48538720713339 -307.51933713770995 0 -307.51933713770995 2167.7160433879108 0 0 0 0 170.45165801452561 -711.85282759660549 0 -711.85282759660549 1733.5178686911822 0 0 0 0 190.03248776465978 -768.34640648878485 0 -768.34640648878485 1859.5457038298628 0 0 0 0 38.757744120131861 -918.76431257156764 0 -918.76431257156764 1658.1759438350855 0 0 0 0 228.96481922152054 -666.51454841413579 0 -666.51454841413579 1253.9677885240962 0 0 0 0 165.53918909280111 -839.75152074565995 0 -839.75152074565995 2004.9248827893753 0 0 0 0 188.80244256064105 -346.99860642287967 0 -346.99860642287967 864.62612512233318 0 0 0 0 475.28866408388149 -783.98445087878645 0 -783.98445087878645 1037.2349295772128 0 0 0 0 44.504763603631005 -718.99692589792903 0 -718.99692589792903 1239.4133403711603 0 0 0 0 -6.1888952954125092 0.52538692600339232 0 0.52538692600339232 9.8653910825166236 0 0 0 0 75.544855510873731 -543.90798312727566 0 -543.90798312727566 604.9477779110357 0 0 0 0 -170.90438884456569 -705.82708516983621 0 -705.82708516983621 1490.2080357931263 0 0 0 0 92.188976535075653 -701.12123006326146 0 -701.12123006326146 1861.9925573569053 0 0 0 0 91.173473321153779 -668.82356153771252 0 -668.82356153771252 1121.8782302514883 0 0 0 0 284.37679807462973 -1058.0579356320159 0 -1058.0579356320159 1695.1175498149933 0 0 0 0 620.054438030455 -914.46164928466897 0 -914.46164928466897 1442.6102540517531 0 0 0 0 105.61249242385645 -872.22294196813527 0 -872.22294196813527 1579.1227807467367 0 0 0 0 111.86260388584515 -891.35385082453286 0 -891.35385082453286 1437.2665516861998 0 0 0 0 119.39413781293661 -829.87169395527235 0 -829.87169395527235 1482.6806837810291 0 0 0 0 142.8942371404064 -876.95195677346055 0 -876.95195677346055 1575.7684012699683 0 0 0 0 4.9287176873959719 17.489565778673096 0 17.489565778673096 28.127498805664544 0 0 0 0 246.03882957137353 -734.12498481724469 0 -734.12498481724469 1356.0758873788436 0 0 0 0 1086.838303510583 -1904.5947543271286 0 -1904.5947543271286 3794.6693451370884 0 0 0 0 896.08377189997361 -2181.5040351203206 0 -2181.5040351203206 4499.3298180189886 0 0 0 0 911.94870862308107 -1974.9460490818201 0 -1974.9460490818201 4198.9901725504715 0 0 0 0 1259.6216667330793 -2325.927227189648 0 -2325.927227189648 4084.7740141255563 0 0 0 0 1288.5215246031482 -2483.1959964896741 0 -2483.1959964896741 4499.479055106096 0 0 0 0 290.18470988467737 -1436.9674791495381 0 -1436.9674791495381 4499.2499926705086 0 0 0 0 -188.46214930565847 -644.97070412791982 0 -644.97070412791982 3216.0029018780187 0 0 0 0 838.68469089035398 -1584.7396239659442 0 -1584.7396239659442 3306.3308901949931 0 0 0 0 832.15426156941635 -1713.8955761969301 0 -1713.8955761969301 3446.0191883860207 0 0 0 0 933.31066502389035 -1557.6865790240663 0 -1557.6865790240663 2799.1276969162645 0 0 0 0 8.317247515754314 27.33303039924283 0 27.33303039924283 38.285523158649539 0 0 0 0 583.73954006148676 -714.6405414268238 0 -714.6405414268238 1466.5785112003796 0 0 0 0 473.707362754114 -904.83251772973017 0 -904.83251772973017 1708.0122141093852 0 0 0 0 404.35514083401677 -705.29719671204657 0 -705.29719671204657 1867.3125315373327 0 0 0 0 305.94622621377039 -689.46050632306287 0 -689.46050632306287 1893.8880206658578 0 0 0 0 909.5286291730863 -830.26284839699656 0 -830.26284839699656 1713.8009972612927 0 0 0 0 282.56627155257047 -359.76614592948317 0 -359.76614592948317 1507.3241155678115 0 0 0 0 221.00704445225756 -851.8962981171062 0 -851.8962981171062 3356.9031267072132 0 0 0 0 -560.79070507731035 -113.09059301049456 0 -113.09059301049456 1429.5150710255402 0 0 0 0 -87.059059297056592 -608.97220257270965 0 -608.97220257270965 1880.4899835145188 0 0 0 0 -125.30094663446289 -154.93015201271919 0 -154.93015201271919 1936.8689947778184 0 0 0 0 -151.28378588848773 -405.01101383956848 0 -405.01101383956848 85.24856026560883 0 0 0 0 211.63475201815163 -175.57341513114079 0 -175.57341513114079 -635.26788791481704 0 0 0 0 16.782843768714837 -17.430984457421687 0 -17.430984457421687 4.3034205632317928 0 0 0 0 6.5309074039668378 -6.2598306409962561 0 -6.2598306409962561 3.1568974014124223 0 0 0 0 401.80417404410309 -119.87796767533291 0 -119.87796767533291 -476.26364411048962 0 0 0 0 -218.65279471303745 -161.50565803031714 0 -161.50565803031714 667.03180801476992 0 0 0 0 -219.04938730583126 172.89147806205801 0 172.89147806205801 933.52616181746271 0 0 0 0 111.01374929703888 125.52742107790255 0 125.52742107790255 368.50366984514403 0 0 0 0 -186.25098367346573 132.74860161406832 0 132.74860161406832 1825.8126231095521 0 0 0 0 132.59525575703537 11.785358030232601 0 11.785358030232601 980.76951790178828 0 0 0 0 146.36074712638629 123.53432166695711 0 123.53432166695711 1096.2345261374792 0 0 0 0 -6.1117073055111177 139.02323241950944 0 139.02323241950944 1494.1461311227322 0 0 0 0 233.05931630670011 -156.76998110870773 0 -156.76998110870773 1615.3570555815968 0 0 0 0 534.29891733362138 -618.77282895878488 0 -618.77282895878488 1059.4560551088362 0 0 0 0 46.264261583673942 20.949070062692044 0 20.949070062692044 18.894022555691663 0 0 0 0 -4.0211462348306668 95.544537001333083 0 95.544537001333083 -88.3809721311045 0 0 0 0 56.520488899887937 24.554103167836928 0 24.554103167836928 2.4026294990239077 0 0 0 0 46.442362460348704 154.01532421415686 0 154.01532421415686 -325.23278382053104 0 0 0 0 34.699936345178969 18.414112951623338 0 18.414112951623338 2.2545369673381179 0 0 0 0 17.444955112267053 112.56893382995622 0 112.56893382995622 -85.003549427448888 0 0 0 0 -3.3167378939797345 133.70657544460846 0 133.70657544460846 -84.325714592177292 0 0 0 0 -20.718952811364034 162.55828586549251 0 162.55828586549251 37.578482910234015 0 0 0 0 0.20167225026941082 1.4449246512349987 0 1.4449246512349987 0.86087576457972315 0 0 0 0 -112.71010272076001 239.24495186716013 0 239.24495186716013 765.64830514241476 0 0 0 0 -190.32810330983921 188.90345666186477 0 188.90345666186477 1371.0714499985811 0 0 0 0 -0.25539836431930496 -1.7338756745064359 0 -1.7338756745064359 0.76239180970516429 0 0 0 0 35.825206635905488 146.4185656154259 0 146.4185656154259 -287.9147608171188 0 0 0 0 10.261247475693381 218.51854405422637 0 218.51854405422637 -3.4599190126118629 0 0 0 0 46.145448078037589 344.26704711686762 0 344.26704711686762 609.29752557720713 0 0 0 0 17.148262751939001 309.2615781989025 0 309.2615781989025 883.08912971173413 0 0 0 0 -19.137182526566903 60.191581729523023 0 60.191581729523023 791.4286174849949 0 0 0 0 74.547354035777971 130.52231136432238 0 130.52231136432238 562.89437829387316 0 0 0 0 58.81441412467575 162.58496930448382 0 162.58496930448382 623.66377232110244 0 0 0 0 41.188866873160805 128.31735759618459 0 128.31735759618459 287.6499279726122 0 0 0 0 -106.05506935999438 100.90593586979958 0 100.90593586979958 625.49613491276978 0 0 0 0 -23.427672046644147 105.16347248879902 0 105.16347248879902 560.58162702328082 0 0 0 0 -162.46467071300867 -60.387833204978961 0 -60.387833204978961 218.58211652201135 0 0 0 0 -96.033895085849508 -9.329074251189013 0 -9.329074251189013 -79.509400344322785 0 0 0 0 -49.054354205229174 -78.350659487172379 0 -78.350659487172379 169.42546688960283 0 0 0 0 17.596798837685128 -169.51584294522036 0 -169.51584294522036 24.367674976194394 0 0 0 0 -0.67309054842256444 -6.7701225247519972 0 -6.7701225247519972 7.2468572664182886 0 0 0 0 132.56795620887715 4.6815291358070681 0 4.6815291358070681 140.86843637338461 0 0 0 0 -68.078784233741317 14.725632331363158 0 14.725632331363158 643.3749067116878 0 0 0 0 -77.516224480867095 -41.232761602383107 0 -41.232761602383107 330.0665858508728 0 0 0 0 -107.30116813266068 -120.26454421039671 0 -120.26454421039671 246.19386577580008 0 0 0 0 -81.872970049153082 -43.756347290196572 0 -43.756347290196572 345.49686052194738 0 0 0 0 -155.04770052299136 -46.450414727718453 0 -46.450414727718453 368.5882163701317 0 0 0 0 -98.543814520766318 -61.741307482894626 0 -61.741307482894626 252.91803734496352 0 0 0 0 -59.303230531005283 -277.50675313749525 0 -277.50675313749525 514.41225843661232 0 0 0 0 -34.598957724343563 -111.35020802961662 0 -111.35020802961662 706.83452652377309 0 0 0 0 -209.01298717701502 22.075807648536284 0 22.075807648536284 957.51582767820219 0 0 0 0 -1.7177216083998701 -4.3983168774522596 0 -4.3983168774522596 5.372279296221194 0 0 0 0 -3.7681593385386805 -283.52389691632561 0 -283.52389691632561 -122.00208054631366 0 0 0 0 -106.86241596595846 120.47477090011307 0 120.47477090011307 272.07620679930551 0 0 0 0 -180.34535920719827 34.037939645633742 0 34.037939645633742 401.17988062437507 0 0 0 0 -118.34970203635021 19.841390921588754 0 19.841390921588754 383.50908975314815 0 0 0 0 -66.825947002766043 -31.505807555968204 0 -31.505807555968204 380.08776179040433 0 0 0 0 -145.60208522242283 27.129754596520797 0 27.129754596520797 773.31972450764442 0 0 0 0 -91.558261618138204 181.95907682007237 0 181.95907682007237 684.84028128950013 0 0 0 0 -119.93347479316435 112.92676435458998 0 112.92676435458998 707.46654246316393 0 0 0 0 -67.265971421566064 72.9211504724517 0 72.9211504724517 382.00816070743531 0 0 0 0 -146.60296181686681 110.68539664476702 0 110.68539664476702 709.46401352416433 0 0 0 0 90.741325040629818 62.663564679602132 0 62.663564679602132 880.40551247264375 0 0 0 0 -137.31182380794417 207.1485474619767 0 207.1485474619767 852.26689179849927 0 0 0 0 -180.26761904585328 203.35138152843138 0 203.35138152843138 872.24023573643353 0 0 0 0 -64.175325902717304 306.93268874299247 0 306.93268874299247 858.44478019915186 0 0 0 0 25.125806540694612 847.31718959549471 0 847.31718959549471 1033.9248218254543 0 0 0 0 -56.390245666289047 -32.944109518633923 0 -32.944109518633923 1097.163798436537 0 0 0 0 -28.53413343917191 -231.62473103880984 0 -231.62473103880984 1278.8906447142945 0 0 0 0 473.35366288246041 324.94010953515681 0 324.94010953515681 1254.3668025142833 0 0 0 0 -209.37919758058706 196.08602112427616 0 196.08602112427616 920.73081798416388 0 0 0 0 -7.158350657236042 -108.62240494951402 0 -108.62240494951402 778.3056866262923 0 0 0 0 -54.964749097527601 -165.24563851718267 0 -165.24563851718267 866.55376190558854 0 0 0 0 288.86551756973859 -314.02490451616904 0 -314.02490451616904 784.45522918210918 0 0 0 0 69.39125208203717 -146.58176603063976 0 -146.58176603063976 691.40987250980106 0 0 0 0 84.986849922184774 -341.40387214970542 0 -341.40387214970542 533.48925043526106 0 0 0 0 147.81534383276812 -67.13506166269508 0 -67.13506166269508 58.759683127478638 0 0 0 0 -42.915611862197693 -204.7924977547591 0 -204.7924977547591 435.49226357952284 0 0 0 0 11.173443380970639 -275.80822808324592 0 -275.80822808324592 429.00248881471634 0 0 0 0 -10.75969416173985 -0.27970807114300555 0 -0.27970807114300555 25.310495053241027 0 0 0 0 9.937397940470369 -7.9625389681605157 0 -7.9625389681605157 -2.7364124404906249 0 0 0 0 22.685098385880337 -17.995870479811856 0 -17.995870479811856 64.977914482580672 0 0 0 0 64.814510144979067 127.56561401767976 0 127.56561401767976 254.82095640501939 0 0 0 0 195.55932884178219 -392.9633717071265 0 -392.9633717071265 318.86859366224962 0 0 0 0 228.44947754602117 145.44577691678569 0 145.44577691678569 1603.6642558804597 0 0 0 0 -42.925639697558495 -455.20384439862119 0 -455.20384439862119 1551.341403187369 0 0 0 0 343.58467758159622 -217.50645745902148 0 -217.50645745902148 408.41612972894654 0 0 0 0 76.658203232906772 275.78064855586126 0 275.78064855586126 2166.6457207586209 0 0 0 0 210.05725158687255 79.868538758142677 0 79.868538758142677 1595.4617523547786 0 0 0 0 72.314689660313888 11.279232882523502 0 11.279232882523502 2092.1150330372911 0 0 0 0 -105.5519801217506 -22.802967015144532 0 -22.802967015144532 1918.0590842076926 0 0 0 0 276.62969272893224 45.240480503940489 0 45.240480503940489 1928.6284377856427 0 0 0 0 25.227038034233374 78.792698011187895 0 78.792698011187895 -859.00750839567809 0 0 0 0 7.3469571881016318 1.3617105022465807 0 1.3617105022465807 1.9133149319365401 0 0 0 0 -61.981739237074635 387.35124392826765 0 387.35124392826765 3430.4647500093124 0 0 0 0 23.032059207558859 10.012638595314513 0 10.012638595314513 3.59034951504227 0 0 0 0 -23.209479012554766 86.238234329663101 0 86.238234329663101 -607.73232299853407 0 0 0 0 102.00398159153519 2.5166028980020201 0 2.5166028980020201 2508.047810680051 0 0 0 0 -0.60516404108602728 306.85238409066369 0 306.85238409066369 -280.22315986716421 0 0 0 0 26.004458988046281 99.917648130347516 0 99.917648130347516 -99.397540466830833 0 0 0 0 137.7311684419783 224.89418790360287 0 224.89418790360287 -82.352662721008528 0 0 0 0 -145.74255314927905 156.09923054054525 0 156.09923054054525 776.96516967042726 0 0 0 0 1.5938624081771149 -2.4619743963635017 0 -2.4619743963635017 -0.34450271557682388 0 0 0 0 57.12771904612373 226.37423531897366 0 226.37423531897366 -1143.6046923351678 0 0 0 0 79.756507492264063 297.00729028406204 0 297.00729028406204 -76.896614676399622 0 0 0 0 2.0194833384142186 1.4641259419113908 0 1.4641259419113908 0.30780978023848782 0 0 0 0 52.473696460073825 114.5567115614067 0 114.5567115614067 -85.586182585982897 0 0 0 0 -74.443454138716334 177.17354792172409 0 177.17354792172409 376.69058283792219 0 0 0 0 105.33188349399666 111.84077894765869 0 111.84077894765869 -63.90305737813469 0 0 0 0 -54.686266464034134 255.39410053583561 0 255.39410053583561 -72.923787431340315 0 0 0 0 -40.956855998514584 171.20749524096755 0 171.20749524096755 -85.452386095730077 0 0 0 0 108.8986807899937 154.22991468027067 0 154.22991468027067 -661.72039785057859 0 0 0 0 17.670084991786219 10.191302003092204 0 10.191302003092204 1.8645895229105545 0 0 0 0 150.67981980586774 60.019243244729296 0 60.019243244729296 -967.82123960980198 0 0 0 0 5.2982269121710539 0.53431817396460701 0 0.53431817396460701 1.143424100283176 0 0 0 0 19.48308551771629 329.85335687024417 0 329.85335687024417 -124.06031614138919 0 0 0 0 -80.177181697317792 186.78905437019421 0 186.78905437019421 105.60004168484284 0 0 0 0 -139.98512822788143 114.38084878325026 0 114.38084878325026 115.44063581652881 0 0 0 0 20.027387066607389 317.06551069954367 0 317.06551069954367 133.64166686519457 0 0 0 0 -159.18672886424247 178.43128214036551 0 178.43128214036551 608.93444691201512 0 0 0 0 -205.89150741336744 94.329173928272212 0 94.329173928272212 324.67651446116724 0 0 0 0 -156.23892415740931 140.7871277898862 0 140.7871277898862 201.32017459174676 0 0 0 0 -224.69634484665767 35.617893344795448 0 35.617893344795448 153.87626885416103 0 0 0 0 -128.17594218749218 81.194527145882603 0 81.194527145882603 174.40209469039473 0 0 0 0 -128.0919425785396 81.995738015619281 0 81.995738015619281 110.30969168084994 0 0 0 0 -62.423718974062467 63.866077563385261 0 63.866077563385261 115.30188730213558 0 0 0 0 -62.93303666346219 77.708665218736314 0 77.708665218736314 46.950483276610612 0 0 0 0 -86.976892487791702 129.11228832407323 0 129.11228832407323 -72.559910514217336 0 0 0 0 -105.30045561213046 155.62983824995172 0 155.62983824995172 16.253217808913178 0 0 0 0 36.656197318056002 25.783987575254287 0 25.783987575254287 34.953243446274428 0 0 0 0 32.352919882436979 33.690163434354659 0 33.690163434354659 34.277500507575212 0 0 0 0 33.443531006797457 23.630982904913253 0 23.630982904913253 41.935311875757179 0 0 0 0 12.19631115461209 -52.922102875883866 0 -52.922102875883866 589.3576576266787 0 0 0 0 34.868619812499844 20.881906499850317 0 20.881906499850317 7.6601177909775657 0 0 0 0 30.434188264664044 19.334973128556157 0 19.334973128556157 35.818004229819053 0 0 0 0 -359.16968689589874 -253.58158056148386 0 -253.58158056148386 1250.1341129339999 0 0 0 0 -74.445291584737788 178.86429941340612 0 178.86429941340612 -75.077732347344863 0 0 0 0 28.888457234297231 23.679474171004244 0 23.679474171004244 20.063005222191435 0 0 0 0 31.781129164281083 21.130424612441857 0 21.130424612441857 19.872434965378488 0 0 0 0 23.546355816620427 21.295864083392033 0 21.295864083392033 19.888971065461249 0 0 0 0 503.71582694696485 -122.8593091237417 0 -122.8593091237417 196.57187924305617 0 0 0 0 -63.293768326662757 97.153859647798527 0 97.153859647798527 -152.13270051002473 0 0 0 0 84.170383909061457 149.20890048990987 0 149.20890048990987 -234.04482002465375 0 0 0 0 1.9354854282228189 163.60393685540475 0 163.60393685540475 -84.947387549604173 0 0 0 0 -3.1855418431860016 187.45176311243267 0 187.45176311243267 -83.465084226816543 0 0 0 0 -10.612329073896035 218.76542782138858 0 218.76542782138858 -103.79659822837857 0 0 0 0 -4.755076441165329 184.7148122188737 0 184.7148122188737 -54.420540720035206 0 0 0 0 62.118925095753184 238.73316746276396 0 238.73316746276396 -162.67293650918873 0 0 0 0 42.325388316956378 161.2002512566105 0 161.2002512566105 -192.61103453533724 0 0 0 0 144.77331547175527 209.7589882199245 0 209.7589882199245 -179.19570484085853 0 0 0 0 158.29486207378613 278.02845923525456 0 278.02845923525456 -161.97531191954636 0 0 0 0 -229.60457787599262 431.22336689766962 0 431.22336689766962 165.24382457887987 0 0 0 0 390.00244797840423 373.79887308157049 0 373.79887308157049 -15.389943489120924 0 0 0 0 50.236511379298463 -150.45710797829088 0 -150.45710797829088 2186.1147156803054 0 0 0 0 150.20422313652853 -120.70627159943979 0 -120.70627159943979 1898.8367710864841 0 0 0 0 68.32147939382412 -124.44267467813916 0 -124.44267467813916 2156.5217582792975 0 0 0 0 89.92516238612734 -185.29486864365754 0 -185.29486864365754 2138.385383398796 0 0 0 0 81.47945904853259 -124.35398965462809 0 -124.35398965462809 2062.9004519895243 0 0 0 0 136.65501420994951 -190.3280001906096 0 -190.3280001906096 2013.064733783991 0 0 0 0 85.286040856748514 -87.28575735179038 0 -87.28575735179038 2031.3784776977554 0 0 0 0 -40.575458094084752 -28.313928698917152 0 -28.313928698917152 -23.926319626290933 0 0 0 0 51.505540824076888 -219.58724474778865 0 -219.58724474778865 2194.9214733160625 0 0 0 0 1.9013115016657665 0.3619920520073947 0 0.3619920520073947 8.4721708099985307 0 0 0 0 38.32864997253796 18.413467590591921 0 18.413467590591921 10.229469051122479 0 0 0 0 71.019505826577642 -113.01454049770837 0 -113.01454049770837 2157.7121490256977 0 0 0 0 138.61117204875427 -139.28295124258148 0 -139.28295124258148 2099.6091400764999 0 0 0 0 211.41507526055284 -159.83579419902526 0 -159.83579419902526 2098.6022070762701 0 0 0 0 43.73471348822477 33.890945847412922 0 33.890945847412922 21.488405373718876 0 0 0 0 140.06076179428328 -255.90088152256794 0 -255.90088152256794 2087.157164472912 0 0 0 0 129.34121970712295 -292.37886742944829 0 -292.37886742944829 2141.316787145799 0 0 0 0 262.89567771053225 -269.5266258851625 0 -269.5266258851625 2117.3862779820338 0 0 0 0 101.73512283953096 -252.88718415959738 0 -252.88718415959738 2119.3992961409385 0 0 0 0 81.489310684130032 -278.56890582630876 0 -278.56890582630876 2162.3415524864104 0 0 0 0 128.40494270170984 -294.64117329695728 0 -294.64117329695728 2140.4429290635744 0 0 0 0 80.238718090460679 -243.93088834872469 0 -243.93088834872469 2167.0384419979091 0 0 0 0 144.96814350994919 -211.29937392598367 0 -211.29937392598367 2064.2683390060702 0 0 0 0 84.11288177987899 -204.97181869205087 0 -204.97181869205087 2072.4039155286737 0 0 0 0 135.52975057121967 -232.86216500762384 0 -232.86216500762384 2033.677181476698 0 0 0 0 73.220194142183288 -274.11875181270807 0 -274.11875181270807 2009.0113927379716 0 0 0 0 67.430967891291402 -254.56533441168722 0 -254.56533441168722 2115.7598093662236 0 0 0 0 82.046243523395788 -273.80831378989387 0 -273.80831378989387 2083.4294439816731 0 0 0 0 62.64859339331997 -249.32689768268028 0 -249.32689768268028 2037.8054262828955 0 0 0 0 112.17378284461984 -220.73647903616074 0 -220.73647903616074 2052.9907208395889 0 0 0 0 60.087672636998832 -169.95083745892043 0 -169.95083745892043 1954.5738007615437 0 0 0 0 16.228896404383249 -146.61817932195845 0 -146.61817932195845 2058.3857305728015 0 0 0 0 97.228859402956914 -176.73226408820483 0 -176.73226408820483 2065.7256694735261 0 0 0 0 50.986902320647005 -126.9885297636647 0 -126.9885297636647 1798.549699195486 0 0 0 0 -72.739909396707219 -12.026974184016581 0 -12.026974184016581 1846.7065691218013 0 0 0 0 -33.014392987943097 -201.41916509037765 0 -201.41916509037765 1952.0802181966719 0 0 0 0 27.508305518585075 -139.91192549820698 0 -139.91192549820698 1972.2371769257807 0 0 0 0 254.47161113988545 -378.25571108286385 0 -378.25571108286385 1769.194066645694 0 0 0 0 -166.13278017521452 -64.329587517320761 0 -64.329587517320761 1915.5814593964315 0 0 0 0 538.98328521234544 24.659332161900238 0 24.659332161900238 1943.1293315909279 0 0 0 0 282.74191384811638 186.93683485622023 0 186.93683485622023 1984.7059877708962 0 0 0 0 353.2448421512388 486.66542583931732 0 486.66542583931732 693.8550667076197 0 0 0 0 -4.3411535710472631 -4.7864576662740319 0 -4.7864576662740319 4.0017589042562349 0 0 0 0 -76.771211523971715 -164.51006026861069 0 -164.51006026861069 1955.6986187606235 0 0 0 0 3.5947727813455135 2.6415285189473678 0 2.6415285189473678 7.2483997991171236 0 0 0 0 -340.75862379344017 -168.61674208483601 0 -168.61674208483601 2143.0553529685276 0 0 0 0 -564.51557772198566 436.50408595240151 0 436.50408595240151 1465.7035808739165 0 0 0 0 -72.967297341038261 478.16743220077478 0 478.16743220077478 669.78058900745236 0 0 0 0 -72.483511016578404 -64.651975342145306 0 -64.651975342145306 296.42227284519868 0 0 0 0 -90.715835930943797 299.54898935469464 0 299.54898935469464 322.42930201529816 0 0 0 0 -39.678027445029329 248.47636914456962 0 248.47636914456962 -158.64946023937955 0 0 0 0 -105.3280020731986 -11.119502144552825 0 -11.119502144552825 36.547358642041218 0 0 0 0 107.83788624068222 -44.160638196408399 0 -44.160638196408399 866.01737901988963 0 0 0 0 120.10922428404103 -51.087528245341673 0 -51.087528245341673 484.55830954086559 0 0 0 0 76.649239164796654 50.45793363879784 0 50.45793363879784 792.18324600407504 0 0 0 0 -7.9112614339280753 270.28639004271827 0 270.28639004271827 702.02054993268393 0 0 0 0 54.740837152781523 145.85847671204829 0 145.85847671204829 852.53108353374409 0 0 0 0 -17.653974472513141 120.87494324578438 0 120.87494324578438 657.71411359700141 0 0 0 0 -40.644776099480509 228.29475479642861 0 228.29475479642861 1244.3801158382848 0 0 0 0 10.760839690265811 342.36262847862963 0 342.36262847862963 957.14433351196931 0 0 0 0 21.898220277675364 197.48427132586221 0 197.48427132586221 973.98403286730172 0 0 0 0 8.900916253050525 137.68456818079721 0 137.68456818079721 957.68577125392039 0 0 0 0 37.353330793332532 191.58873130675056 0 191.58873130675056 897.79103814944392 0 0 0 0 -5.3919390265829179 147.35393034637673 0 147.35393034637673 1043.432681895807 0 0 0 0 -88.257374410148032 190.3159697510564 0 190.3159697510564 1312.0251234489842 0 0 0 0 -13.491865394613001 229.15626676530519 0 229.15626676530519 1087.860180001102 0 0 0 0 -86.331143068415258 139.47975220056833 0 139.47975220056833 1298.3080143592597 0 0 0 0 -247.86389745813236 335.36123627531015 0 335.36123627531015 1427.8715416891791 0 0 0 0 -37.999443206728358 208.37519043316934 0 208.37519043316934 1337.133390031493 0 0 0 0 91.900727471048413 177.26405307106324 0 177.26405307106324 1295.6067780838348 0 0 0 0 -70.252971185036188 69.790085679087497 0 69.790085679087497 1730.5079768410942 0 0 0 0 16.922367184040922 -35.429888577011297 0 -35.429888577011297 1699.5164849219582 0 0 0 0 3.3216354754940625 3.6798326503794954 0 3.6798326503794954 10.797753209450768 0 0 0 0 -42.485442978502306 -323.24003419562359 0 -323.24003419562359 2328.8726751301147 0 0 0 0 -37.794080182855737 7.7486267908170703 0 7.7486267908170703 165.49323778701364 0 0 0 0 139.51298789083694 -127.84647979118745 0 -127.84647979118745 1614.0163061505446 0 0 0 0 7.9064431733152105 -130.12128466476861 0 -130.12128466476861 2161.3196300668642 0 0 0 0 34.689433446279736 -211.37560665368801 0 -211.37560665368801 2088.1126590662752 0 0 0 0 84.020506195249254 -181.42194665235002 0 -181.42194665235002 1893.6110982259852 0 0 0 0 255.63946391332667 -446.26073556875599 0 -446.26073556875599 1986.8577074521454 0 0 0 0 -173.40992336139561 141.6086272103712 0 141.6086272103712 1385.1601493600174 0 0 0 0 298.34703524513651 -130.87918206379345 0 -130.87918206379345 1407.8350707995996 0 0 0 0 -76.241765400475401 185.37016603558732 0 185.37016603558732 1506.8729057729652 0 0 0 0 -12.398756648019003 101.33154283565818 0 101.33154283565818 1267.9724202165089 0 0 0 0 -224.64210426557258 -53.427249025320634 0 -53.427249025320634 1339.6335211930855 0 0 0 0 -156.49120614141907 -76.953604511887534 0 -76.953604511887534 1039.3094647262769 0 0 0 0 -183.99838238551706 11.874789362612319 0 11.874789362612319 1254.5128322300443 0 0 0 0 -193.28521312438238 46.236580160984886 0 46.236580160984886 1266.4633204134007 0 0 0 0 -178.57327123173647 80.21358322170272 0 80.21358322170272 1218.0503638529335 0 0 0 0 -89.473128559842536 81.414853916139691 0 81.414853916139691 1439.0699805181648 0 0 0 0 -94.651531267091798 135.96906035862048 0 135.96906035862048 1062.0389157694008 0 0 0 0 79.214368329123289 -45.333850247356168 0 -45.333850247356168 1134.1620495984826 0 0 0 0 -21.875570160451367 14.610333475748121 0 14.610333475748121 1168.4967755328398 0 0 0 0 -36.182524775801369 -18.555203900643392 0 -18.555203900643392 1232.2851891942555 0 0 0 0 -107.9901533114903 90.744266150170006 0 90.744266150170006 1287.6226215079078 0 0 0 0 -115.89425224108373 57.89126905676676 0 57.89126905676676 1166.1337285977206 0 0 0 0 -31.376278185508454 58.496769759076415 0 58.496769759076415 1165.1795332059373 0 0 0 0 -94.369503832104982 148.88453331950404 0 148.88453331950404 1163.6692213351198 0 0 0 0 8.4485175935795098 120.64095357474434 0 120.64095357474434 1065.3096512362827 0 0 0 0 -47.316225942985625 100.41695096413605 0 100.41695096413605 1092.0796421831328 0 0 0 0 52.088451957900133 47.734126314244349 0 47.734126314244349 1006.4939941514313 0 0 0 0 47.09052484347859 78.600010257316171 0 78.600010257316171 940.25292115862248 0 0 0 0 19.141559158336349 21.64335338777164 0 21.64335338777164 1052.6082010874816 0 0 0 0 18.433979795587739 28.071560151630365 0 28.071560151630365 1054.6278265716683 0 0 0 0 7.2143665565600514 -8.6581569846166531 0 -8.6581569846166531 1027.6516713320161 0 0 0 0 68.330584818407686 9.5296588514102041 0 9.5296588514102041 955.17083459917922 0 0 0 0 51.424440313972795 -21.954172663361533 0 -21.954172663361533 937.94816012514639 0 0 0 0 94.989461612519108 1.1615288114262512 0 1.1615288114262512 921.67080771207111 0 0 0 0 -94.987882999359613 193.92263235943392 0 193.92263235943392 1161.5893297810399 0 0 0 0 92.661629910417787 59.892228653654456 0 59.892228653654456 958.18740539916325 0 0 0 0 -66.763404933249831 -191.86100185540272 0 -191.86100185540272 1150.2449647775065 0 0 0 0 73.088421096895559 52.544837057987024 0 52.544837057987024 960.6695913982112 0 0 0 0 117.40776314137798 31.355455200864526 0 31.355455200864526 936.20035900874063 0 0 0 0 -0.084872257832713086 46.168221405489021 0 46.168221405489021 944.39451936120895 0 0 0 0 70.845672439173001 47.55599360956694 0 47.55599360956694 953.7631683914442 0 0 0 0 -42.925873907678252 28.939940958691295 0 28.939940958691295 950.75734016993374 0 0 0 0 12.045757524751835 43.664520338548755 0 43.664520338548755 1027.798155131255 0 0 0 0 160.13096485067831 79.811178083036793 0 79.811178083036793 1035.9570734623885 0 0 0 0 40.612306477806207 119.3438241511376 0 119.3438241511376 991.86825965152821 0 0 0 0 0.21034670331703659 67.102449149402673 0 67.102449149402673 1079.7289515906086 0 0 0 0 18.272794140110335 117.22407521142304 0 117.22407521142304 1164.016842329409 0 0 0 0 260.89831342578952 179.9229751322564 0 179.9229751322564 1170.949439776321 0 0 0 0 202.13571846009239 -150.18747672391328 0 -150.18747672391328 1289.2570710837463 0 0 0 0 -147.34120675615839 -374.46952152981248 0 -374.46952152981248 898.22842931031482 0 0 0 0 -0.37392071498346385 169.02080276436027 0 169.02080276436027 1296.6945003691799 0 0 0 0 0.15573028616388734 110.78610944031971 0 110.78610944031971 489.57995605926408 0 0 0 0 -8.9294823611600833 23.609056869099732 0 23.609056869099732 217.55657942878315 0 0 0 0 -0.21033282539512566 -0.12418816234830388 0 -0.12418816234830388 0.08684560739123981 0 0 0 0 135.54517437690868 -78.528961374482606 0 -78.528961374482606 -169.35130142336129 0 0 0 0 -3.5534387054828942 2.0856105043106936 0 2.0856105043106936 12.244426255840381 0 0 0 0 1.7911457373278097 21.071451252049883 0 21.071451252049883 85.800386033130053 0 0 0 0 -7.4622774810888686 15.185408562523662 0 15.185408562523662 115.16692557101487 0 0 0 0 4.0043592135026431 1.8361073269046955 0 1.8361073269046955 10.152819425461473 0 0 0 0 63.797319384505897 182.36311830712293 0 182.36311830712293 -103.13720788242063 0 0 0 0 171.64327677187981 -244.1688451027112 0 -244.1688451027112 319.88538244801748 0 0 0 0 224.09394299447399 245.02514828153653 0 245.02514828153653 183.04374643562187 0 0 0 0 243.66461261584021 445.6541375037632 0 445.6541375037632 971.01933873182861 0 0 0 0 32.288113180954589 23.543409071047734 0 23.543409071047734 16.179750446212381 0 0 0 0 -157.85289517295496 43.66434125455271 0 43.66434125455271 978.48122750785842 0 0 0 0 -138.51451884758205 -65.912782373008667 0 -65.912782373008667 888.38614258035523 0 0 0 0 35.327628357260437 26.056992414691194 0 26.056992414691194 54.946601551317144 0 0 0 0 37.184337155491448 27.486942436611571 0 27.486942436611571 37.892193315172335 0 0 0 0 -9.8597340528750408 6.6470748680221732 0 6.6470748680221732 83.829454508319031 0 0 0 0 -8.8367112710854911 6.4592312015076772 0 6.4592312015076772 49.971420318483865 0 0 0 0 39.372629376608529 31.093857734471385 0 31.093857734471385 60.554978724558168 0 0 0 0 20.485805695986215 53.862731198896654 0 53.862731198896654 79.68327949164086 0 0 0 0 16.508589129713499 56.174852910418849 0 56.174852910418849 115.53358558667242 0 0 0 0 0.49265987161934532 18.289476701559408 0 18.289476701559408 59.597328752202031 0 0 0 0 33.96438165889456 43.953445215914485 0 43.953445215914485 58.377055016185835 0 0 0 0 0.0032076145726023242 108.36495837385883 0 108.36495837385883 66.806499418453313 0 0 0 0 27.99113704877891 37.973617577539699 0 37.973617577539699 54.241116914071881 0 0 0 0 12.598576149030123 83.23641459539067 0 83.23641459539067 95.578410053814878 0 0 0 0 -62.645090808726309 72.915180525992582 0 72.915180525992582 95.784027222791337 0 0 0 0 -8.0842327103028992 44.387307531858312 0 44.387307531858312 82.568144285374274 0 0 0 0 -16.713462975641779 35.336952460292096 0 35.336952460292096 48.691918467530343 0 0 0 0 -5.6305486507080786 25.774682986710104 0 25.774682986710104 41.344632924010511 0 0 0 0 12.598576148986467 83.236414595361566 0 83.236414595361566 95.578410053858534 0 0 0 0 -6.7643267438055581 18.166740526408631 0 18.166740526408631 34.2172980700023 0 0 0 0 0.79407342337927389 36.769773012195046 0 36.769773012195046 33.203540307184682 0 0 0 0 12.598576148986467 83.236414595361566 0 83.236414595361566 95.578410053771222 0 0 0 0 14.986081401439492 73.545129576985346 0 73.545129576985346 136.59501372190425 0 0 0 0 3.6885343480374098 9.088935734872905 0 9.088935734872905 21.509296575646715 0 0 0 0 -19.179067677538114 22.695806559349876 0 22.695806559349876 45.240035320137395 0 0 0 0 35.537323786096863 51.821815730596427 0 51.821815730596427 115.80343219423958 0 0 0 0 6.9844647392276746 39.038203687302726 0 39.038203687302726 69.790211387673025 0 0 0 0 6.500384248587892 46.021761028665338 0 46.021761028665338 80.808211699288762 0 0 0 0 -14.299605321888521 29.660330288286787 0 29.660330288286787 49.809596369334031 0 0 0 0 7.2617628065857218 42.974913930978801 0 42.974913930978801 79.347556378299487 0 0 0 0 63.488386887226696 109.03065934711776 0 109.03065934711776 137.52913851996709 0 0 0 0 0.929637208469559 -0.16239014516580141 0 -0.16239014516580141 -0.58935730282155419 0 0 0 0 7.7554009732388351 57.331851774550159 0 57.331851774550159 131.93986678337023 0 0 0 0 0.30704206710252302 60.334920424441975 0 60.334920424441975 149.30416028492618 0 0 0 0 2.2777059291368857 60.427558547191438 0 60.427558547191438 133.72416849821457 0 0 0 0 -0.25203669588748312 52.059652624622686 0 52.059652624622686 122.75048461755068 0 0 0 0 1.3643783791181892 8.8883036661920727 0 8.8883036661920727 22.662243247663298 0 0 0 0 0.94150675086694768 9.7176472867304255 0 9.7176472867304255 24.97970604764123 0 0 0 0 -2.3439950018293452 8.9812895578943426 0 8.9812895578943426 25.040224902993941 0 0 0 0 0.0042326090037949383 8.6611169882526156 0 8.6611169882526156 25.671765804116149 0 0 0 0 3.1513825066246843 5.4985334499870078 0 5.4985334499870078 7.4045910089698737 0 0 0 0 -0.0097727984867158613 -0.036776609680089223 0 -0.036776609680089223 -0.033361332027880053 0 0 0 0 -1.2009792644819619 6.5203503566881409 0 6.5203503566881409 33.173994905373547 0 0 0 0 0.4855234084657466 1.5858843418234869 0 1.5858843418234869 4.9875094166957581 0 0 0 0 3.2897688667121692 7.1529109463226632 0 7.1529109463226632 11.377897838386843 0 0 0 0 5.4715456719143276 8.6453928706469014 0 8.6453928706469014 11.346777332189049 0 0 0 0 -0.18230782265367662 1.0052505136964669 0 1.0052505136964669 1.930095503957034 0 0 0 0 65.533493890329964 -2.2415554357139627 0 -2.2415554357139627 -3.9543114992557094 0 0 0 0 83.299387846086574 109.06162013109133 0 109.06162013109133 90.747907190059777 0 0 0 0 31.928866147059381 67.046462063419312 0 67.046462063419312 138.51686693687225 0 0 0 0 1.1722707630172131 1.0579066349638993 0 1.0579066349638993 -0.76781244363166934 0 0 0 0 1.1157920533554648 9.7788007884152819 0 9.7788007884152819 5.5079944834054686 0 0 0 0 0.015847023449850894 6.7554404198599514 0 6.7554404198599514 10.829938363167457 0 0 0 0 2.7091032509814759 9.2292393781597042 0 9.2292393781597042 4.5975686742244761 0 0 0 0 -2.429134765435947 71.22464172681066 0 71.22464172681066 107.65700533399649 0 0 0 0 1.1488817182412276 69.164958014269359 0 69.164958014269359 101.11411894398043 0 0 0 0 2.3535214972378071 84.499985375194228 0 84.499985375194228 161.35281775378098 0 0 0 0 4.4676918054257548 11.714979522743647 0 11.714979522743647 -5.9315764838457739 0 0 0 0 0.85397719640741565 1.6989208523733339 0 1.6989208523733339 3.2730279313748838 0 0 0 0 35.378237223665622 63.637759668403305 0 63.637759668403305 52.505871082801605 0 0 0 0 -5.7759375499038015 5.1926790173529298 0 5.1926790173529298 32.349175037335954 0 0 0 0 28.345263602566661 -24.559314403035387 0 -24.559314403035387 -31.097907117044087 0 0 0 0 -26.679415345152563 42.011070475899032 0 42.011070475899032 19.823401514920988 0 0 0 0 -5.3713771918105522 33.649889979205909 0 33.649889979205909 -6.6216831245837966 0 0 0 0 1.4851028597694311 8.8329996170428444 0 8.8329996170428444 8.2999610145195675 0 0 0 0 12.294366628229454 39.083565820641525 0 39.083565820641525 13.731925798449083 0 0 0 0 9.8553652333055197 49.484199077443918 0 49.484199077443918 85.254484478093218 0 0 0 0 133.65233155457099 -12.075717611063737 0 -12.075717611063737 -64.211293573083822 0 0 0 0 188.18184091049443 51.889126276335446 0 51.889126276335446 -47.525141849640931 0 0 0 0 77.561971125430318 129.12275494943606 0 129.12275494943606 160.23618462204468 0 0 0 0 43.533327067212895 56.997466164192701 0 56.997466164192701 86.545688657875871 0 0 0 0 -1.5832213283197554 -2.6431812887329329 0 -2.6431812887329329 2.4758949685689799 0 0 0 0 26.146927497627757 -43.105905472017184 0 -43.105905472017184 47.340628703124821 0 0 0 0 -22.344834558937919 56.898449340529623 0 56.898449340529623 199.36025264242198 0 0 0 0 -10.334029684975121 -6.3338683950714767 0 -6.3338683950714767 42.666817598554189 0 0 0 0 -24.559899303828615 -17.288239554734901 0 -17.288239554734901 63.449848578129604 0 0 0 0 -6.3513988563781822 -30.343893858414958 0 -30.343893858414958 147.6966391916003 0 0 0 0 -31.432855006622447 -1.2209194091519748 0 -1.2209194091519748 36.325737034334452 0 0 0 0 0.22548027842439006 5.5571817856190648 0 5.5571817856190648 22.795453919310773 0 0 0 0 -1.2803824385981315 6.621820348475012 0 6.621820348475012 23.734479222810478 0 0 0 0 0.20053825646628631 8.8555470213250373 0 8.8555470213250373 20.031323921168223 0 0 0 0 -3.5652311747952776 8.0133201032003853 0 8.0133201032003853 20.246869993090513 0 0 0 0 -0.0043658656396980584 7.2793744369846536 0 7.2793744369846536 18.451297775987769 0 0 0 0 -0.12170470966047267 0.3036599926430199 0 0.3036599926430199 5.765437695985284 0 0 0 0 -2.0831939843641516 4.1989400085949455 0 4.1989400085949455 13.908255161513807 0 0 0 0 0.0008494247124341787 -0.45543416994769359 0 -0.45543416994769359 10.999115652772161 0 0 0 0 0.23986061524147145 -1.221774372932984 0 -1.221774372932984 1.5027473364513071 0 0 0 0 12.859679565961724 -30.015734244676423 0 -30.015734244676423 44.631048934737919 0 0 0 0 -2.3935145375861797 -9.5752284139308301 0 -9.5752284139308301 6.6650429639055631 0 0 0 0 -7.781279799206871 -9.8558915107205394 0 -9.8558915107205394 31.473048144063796 0 0 0 0 6.0473622451226561 -14.686076900616172 0 -14.686076900616172 14.311016605046461 0 0 0 0 -6.5781973986857096 1.4336158458245336 0 1.4336158458245336 26.89305453900306 0 0 0 0 -3.8544096712182707 -2.4387559728420456 0 -2.4387559728420456 32.131085915520089 0 0 0 0 0.088061333641738321 14.606002676504431 0 14.606002676504431 36.693582916021114 0 0 0 0 -8.1132633850624067 -1.5887899275548989 0 -1.5887899275548989 64.24784668686334 0 0 0 0 -0.035955941323364209 15.667119909630856 0 15.667119909630856 14.742255556669988 0 0 0 0 1.9509690191738933 4.445862475753529 0 4.445862475753529 20.042643760505598 0 0 0 0 -3.3613487323034548 4.3231145292593283 0 4.3231145292593283 14.856736857138458 0 0 0 0 -3.5387765249034544 10.045831645198632 0 10.045831645198632 31.629413264186951 0 0 0 0 -1.81878085492216 7.4714094280789141 0 7.4714094280789141 14.502166463018511 0 0 0 0 36.364941569325687 90.214064646577754 0 90.214064646577754 810.34173715673387 0 0 0 0 0.06201046613543941 1.1397166293424164 0 1.1397166293424164 0.55109901936504002 0 0 0 0 4.6475272646120693 6.9091658906691009 0 6.9091658906691009 -2.8686331412754953 0 0 0 0 46.536680270648048 -1.6205070516807609 0 -1.6205070516807609 -2.0911781105969567 0 0 0 0 0.93656158554170199 -1.1003855983316271 0 -1.1003855983316271 2.2762559003594198 0 0 0 0 72.573883147837591 -92.258017561922316 0 -92.258017561922316 813.23697098188859 0 0 0 0 0.3052868897835912 0.43063792180298321 0 0.43063792180298321 0.64155838161752854 0 0 0 0 -4.7135797373583586 4.3565391026641009 0 4.3565391026641009 11.152920029024244 0 0 0 0 -0.67774592985775073 2.3795796624546881 0 2.3795796624546881 2.2846162297291563 0 0 0 0 73.255906291722937 62.452145598443167 0 62.452145598443167 706.56453688560578 0 0 0 0 -6.9678180613253247 1.2730833542882465 0 1.2730833542882465 26.860759871618939 0 0 0 0 -9.1991646132265288 4.4795038817610475 0 4.4795038817610475 16.918735926636145 0 0 0 0 -7.0189022393778941 0.27400218534603482 0 0.27400218534603482 9.5092507979861693 0 0 0 0 -12.742106051378954 3.5697811021564121 0 3.5697811021564121 52.63174300029641 0 0 0 0 -0.19205494033996104 -0.54551245396640624 0 -0.54551245396640624 12.424243900154181 0 0 0 0 -37.322248852588245 22.97665644071094 0 22.97665644071094 38.771513370986213 0 0 0 0 -2.410391507723316 -3.1041403173427149 0 -3.1041403173427149 13.018277936707875 0 0 0 0 23.410316582733572 -19.925821691242163 0 -19.925821691242163 -66.722648993745679 0 0 0 0 -12.38164315107683 -5.3412227632143185 0 -5.3412227632143185 25.78111611973145 0 0 0 0 -10.024725435422525 -5.4043497503880644 0 -5.4043497503880644 23.910662663649418 0 0 0 0 -4.7402280040675659 -9.6788054425572909 0 -9.6788054425572909 5.7045466342407849 0 0 0 0 29.420021755475318 -31.955727651038615 0 -31.955727651038615 -12.11052957487118 0 0 0 0 10.513688174042727 -4.5601858151785564 0 -4.5601858151785564 -11.477330397625337 0 0 0 0 -33.324216407039046 -8.4608495935754036 0 -8.4608495935754036 62.215159926636261 0 0 0 0 -9.3500886847155318 -3.7778692046605329 0 -3.7778692046605329 17.732461019857951 0 0 0 0 -44.559424628623447 20.005563611441175 0 20.005563611441175 144.34514647931792 0 0 0 0 21.026730782916275 77.42708344226412 0 77.42708344226412 118.20595624361886 0 0 0 0 1.1086229130336918 24.631082618426746 0 24.631082618426746 62.415026236918322 0 0 0 0 -23.000897124249605 34.779454858246027 0 34.779454858246027 156.02482506718297 0 0 0 0 -15.751501687726284 -42.539166674561727 0 -42.539166674561727 22.878785020981752 0 0 0 0 56.468420775390427 -71.597179772543313 0 -71.597179772543313 -41.757037715797196 0 0 0 0 -28.969023121691066 -3.2881908163180924 0 -3.2881908163180924 -50.354391168424627 0 0 0 0 -5.9796327934505094 -7.0538158266736275 0 -7.0538158266736275 15.437411864167984 0 0 0 0 25.911042016757278 -30.603151248171343 0 -30.603151248171343 67.522053991866414 0 0 0 0 28.146746258506369 -85.881139524237369 0 -85.881139524237369 -10.452757385683071 0 0 0 0 67.652912844164661 -135.17163309724128 0 -135.17163309724128 67.27231497100729 0 0 0 0 21.497741359258825 4.6537460124727659 0 4.6537460124727659 453.20024972653482 0 0 0 0 51.422811787790067 -65.169484433876278 0 -65.169484433876278 178.60073894221568 0 0 0 0 152.31532809226485 -188.97800871924846 0 -188.97800871924846 167.27018236201548 0 0 0 0 -51.859560680226423 -89.755291444780596 0 -89.755291444780596 117.80216328110328 0 0 0 0 -122.47239288391393 18.350088166414935 0 18.350088166414935 172.7218674144533 0 0 0 0 -43.87639711996917 -65.129161081567872 0 -65.129161081567872 191.36486047659128 0 0 0 0 -64.706079386008014 -71.494070009026473 0 -71.494070009026473 91.86352015985176 0 0 0 0 -10.355647843249017 -87.61428004498157 0 -87.61428004498157 52.842749073723098 0 0 0 0 -24.218351710194383 34.099433175491868 0 34.099433175491868 244.57858719785145 0 0 0 0 -13.694166361664804 -44.609658519311893 0 -44.609658519311893 18.101570841168282 0 0 0 0 -48.22737556770403 -49.517498828368844 0 -49.517498828368844 37.601277731795562 0 0 0 0 12.174898358245173 -3.6144876102771377 0 -3.6144876102771377 99.732669254241046 0 0 0 0 64.145686352805569 59.875342924540746 0 59.875342924540746 72.027112873445731 0 0 0 0 -11.984319304035125 19.57094258043071 0 19.57094258043071 229.74877091245435 0 0 0 0 27.545121030337501 19.626687258889092 0 19.626687258889092 70.734945276359213 0 0 0 0 26.108648847721895 36.907096852311952 0 36.907096852311952 52.64504529676924 0 0 0 0 1.4234921068008148 16.13462972070846 0 16.13462972070846 24.969120717210302 0 0 0 0 25.764308898689706 21.449428759522561 0 21.449428759522561 13.986605712852906 0 0 0 0 3.1361411348232586 25.903554015765025 0 25.903554015765025 48.990950605524802 0 0 0 0 -10.776249123327148 62.122977132265078 0 62.122977132265078 55.470945033834141 0 0 0 0 0.66937395902914432 6.8031105705013033 0 6.8031105705013033 54.298607977194479 0 0 0 0 3.7523560117074339 21.62681755462836 0 21.62681755462836 65.327765745372744 0 0 0 0 30.21070799515725 74.466127277311443 0 74.466127277311443 59.185787446898757 0 0 0 0 1.1854468038636696 -9.5788713014990208 0 -9.5788713014990208 22.509050873297383 0 0 0 0 0.37353198570247059 -0.64625954014294962 0 -0.64625954014294962 -0.10974901824698691 0 0 0 0 -21.529461375236224 57.886115796813101 0 57.886115796813101 135.75542842256255 0 0 0 0 0.45616149824491004 -21.188424656793359 0 -21.188424656793359 8.8595824665972032 0 0 0 0 15.160505524619566 8.3308153621765086 0 8.3308153621765086 -1.9740642140386626 0 0 0 0 -2.1599941716308422 -10.721462864406931 0 -10.721462864406931 29.316704397671856 0 0 0 0 5.5341530032210358 1.0684132991445949 0 1.0684132991445949 38.441842912783613 0 0 0 0 15.157261453858609 11.871086232349626 0 11.871086232349626 40.983513483894058 0 0 0 0 7.8322840491645476 12.129802850593478 0 12.129802850593478 100.3883648821502 0 0 0 0 6.5355482865811609 30.76156440921477 0 30.76156440921477 23.367417186498642 0 0 0 0 5.8884952204923859 11.117038820494002 0 11.117038820494002 -6.1778864878117901 0 0 0 0 -4.8023910378401524 23.803110854045372 0 23.803110854045372 58.144851475000905 0 0 0 0 -6.6501643449668393 60.371261161759321 0 60.371261161759321 133.40668943954734 0 0 0 0 -18.138339146576129 24.402800815820228 0 24.402800815820228 88.12887539244548 0 0 0 0 -12.206625988788765 4.1004349202485173 0 4.1004349202485173 97.400710792309837 0 0 0 0 -6.5644280604066392 31.825280768738594 0 31.825280768738594 81.679964842980553 0 0 0 0 5.2371003284494151 -5.2793003616560128 0 -5.2793003616560128 38.620713869094345 0 0 0 0 24.32575210201253 10.763086028578982 0 10.763086028578982 27.536656565147496 0 0 0 0 17.459361585079616 26.618423814703192 0 26.618423814703192 48.751486643764338 0 0 0 0 30.120848061091351 40.244825541900354 0 40.244825541900354 16.245782189042075 0 0 0 0 11.129690213829235 52.231088336659013 0 52.231088336659013 75.326449520027381 0 0 0 0 -9.159391867841002 10.111710530802213 0 10.111710530802213 48.834450862049266 0 0 0 0 7.0872850919178001 21.677318087700314 0 21.677318087700314 47.564703130218732 0 0 0 0 -1.1979073726524803 15.581102868774906 0 15.581102868774906 45.643181229454058 0 0 0 0 8.0895985236340202 12.671974245919671 0 12.671974245919671 10.553072331395214 0 0 0 0 -7.7189653727058616 31.337795758925495 0 31.337795758925495 133.19277020675509 0 0 0 0 24.976001502308716 23.215253602662415 0 23.215253602662415 79.246539391431725 0 0 0 0 -240.81943190028983 38.235958648139786 0 38.235958648139786 82.278006624219415 0 0 0 0 -49.859765024989429 -62.169163599537569 0 -62.169163599537569 32.541069296305068 0 0 0 0 -49.5366238256629 15.470462892939395 0 15.470462892939395 51.758372533116926 0 0 0 0 -91.010193130358857 -19.906645548158849 0 -19.906645548158849 74.050707695943856 0 0 0 0 -86.991965993732265 26.003386256394151 0 26.003386256394151 68.834558186648792 0 0 0 0 -117.26729259762533 -8.7249297463931725 0 -8.7249297463931725 99.793581769554294 0 0 0 0 -285.50324777035053 -27.194570700245094 0 -27.194570700245094 195.39756260588547 0 0 0 0 -204.6069455860038 -134.44849298406552 0 -134.44849298406552 320.10479072181624 0 0 0 0 -263.61806238556272 -7.331186264013013 0 -7.331186264013013 120.44860997486103 0 0 0 0 -279.06638447643036 -87.077692117331026 0 -87.077692117331026 219.37102137754846 0 0 0 0 -312.02861159967802 -180.91212596003243 0 -180.91212596003243 107.81665778052411 0 0 0 0 -276.28035077879213 -93.84531068578508 0 -93.84531068578508 71.886848113019369 0 0 0 0 -4.9694709770843284 -0.30285187477980458 0 -0.30285187477980458 -0.51123962003636336 0 0 0 0 -180.55622784774914 -200.02219797661019 0 -200.02219797661019 -108.93500892660813 0 0 0 0 -248.31406725710184 -194.3469309063139 0 -194.3469309063139 125.06042958877515 0 0 0 0 -293.03090452774461 29.497377272818994 0 29.497377272818994 135.34720113342337 0 0 0 0 -43.55030482398297 68.050911765756609 0 68.050911765756609 -27.203077356200083 0 0 0 0 -10.953655622059102 9.9404840855495422 0 9.9404840855495422 -15.470830463687889 0 0 0 0 -63.450979345470387 7.6276432371414558 0 7.6276432371414558 96.230393846133666 0 0 0 0 -12.17193966030538 3.3548913144852293 0 3.3548913144852293 4.8049068088440947 0 0 0 0 -37.906274945976179 2.0972994062321959 0 2.0972994062321959 40.19779223308069 0 0 0 0 0.60587791891930687 -2.0066226826988327 0 -2.0066226826988327 9.917353965049756 0 0 0 0 -26.787165644788047 33.425738671598083 0 33.425738671598083 292.16935883195401 0 0 0 0 108.87695352445826 154.55979536980885 0 154.55979536980885 195.80031422663887 0 0 0 0 117.12001586139412 197.12983357314351 0 197.12983357314351 317.60320604949084 0 0 0 0 -83.234630686006767 -67.736473445547745 0 -67.736473445547745 44.153261065188417 0 0 0 0 0.22301275061601977 -1.2049417341815598 0 -1.2049417341815598 3.0783121074580322 0 0 0 0 -12.170938635898917 -47.134034465277892 0 -47.134034465277892 18.638132603440425 0 0 0 0 84.805356353912998 -90.592720706932596 0 -90.592720706932596 371.55898786153921 0 0 0 0 -160.92119375839638 255.44221684004879 0 255.44221684004879 359.56483210477745 0 0 0 0 22.162723897507021 115.08424342654325 0 115.08424342654325 427.33873936432792 0 0 0 0 -37.057671011826073 -27.033855353616673 0 -27.033855353616673 64.155487281954265 0 0 0 0 -47.519347818262304 -24.195804956405482 0 -24.195804956405482 96.651121806717128 0 0 0 0 -13.321743679068238 -2.0787946897098095 0 -2.0787946897098095 36.596748050708698 0 0 0 0 -11.240714820387439 -37.027159786841366 0 -37.027159786841366 41.743199414777337 0 0 0 0 46.288032986752114 -27.611307387807756 0 -27.611307387807756 30.248964989878004 0 0 0 0 8.8216985122162441 -44.781784482387593 0 -44.781784482387593 31.761153362538607 0 0 0 0 -137.25365406556375 39.513237799821582 0 39.513237799821582 60.131784449913539 0 0 0 0 -18.88079867148906 -19.421375671794095 0 -19.421375671794095 -6.6407718093006736 0 0 0 0 -0.23337833563750365 -4.3787284592422111 0 -4.3787284592422111 -2.1437736676264478 0 0 0 0 123.10985906697533 -28.652043788453739 0 -28.652043788453739 231.7646692224298 0 0 0 0 -43.585584703977474 -29.662680763020035 0 -29.662680763020035 105.93882710876642 0 0 0 0 216.71532477547953 -70.915480666088115 0 -70.915480666088115 -162.24435016359348 0 0 0 0 -78.28439536066071 -73.090007982624229 0 -73.090007982624229 118.28216096159304 0 0 0 0 -3.776131245822608 -12.088063979262728 0 -12.088063979262728 -10.18996598540005 0 0 0 0 2.3105962635636388 -65.629513883235632 0 -65.629513883235632 38.532553634635406 0 0 0 0 -23.319992810616895 -77.203406601329334 0 -77.203406601329334 36.623216454434441 0 0 0 0 -22.216694433540397 -57.087821836728835 0 -57.087821836728835 59.378999987762654 0 0 0 0 -65.359258682136897 -62.3930395119678 0 -62.3930395119678 67.155968216509791 0 0 0 0 -464.95795489659213 134.40954534185585 0 134.40954534185585 40.313009593606694 0 0 0 0 -56.519956148466008 -73.526304988161428 0 -73.526304988161428 53.935486002417747 0 0 0 0 -24.843490314858453 -25.596137942363498 0 -25.596137942363498 19.544089841210251 0 0 0 0 -50.041458970019448 -57.872383804977289 0 -57.872383804977289 65.533779438323108 0 0 0 0 -15.921418951469605 -33.048628407734213 0 -33.048628407734213 73.287055561635498 0 0 0 0 -32.897252827417105 -28.411423140671104 0 -28.411423140671104 75.415122738799255 0 0 0 0 -16.125215065233533 -8.6707346940529533 0 -8.6707346940529533 95.164246790955076 0 0 0 0 -20.913135255504457 11.032669669037205 0 11.032669669037205 305.38590246615058 0 0 0 0 -146.70251405130045 39.848472599653178 0 39.848472599653178 412.16806639432616 0 0 0 0 7.3810838473405056 68.851155330368783 0 68.851155330368783 372.50626019033371 0 0 0 0 -20.256448272965429 -13.520340162541217 0 -13.520340162541217 26.470548904008638 0 0 0 0 -48.005331685698764 131.23735891459364 0 131.23735891459364 495.98007102256815 0 0 0 0 -75.577515321751207 -32.480653729653568 0 -32.480653729653568 141.43008988167276 0 0 0 0 -98.474354131259048 -119.98065228847827 0 -119.98065228847827 373.0734698928427 0 0 0 0 -49.215912846888045 -133.59871706215927 0 -133.59871706215927 132.78402682716842 0 0 0 0 -210.40774259999472 -96.995001482093357 0 -96.995001482093357 292.77464140123266 0 0 0 0 -26.744735444576179 -89.360693261714914 0 -89.360693261714914 214.70719174545957 0 0 0 0 12.518727134200162 -90.985840884874051 0 -90.985840884874051 121.21199880195491 0 0 0 0 44.249194195182781 -52.532060993307823 0 -52.532060993307823 167.1711596356181 0 0 0 0 -45.767095818493232 -82.809379358408478 0 -82.809379358408478 212.56433892418863 0 0 0 0 -24.499996240675273 -38.978938158274104 0 -38.978938158274104 254.70926996281923 0 0 0 0 -19.914947474675607 -29.977957288305845 0 -29.977957288305845 17.487992830788201 0 0 0 0 -11.328920279000158 -29.691070820073946 0 -29.691070820073946 133.15730307760532 0 0 0 0 -22.67298375353672 8.0060980821619125 0 8.0060980821619125 39.942101890357094 0 0 0 0 -27.176547255806781 -23.618358853120299 0 -23.618358853120299 173.59610821210663 0 0 0 0 -23.336269001993728 -40.17307815123948 0 -40.17307815123948 13.881298195340634 0 0 0 0 -109.23866456124597 -194.05934228441038 0 -194.05934228441038 124.22830998664722 0 0 0 0 -6.8018780640813929 -64.265420487747178 0 -64.265420487747178 234.61048537445458 0 0 0 0 -25.729960385382306 -1.6668636525363922 0 -1.6668636525363922 79.847627166908765 0 0 0 0 9.2898887419069069 -61.572097417738405 0 -61.572097417738405 270.0064852234791 0 0 0 0 -29.1059850152742 -35.005273233313346 0 -35.005273233313346 166.14809569515637 0 0 0 0 -8.4733559929809061 -52.182143820473271 0 -52.182143820473271 31.987739008053325 0 0 0 0 -207.51330934877114 -252.65672425851517 0 -252.65672425851517 333.35701047957991 0 0 0 0 -1.1008097377911099 -2.6892189133499471 0 -2.6892189133499471 21.136142647297511 0 0 0 0 35.562911989058193 -68.517844898131443 0 -68.517844898131443 -92.448058081034105 0 0 0 0 -260.92679884181416 -97.931760677121929 0 -97.931760677121929 712.50249680032721 0 0 0 0 -223.78754614800346 -53.914637588448386 0 -53.914637588448386 565.94664085216937 0 0 0 0 -147.03177494690317 -299.8145808642148 0 -299.8145808642148 814.92071443710302 0 0 0 0 94.316684285222436 -313.70799595562858 0 -313.70799595562858 462.23374355354463 0 0 0 0 75.475179910474253 -178.40879574237624 0 -178.40879574237624 117.97369165996497 0 0 0 0 -76.671054377558903 -141.4468071076044 0 -141.4468071076044 342.92593540273083 0 0 0 0 -28.613739311988041 -100.11776552756922 0 -100.11776552756922 75.5047764265193 0 0 0 0 -42.623380447999807 -195.62654676410602 0 -195.62654676410602 423.94413902657834 0 0 0 0 -102.72857831947476 -73.007341847100179 0 -73.007341847100179 323.87926869437797 0 0 0 0 -125.10879876017498 -86.633836533928843 0 -86.633836533928843 457.30147280002711 0 0 0 0 -17.603263978140603 89.924859848251799 0 89.924859848251799 285.52539715525927 0 0 0 0 -3.3745354330081549 -13.473206915309035 0 -13.473206915309035 1.4841682471790136 0 0 0 0 168.08549185544689 -365.43388481353759 0 -365.43388481353759 442.44208579109545 0 0 0 0 13.383325926683028 -144.67123072622053 0 -144.67123072622053 174.24335956660798 0 0 0 0 -18.427063407344463 -33.452429517046085 0 -33.452429517046085 107.89896866066556 0 0 0 0 -29.152893949542971 -50.958049418105759 0 -50.958049418105759 57.812651961957926 0 0 0 0 -24.510878005108452 -44.513595620996853 0 -44.513595620996853 349.96989415072312 0 0 0 0 -25.684508278206657 -75.378923064515732 0 -75.378923064515732 38.450298229714008 0 0 0 0 -4.0980224683880806 -36.54003775853198 0 -36.54003775853198 237.5082499239943 0 0 0 0 -55.6009678133641 -87.071912906757021 0 -87.071912906757021 98.032600153083536 0 0 0 0 -70.617773726179976 -80.738511090314276 0 -80.738511090314276 130.0472495955369 0 0 0 0 -32.910737317020931 -8.9898881973878133 0 -8.9898881973878133 115.92732105631241 0 0 0 0 -23.024598312257417 -54.097870510990845 0 -54.097870510990845 64.270095174733967 0 0 0 0 -20.020613244967535 -23.187258983845823 0 -23.187258983845823 100.94352527230512 0 0 0 0 -9.2488907326842309 -35.17080811294727 0 -35.17080811294727 144.54798863790347 0 0 0 0 -26.758320898392999 -4.4914637725494648 0 -4.4914637725494648 120.08228254371244 0 0 0 0 -0.9616215478337331 -7.2707361162651694 0 -7.2707361162651694 41.416900477563416 0 0 0 0 35.795719191129194 -28.104007517083119 0 -28.104007517083119 197.79987805814017 0 0 0 0 45.332659159998002 -27.613873510632402 0 -27.613873510632402 325.91264258333103 0 0 0 0 -110.08932168943284 -169.53564084239406 0 -169.53564084239406 63.364875312370714 0 0 0 0 -26.396233593818543 -33.412381937776786 0 -33.412381937776786 61.968108711970046 0 0 0 0 -345.62131223758297 -146.03938505073165 0 -146.03938505073165 447.93846753088292 0 0 0 0 -5.4510482834121703 -7.1374011955129504 0 -7.1374011955129504 33.606431773853764 0 0 0 0 -276.5404122804357 -201.50312034810486 0 -201.50312034810486 187.32144324493129 0 0 0 0 -203.93518833483904 -225.69553858703875 0 -225.69553858703875 93.948383417773584 0 0 0 0 -177.12394096287971 -174.90432939971652 0 -174.90432939971652 141.76516171406547 0 0 0 0 -225.87782126219099 -134.47133026095253 0 -134.47133026095253 243.35012025364267 0 0 0 0 -271.37103621616689 -134.65424398878167 0 -134.65424398878167 121.08782182743016 0 0 0 0 -3.9851517310240308 -3.3530089348636349 0 -3.3530089348636349 138.02410619076133 0 0 0 0 -206.1657197984041 -209.2982522577513 0 -209.2982522577513 175.02002057620848 0 0 0 0 -175.89946589217288 -84.229931731104443 0 -84.229931731104443 53.07589057169389 0 0 0 0 -168.08635086207505 -128.52853856448746 0 -128.52853856448746 289.38641563391138 0 0 0 0 14.374446794274263 -127.71381951538206 0 -127.71381951538206 185.48706853272597 0 0 0 0 57.538000783681127 -48.190309052726661 0 -48.190309052726661 110.33226148819085 0 0 0 0 -310.10639986918954 -141.82317246567618 0 -141.82317246567618 262.52525330351637 0 0 0 0 86.170989812518997 77.864582991694988 0 77.864582991694988 71.364265282769338 0 0 0 0 55.118630947663405 63.161162728745694 0 63.161162728745694 256.58705814793939 0 0 0 0 -547.41384081197452 16.661439872168557 0 16.661439872168557 266.15940504973332 0 0 0 0 0.16273025386967233 -1.3882998271395848 0 -1.3882998271395848 104.90963317915828 0 0 0 0 199.81624609384656 -74.534211749055657 0 -74.534211749055657 31.025403390347492 0 0 0 0 98.188545942159749 -41.641763543055276 0 -41.641763543055276 102.49956112804648 0 0 0 0 17.672317744502607 -182.11489864471514 0 -182.11489864471514 -95.810217868252948 0 0 0 0 41.173689205834165 32.275030211079866 0 32.275030211079866 -88.247597500235997 0 0 0 0 98.39935153105445 -58.602646750521671 0 -58.602646750521671 32.136674846275127 0 0 0 0 146.46480639191361 45.711141590196348 0 45.711141590196348 111.60448890306361 0 0 0 0 280.49909554632302 34.417603246161889 0 34.417603246161889 9.2525513588552712 0 0 0 0 209.06834073569871 1.9845236519213358 0 1.9845236519213358 44.78408707237395 0 0 0 0 60.621245714833321 -129.6995583481621 0 -129.6995583481621 153.50261447811499 0 0 0 0 193.56524487332831 21.645921991752402 0 21.645921991752402 25.90672387338509 0 0 0 0 -71.005876676509914 -42.063949024595786 0 -42.063949024595786 200.87571442579792 0 0 0 0 149.17803901368245 -305.9140753146421 0 -305.9140753146421 485.07824569710647 0 0 0 0 408.95957187322847 -31.024971133600047 0 -31.024971133600047 39.911978380731853 0 0 0 0 686.8969256303717 609.07137924232666 0 609.07137924232666 178.10235869475582 0 0 0 0 -173.26042113284348 685.15879370050243 0 685.15879370050243 986.44597167486791 0 0 0 0 -213.91440569059887 374.80046036016756 0 374.80046036016756 917.56040105353168 0 0 0 0 53.01770971875726 348.22919498618421 0 348.22919498618421 336.9389356267493 0 0 0 0 -374.64242431598711 245.48230860600961 0 245.48230860600961 277.17081465971569 0 0 0 0 -0.21592083529837031 2.7844062816786366 0 2.7844062816786366 68.307008072276972 0 0 0 0 41.97572450343614 9.8735409199944115 0 9.8735409199944115 318.62808717227017 0 0 0 0 -388.47128576626892 339.62691073090537 0 339.62691073090537 25.998788507233257 0 0 0 0 -829.43987486429432 324.8182920058025 0 324.8182920058025 206.924457941539 0 0 0 0 -994.63407480436217 8.1523599165957421 0 8.1523599165957421 168.89226232359397 0 0 0 0 -0.44293903801385071 7.1956632130470268 0 7.1956632130470268 10.649523555904381 0 0 0 0 -870.98519543314615 -155.75568650537025 0 -155.75568650537025 20.553868105635047 0 0 0 0 151.11190919420187 66.328000358538702 0 66.328000358538702 -19.879680647951318 0 0 0 0 -1.4840826918883891 -5.5992348375589245 0 -5.5992348375589245 13.330530650224262 0 0 0 0 -771.15024880969941 136.78955036719708 0 136.78955036719708 -25.072022916894639 0 0 0 0 -582.75038354063145 -27.393788629182382 0 -27.393788629182382 -46.434765008889372 0 0 0 0 -841.24815719004619 80.996087818333763 0 80.996087818333763 181.88892069117355 0 0 0 0 -400.06525312811573 365.32489057959901 0 365.32489057959901 172.50854892403004 0 0 0 0 -49.776521373227297 -55.383347888149729 0 -55.383347888149729 23.66346718994464 0 0 0 0 -376.21501354520285 -83.739148424827363 0 -83.739148424827363 208.85061703868269 0 0 0 0 -500.52101424357716 243.44580995043725 0 243.44580995043725 874.15740553852811 0 0 0 0 743.67233078116806 625.3364991819617 0 625.3364991819617 2468.9173785528692 0 0 0 0 -0.90059659939303938 8.2390764616813641 0 8.2390764616813641 4.0261221738099948 0 0 0 0 -317.84143781189914 247.84799580835352 0 247.84799580835352 135.7792520103103 0 0 0 0 1073.0533319246474 879.57367568308837 0 879.57367568308837 168.6666950679064 0 0 0 0 0.9531230213764541 4.3519752491922699 0 4.3519752491922699 24.59926404415512 0 0 0 0 97.861451227152429 -156.83148493781482 0 -156.83148493781482 1557.535367163815 0 0 0 0 637.60687375059763 -365.27127093072977 0 -365.27127093072977 469.48063410595933 0 0 0 0 70.75061060145913 48.14479762265546 0 48.14479762265546 445.67494190260913 0 0 0 0 -118.3436986645321 -81.226443218842178 0 -81.226443218842178 448.19531952383113 0 0 0 0 174.77691078159569 332.49154330820602 0 332.49154330820602 48.758160807439708 0 0 0 0 13.925581093041728 504.14963076210734 0 504.14963076210734 355.48148974841752 0 0 0 0 707.01265079642371 1217.6179393065104 0 1217.6179393065104 1347.6053550007073 0 0 0 0 2192.5547206629853 980.03844703918003 0 980.03844703918003 -874.16570512473118 0 0 0 0 849.94035137848778 -88.171305414391099 0 -88.171305414391099 -802.088220714415 0 0 0 0 793.54093015992726 482.85860835609492 0 482.85860835609492 -204.38122253694746 0 0 0 0 -5.2719106365254902 176.50106597870035 0 176.50106597870035 -262.1893353384803 0 0 0 0 508.06046531399943 120.67882189998636 0 120.67882189998636 -464.0996412319073 0 0 0 0 493.90769870903159 239.70771776548645 0 239.70771776548645 -3.7451284998096526 0 0 0 0 -105.40523963112446 400.03596997948625 0 400.03596997948625 48.941533439981868 0 0 0 0 -0.41161182565995347 7.6876399021542801 0 7.6876399021542801 0.80409263781791651 0 0 0 0 421.32271699001399 160.36935940946933 0 160.36935940946933 -360.17275415296899 0 0 0 0 426.10441887792877 -28.923825295569259 0 -28.923825295569259 -416.09523535640619 0 0 0 0 12.957039155029634 -216.0708068779204 0 -216.0708068779204 -284.31622007934493 0 0 0 0 -807.1416673183785 342.13537044683471 0 342.13537044683471 -98.678044061496621 0 0 0 0 -4.2191321410571758 22.646095608420044 0 22.646095608420044 -20.577614415125254 0 0 0 0 -900.73143212095965 248.87831587391702 0 248.87831587391702 71.614926954178372 0 0 0 0 619.39568639139043 337.07816282519707 0 337.07816282519707 9.8607263275480364 0 0 0 0 -2.2061817074837666 3.767052832389286 0 3.767052832389286 -7.9054707623155878 0 0 0 0 -1471.0428108186125 17.231459526708932 0 17.231459526708932 544.78983957383753 0 0 0 0 -0.0053479070867956668 4.6469231063840706 0 4.6469231063840706 -2.3471209006829667 0 0 0 0 955.24449344628283 402.65855300054318 0 402.65855300054318 -399.33249474329932 0 0 0 0 -302.27557024170983 22.155754807659832 0 22.155754807659832 798.6572259603563 0 0 0 0 -493.03948519880089 698.4463523794584 0 698.4463523794584 265.82249881618191 0 0 0 0 -113.93539237528057 298.35078007762786 0 298.35078007762786 628.58637381097651 0 0 0 0 -190.41672395755768 89.726539347404469 0 89.726539347404469 1000.9538984915998 0 0 0 0 -3.5981243522082877 88.72753191019001 0 88.72753191019001 533.06129158538533 0 0 0 0 156.73043659582981 -403.92134258749138 0 -403.92134258749138 827.1520145307295 0 0 0 0 356.84039892586679 -111.6591601537948 0 -111.6591601537948 730.77971335600159 0 0 0 0 276.3288833689212 146.99038437256604 0 146.99038437256604 1654.7047600745573 0 0 0 0 145.84440683945195 -193.23627458386909 0 -193.23627458386909 915.88131112580231 0 0 0 0 -148.57887595171724 -105.46099806681013 0 -105.46099806681013 1164.2785011691449 0 0 0 0 311.11474879615025 -141.48807682369807 0 -141.48807682369807 1208.2270385863376 0 0 0 0 829.58262623952669 -175.26936082800967 0 -175.26936082800967 811.85835654840048 0 0 0 0 716.80907020672112 -265.41493325396732 0 -265.41493325396732 956.03942927328171 0 0 0 0 723.05494643929103 -112.30014880788258 0 -112.30014880788258 677.3593165196362 0 0 0 0 753.77799859065544 -199.35295682979631 0 -199.35295682979631 814.95549284761364 0 0 0 0 387.19867181481914 -90.412467206042493 0 -90.412467206042493 863.3323796048935 0 0 0 0 443.93225832286271 48.497207740163503 0 48.497207740163503 872.31218228283979 0 0 0 0 170.26526288072967 -26.431997272442459 0 -26.431997272442459 1672.4578870108526 0 0 0 0 378.24427161947096 1044.8159953074719 0 1044.8159953074719 1432.0059428242021 0 0 0 0 1412.9337608859578 99.217813132912852 0 99.217813132912852 659.52106976411142 0 0 0 0 950.55797578837155 -498.26617276936304 0 -498.26617276936304 522.13879895728314 0 0 0 0 -136.05746771809822 243.20325195745681 0 243.20325195745681 197.06543144307216 0 0 0 0 6.8599342366919034 7.421630867944998 0 7.421630867944998 8.8479840655587054 0 0 0 0 488.03130639918345 352.61338376102503 0 352.61338376102503 -360.8367745475698 0 0 0 0 112.03920596304948 -284.87482630213799 0 -284.87482630213799 953.11229564032692 0 0 0 0 84.11196568135847 -138.05337872770178 0 -138.05337872770178 499.76297359614546 0 0 0 0 -65.911203973707643 -42.078578021126305 0 -42.078578021126305 989.21620592309773 0 0 0 0 -74.465006850949067 94.456859049569175 0 94.456859049569175 1194.7371913350835 0 0 0 0 -83.923517178474754 38.640322146279686 0 38.640322146279686 893.51457224776095 0 0 0 0 -97.822116994888574 17.004016844279249 0 17.004016844279249 882.97410719920299 0 0 0 0 118.99298110567042 172.76071445666457 0 172.76071445666457 389.8359414110455 0 0 0 0 -0.28914745790348029 0.51442445247414526 0 0.51442445247414526 1.4844303026159906 0 0 0 0 -45.872645441445457 241.19172472757054 0 241.19172472757054 929.45340707122159 0 0 0 0 -0.75139101083550841 0.43294043886356803 0 0.43294043886356803 1.6243260005633644 0 0 0 0 -139.40986384004339 -68.414185701953102 0 -68.414185701953102 1421.4700381477596 0 0 0 0 -77.993026194455979 51.294466427134466 0 51.294466427134466 941.63043999683759 0 0 0 0 -1.2221976821486056 1.6704404349269453 0 1.6704404349269453 2.3600252078461423 0 0 0 0 -65.008048583591517 49.65678705569735 0 49.65678705569735 940.47549151388739 0 0 0 0 59.497593162020621 -28.389652599726105 0 -28.389652599726105 954.56120235272101 0 0 0 0 25.972022882751389 23.700070324375702 0 23.700070324375702 685.79576407838613 0 0 0 0 -50.25815537097742 34.497746298817219 0 34.497746298817219 687.08426944883831 0 0 0 0 -46.666305153838607 -28.130204202298046 0 -28.130204202298046 685.94393173129356 0 0 0 0 -34.505228695667029 7.4066539367631776 0 7.4066539367631776 644.49963560199103 0 0 0 0 -6.5208513382981437 29.017584164983418 0 29.017584164983418 429.12286031595067 0 0 0 0 -7.6554021056566626 -53.659689025096668 0 -53.659689025096668 534.36295306621469 0 0 0 0 86.434600841793213 -9.92553090437832 0 -9.92553090437832 149.25733874335128 0 0 0 0 4.7344417082057362 -50.545386618749035 0 -50.545386618749035 399.7369921735808 0 0 0 0 -37.168067906789929 45.220210770821723 0 45.220210770821723 154.70465425332895 0 0 0 0 -1.8340167970777657 -33.372470841313771 0 -33.372470841313771 427.59900545650453 0 0 0 0 56.303170980192817 -138.31767627215231 0 -138.31767627215231 362.22803964780906 0 0 0 0 13.566064491477158 19.465921408467594 0 19.465921408467594 25.550917842798697 0 0 0 0 -218.71255210264985 664.65138274841411 0 664.65138274841411 -291.51138819812331 0 0 0 0 -255.45456173490493 136.2460510731471 0 136.2460510731471 -114.32822134518392 0 0 0 0 15.726499951809178 25.435714205220606 0 25.435714205220606 36.275609331593557 0 0 0 0 -575.83623166337725 483.10436453023613 0 483.10436453023613 46.086682875247789 0 0 0 0 -348.00057999194473 152.56851806482518 0 152.56851806482518 284.27513610721508 0 0 0 0 -237.46227196365226 99.503896715275914 0 99.503896715275914 2.7830657531303586 0 0 0 0 -370.8298750449253 110.18043011256668 0 110.18043011256668 121.76370596116612 0 0 0 0 2.2420526175621944 58.914415697621735 0 58.914415697621735 41.722085451692692 0 0 0 0 94.737814628428055 12.65499877086404 0 12.65499877086404 31.822643525832973 0 0 0 0 17.394732337176507 28.298109312735988 0 28.298109312735988 40.052914728463918 0 0 0 0 26.526108684578958 -7.4760953335899103 0 -7.4760953335899103 53.294432607086492 0 0 0 0 84.564453126270564 10.928207295932225 0 10.928207295932225 47.198853037814843 0 0 0 0 67.530975636033418 29.526027698295366 0 29.526027698295366 15.307553521367481 0 0 0 0 61.846879157263174 -2.0747225190934842 0 -2.0747225190934842 29.27148527477766 0 0 0 0 1.8165997212475633 -11.910121594953907 0 -11.910121594953907 28.552698929948292 0 0 0 0 -52.764592381092399 -30.109580939759326 0 -30.109580939759326 40.646773976226541 0 0 0 0 -39.14701935545375 31.649065570549283 0 31.649065570549283 89.102657986608392 0 0 0 0 -49.904599703680738 -9.0752609880173623 0 -9.0752609880173623 20.930501896786154 0 0 0 0 -63.0519384258805 55.896501894149878 0 55.896501894149878 94.280035938660149 0 0 0 0 -170.22238448927521 -75.219739260770439 0 -75.219739260770439 39.460796243864024 0 0 0 0 0.94731900238589095 -9.5274488923991214 0 -9.5274488923991214 27.404979013762272 0 0 0 0 2.4026025978052985 10.688892154823407 0 10.688892154823407 151.91714280882297 0 0 0 0 92.020421845189276 109.74881544952223 0 109.74881544952223 151.99081494407437 0 0 0 0 44.642002831083772 87.54990673649263 0 87.54990673649263 309.66973272027099 0 0 0 0 0.35867195366783777 -7.3946314794150254 0 -7.3946314794150254 22.178129160173341 0 0 0 0 86.095888447097735 230.06546657892613 0 230.06546657892613 364.33166563633131 0 0 0 0 -9.3034050534665766 45.790515207736462 0 45.790515207736462 399.21594396955334 0 0 0 0 31.411224947707751 31.981948585107602 0 31.981948585107602 195.58680511324201 0 0 0 0 53.110501147785726 -14.188988170091761 0 -14.188988170091761 205.50890794032421 0 0 0 0 -9.5092571878017225 69.306848224390706 0 69.306848224390706 375.45149435586063 0 0 0 0 -10.892946280207056 -27.023157267024089 0 -27.023157267024089 470.15408476942685 0 0 0 0 -94.130869531849385 50.795082419397659 0 50.795082419397659 558.75271933210752 0 0 0 0 -92.934700168118042 61.48024454879851 0 61.48024454879851 645.32997440635518 0 0 0 0 -103.67241897392273 68.514012020181781 0 68.514012020181781 483.40953705087304 0 0 0 0 -34.201809434072402 -37.031009848004032 0 -37.031009848004032 628.2629398698773 0 0 0 0 -112.52415194782725 3.9338418195402483 0 3.9338418195402483 715.34500242694048 0 0 0 0 -106.09123964786681 16.489660060062306 0 16.489660060062306 1106.5284082037397 0 0 0 0 -145.11950634121104 178.27501204797591 0 178.27501204797591 619.77475535872509 0 0 0 0 -16.112530272962886 190.22003736958141 0 190.22003736958141 1064.6458008199806 0 0 0 0 0.15161075531743329 0.76162313914522883 0 0.76162313914522883 1.8292791735752587 0 0 0 0 -91.597265883501905 -167.15145747067436 0 -167.15145747067436 1470.0701978609868 0 0 0 0 -81.864024935197676 190.37267803485884 0 190.37267803485884 410.08427064098942 0 0 0 0 -37.819995434668272 254.18473234729026 0 254.18473234729026 1063.1167430816276 0 0 0 0 -38.452197715075272 -39.711400689120637 0 -39.711400689120637 1057.9854406437275 0 0 0 0 -20.325017321501718 131.74649973170744 0 131.74649973170744 520.62253469054485 0 0 0 0 74.449935878275824 -123.26045350349159 0 -123.26045350349159 944.03528331103007 0 0 0 0 -5.8031876894468724 36.751502875587903 0 36.751502875587903 891.99757736561151 0 0 0 0 -44.051057223103726 -125.50024282437516 0 -125.50024282437516 902.15490801175474 0 0 0 0 -12.595344772539931 -38.037814896240889 0 -38.037814896240889 861.77940202468017 0 0 0 0 1.1634644922137705 2.6210808106717138 0 2.6210808106717138 3.2628408594239033 0 0 0 0 -70.416263539512727 -29.815589499034104 0 -29.815589499034104 850.16668216594553 0 0 0 0 -75.418938210014971 -24.484246571453696 0 -24.484246571453696 844.76833104475736 0 0 0 0 -60.706648121780688 -19.33795674398425 0 -19.33795674398425 620.92485497827874 0 0 0 0 -33.69633877706724 165.34070115825307 0 165.34070115825307 506.68631580274086 0 0 0 0 -3.4402416124689807 143.6164130339821 0 143.6164130339821 411.77277469088949 0 0 0 0 25.864203313306554 294.44211340627953 0 294.44211340627953 879.47664536400407 0 0 0 0 297.41840211469759 323.29636433260021 0 323.29636433260021 242.23867697815876 0 0 0 0 -114.13255136758767 -689.99541655217763 0 -689.99541655217763 524.07353998732287 0 0 0 0 581.02385299449816 874.97467699474146 0 874.97467699474146 1311.0505576389551 0 0 0 0 0.34385501187538514 -2.6301334478241785 0 -2.6301334478241785 9.7210938041956183 0 0 0 0 90.649079490169356 -296.3347761201876 0 -296.3347761201876 -68.705266571419997 0 0 0 0 26.538414004305146 -284.127390906644 0 -284.127390906644 838.79206819771207 0 0 0 0 -110.86877642325604 60.203887461524573 0 60.203887461524573 1484.7113580822115 0 0 0 0 -247.13309543627122 -375.62234330919364 0 -375.62234330919364 864.89227351898444 0 0 0 0 -251.22214785236116 -381.72041809167422 0 -381.72041809167422 2190.6696728194365 0 0 0 0 277.21990219762893 411.23784900487954 0 411.23784900487954 1204.3609875216789 0 0 0 0 1071.0746306678607 107.53072741709184 0 107.53072741709184 1918.6637068859709 0 0 0 0 221.69372909634669 -16.513004339751205 0 -16.513004339751205 557.52603012701729 0 0 0 0 1.1703555322297952 1.4069396596698596 0 1.4069396596698596 2.5484503724720611 0 0 0 0 -107.50903151274176 141.62172774937972 0 141.62172774937972 2128.2363832996198 0 0 0 0 -5.1168052860202788 -163.25193664372273 0 -163.25193664372273 665.55933681607712 0 0 0 0 128.24666086911708 -56.278918416719534 0 -56.278918416719534 749.7411669503781 0 0 0 0 424.69846823325338 170.06880299492332 0 170.06880299492332 720.03870547373663 0 0 0 0 271.86111105736279 92.460048099150299 0 92.460048099150299 762.38846293947427 0 0 0 0 102.66513008007151 -18.114158162643434 0 -18.114158162643434 704.91649055494236 0 0 0 0 60.580301144219071 40.705247447535385 0 40.705247447535385 763.91086131479824 0 0 0 0 72.63405731451553 -69.289273513961234 0 -69.289273513961234 749.11760085107517 0 0 0 0 5.022878166464082 -60.16114443391416 0 -60.16114443391416 790.38206750221434 0 0 0 0 0.060195764365885467 39.229976136230107 0 39.229976136230107 727.09800992267265 0 0 0 0 16.346103944002195 105.82036178356793 0 105.82036178356793 840.12238489307128 0 0 0 0 78.660410608734537 26.819145598135947 0 26.819145598135947 722.68465491998359 0 0 0 0 53.231120250207141 141.25535164758912 0 141.25535164758912 884.51621249894379 0 0 0 0 43.638809504726765 182.2765851459244 0 182.2765851459244 1034.4522598538897 0 0 0 0 -23.768899325918099 68.869163031195058 0 68.869163031195058 847.56795079018048 0 0 0 0 -0.11124971455543388 35.266728613496525 0 35.266728613496525 893.64195242541609 0 0 0 0 -62.582847586995399 -79.098865221996675 0 -79.098865221996675 803.82800873514498 0 0 0 0 -53.629723170301638 -63.178359344732598 0 -63.178359344732598 787.57215805766464 0 0 0 0 -152.40462824760849 -109.69114951553638 0 -109.69114951553638 1030.2352214346504 0 0 0 0 89.982360380336644 -211.13458980488213 0 -211.13458980488213 336.10240807953232 0 0 0 0 29.168492109499876 -137.35918144618336 0 -137.35918144618336 745.82444684958318 0 0 0 0 -0.13438446456572448 -2.1770462317799684 0 -2.1770462317799684 654.9797060487399 0 0 0 0 46.176937530759169 -72.359847474755952 0 -72.359847474755952 368.80098446429474 0 0 0 0 89.783222613405741 -89.694205634055834 0 -89.694205634055834 355.58850069579785 0 0 0 0 0.48213658185895614 59.118886184863129 0 59.118886184863129 227.82742704909469 0 0 0 0 90.190916571103799 49.499726636640844 0 49.499726636640844 184.85992746507691 0 0 0 0 43.991100468382626 -23.190391851516324 0 -23.190391851516324 336.90890878846704 0 0 0 0 122.10179162976556 -61.468308629395324 0 -61.468308629395324 61.254520903501543 0 0 0 0 -77.45176465718157 82.731040429047425 0 82.731040429047425 -11.447567694181998 0 0 0 0 -369.57967961128531 -89.095276921769255 0 -89.095276921769255 57.29797767434502 0 0 0 0 -65.188038344281495 -27.835879369777103 0 -27.835879369777103 1.2968807997676777 0 0 0 0 -106.31081938824531 30.094569401417175 0 30.094569401417175 58.381222512878594 0 0 0 0 -52.600580648473965 89.392540068016388 0 89.392540068016388 109.0333187443066 0 0 0 0 88.217324220198805 65.739403313724324 0 65.739403313724324 79.906445396409254 0 0 0 0 35.167814159870204 117.50361375981447 0 117.50361375981447 102.24017152169836 0 0 0 0 -33.813286167124886 57.990778092287655 0 57.990778092287655 91.688676998659503 0 0 0 0 -0.73033188626106949 32.767840891639935 0 32.767840891639935 38.841730065469164 0 0 0 0 -5.2507640344899755 39.544518369410071 0 39.544518369410071 135.55677349003963 0 0 0 0 -1.3507019154263844 29.432862648915034 0 29.432862648915034 97.296344285656232 0 0 0 0 58.056719844812093 108.80192692639685 0 108.80192692639685 94.876022690048558 0 0 0 0 75.228382289282138 86.434714953200455 0 86.434714953200455 84.774597984767752 0 0 0 0 0.0037463013608706338 3.4765883897489402 0 3.4765883897489402 6.4120484206650872 0 0 0 0 -0.28265025387148301 0.085368195277339964 0 0.085368195277339964 0.36891675200234886 0 0 0 0 116.83504292401426 132.03488803813525 0 132.03488803813525 151.56745280530595 0 0 0 0 0.0060965059264334147 3.4834138473743224 0 3.4834138473743224 6.410523577418644 0 0 0 0 101.75471486488294 98.735942417551996 0 98.735942417551996 82.225289492824231 0 0 0 0 -25.174551101406571 -0.40361204932690953 0 -0.40361204932690953 1.5943818567786501 0 0 0 0 -218.21218092547133 -244.49554156616068 0 -244.49554156616068 300.29191293620897 0 0 0 0 -338.85237875054008 -56.768951925376314 0 -56.768951925376314 142.27049632636408 0 0 0 0 39.627009795221966 -196.58538841500558 0 -196.58538841500558 158.00768041983247 0 0 0 0 -152.37771633515513 -182.8098843972366 0 -182.8098843972366 216.86379524156291 0 0 0 0 -74.090046018962312 26.14498562465451 0 26.14498562465451 89.492881910176948 0 0 0 0 -165.42204392967687 -101.34320203051539 0 -101.34320203051539 129.42674946425541 0 0 0 0 -117.50928604094588 -28.51497072298298 0 -28.51497072298298 213.57026649275213 0 0 0 0 26.138045518702711 -75.048271728970576 0 -75.048271728970576 80.272726569884981 0 0 0 0 -14.222169521293836 -45.115501466581918 0 -45.115501466581918 62.716694422095316 0 0 0 0 -4.1290057348520079 -34.060140597753794 0 -34.060140597753794 66.741645242852655 0 0 0 0 -41.418922976401376 -3.7437591677592081 0 -3.7437591677592081 23.11477380550323 0 0 0 0 -1.4147841738304123 -2.9523419262609423 0 -2.9523419262609423 120.02805648081994 0 0 0 0 -37.001447759146686 -1.9529134890144633 0 -1.9529134890144633 241.85631631506294 0 0 0 0 -35.984402029693896 -55.376826219894056 0 -55.376826219894056 28.38172284162021 0 0 0 0 8.2330540968687274 -197.68879703304992 0 -197.68879703304992 169.32293846692164 0 0 0 0 -4.624122664432889 32.94607231050113 0 32.94607231050113 89.885784203437666 0 0 0 0 -123.04761167882134 131.28170407846892 0 131.28170407846892 262.92500599974301 0 0 0 0 164.53396874300506 -83.701271406313026 0 -83.701271406313026 197.60288801635761 0 0 0 0 -177.27516734547908 -88.662816398095856 0 -88.662816398095856 528.0216648255373 0 0 0 0 31.543749770025897 150.85897282993392 0 150.85897282993392 -1.2667696373464423 0 0 0 0 -247.3756166150124 236.4435846805136 0 236.4435846805136 30.931939167910969 0 0 0 0 22.35375718175478 6.2484686428435481 0 6.2484686428435481 0.74120199752432825 0 0 0 0 -74.61298648061711 -486.78879084778237 0 -486.78879084778237 1139.9584335278887 0 0 0 0 -331.28774683159827 -68.361444778672194 0 -68.361444778672194 116.91499865599326 0 0 0 0 -20.728103456636418 9.1898713076920089 0 9.1898713076920089 42.886191744786828 0 0 0 0 -1.1130024671728336 -2.8436135800835629 0 -2.8436135800835629 9.5605961351192406 0 0 0 0 228.30850532161276 -394.6659194601325 0 -394.6659194601325 -20.092869970969332 0 0 0 0 306.7979225301824 -100.45718865736853 0 -100.45718865736853 530.11832706873247 0 0 0 0 -41.881312161977796 75.018361198561408 0 75.018361198561408 153.87300470802592 0 0 0 0 -435.06848259235267 762.14099865964818 0 762.14099865964818 461.41871875549441 0 0 0 0 -0.275925724959869 -11.536047035317374 0 -11.536047035317374 35.698907200126214 0 0 0 0 364.15885859205628 -154.36758022550202 0 -154.36758022550202 413.09544823435499 0 0 0 0 749.67317327012643 -286.87339110868925 0 -286.87339110868925 623.3130425813797 0 0 0 0 -807.730632557028 -46.179388865541114 0 -46.179388865541114 1185.065862577183 0 0 0 0 6.4321774035887245 3.0588410581374816 0 3.0588410581374816 16.868600639034923 0 0 0 0 414.17524317086645 -1520.6243991495935 0 -1520.6243991495935 1417.6597556955021 0 0 0 0 -168.02981437486233 790.25875222825562 0 790.25875222825562 74.431149640578951 0 0 0 0 -459.39101635507541 431.94360099092592 0 431.94360099092592 -358.73979584767949 0 0 0 0 -927.47300366410855 341.45415392720315 0 341.45415392720315 -150.03222267303499 0 0 0 0 -367.37934503557335 -183.01768052452098 0 -183.01768052452098 225.00619188028213 0 0 0 0 -212.03178939739155 -252.92266927517448 0 -252.92266927517448 140.74806065626763 0 0 0 0 -202.15582111721687 -223.2400510336247 0 -223.2400510336247 1247.205370804928 0 0 0 0 121.09068176472647 926.65888738980357 0 926.65888738980357 1069.5726221008517 0 0 0 0 -178.61279747892604 759.42107691189449 0 759.42107691189449 1005.4400136672921 0 0 0 0 122.59212370776186 61.937656744157721 0 61.937656744157721 1598.0580398989259 0 0 0 0 528.30312871010938 726.67395319765637 0 726.67395319765637 973.4617216608458 0 0 0 0 0.083561554480409583 0.87533552833459893 0 0.87533552833459893 15.95499417500568 0 0 0 0 -293.61237513833476 -748.72870533347668 0 -748.72870533347668 1140.7700165189162 0 0 0 0 -60.502305126211468 -364.15402972062475 0 -364.15402972062475 277.7962338546422 0 0 0 0 -388.45225943722289 217.93090734653015 0 217.93090734653015 1594.9894306400674 0 0 0 0 564.99002509837419 -898.35718237128731 0 -898.35718237128731 589.36697580739565 0 0 0 0 -144.43269891759701 -368.81763208224947 0 -368.81763208224947 716.36507158448148 0 0 0 0 -176.76536412038877 219.90015187002609 0 219.90015187002609 445.66391370745987 0 0 0 0 514.38997044780263 -257.22391531955873 0 -257.22391531955873 721.55685932979213 0 0 0 0 467.86052221774844 -478.03777337514839 0 -478.03777337514839 -69.759381053150719 0 0 0 0 400.86974115576777 -270.90556463327994 0 -270.90556463327994 283.10438366999733 0 0 0 0 1.2275881222494576 4.4408783944286085 0 4.4408783944286085 1.3607089855990218 0 0 0 0 423.11995048368954 -222.57763863067885 0 -222.57763863067885 -154.70939833834655 0 0 0 0 842.33008429775782 103.04531477193814 0 103.04531477193814 90.795471421610273 0 0 0 0 449.98745204742227 -317.08258243004821 0 -317.08258243004821 437.6549614578289 0 0 0 0 548.8920734997364 -128.10296837916758 0 -128.10296837916758 426.82126223809973 0 0 0 0 661.16848339940861 -298.18158954438513 0 -298.18158954438513 244.52418703367221 0 0 0 0 -41.653521466352686 187.21610654369579 0 187.21610654369579 -15.559700605968828 0 0 0 0 -5.0089768857643193 3.6191908514000772 0 3.6191908514000772 0.76829483241294128 0 0 0 0 991.4125082494138 -65.240462825084251 0 -65.240462825084251 -352.26815705866466 0 0 0 0 -90.912342490009905 285.3860995282248 0 285.3860995282248 297.94087525700888 0 0 0 0 -93.079438191183726 9.2054746905268985 0 9.2054746905268985 340.88055076258297 0 0 0 0 -111.19460215782237 75.371753146770061 0 75.371753146770061 153.4496048201654 0 0 0 0 -119.08300536793286 78.649767225195319 0 78.649767225195319 177.09217312792316 0 0 0 0 20.688521686818603 -435.82282760675571 0 -435.82282760675571 -449.76669940520151 0 0 0 0 -180.08664620216223 -34.244990004590363 0 -34.244990004590363 222.00819076127664 0 0 0 0 -122.35104599824808 -605.26586072189821 0 -605.26586072189821 774.46042155338364 0 0 0 0 344.47274638546514 243.35925759515521 0 243.35925759515521 380.95400431820599 0 0 0 0 -2.6744199342321693 4.6964283513113685 0 4.6964283513113685 -3.6020555018109093 0 0 0 0 501.82092352148902 -837.01631531367275 0 -837.01631531367275 1168.4112817585556 0 0 0 0 672.53184693932053 -610.38874102707632 0 -610.38874102707632 643.88009341067391 0 0 0 0 1540.0870875594319 -944.94909285419453 0 -944.94909285419453 1058.7537579744276 0 0 0 0 1372.2730493735826 256.16577420466456 0 256.16577420466456 763.86540049342148 0 0 0 0 127.20850971416621 -7.0496743065523333 0 -7.0496743065523333 2205.6775323257134 0 0 0 0 -50.388404594212261 -2000.8987764530975 0 -2000.8987764530975 2014.8161913029974 0 0 0 0 0.13443596633317156 -711.71173456771203 0 -711.71173456771203 2654.9879845365213 0 0 0 0 -1.7215109881663269 -12.199443988501205 0 -12.199443988501205 26.418961199211026 0 0 0 0 167.39470918697998 588.9423287339996 0 588.9423287339996 1593.0526915676437 0 0 0 0 -1584.3420705213757 -207.7656006592224 0 -207.7656006592224 341.45806183355307 0 0 0 0 1347.4717262020649 -1277.8036371486905 0 -1277.8036371486905 491.73760137059799 0 0 0 0 328.28667778251656 -2130.4560718450084 0 -2130.4560718450084 -103.48839798889094 0 0 0 0 287.76028585254608 -1002.3696519874138 0 -1002.3696519874138 -1116.6404842218908 0 0 0 0 -1185.2424746253309 -709.04044138237441 0 -709.04044138237441 523.54979510861403 0 0 0 0 -1086.2991178943539 92.930427489634894 0 92.930427489634894 -337.39416933754546 0 0 0 0 -32.199532286966132 -417.30076339640073 0 -417.30076339640073 -158.01152899221051 0 0 0 0 -1471.516248050234 -1139.9920162796479 0 -1139.9920162796479 -1030.3607054751919 0 0 0 0 -1920.7372805630621 -397.19211889232974 0 -397.19211889232974 471.85936962235792 0 0 0 0 -6.775552516922561 -5.795077057350241 0 -5.795077057350241 18.985219466587232 0 0 0 0 268.32999040242521 -297.53352449662634 0 -297.53352449662634 284.74390362387203 0 0 0 0 3.3836767862601391 -27.073113792808758 0 -27.073113792808758 46.664719597484705 0 0 0 0 1589.4793500480118 -1375.5576091833937 0 -1375.5576091833937 677.80127285131857 0 0 0 0 897.79435034381459 -1070.4929908516351 0 -1070.4929908516351 556.99323782056672 0 0 0 0 877.52242640626037 -1551.4274308932397 0 -1551.4274308932397 802.82625710699358 0 0 0 0 949.43811084598565 -1083.172619751309 0 -1083.172619751309 529.28706028099987 0 0 0 0 71.111420864875981 -1689.8099552997919 0 -1689.8099552997919 1086.5111335706606 0 0 0 0 90.175581374200192 -1206.0808581947749 0 -1206.0808581947749 839.10696115943938 0 0 0 0 591.43002438460826 -1781.4020422844405 0 -1781.4020422844405 475.6230703735273 0 0 0 0 91.99922141418574 -1921.2577868938861 0 -1921.2577868938861 1034.7787112611913 0 0 0 0 612.25104606513196 -1483.3411481579606 0 -1483.3411481579606 851.36512439239596 0 0 0 0 593.58208961514629 -1232.172414495386 0 -1232.172414495386 1334.6989194873604 0 0 0 0 584.5986115400483 -1035.4634923955164 0 -1035.4634923955164 -45.31894943126099 0 0 0 0 404.07583009533846 -1542.0332686849724 0 -1542.0332686849724 643.67118782561192 0 0 0 0 273.4541326081162 -726.87590135935534 0 -726.87590135935534 1027.5206679291978 0 0 0 0 -30.746345760183431 -487.78167953251494 0 -487.78167953251494 847.49756499969226 0 0 0 0 981.78098468357712 -646.07711728213508 0 -646.07711728213508 816.67638007087953 0 0 0 0 1220.5198922792879 -411.30208561777545 0 -411.30208561777545 2936.2338733041179 0 0 0 0 2181.1872478970508 530.562012660439 0 530.562012660439 2164.9023839006331 0 0 0 0 991.89518864205456 -920.58069813501788 0 -920.58069813501788 1976.7687242726497 0 0 0 0 1157.479734791722 -1156.4857364324748 0 -1156.4857364324748 1398.2908486046872 0 0 0 0 1236.4640806450006 -1570.2454466396048 0 -1570.2454466396048 703.13684181010467 0 0 0 0 2071.1317368160962 -1498.5536349611357 0 -1498.5536349611357 1522.1847207280316 0 0 0 0 388.73368082504385 269.65157828696283 0 269.65157828696283 2925.4341121420757 0 0 0 0 14.776996262335253 -10.477178554126986 0 -10.477178554126986 9.9663349186082115 0 0 0 0 2106.7325748938811 -1530.1677530479951 0 -1530.1677530479951 1148.9112631776006 0 0 0 0 1481.0582571520317 -1504.4972908135205 0 -1504.4972908135205 2846.9502452717534 0 0 0 0 -104.7853440779254 -347.33134280399463 0 -347.33134280399463 1749.7741687895887 0 0 0 0 145.26253569021901 445.47393710218694 0 445.47393710218694 564.09250303059525 0 0 0 0 235.8621095300623 793.40168072166307 0 793.40168072166307 1202.5233627108423 0 0 0 0 83.001431446256902 544.43473031471376 0 544.43473031471376 1050.5970073200806 0 0 0 0 56.250553602058062 41.119449695896037 0 41.119449695896037 597.88510570338269 0 0 0 0 -54.945818807383148 -610.94045901334653 0 -610.94045901334653 271.01096081456853 0 0 0 0 32.087735829812637 -28.876024960794275 0 -28.876024960794275 23.513271732313157 0 0 0 0 187.8270581399338 851.22750350684146 0 851.22750350684146 -465.05442368592958 0 0 0 0 1381.4301958060514 -671.65546691992949 0 -671.65546691992949 287.69880772390025 0 0 0 0 10.831171795481211 -5.4996415516868851 0 -5.4996415516868851 -1.325200618815586 0 0 0 0 1211.9313384724392 -502.49271877688352 0 -502.49271877688352 147.23663480837422 0 0 0 0 78.364314604230458 267.06095032846861 0 267.06095032846861 -41.729155464302494 0 0 0 0 14.259367234554041 -13.940750186870019 0 -13.940750186870019 15.68476048474281 0 0 0 0 135.28725063884485 161.00098995305962 0 161.00098995305962 120.98818211592152 0 0 0 0 -246.75752647637819 77.288822675356641 0 77.288822675356641 51.921757067255385 0 0 0 0 -135.72099308697216 225.25215324517194 0 225.25215324517194 130.34256314631421 0 0 0 0 1.1655987902340712 18.789672014027019 0 18.789672014027019 76.870566901736311 0 0 0 0 -16.300087854964985 7.7627859185290049 0 7.7627859185290049 7.8703748383675602 0 0 0 0 -4.6033528236233394 2.7713553688337242 0 2.7713553688337242 24.08681754697524 0 0 0 0 -177.34330834370485 -98.437206244918343 0 -98.437206244918343 3.4613783206259541 0 0 0 0 -2.2676967940496979 -47.967484345565026 0 -47.967484345565026 -18.199910372219165 0 0 0 0 -22.712825025757027 -5.0315620189598178 0 -5.0315620189598178 52.695943193736838 0 0 0 0 -209.50861702740804 -111.16358721489087 0 -111.16358721489087 86.379695669857028 0 0 0 0 6.2722821854281108 -5.6677981102159229 0 -5.6677981102159229 42.628332542193078 0 0 0 0 -0.7672523274027867 -13.99056545220747 0 -13.99056545220747 60.913111646395585 0 0 0 0 19.49447929463895 23.060232652967727 0 23.060232652967727 151.07223749978948 0 0 0 0 17.678222984282456 39.661859384156458 0 39.661859384156458 165.49890683172998 0 0 0 0 -2.4783247020864678 -11.27610712500379 0 -11.27610712500379 26.180334644796361 0 0 0 0 -33.136356364069798 -60.649889293206797 0 -60.649889293206797 129.32888238525811 0 0 0 0 -13.803839385591345 -27.102431953047244 0 -27.102431953047244 154.16210936046264 0 0 0 0 -4.0715587856220026 25.47682070607609 0 25.47682070607609 46.518274593581012 0 0 0 0 -0.037552661553490907 -21.106488392211759 0 -21.106488392211759 94.002217700501205 0 0 0 0 -48.153889640976558 55.612844303428574 0 55.612844303428574 255.1868371639157 0 0 0 0 -0.38754599298707149 7.1596651122377466 0 7.1596651122377466 47.730596547712963 0 0 0 0 -8.772402713279007 7.3965573383829906 0 7.3965573383829906 63.651360608244431 0 0 0 0 -3.9389694573694811 14.306075970239451 0 14.306075970239451 61.796593793268833 0 0 0 0 67.255851181638718 -188.10037100925638 0 -188.10037100925638 167.38732330194216 0 0 0 0 -44.524742002948187 -115.53160967539952 0 -115.53160967539952 160.15506806310623 0 0 0 0 41.167060699177227 -30.451108989585578 0 -30.451108989585578 46.964238120156466 0 0 0 0 13.383638838367915 58.990740890822394 0 58.990740890822394 526.72635793267546 0 0 0 0 112.52134489649825 164.74137496240519 0 164.74137496240519 548.1498623050702 0 0 0 0 34.103013488740089 -24.189709439734997 0 -24.189709439734997 1053.4890511277918 0 0 0 0 324.9199486185862 -185.07429702663194 0 -185.07429702663194 942.46619027707311 0 0 0 0 109.86781128486837 296.50638530666129 0 296.50638530666129 440.35496574171793 0 0 0 0 -53.607917173043461 112.2453327188955 0 112.2453327188955 939.91547973363413 0 0 0 0 -3.8277342389652063 4.2878155805673792 0 4.2878155805673792 1.1064091700616832 0 0 0 0 241.55002517998946 186.27900095068435 0 186.27900095068435 -403.22250652577895 0 0 0 0 -233.7267820821271 191.69264985026257 0 191.69264985026257 1862.4218491752708 0 0 0 0 52.168028659376432 42.54738424840798 0 42.54738424840798 -65.970642827551274 0 0 0 0 -12.063388516751516 4.4071936371469285 0 4.4071936371469285 6.4507115277854616 0 0 0 0 175.98794362176704 389.31873156823167 0 389.31873156823167 864.246383429969 0 0 0 0 -46.521831440282767 77.022996488665285 0 77.022996488665285 1194.850304440899 0 0 0 0 16.458118039809051 16.375297885806503 0 16.375297885806503 1060.8842601877932 0 0 0 0 17.191035761796229 -180.81041398270349 0 -180.81041398270349 997.41945381576807 0 0 0 0 51.686945597692102 -351.48898174476017 0 -351.48898174476017 1677.8135878469584 0 0 0 0 1.3510690988734524 0.32142104714176156 0 0.32142104714176156 3.6469000449021181 0 0 0 0 -114.84652675363395 -20.487899018898133 0 -20.487899018898133 672.28912973570186 0 0 0 0 124.98042126090513 267.51936222440327 0 267.51936222440327 1182.6231617798485 0 0 0 0 143.46849458511497 141.63424976902024 0 141.63424976902024 731.92678367343979 0 0 0 0 -64.420575241321785 196.08102683846846 0 196.08102683846846 718.63282633964695 0 0 0 0 -64.72005553519557 85.88860018088144 0 85.88860018088144 1105.8781122624659 0 0 0 0 -122.42234212884796 115.22578949498347 0 115.22578949498347 809.52635110330448 0 0 0 0 -6.3578385610071564 75.350220897040799 0 75.350220897040799 736.90821664287068 0 0 0 0 142.85864052575562 -30.559186483334997 0 -30.559186483334997 828.94658833513677 0 0 0 0 20.206103066670039 -130.48959246868981 0 -130.48959246868981 916.4336229793671 0 0 0 0 23.305361872376579 -1.340741305964368 0 -1.340741305964368 4.8183449228050632 0 0 0 0 -862.3565642676258 89.332228575717636 0 89.332228575717636 -554.58748172503874 0 0 0 0 8.4393454548189766 -488.5929542316735 0 -488.5929542316735 1232.075163353388 0 0 0 0 5.833748348472227 3.6014630509018772 0 3.6014630509018772 0.94010499959442884 0 0 0 0 547.09555825453572 -287.17066494274604 0 -287.17066494274604 -71.547674168323283 0 0 0 0 238.40261351365916 142.45514362281392 0 142.45514362281392 -421.44417172003341 0 0 0 0 237.63594811019721 25.356473171132166 0 25.356473171132166 552.99707872164981 0 0 0 0 82.392030372400768 59.829010365367139 0 59.829010365367139 695.82176829031596 0 0 0 0 -2.4520788904571802 -16.385307540180342 0 -16.385307540180342 35.919878406632471 0 0 0 0 -287.75393349099613 317.65455755378571 0 317.65455755378571 -110.5879675432468 0 0 0 0 -720.71573972867191 418.3596884799972 0 418.3596884799972 135.09078114395561 0 0 0 0 -465.10593068864546 -253.91777185889259 0 -253.91777185889259 118.24154553607787 0 0 0 0 -179.69125477766283 158.19774446362226 0 158.19774446362226 92.12037520429385 0 0 0 0 13.707632834744089 59.941349368427652 0 59.941349368427652 67.042671084601793 0 0 0 0 479.97472313057006 274.99473474715069 0 274.99473474715069 -138.11316405326306 0 0 0 0 -15.851789389271289 29.615965689808945 0 29.615965689808945 -74.984757364123652 0 0 0 0 16.883786677426997 40.577943992935147 0 40.577943992935147 8.5433021510947533 0 0 0 0 -369.75800954483566 -588.57475432992851 0 -588.57475432992851 1756.091664570233 0 0 0 0 849.42597143317107 -1103.7551478430539 0 -1103.7551478430539 52.241887410787058 0 0 0 0 -606.74791565703345 21.47106333413285 0 21.47106333413285 1808.6863141247254 0 0 0 0 14.682758767045016 -375.11924329856674 0 -375.11924329856674 2193.4473002525556 0 0 0 0 1.0610437245572726 1.8989408354971253 0 1.8989408354971253 6.3368534131613075 0 0 0 0 19.089582737101466 15.956928501650921 0 15.956928501650921 -29.767105920904743 0 0 0 0 33.372998455986817 333.63124477920428 0 333.63124477920428 948.28875622780834 0 0 0 0 88.126982093621336 403.09811744483159 0 403.09811744483159 316.87093609102885 0 0 0 0 -70.636336066338117 693.77017336019708 0 693.77017336019708 932.41498418237643 0 0 0 0 -85.246564795190352 822.27030524699694 0 822.27030524699694 147.06386839504557 0 0 0 0 158.18682885193266 28.279035763647698 0 28.279035763647698 2579.5394194576293 0 0 0 0 -188.09784828907868 -947.61171374260084 0 -947.61171374260084 1781.7658705012482 0 0 0 0 -198.50654815338203 590.57013416014706 0 590.57013416014706 1301.9295657422517 0 0 0 0 85.914983116028452 17.391880683134332 0 17.391880683134332 151.98825855860741 0 0 0 0 21.55457572399385 73.100915055598307 0 73.100915055598307 83.231158996154804 0 0 0 0 54.642747888905433 708.82611940966308 0 708.82611940966308 -128.27091599225241 0 0 0 0 -265.45424210628698 219.92408658172644 0 219.92408658172644 350.20091247901291 0 0 0 0 35.456700330761862 47.411780862103868 0 47.411780862103868 47.526299273618214 0 0 0 0 23.593772533691663 234.99952574104464 0 234.99952574104464 86.97398286256157 0 0 0 0 264.57379996069358 104.07317746415538 0 104.07317746415538 -468.70938552385633 0 0 0 0 -28.582579958892893 63.579091655716184 0 63.579091655716184 670.03424852105672 0 0 0 0 389.06783723691478 -96.510546352830715 0 -96.510546352830715 161.1277589428355 0 0 0 0 128.42742739061214 35.052080629946431 0 35.052080629946431 537.76151123580348 0 0 0 0 -42.841386837259051 638.9053725355916 0 638.9053725355916 1388.0578502778892 0 0 0 0 769.3156196254713 178.36045941706107 0 178.36045941706107 538.946624963457 0 0 0 0 257.45363875323528 -392.90746404171659 0 -392.90746404171659 1360.5483066165179 0 0 0 0 -94.021415361159598 -402.53977410675725 0 -402.53977410675725 207.38080439918849 0 0 0 0 374.21592146692274 495.49374867801089 0 495.49374867801089 465.09749549035041 0 0 0 0 11.454455693325144 -500.74589122062753 0 -500.74589122062753 1533.424382261619 0 0 0 0 -211.67085748710815 -59.609660318368697 0 -59.609660318368697 1837.0415683505998 0 0 0 0 6.2399736378029615 -3.7142656111456631 0 -3.7142656111456631 -3.8006523099081164 0 0 0 0 218.02052489732159 148.45069945759315 0 148.45069945759315 40.230680283661059 0 0 0 0 266.99091793599655 -203.76836062531947 0 -203.76836062531947 288.08799748739693 0 0 0 0 -121.76260498558986 82.461528680207266 0 82.461528680207266 674.43548563795048 0 0 0 0 42.28791875866591 37.418214528881435 0 37.418214528881435 140.39436867943004 0 0 0 0 21.097068849063362 39.762341787430159 0 39.762341787430159 142.99638590861559 0 0 0 0 -457.48828321515612 -122.77157602210355 0 -122.77157602210355 590.04629316975479 0 0 0 0 -340.36923369965189 224.57989381618245 0 224.57989381618245 457.97470107641129 0 0 0 0 -126.68610884936061 224.32611823553452 0 224.32611823553452 126.18616473663133 0 0 0 0 12.532195590163113 64.30088908963549 0 64.30088908963549 144.75606063635149 0 0 0 0 26.399128674907843 31.201098871634713 0 31.201098871634713 153.62428249627737 0 0 0 0 21.539037922870193 14.170622137869941 0 14.170622137869941 102.98719373043423 0 0 0 0 26.666177513099683 24.495062214238715 0 24.495062214238715 156.45809565313039 0 0 0 0 40.107167782050425 42.885761172196872 0 42.885761172196872 36.850340133385792 0 0 0 0 248.83886675426947 55.935268206547335 0 55.935268206547335 -16.540116022672009 0 0 0 0 53.055881350286654 39.112770951428502 0 39.112770951428502 64.699267143463658 0 0 0 0 41.96484907661943 -4.3920865318850701 0 -4.3920865318850701 186.8600693303888 0 0 0 0 28.571637527769781 55.509718914468976 0 55.509718914468976 120.44257368054969 0 0 0 0 40.810476080101594 46.442906223293797 0 46.442906223293797 15.865362873401567 0 0 0 0 664.2622032927211 -370.19667232643405 0 -370.19667232643405 18.821492026872875 0 0 0 0 -6.7690342801144681 20.391588783725783 0 20.391588783725783 7.8609168576545585 0 0 0 0 -140.58710446856867 29.825851789736589 0 29.825851789736589 167.57072259021515 0 0 0 0 -80.815284141914162 -104.96595555519889 0 -104.96595555519889 361.79716070795257 0 0 0 0 -28.39017138415511 -25.463045015130774 0 -25.463045015130774 240.94322272285717 0 0 0 0 -35.276919681266008 -113.99096572348208 0 -113.99096572348208 309.45396190872998 0 0 0 0 -120.43605183949694 -251.83121222590853 0 -251.83121222590853 190.66208016831661 0 0 0 0 -7.0267723802792759 -51.933805815159928 0 -51.933805815159928 241.12030630961516 0 0 0 0 -49.447784354502218 -71.68184397916427 0 -71.68184397916427 223.91918197516185 0 0 0 0 -81.099320645836997 5.6511235024263442 0 5.6511235024263442 246.9858704876624 0 0 0 0 86.442185010604589 -155.60906419927369 0 -155.60906419927369 409.94514651357645 0 0 0 0 6.6355080317516695 -37.320267175426125 0 -37.320267175426125 239.83427764225053 0 0 0 0 -8.0637561518144167 -79.435874106724526 0 -79.435874106724526 87.038162369617567 0 0 0 0 -28.577217509358888 158.15984440999273 0 158.15984440999273 536.01702787377678 0 0 0 0 132.16228809985478 22.169572295890248 0 22.169572295890248 -94.146713703543355 0 0 0 0 -81.382012936311185 -61.933257192514759 0 -61.933257192514759 530.50214110799652 0 0 0 0 -26.931607925047615 82.46873696919495 0 82.46873696919495 51.743432083126272 0 0 0 0 -96.519384046077903 -18.212534816473635 0 -18.212534816473635 105.19704502054083 0 0 0 0 -0.0012192426752761776 33.320661903445135 0 33.320661903445135 51.487514559371107 0 0 0 0 143.36216652547591 -46.139034947188975 0 -46.139034947188975 763.18812613983846 0 0 0 0 63.859488426081953 -145.90991107291757 0 -145.90991107291757 1260.8830574053513 0 0 0 0 6.5676943718572147 77.147590977085201 0 77.147590977085201 1275.3051197750192 0 0 0 0 1.6389288851185455 -1.0409648767450586 0 -1.0409648767450586 -8.9431266977828869 0 0 0 0 -189.76450525278051 -135.45872113011319 0 -135.45872113011319 1275.343605633934 0 0 0 0 33.943571778421756 -317.55852755515116 0 -317.55852755515116 1078.3845355805915 0 0 0 0 2.2369131971939424 2.1429894397835625 0 2.1429894397835625 -38.713690008799176 0 0 0 0 -272.77109328678489 -174.81775325252374 0 -174.81775325252374 1018.8251603221051 0 0 0 0 -158.26678149730651 284.4776122628133 0 284.4776122628133 585.30783178489582 0 0 0 0 287.31274088131613 -91.376446211112125 0 -91.376446211112125 -5.8856771978810229 0 0 0 0 14.00075803803108 -85.060222376288777 0 -85.060222376288777 41.268472871964406 0 0 0 0 3.9613705469964771 -284.10551036926609 0 -284.10551036926609 420.66594328810061 0 0 0 0 186.20418193571095 -174.2674232546633 0 -174.2674232546633 439.73053940412933 0 0 0 0 6.1768253788069813 40.193899554474307 0 40.193899554474307 18.158980175199179 0 0 0 0 95.113586753737764 135.56914279862758 0 135.56914279862758 -261.27678104333609 0 0 0 0 74.289990255201701 -100.51654757170036 0 -100.51654757170036 387.63404772197828 0 0 0 0 -4.690132286719745 64.411037746082002 0 64.411037746082002 -116.64637551739634 0 0 0 0 -74.659783305847668 -100.50957851561998 0 -100.50957851561998 1133.3492399677871 0 0 0 0 -264.02801325439214 -454.3833837288289 0 -454.3833837288289 905.06987192038287 0 0 0 0 -0.50488549461451271 60.482928922010018 0 60.482928922010018 -0.93448407963149549 0 0 0 0 28.616235988447443 121.85743090175674 0 121.85743090175674 -76.58904103012901 0 0 0 0 -9.7859239947501919 40.283161994120746 0 40.283161994120746 936.55433556835123 0 0 0 0 0.35129442812872469 0.95418768744329796 0 0.95418768744329796 16.701850002733529 0 0 0 0 -126.73357792009483 -300.64061761562516 0 -300.64061761562516 1337.3456838770599 0 0 0 0 -497.02655030325877 288.73339793141281 0 288.73339793141281 925.10362272947714 0 0 0 0 -98.140617481121808 -125.93750568600717 0 -125.93750568600717 165.76630493869015 0 0 0 0 -58.02442314183736 -23.733632210017277 0 -23.733632210017277 765.93092494047596 0 0 0 0 57.913174964509381 131.51375120191733 0 131.51375120191733 329.47841470058484 0 0 0 0 243.95465167194925 233.57478886182071 0 233.57478886182071 578.8374520806683 0 0 0 0 -53.788307940875711 -38.792712804868643 0 -38.792712804868643 395.60422370660672 0 0 0 0 192.44611832155351 63.341454795037862 0 63.341454795037862 126.02753029631276 0 0 0 0 100.33858450134903 -103.31524763401103 0 -103.31524763401103 196.483974771254 0 0 0 0 221.17655714005014 -154.55535859742668 0 -154.55535859742668 127.71217544782758 0 0 0 0 242.42326901233901 28.23229535106293 0 28.23229535106293 267.30396215561632 0 0 0 0 118.96330833577667 -28.335440643091715 0 -28.335440643091715 477.53693333233241 0 0 0 0 198.72177213912801 -148.60582813073779 0 -148.60582813073779 225.58819706171926 0 0 0 0 -14.731120986816677 -31.26436337603991 0 -31.26436337603991 179.7036071431794 0 0 0 0 249.57533045669152 -105.44190011969113 0 -105.44190011969113 128.49621558084618 0 0 0 0 -115.43008985948472 211.10423472253751 0 211.10423472253751 172.15412936460962 0 0 0 0 214.89410696295454 321.75069062532566 0 321.75069062532566 459.07313834534943 0 0 0 0 264.82253724296606 -46.9036952591523 0 -46.9036952591523 405.64053863372101 0 0 0 0 37.699651738374087 50.659118990875868 0 50.659118990875868 404.47228606235149 0 0 0 0 480.7594800230363 392.85244597583187 0 392.85244597583187 666.64098710282997 0 0 0 0 306.25999026562749 335.17621039895675 0 335.17621039895675 282.28756015161343 0 0 0 0 204.05152907743468 86.634847071683907 0 86.634847071683907 -152.50715275106359 0 0 0 0 5.0939883974250648 -2.7103936234500452 0 -2.7103936234500452 0.26872242480897768 0 0 0 0 -29.118197228151075 120.47987588736942 0 120.47987588736942 280.59786275173246 0 0 0 0 54.580741364363348 18.08050763625215 0 18.08050763625215 771.86205454378796 0 0 0 0 18.68185550445196 197.59391060036432 0 197.59391060036432 1414.7969405680706 0 0 0 0 29.103877658730198 10.492825548019027 0 10.492825548019027 771.04896983576327 0 0 0 0 -23.699173198079734 143.65059891855526 0 143.65059891855526 653.29569174771314 0 0 0 0 41.858457861540955 234.09447240928421 0 234.09447240928421 771.18540283039715 0 0 0 0 -6.8889389593150554 129.45113298559954 0 129.45113298559954 12.053541409462923 0 0 0 0 13.1146859404965 -2.3365624256663011 0 -2.3365624256663011 -2.6730685960764546 0 0 0 0 -54.803820292803863 -59.057383791095639 0 -59.057383791095639 124.64934545613625 0 0 0 0 -67.008559627135128 91.172249505553282 0 91.172249505553282 282.73010583157884 0 0 0 0 -0.68095722208090592 -5.0266672635552823 0 -5.0266672635552823 249.35984537825425 0 0 0 0 -274.92151165879113 243.64664398325112 0 243.64664398325112 313.27472902417139 0 0 0 0 1.9770642928669986 325.90201276172229 0 325.90201276172229 334.49979551724573 0 0 0 0 -19.975008350185817 75.670195970538771 0 75.670195970538771 311.78612420325953 0 0 0 0 -60.994206782942911 58.323541351123822 0 58.323541351123822 310.32973218002007 0 0 0 0 -121.63061777291296 213.71601660317901 0 213.71601660317901 734.13725961781165 0 0 0 0 -72.263517088329536 -253.20910046849167 0 -253.20910046849167 339.40320680035893 0 0 0 0 205.68819674611223 503.04537034581153 0 503.04537034581153 569.64011743657466 0 0 0 0 171.8990790902717 -392.69992772016121 0 -392.69992772016121 574.45632765385744 0 0 0 0 -2.8548053385336321 5.979976838632993 0 5.979976838632993 7.9413543269650404 0 0 0 0 394.01162718095475 348.92949539717665 0 348.92949539717665 280.1439498169857 0 0 0 0 326.35597333964506 37.218615099856834 0 37.218615099856834 690.49581588232832 0 0 0 0 -56.050331992696677 0.70174205715603932 0 0.70174205715603932 93.011378250055685 0 0 0 0 75.41379060611871 235.97673333113926 0 235.97673333113926 -226.79652826765596 0 0 0 0 -45.13429366483615 -0.4585166262149869 0 -0.4585166262149869 204.49914606348102 0 0 0 0 -139.41717479848012 -40.271228543984762 0 -40.271228543984762 386.97794747613989 0 0 0 0 -64.574930388241711 50.925495343768688 0 50.925495343768688 181.3976804156473 0 0 0 0 -27.673859757502214 -274.86949637741782 0 -274.86949637741782 542.5602117474773 0 0 0 0 71.369773769678432 -338.26427424823123 0 -338.26427424823123 497.29116268842336 0 0 0 0 -11.650793430808264 -24.174525088433199 0 -24.174525088433199 35.549076296577311 0 0 0 0 -3.8699247759068385 -33.11215914915033 0 -33.11215914915033 159.49822387786389 0 0 0 0 80.128844584893159 -71.570350097549635 0 -71.570350097549635 301.60281168232177 0 0 0 0 11.858261316575891 -16.495039310105817 0 -16.495039310105817 61.374011781466443 0 0 0 0 -15.790680130408589 -0.3065083430525064 0 -0.3065083430525064 121.79006653476114 0 0 0 0 5.9928926679567667 19.359918944704987 0 19.359918944704987 216.43427122393041 0 0 0 0 0.32315453797454552 -59.995922966562212 0 -59.995922966562212 121.42261771131366 0 0 0 0 -4.7863008673448348 -45.591233965868014 0 -45.591233965868014 310.05881024837163 0 0 0 0 -3.7814878877181428 23.551048924716959 0 23.551048924716959 203.54137804534875 0 0 0 0 -2.4016160394774886 16.181003982392397 0 16.181003982392397 46.06266420693445 0 0 0 0 77.782467990982695 -104.44968400338985 0 -104.44968400338985 309.51312722997318 0 0 0 0 5.8067604603283769 -46.528848034634777 0 -46.528848034634777 50.896240672905947 0 0 0 0 -4.8054670258643455 -35.532863566735614 0 -35.532863566735614 166.54779377933301 0 0 0 0 8.6215091235744978 -82.711880139671379 0 -82.711880139671379 130.91376258258992 0 0 0 0 36.808041795229656 -124.6235339652012 0 -124.6235339652012 369.25001203011834 0 0 0 0 -121.70615390570674 -245.61457985922243 0 -245.61457985922243 776.13538346868881 0 0 0 0 -6.4188030421897224 -20.883447850131446 0 -20.883447850131446 82.168341840898307 0 0 0 0 -156.75790900765423 -100.31242883411323 0 -100.31242883411323 658.99769153407397 0 0 0 0 -31.319901000089885 -44.573697998028365 0 -44.573697998028365 313.1583443603522 0 0 0 0 -11.193015009390365 25.641647178250423 0 25.641647178250423 279.4454362342949 0 0 0 0 10.129408274483538 -3.7363130635535526 0 -3.7363130635535526 11.560891290144525 0 0 0 0 -9.8020411740106255 11.919321763334537 0 11.919321763334537 135.10829894625573 0 0 0 0 56.921948592847912 287.13714690198685 0 287.13714690198685 349.55342135550745 0 0 0 0 0.045189371195050398 -9.0302958367059318 0 -9.0302958367059318 15.512390728940645 0 0 0 0 254.987087381116 41.430045582375897 0 41.430045582375897 89.989301621782943 0 0 0 0 3.3637279684189707 133.59067517373478 0 133.59067517373478 78.777366440473997 0 0 0 0 53.785631140075566 17.321369162884366 0 17.321369162884366 381.94836505029525 0 0 0 0 -23.467761296938988 102.91416193162149 0 102.91416193162149 460.05254165180668 0 0 0 0 19.375091895257356 122.01896076441335 0 122.01896076441335 212.02055658941754 0 0 0 0 -74.798841576822298 -44.319715427667127 0 -44.319715427667127 111.59270232924054 0 0 0 0 16.45654882361319 9.7002447574949855 0 9.7002447574949855 38.143447967668607 0 0 0 0 -70.531629786652047 21.973338875926856 0 21.973338875926856 448.54716906151589 0 0 0 0 -33.364947148440805 -31.685719402183352 0 -31.685719402183352 154.41505574165819 0 0 0 0 22.951989075636448 366.43753968071906 0 366.43753968071906 472.89711742594955 0 0 0 0 -277.08178714632049 -73.257771558615786 0 -73.257771558615786 1410.0800020916267 0 0 0 0 336.16583593876794 -503.74058462645553 0 -503.74058462645553 157.07599067231786 0 0 0 0 -265.71607414644495 336.12445696173199 0 336.12445696173199 908.2630101511586 0 0 0 0 -79.6844219549439 624.18201701392354 0 624.18201701392354 264.51365273741794 0 0 0 0 -0.11383486611197924 1.8781440675028733 0 1.8781440675028733 11.950159702522527 0 0 0 0 -73.706738531956944 -456.58250704048442 0 -456.58250704048442 653.21586337194822 0 0 0 0 -227.88002575278733 -166.10155640780977 0 -166.10155640780977 713.38858050391354 0 0 0 0 -272.08226726735143 -62.881361640940895 0 -62.881361640940895 543.17086885457684 0 0 0 0 -173.60712402751415 31.309820850607139 0 31.309820850607139 629.77278311233749 0 0 0 0 -153.74061058181906 122.22655480193498 0 122.22655480193498 543.61179357766491 0 0 0 0 -181.45079101597594 -23.819186303645893 0 -23.819186303645893 478.60158211072485 0 0 0 0 -53.361042525295957 43.499363581454432 0 43.499363581454432 168.24735499598575 0 0 0 0 24.96937377571885 -313.12072062640982 0 -313.12072062640982 466.86877350965369 0 0 0 0 -4.0116572353126685 -229.5604190797967 0 -229.5604190797967 876.65445295916652 0 0 0 0 -223.45245605333866 -179.22106270702079 0 -179.22106270702079 463.26814673946865 0 0 0 0 27.11046021875427 -266.34145517424486 0 -266.34145517424486 425.25829644226178 0 0 0 0 -21.288793167788754 -87.81644380610669 0 -87.81644380610669 476.23160357988098 0 0 0 0 -474.95957588174861 -100.80164138032706 0 -100.80164138032706 224.89891267016628 0 0 0 0 -661.91855066604694 119.30515698503405 0 119.30515698503405 209.16715231835769 0 0 0 0 -57.063439464811381 -423.8938775976294 0 -423.8938775976294 380.88677690722761 0 0 0 0 -272.80565369392116 42.897466233163868 0 42.897466233163868 31.39674767671022 0 0 0 0 -83.338849161671533 -241.252390036615 0 -241.252390036615 130.35984521680075 0 0 0 0 -63.413878653684151 302.60370624955794 0 302.60370624955794 -81.886776238512539 0 0 0 0 -453.08566544915811 62.742396679717785 0 62.742396679717785 107.48088683104288 0 0 0 0 47.733801039999889 234.66095044534086 0 234.66095044534086 -54.957533908269397 0 0 0 0 -0.71823662961864798 5.2617876992438966 0 5.2617876992438966 29.149364908054764 0 0 0 0 -788.79520606116421 391.69500304682242 0 391.69500304682242 85.630898652791075 0 0 0 0 -258.41024236460498 128.75157196574469 0 128.75157196574469 -178.68834560407049 0 0 0 0 -944.62688195190094 212.49544581681948 0 212.49544581681948 243.8877873548081 0 0 0 0 232.52076468672385 190.13130338025076 0 190.13130338025076 81.186933025397593 0 0 0 0 -273.65108481013158 37.173778665406417 0 37.173778665406417 154.5070543152251 0 0 0 0 4.8104816434279201 -177.28810293635252 0 -177.28810293635252 208.10814624995055 0 0 0 0 190.92333878520003 133.62969208512368 0 133.62969208512368 681.6067805634957 0 0 0 0 -271.87509610165944 78.360746941702018 0 78.360746941702018 -115.81580083836161 0 0 0 0 -340.49027909980396 95.138513081862584 0 95.138513081862584 334.75655568570073 0 0 0 0 -345.74761566235793 171.50809432925143 0 171.50809432925143 -156.5203136604996 0 0 0 0 -319.89634213562522 -1.6022343205258949 0 -1.6022343205258949 274.70172461979746 0 0 0 0 -163.98559510501525 -197.53677512064667 0 -197.53677512064667 262.96102450279795 0 0 0 0 -168.54464781138972 40.820727919622705 0 40.820727919622705 -41.108791224187371 0 0 0 0 -797.58527031149788 118.8462073388182 0 118.8462073388182 183.94036510250044 0 0 0 0 -1.0110737111386552 6.0494325126166046 0 6.0494325126166046 34.925130045245837 0 0 0 0 -40.584592926256448 -70.229003505453065 0 -70.229003505453065 155.18955707610252 0 0 0 0 -5.4437294205276245 108.21256617086098 0 108.21256617086098 140.39093352767307 0 0 0 0 -33.40244843556502 -19.14930452137196 0 -19.14930452137196 -10.48424709601386 0 0 0 0 -29.664889646176562 41.299835091835121 0 41.299835091835121 5.3145797190954909 0 0 0 0 -23.443524589334249 89.304669466490623 0 89.304669466490623 80.002970750740445 0 0 0 0 -63.081944648474746 20.326643936918117 0 20.326643936918117 96.036517133237794 0 0 0 0 -48.263966485363099 22.570751181392136 0 22.570751181392136 63.70694645717515 0 0 0 0 -38.844156779091833 -48.123212916404299 0 -48.123212916404299 119.07752402479417 0 0 0 0 -6.5824770421970946 -4.0990982437653685 0 -4.0990982437653685 13.026853448834743 0 0 0 0 -18.263757588692442 -157.24261549924086 0 -157.24261549924086 43.892471746759838 0 0 0 0 -15.864021862249501 15.148990042587684 0 15.148990042587684 65.624486392553081 0 0 0 0 -1044.448112043332 1280.1469618402407 0 1280.1469618402407 2444.7532955238057 0 0 0 0 1013.7891962108679 446.33092927323378 0 446.33092927323378 109.72718261519185 0 0 0 0 -742.85235211536565 -273.58192101893292 0 -273.58192101893292 379.3737299569184 0 0 0 0 -31.055395420031346 299.42184910049036 0 299.42184910049036 260.08994460356917 0 0 0 0 -7.8219720840916125 61.028040154542396 0 61.028040154542396 45.969941322371596 0 0 0 0 3.0554934255888853 5.3609441487843199 0 5.3609441487843199 16.956432673764567 0 0 0 0 647.43164411797807 -477.25877396130454 0 -477.25877396130454 587.9618526673512 0 0 0 0 471.13400255935994 -175.22864891719018 0 -175.22864891719018 118.84590331853542 0 0 0 0 132.53341059700324 -55.72789399332396 0 -55.72789399332396 1183.2958681196214 0 0 0 0 418.36997708394483 -369.82863541155893 0 -369.82863541155893 -220.20605183635053 0 0 0 0 2817.3003468558272 714.51757371281019 0 714.51757371281019 -666.26025660890446 0 0 0 0 -37.924374426429168 -73.296282571959026 0 -73.296282571959026 132.27040164012084 0 0 0 0 -39.493393768835631 324.76464180326093 0 324.76464180326093 411.85185735263076 0 0 0 0 118.64814024804946 154.54053232055821 0 154.54053232055821 430.69685665928409 0 0 0 0 -65.651758262168414 350.4515012956964 0 350.4515012956964 332.71236996433436 0 0 0 0 122.35946010780754 149.92248170060702 0 149.92248170060702 415.58625147124189 0 0 0 0 72.763961303822725 288.30537940026261 0 288.30537940026261 148.50963639985639 0 0 0 0 220.02376060080496 21.618955080579326 0 21.618955080579326 99.778320167519269 0 0 0 0 121.37544113389367 -0.22872367348963962 0 -0.22872367348963962 226.9654954700527 0 0 0 0 289.01110899283958 -201.13963762322601 0 -201.13963762322601 511.1496418911911 0 0 0 0 383.34567466737462 -158.11541264804146 0 -158.11541264804146 209.78722668629052 0 0 0 0 448.50743939785752 -131.89062365334757 0 -131.89062365334757 54.936440459292498 0 0 0 0 178.13905737284267 -14.853672380935677 0 -14.853672380935677 213.31569512720307 0 0 0 0 -42.201020655724278 80.526251501403749 0 80.526251501403749 630.68562059833857 0 0 0 0 722.07658718230232 60.825413538346766 0 60.825413538346766 159.29240409216436 0 0 0 0 -0.70605639410642596 -8.950230156380762 0 -8.950230156380762 50.182495956044363 0 0 0 0 637.77905281939638 -347.36026466215321 0 -347.36026466215321 306.53405212451617 0 0 0 0 -25.050993945027763 38.168441999364603 0 38.168441999364603 273.68966092239941 0 0 0 0 -227.68654767811222 182.00147663155076 0 182.00147663155076 240.06542345091293 0 0 0 0 -24.58165062928731 71.556280152818118 0 71.556280152818118 161.16421649195689 0 0 0 0 374.7221915971495 -129.54857670606361 0 -129.54857670606361 125.40738424638312 0 0 0 0 8.4532121962302824 36.676217575309764 0 36.676217575309764 36.96538798547293 0 0 0 0 24.730701617952946 136.24712254555288 0 136.24712254555288 -30.373094770766329 0 0 0 0 -96.094102836384081 207.42199707450345 0 207.42199707450345 205.413507254867 0 0 0 0 -110.75750138882768 149.80161570906057 0 149.80161570906057 87.378612924178015 0 0 0 0 -180.78359680924586 255.98924718424678 0 255.98924718424678 212.65628937111615 0 0 0 0 62.880461844967613 170.36192847986968 0 170.36192847986968 136.81553850561613 0 0 0 0 70.064866935277678 269.49356468707992 0 269.49356468707992 163.21970290888567 0 0 0 0 132.5995679986986 205.81699157659023 0 205.81699157659023 32.698821997095365 0 0 0 0 62.314686295957472 234.20763655396877 0 234.20763655396877 31.548921402325504 0 0 0 0 -145.26455547615024 461.08569113016711 0 461.08569113016711 216.92100577596284 0 0 0 0 120.41195994109694 318.05845805338777 0 318.05845805338777 159.27927770467068 0 0 0 0 84.003580137950848 504.46448803104431 0 504.46448803104431 41.715353499326739 0 0 0 0 -187.32110577674302 402.07961507481377 0 402.07961507481377 146.26508184392151 0 0 0 0 -167.7754112444095 345.54555286182949 0 345.54555286182949 248.89453509049781 0 0 0 0 -645.01903565520888 518.8527738201301 0 518.8527738201301 185.97795319464058 0 0 0 0 -309.04526637363051 83.665096674762026 0 83.665096674762026 356.2542043072317 0 0 0 0 -745.76435574931929 156.06086305828649 0 156.06086305828649 404.96538805768068 0 0 0 0 -175.56187269215025 220.67527781146509 0 220.67527781146509 268.05829030742461 0 0 0 0 -448.26774380615598 216.630149898534 0 216.630149898534 273.67957871124963 0 0 0 0 741.63695633646967 -52.422471994788793 0 -52.422471994788793 85.704983126390289 0 0 0 0 261.83342434244696 -63.782737348779847 0 -63.782737348779847 153.83721391156359 0 0 0 0 -14.864580061124288 20.646695971576293 0 20.646695971576293 294.23592571803403 0 0 0 0 -216.32759985176517 -128.94561886766314 0 -128.94561886766314 371.67297200355097 0 0 0 0 117.20991952223721 -115.55702966150739 0 -115.55702966150739 364.9183149990713 0 0 0 0 -24.277387441160808 29.658925976159161 0 29.658925976159161 298.69953270350544 0 0 0 0 -9.7416551548363177 -7.7830106990872991 0 -7.7830106990872991 80.773091117796881 0 0 0 0 -128.15224893918457 870.8851498830918 0 870.8851498830918 -991.44998612086056 0 0 0 0 -1093.8035623281548 832.82155674174646 0 832.82155674174646 226.38567118626088 0 0 0 0 -927.54966367492625 342.29926673052614 0 342.29926673052614 248.36793565026892 0 0 0 0 -106.43970857707791 370.28087495074578 0 370.28087495074578 -270.23198592939298 0 0 0 0 -221.69124729640407 -218.55407465827011 0 -218.55407465827011 822.9927644305717 0 0 0 0 -23.875360539159374 -417.94494241652137 0 -417.94494241652137 16.570059060701169 0 0 0 0 -95.81867656817667 -247.7210746218625 0 -247.7210746218625 599.23661684796753 0 0 0 0 -60.424114013336634 116.42666537279729 0 116.42666537279729 407.96514509624103 0 0 0 0 -85.995334941870169 183.84919251818792 0 183.84919251818792 570.48555586919338 0 0 0 0 -88.452311832203122 -275.45988147577373 0 -275.45988147577373 73.326423450812399 0 0 0 0 -290.51478528442749 555.92681277185147 0 555.92681277185147 409.70061031789737 0 0 0 0 -256.06598084751386 42.962580037202315 0 42.962580037202315 -415.16267064110252 0 0 0 0 -194.71306406325994 425.36476705345035 0 425.36476705345035 197.55558788946655 0 0 0 0 -1.0618736226560941 4.8229821731575271 0 4.8229821731575271 29.917249984777179 0 0 0 0 -888.67917020086043 313.03500335982153 0 313.03500335982153 257.9909359308549 0 0 0 0 -779.63034420456461 -66.764986532112744 0 -66.764986532112744 253.98429353177926 0 0 0 0 -75.885858321027627 -294.89829542682128 0 -294.89829542682128 148.70909628937443 0 0 0 0 -408.97404975625795 74.014333503026137 0 74.014333503026137 194.84208375150774 0 0 0 0 72.468030610752976 -143.75830566255809 0 -143.75830566255809 261.6311101664287 0 0 0 0 348.6846486610375 -425.42707406544469 0 -425.42707406544469 426.54247679760465 0 0 0 0 234.54747713398865 -122.76032554370249 0 -122.76032554370249 351.2316687010607 0 0 0 0 98.187534330019844 -297.42571211652739 0 -297.42571211652739 189.80400243168333 0 0 0 0 -181.60746565294721 -185.72820160312313 0 -185.72820160312313 529.80125788383157 0 0 0 0 2.5816650731858317 -96.072129695219701 0 -96.072129695219701 565.77117342780184 0 0 0 0 -45.693596146535128 -135.45247083566483 0 -135.45247083566483 583.70055291825156 0 0 0 0 -56.814563416032222 5.3435430457653368 0 5.3435430457653368 77.454197557581878 0 0 0 0 -15.144520729385516 37.360746985550776 0 37.360746985550776 273.97318686291419 0 0 0 0 -201.81880981510994 -54.195707020289774 0 -54.195707020289774 386.58751247186183 0 0 0 0 -24.837691212959953 -93.820443117778268 0 -93.820443117778268 224.66257151728132 0 0 0 0 -48.29056915587762 -103.95310190447344 0 -103.95310190447344 340.31201752503603 0 0 0 0 -48.846787256712105 -10.318938346382311 0 -10.318938346382311 224.73527768574422 0 0 0 0 -62.688075075570922 16.059858493399055 0 16.059858493399055 -0.1237319321031336 0 0 0 0 -18.971828648345308 -75.986118876762703 0 -75.986118876762703 127.06062963058503 0 0 0 0 -99.906304959225963 -478.18058728930191 0 -478.18058728930191 805.33722313175895 0 0 0 0 -375.51343760002783 -0.82022846882136946 0 -0.82022846882136946 660.66874675177405 0 0 0 0 -672.66471415040178 -19.136778597830926 0 -19.136778597830926 1392.1673220226585 0 0 0 0 -290.54672127467893 495.34455351952056 0 495.34455351952056 759.42082897759246 0 0 0 0 -0.35184644089830641 1.7061801009119293 0 1.7061801009119293 12.394120818377132 0 0 0 0 -259.58263768306188 573.49658660579598 0 573.49658660579598 533.91725055295683 0 0 0 0 -271.53785708041687 286.3463063983786 0 286.3463063983786 591.73225961437129 0 0 0 0 -294.27659978613883 221.87925910581544 0 221.87925910581544 1116.848143285988 0 0 0 0 -68.300550732112882 6.4699616995565634 0 6.4699616995565634 25.072312596336655 0 0 0 0 413.46308005931132 143.90890360680351 0 143.90890360680351 17.661376849973749 0 0 0 0 -88.351158105999275 -118.93143036584661 0 -118.93143036584661 168.11874248463209 0 0 0 0 1250.629125287971 -647.54579348656989 0 -647.54579348656989 449.77026670007035 0 0 0 0 -189.88002395744661 168.21602137869195 0 168.21602137869195 752.26824921038133 0 0 0 0 70.965506435290081 -27.378677254975628 0 -27.378677254975628 187.3664475334449 0 0 0 0 -145.70264760702958 -150.43601515512978 0 -150.43601515512978 116.98483387501363 0 0 0 0 -69.87842628059569 12.248075925659176 0 12.248075925659176 93.446347896873988 0 0 0 0 -27.700064929847922 -69.644160209181777 0 -69.644160209181777 188.52756548303523 0 0 0 0 -65.493443416546143 -53.999354435702116 0 -53.999354435702116 490.6771838916502 0 0 0 0 -19.210698851700062 140.86298525271366 0 140.86298525271366 68.638031852783286 0 0 0 0 -185.25538549700718 41.372231595335414 0 41.372231595335414 202.49945625841502 0 0 0 0 -184.09626469419163 208.63950005743209 0 208.63950005743209 435.97967873322705 0 0 0 0 4.5774891293402078 -35.38602156601408 0 -35.38602156601408 64.276143065548084 0 0 0 0 17.139658310610685 300.85401828455724 0 300.85401828455724 360.36946617620106 0 0 0 0 -164.51274926537099 66.86561494835405 0 66.86561494835405 599.9168307597065 0 0 0 0 -9.3175148500729392 92.939959666398863 0 92.939959666398863 387.11903696386435 0 0 0 0 -154.28243736905824 -248.13067136423342 0 -248.13067136423342 266.27651545652407 0 0 0 0 -115.7590216980484 -106.70904149337639 0 -106.70904149337639 190.42298782414582 0 0 0 0 -1.138844446655348 -91.541671632726732 0 -91.541671632726732 170.45201810981544 0 0 0 0 -50.134487556764725 -38.610542418356999 0 -38.610542418356999 -27.546028828966882 0 0 0 0 5.5852984737748841 -7.0999614283406771 0 -7.0999614283406771 11.488997218288773 0 0 0 0 313.28506586809272 -330.58968184845889 0 -330.58968184845889 6.3611588969570221 0 0 0 0 -34.308081898741875 -111.92427575161673 0 -111.92427575161673 -96.738988968614649 0 0 0 0 83.300372779320469 -537.50436873125523 0 -537.50436873125523 369.88694644160933 0 0 0 0 153.1934836322871 211.2692922506285 0 211.2692922506285 230.86526771710396 0 0 0 0 -58.105439725111864 467.34324839144392 0 467.34324839144392 102.34998667829132 0 0 0 0 528.87208302752515 426.24227736734883 0 426.24227736734883 238.1311274560685 0 0 0 0 85.293028488056734 407.72616993101656 0 407.72616993101656 349.87057467758314 0 0 0 0 15.19465634800056 -21.070783492460745 0 -21.070783492460745 34.372270639175646 0 0 0 0 -77.603729606751585 -291.42709906283335 0 -291.42709906283335 -38.824328139164436 0 0 0 0 465.91586233583985 215.90386277907055 0 215.90386277907055 303.69366305069457 0 0 0 0 -21.816672940123681 28.872056227050052 0 28.872056227050052 -13.108457892163642 0 0 0 0 92.112163378744754 273.54282956720181 0 273.54282956720181 463.07054446639268 0 0 0 0 -69.83990425925731 69.713845610722274 0 69.713845610722274 127.89913006225652 0 0 0 0 159.60128910975436 -188.57355361327518 0 -188.57355361327518 153.36798052931772 0 0 0 0 76.316739357804181 -241.20776617479714 0 -241.20776617479714 148.75064170438236 0 0 0 0 264.28300319150367 -336.39891567803716 0 -336.39891567803716 360.81684088779105 0 0 0 0 471.39402773413349 -312.84155775715135 0 -312.84155775715135 65.915531077771448 0 0 0 0 277.65822867739553 -130.7960710529278 0 -130.7960710529278 369.07566150471587 0 0 0 0 106.26722387154859 -167.5493840189356 0 -167.5493840189356 445.84241582611867 0 0 0 0 689.79652528453835 705.93198273822986 0 705.93198273822986 1051.3576419616766 0 0 0 0 227.39496988909605 -7.9945940744341897 0 -7.9945940744341897 1306.7522723751808 0 0 0 0 -207.20139311763523 -519.53969951125373 0 -519.53969951125373 1094.2896479305036 0 0 0 0 744.52695215371159 -365.25195465535398 0 -365.25195465535398 -141.33624571411565 0 0 0 0 94.69350491772434 812.64810809999312 0 812.64810809999312 253.22645848158209 0 0 0 0 346.55162702573216 -504.84687148059129 0 -504.84687148059129 770.41950127333621 0 0 0 0 -15.962964891251573 91.313129865463424 0 91.313129865463424 143.19214015488106 0 0 0 0 105.51992763901217 -267.74265429032266 0 -267.74265429032266 95.557313580509799 0 0 0 0 249.03958139485439 277.28499858410396 0 277.28499858410396 -238.85651351527736 0 0 0 0 169.97982145871742 -109.37650109735841 0 -109.37650109735841 -23.331114935557707 0 0 0 0 67.801298796810443 461.09910376243715 0 461.09910376243715 -651.67326474401125 0 0 0 0 709.96547864757304 -148.57584982925073 0 -148.57584982925073 -294.51608297053463 0 0 0 0 -336.14265419727963 485.68385209955886 0 485.68385209955886 1905.1668252966101 0 0 0 0 -45.324150649212243 194.77400294881954 0 194.77400294881954 404.91978624308831 0 0 0 0 -24.758350021284059 837.94025195324957 0 837.94025195324957 -693.88843876108876 0 0 0 0 -20.10341789068746 77.888035240843095 0 77.888035240843095 169.62079301263793 0 0 0 0 310.24282001114989 -373.70932864241695 0 -373.70932864241695 572.81528236989107 0 0 0 0 5.37677828881381 15.910601336944154 0 15.910601336944154 -34.711346004844174 0 0 0 0 325.23647983726551 -410.06145266666681 0 -410.06145266666681 515.20304629328166 0 0 0 0 247.61916650058265 -278.4651800039619 0 -278.4651800039619 216.8342406240954 0 0 0 0 224.16596141388072 -208.0379906018461 0 -208.0379906018461 434.32953151498805 0 0 0 0 70.363508482234465 -85.897687126122037 0 -85.897687126122037 211.49216102763421 0 0 0 0 303.87393889727173 -264.66407567716487 0 -264.66407567716487 160.09544329396772 0 0 0 0 276.71466904673798 -193.99693743105672 0 -193.99693743105672 81.58664230336899 0 0 0 0 323.55643441570464 -250.41920586952347 0 -250.41920586952347 145.40572072970826 0 0 0 0 353.03824703568171 -158.40578309093144 0 -158.40578309093144 -107.23300274705252 0 0 0 0 355.57650236046538 -35.178597060650645 0 -35.178597060650645 283.41698516619908 0 0 0 0 76.241508234381399 104.36739108183247 0 104.36739108183247 248.90591406607564 0 0 0 0 235.10552659882705 -197.48058506298912 0 -197.48058506298912 440.65772367094178 0 0 0 0 93.375525062174347 -477.70804702602982 0 -477.70804702602982 1487.463636249784 0 0 0 0 106.45245795825497 -369.02326655412844 0 -369.02326655412844 378.17199710351997 0 0 0 0 -129.61270171439537 -232.68434644327863 0 -232.68434644327863 727.27838545195846 0 0 0 0 -245.91470460078108 48.572247978283485 0 48.572247978283485 167.21783013864479 0 0 0 0 -591.80075291044704 -17.600509092269931 0 -17.600509092269931 368.93203044497932 0 0 0 0 201.35237669765866 16.868507086212048 0 16.868507086212048 -151.50571710105578 0 0 0 0 -815.66833308890091 -157.50775257134592 0 -157.50775257134592 312.69121752354113 0 0 0 0 -101.6548306154582 -104.29311020169916 0 -104.29311020169916 166.80805627455265 0 0 0 0 -1.1662368511180521 -3.1060377946157587 0 -3.1060377946157587 40.882127436709936 0 0 0 0 -456.4498822434507 -134.30319497739401 0 -134.30319497739401 65.80728775884927 0 0 0 0 -645.6626179017876 236.45709739504673 0 236.45709739504673 194.1750728064344 0 0 0 0 -306.73662662771676 83.955500019692408 0 83.955500019692408 137.5474634848506 0 0 0 0 -611.98363174288806 81.044034757902409 0 81.044034757902409 175.45711543146172 0 0 0 0 -587.81371646286061 143.03676416645612 0 143.03676416645612 204.78011275470635 0 0 0 0 -894.70881228479629 75.893266959861649 0 75.893266959861649 290.28045459734858 0 0 0 0 -18.775670025073019 73.627777100413724 0 73.627777100413724 165.90362077413883 0 0 0 0 68.359756838488465 112.32302242631704 0 112.32302242631704 -221.1815210608147 0 0 0 0 3.1346649094171743 29.041895657897129 0 29.041895657897129 53.980356487003036 0 0 0 0 -599.36712951381196 77.927300188472145 0 77.927300188472145 141.56111236021388 0 0 0 0 -17.940600354327042 -15.07482713390044 0 -15.07482713390044 287.40445557998862 0 0 0 0 -465.42190656678304 -40.210035103477821 0 -40.210035103477821 263.81897703895629 0 0 0 0 -463.90415524077252 219.52730079721005 0 219.52730079721005 176.26083992453641 0 0 0 0 -604.96951048608025 117.11981969643966 0 117.11981969643966 155.08440059152053 0 0 0 0 -568.2761881904753 324.71991595456711 0 324.71991595456711 301.39971223985776 0 0 0 0 -24.094746122779114 16.475657212764531 0 16.475657212764531 57.383654167141728 0 0 0 0 -615.14928545192015 -15.052108797302935 0 -15.052108797302935 96.041627764279838 0 0 0 0 -322.84724204671693 96.014543493118254 0 96.014543493118254 114.59261626258376 0 0 0 0 -756.86317654564846 151.75675708719064 0 151.75675708719064 254.72199430319597 0 0 0 0 -605.0131622929548 130.89673484663945 0 130.89673484663945 212.48513414732588 0 0 0 0 -352.91269205068238 103.63165255403146 0 103.63165255403146 -4.0505295505281538 0 0 0 0 -334.93646318829997 61.471404980766238 0 61.471404980766238 74.828892237390392 0 0 0 0 -68.410159401288183 152.00734557300893 0 152.00734557300893 52.431706831841439 0 0 0 0 -46.408582329336241 102.67787372223756 0 102.67787372223756 137.32421665513539 0 0 0 0 -322.62769584201465 90.935418692084795 0 90.935418692084795 165.33723253138305 0 0 0 0 -306.90631603785482 79.801589888345006 0 79.801589888345006 293.40288734412752 0 0 0 0 -23.322978911430255 131.38093717837182 0 131.38093717837182 135.00155301848645 0 0 0 0 29.362287967050179 3.3441489357082901 0 3.3441489357082901 247.00132578614284 0 0 0 0 54.719596273491334 101.19224675038276 0 101.19224675038276 392.72438224222242 0 0 0 0 118.33495817762741 81.403435810905648 0 81.403435810905648 213.71100670610758 0 0 0 0 79.878096234951954 213.78813075612561 0 213.78813075612561 189.95762498884687 0 0 0 0 50.665685497042432 160.56697356553195 0 160.56697356553195 154.0562573815987 0 0 0 0 96.977926967991152 239.27188534181914 0 239.27188534181914 117.71840823244565 0 0 0 0 58.948285932910949 180.98850786294861 0 180.98850786294861 138.88857570575783 0 0 0 0 -65.177882583738665 147.73374042005889 0 147.73374042005889 107.74124092084821 0 0 0 0 47.083393723298286 210.8495252578432 0 210.8495252578432 63.804561602213653 0 0 0 0 -61.614721113511223 148.21472917126994 0 148.21472917126994 16.093438065770897 0 0 0 0 7.8111023870301324 116.22691972843677 0 116.22691972843677 94.031796701339772 0 0 0 0 34.101084312638704 246.62836016455549 0 246.62836016455549 116.33379797114776 0 0 0 0 32.038990497381747 207.73440668541298 0 207.73440668541298 205.89784948831948 0 0 0 0 -6.8913845322776979 215.74813418296253 0 215.74813418296253 399.13701703354309 0 0 0 0 95.383645075766253 264.1099591281527 0 264.1099591281527 210.18928766825229 0 0 0 0 38.71154432766707 241.99104838538187 0 241.99104838538187 392.27052980399458 0 0 0 0 55.943640061810584 228.7773368599228 0 228.7773368599228 223.77178603339598 0 0 0 0 87.45609650580127 218.07352421838004 0 218.07352421838004 220.92647877655691 0 0 0 0 9.0081675726602768 -95.227666227009138 0 -95.227666227009138 203.62372827212224 0 0 0 0 -22.268996422717464 -317.42535555215727 0 -317.42535555215727 -12.781493076705374 0 0 0 0 -727.15290003221162 -222.7104507983895 0 -222.7104507983895 187.24177944932308 0 0 0 0 7.1421557965270086 -47.255906030630413 0 -47.255906030630413 2.0922014523913219 0 0 0 0 -141.78617193996433 69.976634260630817 0 69.976634260630817 71.609124484777567 0 0 0 0 -753.57024380489747 -348.82309743078076 0 -348.82309743078076 -9.4408905746095115 0 0 0 0 -791.05769950005697 36.345990318774966 0 36.345990318774966 140.50185212300858 0 0 0 0 -303.81287928136226 122.78455639041204 0 122.78455639041204 104.0857086587348 0 0 0 0 -329.61865790958109 -76.693752122140722 0 -76.693752122140722 27.647363217722159 0 0 0 0 -210.91016196901182 100.50589892918651 0 100.50589892918651 201.09612280403235 0 0 0 0 138.45041582270096 105.32451507185033 0 105.32451507185033 178.90966971698799 0 0 0 0 -340.89012047824599 -331.51359075398796 0 -331.51359075398796 34.559295680024661 0 0 0 0 -307.56935575327952 -161.2586618437781 0 -161.2586618437781 253.4134300421938 0 0 0 0 -33.923527003877098 -312.64565470494563 0 -312.64565470494563 -14.556703981361352 0 0 0 0 -13.117539868766471 -92.063063346744457 0 -92.063063346744457 200.54981116540876 0 0 0 0 -176.56108143338133 -162.79923034106105 0 -162.79923034106105 556.69832131714793 0 0 0 0 -67.681305474263354 -120.45003850656212 0 -120.45003850656212 507.89057845752541 0 0 0 0 -77.680280207714532 10.037339869842981 0 10.037339869842981 644.78236329634819 0 0 0 0 124.96053703113262 226.02670634423885 0 226.02670634423885 368.14428829104872 0 0 0 0 38.474776777920852 -241.66040851689468 0 -241.66040851689468 501.9387436878751 0 0 0 0 100.30789195768375 131.96347886807052 0 131.96347886807052 596.49501903666533 0 0 0 0 556.29729755044605 370.68151978166043 0 370.68151978166043 659.65023994202784 0 0 0 0 75.127079837398924 772.58258795306756 0 772.58258795306756 1264.0198955406686 0 0 0 0 488.68755894844867 -394.33554021196483 0 -394.33554021196483 926.78162486653309 0 0 0 0 -135.17120759262798 163.39143899764895 0 163.39143899764895 882.77926603942615 0 0 0 0 32.00182781006697 191.3701878489519 0 191.3701878489519 592.10963715206526 0 0 0 0 -8.0522991211728367 202.52953866995813 0 202.52953866995813 601.23259527308983 0 0 0 0 64.092159864218047 239.24966900373693 0 239.24966900373693 392.10967357426125 0 0 0 0 42.737746737855559 282.94718934843695 0 282.94718934843695 665.98159509449033 0 0 0 0 196.1641805620111 249.23007613524533 0 249.23007613524533 396.99144553109591 0 0 0 0 62.136438335173807 102.64818113232468 0 102.64818113232468 727.90384683437514 0 0 0 0 47.089389694709098 309.45382513471122 0 309.45382513471122 1163.0831980303192 0 0 0 0 96.428864293720835 -252.09132901318662 0 -252.09132901318662 1198.4538299405167 0 0 0 0 -79.567704227502873 107.44020966781318 0 107.44020966781318 767.17373804096133 0 0 0 0 -0.5353175369255041 2.3215673772429 0 2.3215673772429 530.70331676868955 0 0 0 0 23.375585616440503 59.602793871169425 0 59.602793871169425 42.112333249118741 0 0 0 0 79.31355541872108 -84.152365431276849 0 -84.152365431276849 610.73761881193059 0 0 0 0 69.932963625296907 136.31487154444221 0 136.31487154444221 238.39173959971959 0 0 0 0 13.168657479735742 18.197918903989645 0 18.197918903989645 -27.487612916703057 0 0 0 0 19.305505755466847 145.72778850499179 0 145.72778850499179 77.327283685438289 0 0 0 0 108.77172311220784 136.10215275899827 0 136.10215275899827 333.98294029870885 0 0 0 0 26.695417845276097 104.16725226748531 0 104.16725226748531 326.47416249383605 0 0 0 0 41.68210988017745 140.86500495431937 0 140.86500495431937 406.82997234706272 0 0 0 0 45.226418865822779 103.46857677948356 0 103.46857677948356 388.84027635737948 0 0 0 0 29.444453536416404 66.992883797389368 0 66.992883797389368 270.15570004481197 0 0 0 0 38.174998520143845 167.02466568023908 0 167.02466568023908 297.74102021236286 0 0 0 0 19.786870355286091 103.01508410472809 0 103.01508410472809 113.58865342750687 0 0 0 0 47.968111823008257 310.80559469905347 0 310.80559469905347 133.75734407235723 0 0 0 0 -1.7761807404212959 101.82061622728179 0 101.82061622728179 327.57803896399855 0 0 0 0 32.329074017830862 107.42531024904019 0 107.42531024904019 256.75550721970376 0 0 0 0 10.038616175052709 146.47031153172139 0 146.47031153172139 47.725081123743763 0 0 0 0 184.6988897385836 -63.946222977763682 0 -63.946222977763682 -344.07454195653554 0 0 0 0 40.34317765065498 123.22123807248499 0 123.22123807248499 343.38209821301962 0 0 0 0 0.90312203604753449 91.698437057805677 0 91.698437057805677 335.56384264268127 0 0 0 0 14.68413838246488 100.96398895173934 0 100.96398895173934 327.40342116900683 0 0 0 0 57.462179466429006 114.7430530108013 0 114.7430530108013 383.62603840777956 0 0 0 0 7.2922334784316263 96.521380228191447 0 96.521380228191447 386.27972478822994 0 0 0 0 9.7236444614227366 86.750226383705922 0 86.750226383705922 386.11922554681223 0 0 0 0 34.145835662748141 124.43482196171954 0 124.43482196171954 386.2505406346354 0 0 0 0 55.054699894801161 162.20142936706907 0 162.20142936706907 471.56107721379885 0 0 0 0 68.185429906059653 172.37115572110815 0 172.37115572110815 427.52142996126122 0 0 0 0 42.169971553037612 81.854567753469382 0 81.854567753469382 409.90173581426279 0 0 0 0 -12.060767764189222 -4.1564292070888769 0 -4.1564292070888769 83.811216060126753 0 0 0 0 -12.233369245625873 -20.985520359547316 0 -20.985520359547316 41.931076288439698 0 0 0 0 1.5308229156871676 -5.3106882798101651 0 -5.3106882798101651 83.580010355222043 0 0 0 0 -15.847344857906904 -3.0754225662635601 0 -3.0754225662635601 32.295300958759157 0 0 0 0 -1.694829461997756 12.458347197875128 0 12.458347197875128 64.895975154970984 0 0 0 0 -8.8401615732415593 -25.767922433461695 0 -25.767922433461695 32.915619774621902 0 0 0 0 32.591154597372224 116.72849292026149 0 116.72849292026149 398.30813235081951 0 0 0 0 59.386718030058546 123.26311909598007 0 123.26311909598007 407.69788112108654 0 0 0 0 47.527715481017367 136.04910871814354 0 136.04910871814354 399.23497766135756 0 0 0 0 51.343108780598413 110.02995378319429 0 110.02995378319429 375.87207042892987 0 0 0 0 -39.343228421973492 -4.8338269013955255 0 -4.8338269013955255 163.91635219140881 0 0 0 0 -38.635898689220085 4.8550893408519187 0 4.8550893408519187 148.43077665249439 0 0 0 0 -30.830640557443985 -3.6774489942890796 0 -3.6774489942890796 154.90008370524447 0 0 0 0 -38.028305773036713 -48.556618733234579 0 -48.556618733234579 95.0942800325696 0 0 0 0 39.862737025374372 148.21867028640918 0 148.21867028640918 456.27937538710103 0 0 0 0 -0.71961112512606462 14.9729016440102 0 14.9729016440102 43.683772068412367 0 0 0 0 72.951819283953228 132.93721725318028 0 132.93721725318028 376.15184780684899 0 0 0 0 95.726213238333003 164.48611668321246 0 164.48611668321246 435.34722982582753 0 0 0 0 146.3523426578322 105.89091979586374 0 105.89091979586374 459.05377152995607 0 0 0 0 122.29522004583851 151.95768961447175 0 151.95768961447175 437.21973353782869 0 0 0 0 108.80067229285487 70.878045323814149 0 70.878045323814149 480.34502806220917 0 0 0 0 62.235963139908563 132.64687435533051 0 132.64687435533051 451.71129259976442 0 0 0 0 82.331148490920896 85.182107717650069 0 85.182107717650069 474.60134313468006 0 0 0 0 150.33715234270494 290.2564458347988 0 290.2564458347988 605.19424393889494 0 0 0 0 -52.219816656433977 75.821252395660849 0 75.821252395660849 626.49877305841073 0 0 0 0 -42.2344629005961 -47.759150804405806 0 -47.759150804405806 79.898880402953054 0 0 0 0 2.3030835580361089 -25.845194453260156 0 -25.845194453260156 -8.2827845816615024 0 0 0 0 -22.283283930918515 -19.144472983389278 0 -19.144472983389278 190.22387752108625 0 0 0 0 -10.226793384639677 -12.499545559814578 0 -12.499545559814578 144.40420290725888 0 0 0 0 -3.3050952092783916 3.0458727565132619 0 3.0458727565132619 25.483045100913607 0 0 0 0 -23.209149274336887 -17.065163938698788 0 -17.065163938698788 90.922320705454595 0 0 0 0 -15.930805207251069 -19.378108110369794 0 -19.378108110369794 81.687959946510091 0 0 0 0 -24.033555692775735 -25.682543741548216 0 -25.682543741548216 149.19597245396835 0 0 0 0 -19.861971672379923 -16.444497097209023 0 -16.444497097209023 94.222280023121129 0 0 0 0 -20.858600539677354 -4.1676802598194627 0 -4.1676802598194627 138.95149231634423 0 0 0 0 -33.41488672788978 -17.210580470807145 0 -17.210580470807145 96.282171723960346 0 0 0 0 -17.369544997473895 -12.954441576503086 0 -12.954441576503086 86.529107565139384 0 0 0 0 2.1564611313845368 -12.103766291353498 0 -12.103766291353498 74.312010113000099 0 0 0 0 -17.725555021565924 -9.6311081089243089 0 -9.6311081089243089 77.950625789653714 0 0 0 0 -1.6170494447456223 -14.53639353588062 0 -14.53639353588062 76.496655719151789 0 0 0 0 -23.743927592351383 -21.070327239605376 0 -21.070327239605376 89.700031177293567 0 0 0 0 -17.537752848990749 -11.031890060783553 0 -11.031890060783553 74.136334866550897 0 0 0 0 -66.557619546883188 28.417002480930364 0 28.417002480930364 133.09219467265984 0 0 0 0 9.7081468885444338 -3.3752434337338855 0 -3.3752434337338855 68.353151398041973 0 0 0 0 9.677841267385574 51.875491881329907 0 51.875491881329907 163.65821981896897 0 0 0 0 8.9138569227234257 -7.8124579639898002 0 -7.8124579639898002 63.460560165733114 0 0 0 0 4.4366546207277295 -17.130275558301438 0 -17.130275558301438 24.640302995302612 0 0 0 0 56.456508104876775 15.797626896911424 0 15.797626896911424 127.74850204963695 0 0 0 0 165.29001483177308 100.79483175627092 0 100.79483175627092 140.08944114391988 0 0 0 0 -60.136732406559531 19.573247439179795 0 19.573247439179795 207.56479774517356 0 0 0 0 -126.59207491236157 -35.664450181735447 0 -35.664450181735447 130.88377763510562 0 0 0 0 -66.225067488841887 -39.134248816478248 0 -39.134248816478248 77.03312969705803 0 0 0 0 -38.28309957741476 -57.875739889451324 0 -57.875739889451324 33.208001306482402 0 0 0 0 -36.429665275683874 -60.270978462391213 0 -60.270978462391213 11.490987841196556 0 0 0 0 -1.3762693993986455 -8.5481660419483809 0 -8.5481660419483809 71.923852673911483 0 0 0 0 -58.200268063847034 -95.779376432550634 0 -95.779376432550634 13.298921412202617 0 0 0 0 -52.699287509873102 -72.599757322423102 0 -72.599757322423102 78.084501391192987 0 0 0 0 -247.23451874082457 -389.78795385004332 0 -389.78795385004332 5.44369162863768 0 0 0 0 -28.286225113807852 12.162923693693465 0 12.162923693693465 71.858952702309026 0 0 0 0 -69.117774434804232 50.333430121794891 0 50.333430121794891 306.41417821091818 0 0 0 0 -130.85814020641556 -94.958123569862437 0 -94.958123569862437 123.74824060101491 0 0 0 0 -67.103746809084896 -36.316813058986554 0 -36.316813058986554 110.71507016568285 0 0 0 0 -33.212329955287487 -40.59404096649223 0 -40.59404096649223 107.23169989208645 0 0 0 0 -125.42859584531107 -271.56476563152683 0 -271.56476563152683 131.39790684245236 0 0 0 0 349.81869549165185 310.27068278386469 0 310.27068278386469 334.29360968545006 0 0 0 0 -6.7036424300886033 -2.7620447159376393 0 -2.7620447159376393 14.148825060639727 0 0 0 0 -13.645355795474188 -290.85346485948776 0 -290.85346485948776 -568.10895441345019 0 0 0 0 -18.566797959859983 31.038514515819543 0 31.038514515819543 49.590224450371167 0 0 0 0 -135.34402599227542 -335.034358559049 0 -335.034358559049 53.944044346953888 0 0 0 0 -126.31287359642988 -241.67438626968033 0 -241.67438626968033 187.29089912210475 0 0 0 0 -2.2728405973112955 10.097335607312809 0 10.097335607312809 3.4439017959210503 0 0 0 0 -8.9006626874615904 -11.354231341905688 0 -11.354231341905688 97.145631701489037 0 0 0 0 404.09289407346841 187.73982951340804 0 187.73982951340804 62.75942104565911 0 0 0 0 -11.727213825412171 20.59893843050039 0 20.59893843050039 47.54204336501131 0 0 0 0 -9.0514551473961546 -8.0335014966149174 0 -8.0335014966149174 76.346178186002362 0 0 0 0 -36.879018258811442 28.040950454205813 0 28.040950454205813 77.796984953616629 0 0 0 0 -3.5270557820590924 2.5883591378369069 0 2.5883591378369069 76.16212201663113 0 0 0 0 -34.280114798207251 -3.7696776643770136 0 -3.7696776643770136 88.150019088345289 0 0 0 0 -16.964598449229015 3.4743940252355969 0 3.4743940252355969 78.737446536397329 0 0 0 0 -2.2286865869132719 -2.861767448844283 0 -2.861767448844283 86.562938508712506 0 0 0 0 -30.327600268441984 -5.3511116299541754 0 -5.3511116299541754 83.116424828842355 0 0 0 0 0.58606196131040633 0.021951218568574404 0 0.021951218568574404 79.898601574161148 0 0 0 0 -10.508888895930795 -8.237205432717019 0 -8.237205432717019 75.871980755213372 0 0 0 0 -103.07770297700225 130.3286072571027 0 130.3286072571027 174.08755236495927 0 0 0 0 -49.53847838991129 139.50426155120658 0 139.50426155120658 37.3412301758799 0 0 0 0 -109.93334395071849 168.94061372963188 0 168.94061372963188 112.34983267006464 0 0 0 0 -123.92026287922609 -28.226031134083996 0 -28.226031134083996 155.07553103093232 0 0 0 0 86.265914358111786 28.342787108580524 0 28.342787108580524 36.278184182127006 0 0 0 0 44.828005276128124 53.631096011786212 0 53.631096011786212 182.68253412221384 0 0 0 0 98.305570871254986 114.71897308601774 0 114.71897308601774 175.40450102491741 0 0 0 0 30.299959432355536 66.835167190176435 0 66.835167190176435 213.62730854196707 0 0 0 0 -94.349137354292907 -49.651198468036455 0 -49.651198468036455 697.03651245970832 0 0 0 0 48.436095761152956 1.8735905435241875 0 1.8735905435241875 230.91121156373083 0 0 0 0 -0.2785200937355512 14.405897920471034 0 14.405897920471034 373.23383943767112 0 0 0 0 -104.99117694454662 135.80356404983468 0 135.80356404983468 424.31875761400988 0 0 0 0 -11.993106348098109 71.901175220351433 0 71.901175220351433 184.66380249646318 0 0 0 0 87.169371288342518 -44.292592455007252 0 -44.292592455007252 327.001254330542 0 0 0 0 -76.500691818927351 42.91660146357026 0 42.91660146357026 331.52568237099331 0 0 0 0 -4.6283105313966075 -0.60942078225343721 0 -0.60942078225343721 226.95378013621121 0 0 0 0 -70.474326372645393 84.713023887226882 0 84.713023887226882 152.53959922099352 0 0 0 0 -73.139395075573532 76.763906631509599 0 76.763906631509599 260.03621402482167 0 0 0 0 -91.124426258214612 -20.150559423018422 0 -20.150559423018422 147.5971879824217 0 0 0 0 -7.8407679473685077 5.425642015755713 0 5.425642015755713 130.40454324464881 0 0 0 0 -115.3936871951732 68.816538668398039 0 68.816538668398039 156.02880928405648 0 0 0 0 -34.974987665045688 81.875118069416203 0 81.875118069416203 138.29655656949035 0 0 0 0 -33.71478137972926 85.895483556960244 0 85.895483556960244 100.72463984558999 0 0 0 0 -14.278072514502981 39.473763947222324 0 39.473763947222324 124.32534164253957 0 0 0 0 33.793958324769051 13.999654708066373 0 13.999654708066373 90.22967821466591 0 0 0 0 -6.0070807063077512 1.4815176116623405 0 1.4815176116623405 19.865683700938433 0 0 0 0 -20.112950141355611 63.253159517335007 0 63.253159517335007 29.111508607796623 0 0 0 0 -10.969157831948905 18.201810547303467 0 18.201810547303467 70.516518082698894 0 0 0 0 -8.8767719894347792 30.750177119275733 0 30.750177119275733 31.172035083197883 0 0 0 0 -21.836981594044119 0.87098089652681665 0 0.87098089652681665 86.288024046243663 0 0 0 0 -13.976342436305202 19.548022361577871 0 19.548022361577871 76.203449078897819 0 0 0 0 -15.522520051581893 -3.2617807481949868 0 -3.2617807481949868 51.425652605097071 0 0 0 0 -7.6945486572785349 -2.5970311327121305 0 -2.5970311327121305 93.970965602301348 0 0 0 0 -5.5263714610919124 9.9478958889412752 0 9.9478958889412752 78.142853251432825 0 0 0 0 0.78578558499617657 -12.698952829348002 0 -12.698952829348002 65.048469029090484 0 0 0 0 -1.4327837021296297 -13.693503119659656 0 -13.693503119659656 23.865184669874406 0 0 0 0 16.852986036799848 63.135055317947263 0 63.135055317947263 288.31222023874943 0 0 0 0 -0.32025385048021648 -10.953970469647505 0 -10.953970469647505 39.881961167063395 0 0 0 0 83.181780503960908 193.79058167344192 0 193.79058167344192 323.37763367632579 0 0 0 0 0.76863422175796536 -9.8392354312386736 0 -9.8392354312386736 -0.33181793060943221 0 0 0 0 6.4338829982152674 -6.7713845746402512 0 -6.7713845746402512 168.33667026463445 0 0 0 0 -13.532919882651512 -8.4503458961381206 0 -8.4503458961381206 24.165300679369111 0 0 0 0 -22.489406817354393 89.528055351953299 0 89.528055351953299 330.33291749360797 0 0 0 0 -16.672867817687688 -3.8480063090646581 0 -3.8480063090646581 400.97509486138733 0 0 0 0 0.58582055944633282 3.0395349263042988 0 3.0395349263042988 -4.0839366249733615 0 0 0 0 134.83763662880892 76.262223961297423 0 76.262223961297423 6.5562015604245971 0 0 0 0 -18.745752918386859 27.368004675706779 0 27.368004675706779 -11.424533229689565 0 0 0 0 -168.43613475720213 142.87225274147204 0 142.87225274147204 154.79699544563482 0 0 0 0 79.786876269890797 154.67652245854606 0 154.67652245854606 91.179200297825446 0 0 0 0 -22.158205076782394 81.283652043228358 0 81.283652043228358 238.86271820445836 0 0 0 0 35.768908100374972 -104.60552351980368 0 -104.60552351980368 213.97458458397887 0 0 0 0 -70.567096192286954 -80.217878779505554 0 -80.217878779505554 350.64942606344903 0 0 0 0 -105.52961201144376 -108.9473790468528 0 -108.9473790468528 360.8674897861456 0 0 0 0 -11.129052691171637 26.555855039008748 0 26.555855039008748 344.80947232329163 0 0 0 0 135.37809521177087 41.752711911873121 0 41.752711911873121 344.90716256540327 0 0 0 0 19.152199689629924 99.717037882979639 0 99.717037882979639 372.18939362858691 0 0 0 0 14.630953408025562 62.258197800000744 0 62.258197800000744 375.97837916153003 0 0 0 0 -46.139923297394489 58.899891151619158 0 58.899891151619158 376.3947712736865 0 0 0 0 -44.156264976149032 44.882920065745566 0 44.882920065745566 443.71562691149666 0 0 0 0 -60.998622051764414 11.606874344981406 0 11.606874344981406 388.46303339265069 0 0 0 0 -58.863000806302409 -10.038018380404083 0 -10.038018380404083 560.57319715065387 0 0 0 0 -54.585734391103131 62.514455708242167 0 62.514455708242167 472.10574125457606 0 0 0 0 10.602851596398978 96.311967130572157 0 96.311967130572157 375.19187973703447 0 0 0 0 23.98798326603719 66.752441000680847 0 66.752441000680847 348.96549912519185 0 0 0 0 83.555622964162467 104.95115141869064 0 104.95115141869064 361.24954787232855 0 0 0 0 -10.577586045867065 86.890529497166426 0 86.890529497166426 376.78327911713131 0 0 0 0 18.217467599071824 84.767407264914254 0 84.767407264914254 372.91473822027183 0 0 0 0 -32.686714902961285 73.370851046229291 0 73.370851046229291 382.28821206225984 0 0 0 0 -12.712812347239378 85.395688397662525 0 85.395688397662525 381.28153723514629 0 0 0 0 -9.5973677496513119 73.931959062403621 0 73.931959062403621 332.9882696407517 0 0 0 0 -18.14501109280809 82.138828207237566 0 82.138828207237566 381.87151019227531 0 0 0 0 -31.668658175750352 89.018998438979906 0 89.018998438979906 378.99002164888134 0 0 0 0 -28.141113666578804 77.707352210403315 0 77.707352210403315 394.7074317170227 0 0 0 0 -16.363737010873592 79.276336036582506 0 79.276336036582506 381.33145190791038 0 0 0 0 -12.820081193733131 86.04471692523839 0 86.04471692523839 373.22296909023976 0 0 0 0 11.580241193682014 97.149152950132702 0 97.149152950132702 371.53116078973471 0 0 0 0 -9.9873385605228577 88.326563890040688 0 88.326563890040688 343.77599896907486 0 0 0 0 -29.093427151874124 97.808330424316694 0 97.808330424316694 326.4238205357251 0 0 0 0 -31.485619223642061 116.4607121362842 0 116.4607121362842 333.66377870173528 0 0 0 0 -4.420863076303327 143.75083473762604 0 143.75083473762604 48.517832440173976 0 0 0 0 2.9647751837110263 109.11674007763395 0 109.11674007763395 260.55177808586677 0 0 0 0 -65.635596503447687 135.74816276701767 0 135.74816276701767 408.33883840657654 0 0 0 0 -113.26194855120184 197.01436888663739 0 197.01436888663739 428.57681909827261 0 0 0 0 -100.1514806106037 118.17127407715725 0 118.17127407715725 535.94390548709271 0 0 0 0 -40.819547993221022 119.3948589353331 0 119.3948589353331 351.90153918005308 0 0 0 0 -55.929480428803799 117.81358785551129 0 117.81358785551129 428.79787093378127 0 0 0 0 2.497291392893203 159.77760945777845 0 159.77760945777845 221.87330706607327 0 0 0 0 -55.294176800697414 195.23312305530453 0 195.23312305530453 337.57820838867156 0 0 0 0 -16.521342816997837 16.235613522644599 0 16.235613522644599 47.1607324264886 0 0 0 0 4.8073534283222727 175.43853836697963 0 175.43853836697963 327.97982489404967 0 0 0 0 -63.7189419737565 369.06215750978299 0 369.06215750978299 333.77393443014807 0 0 0 0 -127.08313281270694 -102.07366905870549 0 -102.07366905870549 160.83370519968958 0 0 0 0 -1.6077481996329546 -23.821816763954132 0 -23.821816763954132 48.364848131776888 0 0 0 0 -115.91436343182397 -39.35596600640406 0 -39.35596600640406 113.22046883198345 0 0 0 0 -110.86167461089433 25.187406217237992 0 25.187406217237992 592.70985429838765 0 0 0 0 161.3826661722926 77.036048346896678 0 77.036048346896678 467.35512911070873 0 0 0 0 242.55437697756182 750.51395190887752 0 750.51395190887752 1436.2359061374918 0 0 0 0 7.7843119139881924 -7.7949998669962284 0 -7.7949998669962284 12.381699008212948 0 0 0 0 309.26143326001147 -222.31617327656568 0 -222.31617327656568 -30.789705175777726 0 0 0 0 -4.0311047943137055 -77.216752663742227 0 -77.216752663742227 -40.911675413619378 0 0 0 0 -25.620668435421976 -151.14215949046775 0 -151.14215949046775 137.19182087247282 0 0 0 0 -11.009580727774846 -111.66928791772443 0 -111.66928791772443 231.18559342861045 0 0 0 0 -10.825302609321 26.973246626034204 0 26.973246626034204 266.98166435622397 0 0 0 0 -643.2193930852186 -180.61064141264796 0 -180.61064141264796 290.01330736828822 0 0 0 0 -1338.4232033747992 231.67507331590241 0 231.67507331590241 540.11037312101689 0 0 0 0 83.988686033438626 -485.80864880748322 0 -485.80864880748322 376.88183039615433 0 0 0 0 777.10383650620315 440.72513002337291 0 440.72513002337291 -197.88893734631529 0 0 0 0 -1271.8360490598709 419.87968349785251 0 419.87968349785251 1160.0623696853254 0 0 0 0 -13.41543452273296 20.082122563788499 0 20.082122563788499 242.54099467088585 0 0 0 0 -381.2288402173233 -228.89418755951192 0 -228.89418755951192 247.17631962778978 0 0 0 0 5.8786115146604061 -174.14086578754359 0 -174.14086578754359 253.50557758176728 0 0 0 0 -900.85840872714107 702.58325068961858 0 702.58325068961858 204.16823060475872 0 0 0 0 -14.273838639814162 13.005667882062031 0 13.005667882062031 203.36901192705167 0 0 0 0 -137.9436206928367 794.53953645086949 0 794.53953645086949 -166.87461208304376 0 0 0 0 409.67285774715515 0.29255812375959067 0 0.29255812375959067 142.03866283815478 0 0 0 0 552.95482493594955 116.29637970192016 0 116.29637970192016 -225.79928750830732 0 0 0 0 -319.82449545867166 -246.36933151459016 0 -246.36933151459016 311.10743544846628 0 0 0 0 -97.095633278917376 -190.63762411891457 0 -190.63762411891457 -31.363423290200444 0 0 0 0 -1.3796679501983968 1.8766150885519224 0 1.8766150885519224 -3.2146405243414193 0 0 0 0 -218.28180571231564 -41.917532301861684 0 -41.917532301861684 721.66671431176655 0 0 0 0 -34.903693183456596 157.42892446286578 0 157.42892446286578 640.48562109174236 0 0 0 0 772.54619102684092 -580.81556028156956 0 -580.81556028156956 767.00782030738992 0 0 0 0 -46.406208040421916 -291.29679918370675 0 -291.29679918370675 1076.7559933241428 0 0 0 0 -100.64653811707012 -16.400983657673351 0 -16.400983657673351 610.62358371276059 0 0 0 0 -203.74406092872687 -405.3205752920112 0 -405.3205752920112 1062.8139477375225 0 0 0 0 -256.6586032690193 -726.05170596153039 0 -726.05170596153039 1975.1661978881166 0 0 0 0 -118.02492362261728 -410.52804195107456 0 -410.52804195107456 831.76149592994898 0 0 0 0 67.631273538790538 571.52091146865132 0 571.52091146865132 2122.9096353383502 0 0 0 0 13.143146471434829 -9.2476160288515246 0 -9.2476160288515246 7.8084702043928758 0 0 0 0 845.73297256318244 -522.94791693051957 0 -522.94791693051957 -58.717136895909789 0 0 0 0 978.12018019171865 -582.92376983299619 0 -582.92376983299619 384.29543323668258 0 0 0 0 -535.41939764463405 -773.94020222254767 0 -773.94020222254767 1743.3286816330801 0 0 0 0 120.11271865281742 1161.1914966821641 0 1161.1914966821641 254.1764593947446 0 0 0 0 126.94453057742703 -553.41445527958422 0 -553.41445527958422 452.18035246559157 0 0 0 0 0.90617522095351433 -214.12194047708726 0 -214.12194047708726 165.21838660436333 0 0 0 0 -7.6552407637755095 -172.54346581918435 0 -172.54346581918435 57.217391609359765 0 0 0 0 -32.011488600921439 -160.59681868392363 0 -160.59681868392363 51.992827241730993 0 0 0 0 17.439869537240156 -189.33972077436192 0 -189.33972077436192 -79.428772700495756 0 0 0 0 66.224272142253312 -258.58020993324408 0 -258.58020993324408 1.6224357977043837 0 0 0 0 31.76283763975983 -27.912795092347579 0 -27.912795092347579 24.865799718723565 0 0 0 0 -32.93408829727332 -150.96807417490254 0 -150.96807417490254 -23.526734199083876 0 0 0 0 -17.587867421603733 -201.21949100472921 0 -201.21949100472921 -21.923697190315579 0 0 0 0 -77.36453173935115 -114.37011409232946 0 -114.37011409232946 52.623909652578732 0 0 0 0 46.813515413181705 -42.913049291885955 0 -42.913049291885955 42.752337132152661 0 0 0 0 -74.942107493354342 -104.9794817912034 0 -104.9794817912034 53.332640847482253 0 0 0 0 85.398723064288788 -104.82282450728235 0 -104.82282450728235 61.146351084140406 0 0 0 0 -29.885921082508503 10.827600191332749 0 10.827600191332749 610.3602272659441 0 0 0 0 149.5204793270359 -57.084314095576701 0 -57.084314095576701 66.199004896508995 0 0 0 0 -186.63188765906852 -6.579357617021742 0 -6.579357617021742 41.41608424009064 0 0 0 0 25.559932484774436 -90.271297144327036 0 -90.271297144327036 71.411044654611032 0 0 0 0 -101.8972655777543 -110.08229377881071 0 -110.08229377881071 100.99885327386437 0 0 0 0 -105.11477107169776 -90.439806300390046 0 -90.439806300390046 68.223465601397038 0 0 0 0 -85.520693743867014 -137.66042671315518 0 -137.66042671315518 67.737680025682494 0 0 0 0 -105.00306430294222 -117.27659937801945 0 -117.27659937801945 101.53732658682566 0 0 0 0 -102.14924713104938 -112.5784226754331 0 -112.5784226754331 89.508188570594939 0 0 0 0 -220.34743765530766 -109.61992305716558 0 -109.61992305716558 121.23336866419777 0 0 0 0 -13.275767576296118 -188.50719903149366 0 -188.50719903149366 90.423526947146456 0 0 0 0 -69.374530558285983 -174.4187538055703 0 -174.4187538055703 124.69467915757559 0 0 0 0 -119.92480215728324 -127.47206362597899 0 -127.47206362597899 132.1882281206199 0 0 0 0 55.393458380656739 -144.34025520394061 0 -144.34025520394061 103.21099723407679 0 0 0 0 31.883363155847746 -121.25420172658596 0 -121.25420172658596 126.78632656944683 0 0 0 0 114.56288471780954 -333.27048799370095 0 -333.27048799370095 -28.445903992032981 0 0 0 0 -275.18786922667618 -628.78938629584627 0 -628.78938629584627 476.69565993917058 0 0 0 0 742.08397210230942 -248.43548596198889 0 -248.43548596198889 -19.08922899353729 0 0 0 0 -820.57755811403877 214.0720329673095 0 214.0720329673095 147.62677503423129 0 0 0 0 -137.14514029242855 -140.59343096244993 0 -140.59343096244993 49.79500472752261 0 0 0 0 -173.65020230892605 -157.77655420484371 0 -157.77655420484371 120.95620530605447 0 0 0 0 327.54838290164128 -255.01295085530774 0 -255.01295085530774 163.93952994394203 0 0 0 0 -20.852805850813908 -8.2065000638553585 0 -8.2065000638553585 16.499085247670934 0 0 0 0 99.698028797007282 -160.28150040024775 0 -160.28150040024775 199.05189184228948 0 0 0 0 315.37053435317421 -168.02190150327806 0 -168.02190150327806 35.496056762523949 0 0 0 0 -33.374592032360788 -19.929385164641715 0 -19.929385164641715 0.38070512403666612 0 0 0 0 227.38509400820658 -417.89629520654125 0 -417.89629520654125 99.103541522570595 0 0 0 0 13.724354187410881 259.98306145903734 0 259.98306145903734 -64.856629378015896 0 0 0 0 -273.01191551021907 -21.540977386548093 0 -21.540977386548093 132.79750195695669 0 0 0 0 -9.0179279680065072 17.035085413768407 0 17.035085413768407 -2.0680432410748182 0 0 0 0 -79.204075515643126 -82.697208301106002 0 -82.697208301106002 71.58979638342862 0 0 0 0 43.887026354240788 131.90243085100155 0 131.90243085100155 47.10224689484312 0 0 0 0 -225.84330188104605 143.9885813644305 0 143.9885813644305 68.991217822978797 0 0 0 0 -10.588698646555486 166.78379154607501 0 166.78379154607501 158.35229644163519 0 0 0 0 -20.420878194579473 92.770250097369171 0 92.770250097369171 -116.8062584645304 0 0 0 0 -314.45159268845464 88.883879104419975 0 88.883879104419975 69.846219609964464 0 0 0 0 -0.65870540002902089 -135.29477931702604 0 -135.29477931702604 183.60993987973779 0 0 0 0 60.946020033481545 -110.35074811738741 0 -110.35074811738741 193.68571538601827 0 0 0 0 163.35081779269058 -33.526186683193373 0 -33.526186683193373 135.97065240789379 0 0 0 0 122.88338942946939 -114.45005682868941 0 -114.45005682868941 20.414022563461913 0 0 0 0 -11.044741196144999 -5.239082441727593 0 -5.239082441727593 161.03275824984459 0 0 0 0 159.02196624757198 -44.947722500175587 0 -44.947722500175587 125.77391151287884 0 0 0 0 150.5090545085859 -39.68948337376969 0 -39.68948337376969 144.20648684547632 0 0 0 0 99.309300136659658 17.735940281130752 0 17.735940281130752 138.83229055353877 0 0 0 0 153.04392786076096 -29.849774600614182 0 -29.849774600614182 155.30829059912503 0 0 0 0 8.1903478151662785 -26.646490783721276 0 -26.646490783721276 105.28829207432355 0 0 0 0 366.42496025204946 -19.895266597151931 0 -19.895266597151931 54.516895018990908 0 0 0 0 644.13745381248737 266.71212149143685 0 266.71212149143685 148.71145597317809 0 0 0 0 152.29229615499753 54.472217380731308 0 54.472217380731308 81.677583658325602 0 0 0 0 12.788843441892183 -0.2034738223496646 0 -0.2034738223496646 -2.3935622535058343 0 0 0 0 150.47055489667491 26.013433076004276 0 26.013433076004276 121.52411155038862 0 0 0 0 156.1373426980258 153.7956969668885 0 153.7956969668885 217.87135111400858 0 0 0 0 9.476142915278281 -6.0150536403160473 0 -6.0150536403160473 25.426265774068185 0 0 0 0 21.74766380823894 -7.9788507572375238 0 -7.9788507572375238 87.799644147293293 0 0 0 0 23.263465146385627 -6.951866434808494 0 -6.951866434808494 17.213068664480986 0 0 0 0 52.202295476399286 130.89171469920984 0 130.89171469920984 188.46775126776993 0 0 0 0 188.34864991379163 183.2824714925955 0 183.2824714925955 208.59944035971421 0 0 0 0 -79.204075515643353 -82.697208301104183 0 -82.697208301104183 71.589796383414068 0 0 0 0 -79.204075515638579 -82.697208301106002 0 -82.697208301106002 71.589796383432258 0 0 0 0 0.29159347121556323 15.855613766733057 0 15.855613766733057 -2.2465068343689936 0 0 0 0 -70.518701691978094 103.39249203480813 0 103.39249203480813 172.0877069197013 0 0 0 0 -7.3967252157128023 21.016711469728037 0 21.016711469728037 -21.612847552271958 0 0 0 0 -16.533364503728535 110.35746022323292 0 110.35746022323292 234.90276676177018 0 0 0 0 -69.62969057681039 194.60247121285647 0 194.60247121285647 258.83334519284108 0 0 0 0 45.145043982672632 160.6657173876265 0 160.6657173876265 266.98997199452424 0 0 0 0 -371.87814268943339 189.55372297161739 0 189.55372297161739 305.60311384258239 0 0 0 0 -55.795979593737457 120.90499959148292 0 120.90499959148292 204.18122304129065 0 0 0 0 2.0283568488366654 218.2384356359762 0 218.2384356359762 333.7812601175101 0 0 0 0 24.122238605204984 120.1204614876915 0 120.1204614876915 261.15743928453594 0 0 0 0 0.90286521806554276 120.19121061531541 0 120.19121061531541 -3.8020529513305519 0 0 0 0 -80.235939636904277 -290.54203508721548 0 -290.54203508721548 749.94471007965694 0 0 0 0 -8.4618847992809947 -58.378010968487388 0 -58.378010968487388 476.37037525995402 0 0 0 0 93.087826703482733 -261.66793755412436 0 -261.66793755412436 210.47547225792368 0 0 0 0 -29.138689654732843 -1.9082021688882378 0 -1.9082021688882378 543.7289964177653 0 0 0 0 -40.594610468777319 -3.8589042858584435 0 -3.8589042858584435 571.3007227529597 0 0 0 0 25.72685215389356 147.35978850274114 0 147.35978850274114 638.53367055363196 0 0 0 0 74.701204577736917 156.37850896907912 0 156.37850896907912 251.37718424688501 0 0 0 0 220.38233017852599 299.11699962473358 0 299.11699962473358 367.76371771525737 0 0 0 0 264.46395958372818 208.48968182275894 0 208.48968182275894 192.41232620782102 0 0 0 0 721.24924316814395 -512.4199916640282 0 -512.4199916640282 345.8306343912227 0 0 0 0 1.8468745960413138 -2.9693281245178298 0 -2.9693281245178298 8.7887090166339021 0 0 0 0 598.56853183857584 614.03986250916932 0 614.03986250916932 658.98589940265083 0 0 0 0 -0.70346384647473315 -683.25071879214374 0 -683.25071879214374 577.79728053467261 0 0 0 0 212.70863464782212 -401.06363511390191 0 -401.06363511390191 860.90004428356769 0 0 0 0 59.219017074626663 -20.353063604736235 0 -20.353063604736235 34.324701246798213 0 0 0 0 999.50807795184176 587.19271892538882 0 587.19271892538882 -572.74558772650198 0 0 0 0 218.74555761189436 -765.55989135415621 0 -765.55989135415621 473.07390142493387 0 0 0 0 -1.5910512830840844 164.07612138366403 0 164.07612138366403 1149.6458883431405 0 0 0 0 647.08900625478327 -443.62092945338372 0 -443.62092945338372 443.87282528880314 0 0 0 0 374.13872436382144 299.38046520563512 0 299.38046520563512 390.93737193749257 0 0 0 0 -199.59981765755265 -12.039029557130561 0 -12.039029557130561 224.00693314152159 0 0 0 0 -287.39430415565243 1003.9891227157077 0 1003.9891227157077 -192.34049629241781 0 0 0 0 -1.8411992522761271 2.9797924933627655 0 2.9797924933627655 11.222385176351168 0 0 0 0 23.266448462104108 -216.20059810654129 0 -216.20059810654129 595.89772743743742 0 0 0 0 -38.121865977571815 -16.193326362976222 0 -16.193326362976222 104.91599370813492 0 0 0 0 -174.8164309699423 -32.274615645594167 0 -32.274615645594167 124.93771059615392 0 0 0 0 -53.858744350918187 -79.938299586021458 0 -79.938299586021458 15.336037600900454 0 0 0 0 251.31387223449428 -605.82942199644094 0 -605.82942199644094 652.69938827777514 0 0 0 0 76.105303865127439 -284.28826038641091 0 -284.28826038641091 583.56901497646322 0 0 0 0 -159.66372149440258 335.58786586981296 0 335.58786586981296 -94.957001151240547 0 0 0 0 -3.120028903245883 -0.57819634417158738 0 -0.57819634417158738 1.0880799814426467 0 0 0 0 49.051889239795855 -62.342086159344035 0 -62.342086159344035 384.6097905822644 0 0 0 0 47.387832698140755 -77.009094618410472 0 -77.009094618410472 257.33762177353492 0 0 0 0 68.275418040426416 -119.10580548840699 0 -119.10580548840699 189.17186000006041 0 0 0 0 302.21188434328616 -176.46797398708986 0 -176.46797398708986 139.73984216588724 0 0 0 0 238.4549989944951 -219.48131334368372 0 -219.48131334368372 238.34559632369201 0 0 0 0 277.38164725807985 -198.12169079918294 0 -198.12169079918294 369.35271310016105 0 0 0 0 -743.14409709579922 1182.5239415109863 0 1182.5239415109863 102.31256762712792 0 0 0 0 -9.0204303661429854 2.9971415093674096 0 2.9971415093674096 21.969204997648916 0 0 0 0 449.5959899931384 -647.91517015339923 0 -647.91517015339923 1011.4232216695891 0 0 0 0 -62.615761362336514 -405.67611465758091 0 -405.67611465758091 1151.0120709740695 0 0 0 0 -117.99998868938985 -127.54709788044784 0 -127.54709788044784 936.21605208914116 0 0 0 0 161.72265319278551 99.05300587810143 0 99.05300587810143 115.76474600397341 0 0 0 0 -0.78366899594838824 1.7191305213937369 0 1.7191305213937369 5.2040811995152296 0 0 0 0 249.17068333501288 -285.28426091387882 0 -285.28426091387882 364.37811346703938 0 0 0 0 198.57510219055575 -40.890707081685832 0 -40.890707081685832 892.21638687681116 0 0 0 0 201.96820767528186 -190.06088692499412 0 -190.06088692499412 482.68706312927679 0 0 0 0 63.494199167630086 228.57157762500356 0 228.57157762500356 501.52127600961103 0 0 0 0 -97.829255422987444 5.8339526209965697 0 5.8339526209965697 731.38352598199708 0 0 0 0 -106.45426655335677 50.13178234564657 0 50.13178234564657 504.09828690564609 0 0 0 0 -97.025480077218162 -45.386597689786868 0 -45.386597689786868 226.09515206542346 0 0 0 0 17.106433234973338 30.966452031108929 0 30.966452031108929 258.68724308598394 0 0 0 0 -46.537299168591971 1.6063295871158516 0 1.6063295871158516 315.99121383865713 0 0 0 0 54.7371309317179 -67.04619541984539 0 -67.04619541984539 160.43952896459086 0 0 0 0 182.57579126414817 249.80842990314341 0 249.80842990314341 389.81609174415644 0 0 0 0 -13.432025265393122 -69.508526503941539 0 -69.508526503941539 170.94054999099899 0 0 0 0 -22.378340815184856 -115.4958929526656 0 -115.4958929526656 161.69220453173693 0 0 0 0 4.8364324946530814 -91.185974465548497 0 -91.185974465548497 157.53448169825424 0 0 0 0 0.95885354708882531 3.7088470978215469 0 3.7088470978215469 7.2715716193023638 0 0 0 0 14.467337981152539 -101.93582094678823 0 -101.93582094678823 163.94057570823497 0 0 0 0 27.235244441642408 -75.902430985113824 0 -75.902430985113824 144.84052672266262 0 0 0 0 98.724922186483894 -126.93846534040063 0 -126.93846534040063 117.6552541326746 0 0 0 0 97.339754377239046 9.4648317362152738 0 9.4648317362152738 156.8597621429725 0 0 0 0 79.781445677172314 -129.39197942064129 0 -129.39197942064129 160.2306411417303 0 0 0 0 -3.3017120737276855 -139.88521899458556 0 -139.88521899458556 14.531816958173295 0 0 0 0 -230.55356132371071 -26.784611188717463 0 -26.784611188717463 115.64776777435327 0 0 0 0 -5.6546002752793356 -95.091766510427988 0 -95.091766510427988 135.08591601691296 0 0 0 0 -46.992573405481835 63.69237466929917 0 63.69237466929917 38.887704794597084 0 0 0 0 198.55956385537593 -146.18819796565367 0 -146.18819796565367 151.4386413791708 0 0 0 0 36.467334984265108 -169.88429069338963 0 -169.88429069338963 152.43421968366965 0 0 0 0 80.757017882642685 -105.07943003718628 0 -105.07943003718628 123.36887874964305 0 0 0 0 -29.513248755912173 -44.0669248323793 0 -44.0669248323793 68.451395727905037 0 0 0 0 -82.238197172889613 -60.808922265008732 0 -60.808922265008732 151.79369046307693 0 0 0 0 -30.842284951177231 -165.28787049061705 0 -165.28787049061705 261.82600230698154 0 0 0 0 151.1967693949864 -205.16614399902755 0 -205.16614399902755 144.57599153560659 0 0 0 0 149.42494642953466 -214.96828861161339 0 -214.96828861161339 130.61739095987286 0 0 0 0 533.63913950754386 -182.40609895803391 0 -182.40609895803391 46.518710987184022 0 0 0 0 371.10142522699971 -395.70885883024675 0 -395.70885883024675 277.57984021876473 0 0 0 0 194.55757457295908 -17.911371808131662 0 -17.911371808131662 -25.950842621614356 0 0 0 0 1.0010013611397999 2.732160146072907 0 2.732160146072907 5.4913144675917351 0 0 0 0 243.27434092816407 -218.51349973783363 0 -218.51349973783363 108.79910728500727 0 0 0 0 265.41801662009493 -104.72332349894714 0 -104.72332349894714 105.37384481227491 0 0 0 0 -0.1988285189051755 0.77029335347812378 0 0.77029335347812378 2.8667668593462281 0 0 0 0 180.63396233716139 -183.12218313220728 0 -183.12218313220728 93.973692834719259 0 0 0 0 103.64505212926571 -160.2324088877333 0 -160.2324088877333 179.18291226072324 0 0 0 0 116.46907780325171 -105.12475548834118 0 -105.12475548834118 156.8380906272414 0 0 0 0 148.74921067450339 -183.07258971651754 0 -183.07258971651754 331.91628902150842 0 0 0 0 130.23047519977717 -61.444474102629101 0 -61.444474102629101 361.53595637896069 0 0 0 0 91.582827689009719 -136.83423886635501 0 -136.83423886635501 220.08056238857534 0 0 0 0 82.980855996163882 -116.8339192528565 0 -116.8339192528565 168.5924917505472 0 0 0 0 72.237156877786219 -124.78287815329531 0 -124.78287815329531 226.02521594560676 0 0 0 0 56.440127346837471 -106.94864365986359 0 -106.94864365986359 314.73092820014426 0 0 0 0 52.64506072403401 -144.83537548365348 0 -144.83537548365348 231.4160600125324 0 0 0 0 32.731765545740927 -125.08745446697139 0 -125.08745446697139 332.65139242254941 0 0 0 0 78.346184178197518 -166.29051542578236 0 -166.29051542578236 221.66794475710776 0 0 0 0 29.82790883742382 -75.069299161779782 0 -75.069299161779782 167.36182347609792 0 0 0 0 30.78288530716236 -114.22209658179054 0 -114.22209658179054 232.06419755770116 0 0 0 0 52.083081856458193 -127.896351645697 0 -127.896351645697 178.81474090975098 0 0 0 0 23.821988427639553 -125.55800760205602 0 -125.55800760205602 174.47504669947739 0 0 0 0 -0.28051269928732836 -56.055060452926227 0 -56.055060452926227 133.15877662407001 0 0 0 0 53.945555968224653 -51.749094472263096 0 -51.749094472263096 32.513656656694366 0 0 0 0 36.817208887639936 -100.2632704934731 0 -100.2632704934731 112.01287369035708 0 0 0 0 -113.52816857788093 3.7548005721710069 0 3.7548005721710069 117.28965115603933 0 0 0 0 -55.454278949715444 22.092996016428515 0 22.092996016428515 63.919381837135916 0 0 0 0 -2.0073735348578907 6.747372600391067 0 6.747372600391067 19.453704734761061 0 0 0 0 -15.899182239065237 -9.566409109004816 0 -9.566409109004816 -1.6681886740323364 0 0 0 0 -9.7623367866335684 -227.49581405053323 0 -227.49581405053323 338.57998808674893 0 0 0 0 -0.99520669993808042 -32.819306330806285 0 -32.819306330806285 20.245828532024461 0 0 0 0 5.2150557043637491 -123.2209225224392 0 -123.2209225224392 118.57137018050707 0 0 0 0 -17.884662718506661 54.882482548557164 0 54.882482548557164 259.96622229254172 0 0 0 0 -113.83766881074826 -46.946524199818668 0 -46.946524199818668 271.84797207677411 0 0 0 0 -23.263312632541783 22.720566678210162 0 22.720566678210162 149.03498662770289 0 0 0 0 -24.369228309060418 -78.213883825956145 0 -78.213883825956145 228.43192226934843 0 0 0 0 29.38704313508515 -202.89360144174134 0 -202.89360144174134 269.22241992686759 0 0 0 0 -32.084094832618575 -162.8377549362358 0 -162.8377549362358 147.53952583717182 0 0 0 0 -168.68519281742738 1.0027229679217271 0 1.0027229679217271 183.94515998624138 0 0 0 0 -171.05148807869955 129.34180899525745 0 129.34180899525745 39.007369307368208 0 0 0 0 -10.953937314925884 -5.6201221508285357 0 -5.6201221508285357 -2.3220827158465482 0 0 0 0 116.58771976583648 -55.643004727568041 0 -55.643004727568041 -93.36492365867889 0 0 0 0 41.486425039113783 -25.38111402857794 0 -25.38111402857794 -78.06697667309345 0 0 0 0 25.617471137017446 -53.772013114589754 0 -53.772013114589754 143.43502932739648 0 0 0 0 1.0471196672474949 4.7554156864910766 0 4.7554156864910766 14.784652473843551 0 0 0 0 108.15889881115299 -106.0494188960065 0 -106.0494188960065 102.83970005981246 0 0 0 0 229.46036698239595 -313.86437627531086 0 -313.86437627531086 443.99193082393322 0 0 0 0 -114.54532377579926 231.44718927308713 0 231.44718927308713 86.475616838313726 0 0 0 0 -108.27950055109159 173.51808292375426 0 173.51808292375426 419.15296096800739 0 0 0 0 -0.050099997215705017 1.5351983712327062 0 1.5351983712327062 6.2992029741774047 0 0 0 0 -92.860924463922856 145.63970391398107 0 145.63970391398107 244.80871958297939 0 0 0 0 -156.19801853501122 153.26469141044799 0 153.26469141044799 310.97968007132295 0 0 0 0 122.13447656822427 221.29960625142121 0 221.29960625142121 118.83701872552774 0 0 0 0 -121.41066023824578 258.38932252160612 0 258.38932252160612 251.04849545257457 0 0 0 0 112.68533747245601 107.40188604279683 0 107.40188604279683 -399.66981402886449 0 0 0 0 -151.3203694095555 363.97259897638742 0 363.97259897638742 1083.1134176194464 0 0 0 0 192.11614565023592 711.93361151600038 0 711.93361151600038 166.02033774754091 0 0 0 0 -142.12128829891299 345.04139804338047 0 345.04139804338047 293.71761429754042 0 0 0 0 0.76540016163564828 -1.8492613588076949 0 -1.8492613588076949 9.060877526187511 0 0 0 0 750.33734283312515 -368.08606286697977 0 -368.08606286697977 112.45818305308785 0 0 0 0 22.930291516832767 31.885725483791248 0 31.885725483791248 51.97845227898506 0 0 0 0 174.07769118406213 -363.81708337095915 0 -363.81708337095915 971.00116085832724 0 0 0 0 -200.00776646405575 -359.08553542066875 0 -359.08553542066875 219.65173832762594 0 0 0 0 5.0265919345431485 -123.38528568127776 0 -123.38528568127776 201.5329659331328 0 0 0 0 -4.3054466092147017 -1.7899151858848086 0 -1.7899151858848086 -0.19710358031224473 0 0 0 0 -288.56818008233313 -24.200226475539239 0 -24.200226475539239 180.20972147634711 0 0 0 0 -357.06236952328436 183.65074495640874 0 183.65074495640874 618.91894417309959 0 0 0 0 21.716743476828469 -18.890141773454616 0 -18.890141773454616 172.55069642087619 0 0 0 0 -48.646135311208127 -30.737037455327481 0 -30.737037455327481 180.28656676739251 0 0 0 0 -0.26220561060108594 -26.368253272330548 0 -26.368253272330548 177.5585730080611 0 0 0 0 1.1953267029067156 -19.925197613815509 0 -19.925197613815509 180.87948050744191 0 0 0 0 -15.736583445299402 -379.66876237187807 0 -379.66876237187807 1837.9338588751998 0 0 0 0 -51.319961614954082 -30.533540543200616 0 -30.533540543200616 165.98346357035547 0 0 0 0 -2.6909933070182888 -13.517930941032319 0 -13.517930941032319 164.39353237167597 0 0 0 0 407.6223446183667 156.94629285586052 0 156.94629285586052 -1180.9609778701852 0 0 0 0 -3.285932517674496 -8.3929402724047577 0 -8.3929402724047577 168.15627577478153 0 0 0 0 16.976024631003384 -11.33796037171669 0 -11.33796037171669 157.65227949830387 0 0 0 0 -12.316192069065711 14.779494879621645 0 14.779494879621645 71.867336944280581 0 0 0 0 -21.522340222809362 -19.202662238384733 0 -19.202662238384733 163.14357661006943 0 0 0 0 -16.834873623127351 1.560680655883516 0 1.560680655883516 173.6557530068485 0 0 0 0 -183.7498313873175 -16.523449650429029 0 -16.523449650429029 537.32567857709364 0 0 0 0 28.856068974731897 48.994169764198887 0 48.994169764198887 -25.157698363022064 0 0 0 0 -57.95298052459566 -22.968306183153345 0 -22.968306183153345 169.99717188852446 0 0 0 0 -1.5034364746124718 -11.970090149482834 0 -11.970090149482834 158.58591851687038 0 0 0 0 -17.13344856830193 -2.8006165738712951 0 -2.8006165738712951 35.248681859381108 0 0 0 0 -5.245915484703092 2.5866627732623932 0 2.5866627732623932 81.614468850216497 0 0 0 0 -3.56807926435431 20.304221003585553 0 20.304221003585553 88.245047455511667 0 0 0 0 -28.990467460088439 16.71743101542063 0 16.71743101542063 50.704641448465281 0 0 0 0 -8.4326502625981021 10.940033397058107 0 10.940033397058107 101.80188014063557 0 0 0 0 -35.232001557490776 38.969154001696097 0 38.969154001696097 82.283206388452527 0 0 0 0 -35.972377951427916 38.720359764827663 0 38.720359764827663 82.348175039558555 0 0 0 0 -18.774577654638531 5.6026003673850058 0 5.6026003673850058 77.470808786504364 0 0 0 0 -21.363635285054134 34.942505285727584 0 34.942505285727584 56.684605961469948 0 0 0 0 0.68371434403888998 -14.024468757055729 0 -14.024468757055729 128.35427061179507 0 0 0 0 -51.456834517539392 47.169015835600476 0 47.169015835600476 99.245548617831446 0 0 0 0 -52.099513584696979 45.115579588698893 0 45.115579588698893 95.706330256318324 0 0 0 0 -22.914170858409612 23.681391557169103 0 23.681391557169103 72.94645599996295 0 0 0 0 -12.57201747185508 39.700872757079097 0 39.700872757079097 70.816979719260502 0 0 0 0 -20.122120210012326 4.2579015593773875 0 4.2579015593773875 113.16970961323386 0 0 0 0 -7.0863060563215887 14.451873187829172 0 14.451873187829172 87.225071228416624 0 0 0 0 -19.561320183107455 -40.479677496674412 0 -40.479677496674412 20.0369756312557 0 0 0 0 -298.61022657993635 114.47188617934444 0 114.47188617934444 48.212999399198452 0 0 0 0 -82.746909262287772 -63.537313355533115 0 -63.537313355533115 160.61676454261033 0 0 0 0 156.22778018207646 -43.572306073259824 0 -43.572306073259824 85.024180877378967 0 0 0 0 14.181344396312852 -139.46855291028623 0 -139.46855291028623 64.285235533987361 0 0 0 0 -4.3944612439366111 10.64724301453095 0 10.64724301453095 30.483910068926889 0 0 0 0 293.33576713586626 -83.030776063191297 0 -83.030776063191297 72.803658644923416 0 0 0 0 5.9641502059714071 -11.084381310357912 0 -11.084381310357912 111.30761951406021 0 0 0 0 -41.221713794114294 -29.959108703747916 0 -29.959108703747916 117.81816221752888 0 0 0 0 -6.4099825850480485 18.339809326629336 0 18.339809326629336 49.019401452940592 0 0 0 0 -67.55057314941223 -56.964237604996015 0 -56.964237604996015 161.43002690816047 0 0 0 0 -78.904124006509846 -45.164629379287362 0 -45.164629379287362 258.63260962555069 0 0 0 0 -8.3594907288909717 6.4498515001330858 0 6.4498515001330858 36.260749980536126 0 0 0 0 35.230772578325741 114.77410339520065 0 114.77410339520065 70.885828769991349 0 0 0 0 90.597849345429339 -48.203124887812237 0 -48.203124887812237 233.87278004161635 0 0 0 0 41.748658557474542 -103.49993066925794 0 -103.49993066925794 177.82423340345485 0 0 0 0 -17.376776917851853 16.070372392175216 0 16.070372392175216 32.414819981638217 0 0 0 0 -4.8355561231519344 16.092137543340527 0 16.092137543340527 59.183873070262322 0 0 0 0 36.944758184712555 -13.714932365954155 0 -13.714932365954155 105.12933214826626 0 0 0 0 100.09177612997883 -258.40131931577343 0 -258.40131931577343 372.52563088404713 0 0 0 0 -21.590245281290585 15.20517259296011 0 15.20517259296011 31.047485601057257 0 0 0 0 -5.8921432220737771 6.9104993092914491 0 6.9104993092914491 41.287567719073742 0 0 0 0 4.6749378876887704 54.684742108411911 0 54.684742108411911 8.6470488966820085 0 0 0 0 -27.471522345174662 31.846794878074888 0 31.846794878074888 55.743983439264412 0 0 0 0 51.851215037793736 -91.249396209677798 0 -91.249396209677798 201.70439238400286 0 0 0 0 -19.945638960266621 89.782988512609677 0 89.782988512609677 89.134543753451908 0 0 0 0 -237.69779679285969 112.07640487073695 0 112.07640487073695 321.0063490905377 0 0 0 0 -3.6649169458124069 -4.033735602125784 0 -4.033735602125784 111.55695834684221 0 0 0 0 -40.689240340387641 8.7324048163500265 0 8.7324048163500265 89.727714937569544 0 0 0 0 1.1186832129114133 7.6753665564735538 0 7.6753665564735538 89.481956685772133 0 0 0 0 -5.9044734583428564 5.5324742788468333 0 5.5324742788468333 23.217152677243966 0 0 0 0 -50.014025290842028 -5.0411523840455175 0 -5.0411523840455175 99.892437877870975 0 0 0 0 -32.311739007591768 23.048444242783376 0 23.048444242783376 142.86488331589635 0 0 0 0 -50.258800178558658 10.039419607047421 0 10.039419607047421 145.21421294881441 0 0 0 0 -53.84084927814547 -137.19513414223911 0 -137.19513414223911 181.26856468579354 0 0 0 0 -61.952329643155167 -153.57607548802298 0 -153.57607548802298 216.12551458546659 0 0 0 0 1.6098718077286227 -24.564255440313914 0 -24.564255440313914 166.12395843532428 0 0 0 0 -58.552315850627508 -152.56774152177604 0 -152.56774152177604 201.52734465644608 0 0 0 0 -5.4204578665240337 -12.923873068384921 0 -12.923873068384921 26.991213802446467 0 0 0 0 -93.126399992263941 -203.64989191104883 0 -203.64989191104883 153.76597086581953 0 0 0 0 -185.21504250606745 -87.805806767224567 0 -87.805806767224567 92.553283622790332 0 0 0 0 265.02527796302655 -152.97311547161553 0 -152.97311547161553 -210.90285975136612 0 0 0 0 -0.44136545045706299 -9.3907770824941519 0 -9.3907770824941519 62.294174266566358 0 0 0 0 1.267366864475171 -4.3088411102544706 0 -4.3088411102544706 7.3520707123328766 0 0 0 0 69.693789353659724 -457.13482737749359 0 -457.13482737749359 -468.18996616552977 0 0 0 0 -21.618731246558553 17.134952490092722 0 17.134952490092722 91.684146495814673 0 0 0 0 -158.89943294110185 -158.46281509041364 0 -158.46281509041364 290.32357056336605 0 0 0 0 0.24925431903057493 3.5041708489328887 0 3.5041708489328887 17.320178910330213 0 0 0 0 397.79920782379577 -189.76207783126029 0 -189.76207783126029 -28.912572159844899 0 0 0 0 626.48609422099616 1793.6140920772946 0 1793.6140920772946 2643.6359200569832 0 0 0 0 402.22370000449729 692.94356496152704 0 692.94356496152704 779.40793385177312 0 0 0 0 372.53553315593149 808.80474385106572 0 808.80474385106572 1190.0383352334175 0 0 0 0 -1435.2408327598898 2300.1498736680342 0 2300.1498736680342 7278.7396886220522 0 0 0 0 -22.102765936230281 10.730090525018607 0 10.730090525018607 66.267208899086882 0 0 0 0 33.502256120428235 -117.37593595504995 0 -117.37593595504995 181.12254290106648 0 0 0 0 -12.878084925622769 5.7301167549073391 0 5.7301167549073391 118.60641998482441 0 0 0 0 64.975139049649442 -48.44884118889604 0 -48.44884118889604 185.07375832321122 0 0 0 0 -49.498583389142709 43.410397684318013 0 43.410397684318013 61.286021234316649 0 0 0 0 -165.32611613018253 40.489336953442944 0 40.489336953442944 220.92214578359471 0 0 0 0 -120.07364774629876 -4.3521459215463949 0 -4.3521459215463949 134.0181038774117 0 0 0 0 -120.94989761881061 27.212228028029585 0 27.212228028029585 481.92483074651409 0 0 0 0 271.90107650854333 328.87381481147236 0 328.87381481147236 362.56190991804579 0 0 0 0 133.83878079252509 121.24328391545851 0 121.24328391545851 104.88266317155967 0 0 0 0 -12.946596559964519 -117.83888798887256 0 -117.83888798887256 115.83572607961651 0 0 0 0 -154.3073150386453 -155.16516341521219 0 -155.16516341521219 137.49593157143318 0 0 0 0 -203.51838895408582 -37.849208331976115 0 -37.849208331976115 851.59711621399856 0 0 0 0 359.06912345144855 358.92995670613169 0 358.92995670613169 1059.579021634494 0 0 0 0 -936.44760933061195 -812.75092122513001 0 -812.75092122513001 498.41964947320957 0 0 0 0 -180.84531574498578 -44.45443926526832 0 -44.45443926526832 200.91085443677366 0 0 0 0 -248.39398783771475 -20.234667021876476 0 -20.234667021876476 230.08503106413264 0 0 0 0 0.90900525784404806 -8.7565687336779376 0 -8.7565687336779376 139.20705147923178 0 0 0 0 -94.180145431488029 21.277289567849948 0 21.277289567849948 165.19373909395472 0 0 0 0 -111.0005955980028 -101.75263776555948 0 -101.75263776555948 208.53882068354142 0 0 0 0 -5.3090748560158394 -3.3283376987134186 0 -3.3283376987134186 146.23485109252925 0 0 0 0 129.0155773424658 -79.872988206137961 0 -79.872988206137961 135.06046023476301 0 0 0 0 67.00912287231364 -109.88301145121295 0 -109.88301145121295 141.05479090341396 0 0 0 0 24.954343647953763 -194.0261548651697 0 -194.0261548651697 315.35286122633988 0 0 0 0 2.4475567103237594 -3.4094498533240341 0 -3.4094498533240341 -3.4271810471268935 0 0 0 0 -280.33880174641672 447.26172374284943 0 447.26172374284943 -282.15315763285616 0 0 0 0 -210.5290017409643 175.46841515607957 0 175.46841515607957 -410.41584095355211 0 0 0 0 26.425042364104627 -97.351933308666048 0 -97.351933308666048 229.21388877522259 0 0 0 0 30.094528234457925 -80.057147895025992 0 -80.057147895025992 284.74583896787226 0 0 0 0 -63.683968770238238 31.251629334708923 0 31.251629334708923 240.14594010157452 0 0 0 0 -35.421038050958487 -8.8843492938322015 0 -8.8843492938322015 393.54257613467053 0 0 0 0 108.46217471088244 -148.90118706576686 0 -148.90118706576686 304.01207743333543 0 0 0 0 54.83695546884843 -231.85525015851817 0 -231.85525015851817 482.1516494439129 0 0 0 0 -2.769222187526843 -1.5453989382451994 0 -1.5453989382451994 3.9536973239919888 0 0 0 0 211.57620040381698 -414.49201073041331 0 -414.49201073041331 685.45224760725068 0 0 0 0 -328.68339964511097 571.20920250656127 0 571.20920250656127 -571.05411575159815 0 0 0 0 -1.0724985932353714 0.082359087589850333 0 0.082359087589850333 1.0044926581928877 0 0 0 0 -418.00122777710976 174.57765639010904 0 174.57765639010904 51.679538706237508 0 0 0 0 -242.66717014173469 94.442725141785559 0 94.442725141785559 192.54033529873413 0 0 0 0 -13.152899935922505 6.0809173126981477 0 6.0809173126981477 -122.06859249591434 0 0 0 0 -131.91313477450012 -7.645562899966535 0 -7.645562899966535 280.44395986828022 0 0 0 0 -328.09585737160637 529.79968073944201 0 529.79968073944201 -507.46554402174661 0 0 0 0 -339.63063628460804 129.9402405176952 0 129.9402405176952 -162.26942029639031 0 0 0 0 -144.68816291110033 263.56332616875443 0 263.56332616875443 -70.831049315849668 0 0 0 0 -253.77174022098734 418.1671522071556 0 418.1671522071556 -286.0632554901822 0 0 0 0 -14.573498571518215 1.2645697572409489 0 1.2645697572409489 9.7568963108706441 0 0 0 0 -351.2752964905203 392.08883054612102 0 392.08883054612102 -139.38595376544981 0 0 0 0 -173.16887059637702 164.7830487768515 0 164.7830487768515 -127.55741735839001 0 0 0 0 -230.18141100901448 206.13244765547279 0 206.13244765547279 -72.423975516838254 0 0 0 0 -193.36677326241625 205.46155682430253 0 205.46155682430253 -22.396267850373988 0 0 0 0 -211.36521749272288 93.297139819747827 0 93.297139819747827 -77.386990369908744 0 0 0 0 -249.94973357401159 128.17978355085506 0 128.17978355085506 197.36604742285272 0 0 0 0 -190.53778603857876 34.211038176995203 0 34.211038176995203 126.84324596080114 0 0 0 0 -90.624000436534516 162.41707761085127 0 162.41707761085127 281.75826531014172 0 0 0 0 -13.925911865762828 -147.96539549140289 0 -147.96539549140289 335.41142860932268 0 0 0 0 -109.25926564146084 37.488759396434034 0 37.488759396434034 299.09476328761957 0 0 0 0 -246.18680997683805 79.440087066752312 0 79.440087066752312 230.80965872056549 0 0 0 0 -147.04601900431226 -23.789666362034041 0 -23.789666362034041 201.30019911348791 0 0 0 0 229.52028969582534 -302.31438497320778 0 -302.31438497320778 294.75876428228685 0 0 0 0 127.8860602321115 78.531562862812279 0 78.531562862812279 378.16911840543617 0 0 0 0 1.449779515915111 -81.751404361684763 0 -81.751404361684763 176.04950041214761 0 0 0 0 -112.93820634024951 -102.99764950401368 0 -102.99764950401368 786.9567461276456 0 0 0 0 -10.467804055733327 -2.4307054328760671 0 -2.4307054328760671 5.546917143673312 0 0 0 0 -123.06547419548701 98.490721584960738 0 98.490721584960738 -22.703153266149457 0 0 0 0 -23.838274635770631 -92.958323196522542 0 -92.958323196522542 628.09324445386392 0 0 0 0 -5.309624794282561 0.31427187908387566 0 0.31427187908387566 4.8658525996253843 0 0 0 0 428.21597770285689 -551.40835420347503 0 -551.40835420347503 555.71340465027606 0 0 0 0 -197.9054766013287 -74.14967713491933 0 -74.14967713491933 459.08048691796284 0 0 0 0 -33.745048147282432 -226.99591274092381 0 -226.99591274092381 360.73763810249511 0 0 0 0 69.123311040166755 -164.66857823645842 0 -164.66857823645842 333.89583985654463 0 0 0 0 -125.25589541601948 -116.12335116605391 0 -116.12335116605391 309.80009813696961 0 0 0 0 -193.77616683717315 17.673472513692104 0 17.673472513692104 213.45258660203399 0 0 0 0 -109.0819852699442 -120.85251015487302 0 -120.85251015487302 266.0129903996567 0 0 0 0 -111.67537794174859 -45.980255273054354 0 -45.980255273054354 159.60699476188165 0 0 0 0 -131.61035348553833 -29.786998098321419 0 -29.786998098321419 193.18142269736563 0 0 0 0 -111.54829376613816 -99.658616425116634 0 -99.658616425116634 275.63561003548239 0 0 0 0 -63.552554336547473 -57.546717932149477 0 -57.546717932149477 149.2147537954952 0 0 0 0 -5.3656879480684809 7.4833849143559501 0 7.4833849143559501 2.3843881322799518 0 0 0 0 -106.24952365751835 45.002245026691071 0 45.002245026691071 -5.9775155483366689 0 0 0 0 -154.56932481035074 59.887696110505203 0 59.887696110505203 -7.1126275563728996 0 0 0 0 65.097557033794146 -64.795283147119335 0 -64.795283147119335 115.42230824215221 0 0 0 0 -13.414425763261159 -19.103644431192102 0 -19.103644431192102 16.087352356362331 0 0 0 0 -1.9865669693431531 -0.9449849974356539 0 -0.9449849974356539 38.508552465280729 0 0 0 0 -23.493556736686902 30.179735922672005 0 30.179735922672005 57.473565242473924 0 0 0 0 -8.3007817136822268 -36.136681548552588 0 -36.136681548552588 131.7837335614895 0 0 0 0 -42.340829570932328 -107.94770993399288 0 -107.94770993399288 131.04477522104207 0 0 0 0 -8.5865041285572179 6.4330218282228842 0 6.4330218282228842 15.097989583005656 0 0 0 0 -257.40011365367718 268.6676193097228 0 268.6676193097228 -96.059346858179197 0 0 0 0 -31.402567097384235 -142.92706210779579 0 -142.92706210779579 85.677895683311363 0 0 0 0 -1.3260512493655519 -1.9460580980732658 0 -1.9460580980732658 6.910049390581861 0 0 0 0 -340.09383095541943 95.238408775519929 0 95.238408775519929 -51.323812325150357 0 0 0 0 -301.90826684781587 183.992191260666 0 183.992191260666 56.647203798260307 0 0 0 0 -285.18154604053325 162.21653883688123 0 162.21653883688123 67.414693805709248 0 0 0 0 -200.61481037568956 72.238480422529392 0 72.238480422529392 86.933580553544743 0 0 0 0 -139.19315826594902 -77.546547453799576 0 -77.546547453799576 255.37256942936801 0 0 0 0 -155.17680354423101 3.5516973830526695 0 3.5516973830526695 147.33311026489537 0 0 0 0 -120.75869007774236 179.19559978756297 0 179.19559978756297 -135.48931462085602 0 0 0 0 -83.716655973404158 47.540884486952564 0 47.540884486952564 -88.917973312127287 0 0 0 0 -179.72721288614412 99.399689966201549 0 99.399689966201549 10.216321430401877 0 0 0 0 -17.028326300687866 -29.543433393177111 0 -29.543433393177111 434.17170411545521 0 0 0 0 0.93406429525555912 -0.56181694376542168 0 -0.56181694376542168 0.88239030745327796 0 0 0 0 -1.0195885486299971 -56.086143479406019 0 -56.086143479406019 377.50242389101186 0 0 0 0 4.2753042606421445 -46.281730296082969 0 -46.281730296082969 360.08470881881658 0 0 0 0 -9.1707479800502938 -63.545062804936606 0 -63.545062804936606 346.39066540176282 0 0 0 0 5.8698732731015753 -47.629301117645809 0 -47.629301117645809 352.68853994499659 0 0 0 0 5.951758049661521 -38.068083052065049 0 -38.068083052065049 351.29413310845848 0 0 0 0 14.767976232582896 6.2155742432223633 0 6.2155742432223633 378.43303556533647 0 0 0 0 -10.120752653038295 -34.405856856130413 0 -34.405856856130413 395.6264724858047 0 0 0 0 60.129917512610746 15.620876564236823 0 15.620876564236823 219.10210723557975 0 0 0 0 -0.048642881153603927 10.450414623992401 0 10.450414623992401 368.5429176420439 0 0 0 0 32.032068243630974 -58.45069070829777 0 -58.45069070829777 353.61416591747547 0 0 0 0 8.7747706445704381 -72.115157729364 0 -72.115157729364 403.69141280592885 0 0 0 0 11.071483716184119 -28.807779369497439 0 -28.807779369497439 321.96969120636641 0 0 0 0 -8.4821537079424161 -54.188629535536165 0 -54.188629535536165 358.85100960915224 0 0 0 0 -2.108953406011878 -59.7002724016711 0 -59.7002724016711 339.3664670092403 0 0 0 0 -14.933726460335436 -54.903705448217806 0 -54.903705448217806 354.14635724024993 0 0 0 0 89.041579475454853 -2.3611497144738678 0 -2.3611497144738678 327.28000081349455 0 0 0 0 -37.290621340414418 -52.750544739028555 0 -52.750544739028555 414.2903884153784 0 0 0 0 -22.327060414605228 -66.471183606758132 0 -66.471183606758132 353.76166007638676 0 0 0 0 25.743825298917159 -113.93641669089993 0 -113.93641669089993 442.74415398425481 0 0 0 0 46.376663946111648 22.243042431189679 0 22.243042431189679 3.8594045870268019 0 0 0 0 -22.980649636706403 85.302436545767705 0 85.302436545767705 579.47553038848855 0 0 0 0 22.007998553588962 -126.95961222058941 0 -126.95961222058941 -21.786783140487387 0 0 0 0 0.64516749820249686 -1.4921770526185014 0 -1.4921770526185014 1.4452119952286751 0 0 0 0 3.7561613197026418 -34.10950415811385 0 -34.10950415811385 144.28995733532793 0 0 0 0 16.89828929572468 -127.21528791393212 0 -127.21528791393212 301.07060576969525 0 0 0 0 -0.077832966171627049 -44.526912260829704 0 -44.526912260829704 344.79198071040446 0 0 0 0 11.608600717080776 -8.9313887502794387 0 -8.9313887502794387 157.47896090408904 0 0 0 0 -1.5778840890106949 3.1027439539320767 0 3.1027439539320767 11.834816492366372 0 0 0 0 -0.53330468864201519 -0.53057644539464377 0 -0.53057644539464377 1.3967785145991911 0 0 0 0 62.00893097731165 -29.707601507674553 0 -29.707601507674553 100.89167600778455 0 0 0 0 1.7540512329458706 0.36312852080897073 0 0.36312852080897073 0.58409315681252849 0 0 0 0 0.43662208875509556 -0.19037501011544578 0 -0.19037501011544578 -0.13035303235096762 0 0 0 0 9.7467260872633403 5.322270909557119 0 5.322270909557119 1.1907054870098364 0 0 0 0 9.0980977390030944 27.229570782365045 0 27.229570782365045 114.04210214520572 0 0 0 0 -11.217035496425268 3.620642352856521 0 3.620642352856521 25.140928278851788 0 0 0 0 38.240135498295615 -19.116652152253664 0 -19.116652152253664 276.1816792491154 0 0 0 0 -0.08447384907402955 -0.65933337994374597 0 -0.65933337994374597 0.35351832846978937 0 0 0 0 -42.607265339930933 -14.302276878777775 0 -14.302276878777775 362.22155723307515 0 0 0 0 26.526331641975418 25.519364964828128 0 25.519364964828128 370.04919559088376 0 0 0 0 -8.5520291939238291 78.009638918796554 0 78.009638918796554 221.47159014281351 0 0 0 0 -12.559654206113635 -30.448968269396573 0 -30.448968269396573 385.58170006945147 0 0 0 0 18.950719568402349 10.93998006716356 0 10.93998006716356 250.29675630098791 0 0 0 0 -15.884015357232499 -78.761416283152357 0 -78.761416283152357 447.04296323294693 0 0 0 0 15.59569707503428 -53.46376375874388 0 -53.46376375874388 263.92220188860301 0 0 0 0 -21.873288535212389 22.098023231480511 0 22.098023231480511 245.23843148979358 0 0 0 0 -18.417990881550793 -52.639544362449669 0 -52.639544362449669 226.48022174197831 0 0 0 0 1.736054286359149 0.66008954915741924 0 0.66008954915741924 7.2743120880259085 0 0 0 0 0.25156796373297735 1.3105679029079909 0 1.3105679029079909 2.6709408721380328 0 0 0 0 0.97333458336049294 1.7858227851203594 0 1.7858227851203594 3.2530286878281913 0 0 0 0 -1.2770871626257705 1.723863483290188 0 1.723863483290188 6.7331804197128804 0 0 0 0 -0.2286058000559206 0.27810558509338534 0 0.27810558509338534 0.90457245308400047 0 0 0 0 60.434991631499294 -42.353725964290788 0 -42.353725964290788 37.821438124869019 0 0 0 0 -14.013725668806643 -142.44424664555845 0 -142.44424664555845 790.08993593716878 0 0 0 0 0.00012823453592977763 2.464956736737804 0 2.464956736737804 2.3682479052076815 0 0 0 0 0.029138562047456809 0.386101259773028 0 0.386101259773028 1.6185652475787151 0 0 0 0 3.1963077642672886 84.091685831794166 0 84.091685831794166 669.23129630967378 0 0 0 0 -66.314528575113144 20.220768667073571 0 20.220768667073571 584.06616609009507 0 0 0 0 61.848724179549549 65.199618951475713 0 65.199618951475713 565.33760337870626 0 0 0 0 -0.33008327992412545 -0.21077378672899272 0 -0.21077378672899272 1.0811786357874382 0 0 0 0 -50.96417936133227 91.901172698700975 0 91.901172698700975 731.39929029243649 0 0 0 0 49.469001811971964 39.25591409651679 0 39.25591409651679 507.55944431378157 0 0 0 0 0.21033964530411906 98.099005052072542 0 98.099005052072542 618.10435870534275 0 0 0 0 -60.743771074566908 35.469688428041991 0 35.469688428041991 588.0988916157512 0 0 0 0 -0.088117554858682334 34.113035710630356 0 34.113035710630356 581.59973864864514 0 0 0 0 -22.408792612122308 85.721565084459144 0 85.721565084459144 580.14787883040844 0 0 0 0 26.560087085108549 21.029085085722727 0 21.029085085722727 628.06150181486737 0 0 0 0 6.8155223056407355 85.583377785991615 0 85.583377785991615 697.02014906796103 0 0 0 0 33.487204806721863 -10.1649445842977 0 -10.1649445842977 680.86425668001175 0 0 0 0 -19.974939919203507 19.900374708544405 0 19.900374708544405 776.37855260816104 0 0 0 0 5.582469901971006 60.105152864307456 0 60.105152864307456 709.62148770632848 0 0 0 0 -3.5308008887826929 76.821307331811113 0 76.821307331811113 643.86567242338788 0 0 0 0 37.756483622937424 21.478260391071672 0 21.478260391071672 536.91217377646535 0 0 0 0 -60.19839715546297 33.068353604656295 0 33.068353604656295 748.83987398976387 0 0 0 0 -0.57812149968464843 -1.0565525320003815 0 -1.0565525320003815 1.5242864829785958 0 0 0 0 29.13482450461234 37.622495076284395 0 37.622495076284395 402.58363784482935 0 0 0 0 16.084898363224568 100.95854685379891 0 100.95854685379891 567.60184921897599 0 0 0 0 -21.53451717504749 -33.05239686398636 0 -33.05239686398636 496.98060068162158 0 0 0 0 -4.3441776147650444 -17.198915632270655 0 -17.198915632270655 450.10055985650979 0 0 0 0 49.247969364871366 34.909523964295659 0 34.909523964295659 452.17344606315601 0 0 0 0 -46.637376939948581 44.155637979172752 0 44.155637979172752 452.91122069949051 0 0 0 0 48.987481360299512 40.062026072246226 0 40.062026072246226 449.83877440092328 0 0 0 0 0.16286878418286332 -1.8226306570512918 0 -1.8226306570512918 1.6220482679529482 0 0 0 0 -36.764035042811258 37.7122963617403 0 37.7122963617403 676.33300634144689 0 0 0 0 17.558463852729233 8.5831160990783246 0 8.5831160990783246 596.83744827676855 0 0 0 0 20.802016118568943 70.160292835687869 0 70.160292835687869 684.77170404473145 0 0 0 0 -12.227798755319895 12.610663204544835 0 12.610663204544835 753.86948319924704 0 0 0 0 12.378450281717392 -15.216597718099365 0 -15.216597718099365 745.50991505452839 0 0 0 0 -110.01108011601173 109.86775877686887 0 109.86775877686887 745.96623042231658 0 0 0 0 75.870723146915225 34.167261878887075 0 34.167261878887075 756.46383400206105 0 0 0 0 23.039216622344043 8.8305780774462619 0 8.8305780774462619 674.97379831301805 0 0 0 0 -12.007080748579938 4.6284182158269687 0 4.6284182158269687 744.05013998801542 0 0 0 0 21.972210358057055 -18.406688520696662 0 -18.406688520696662 475.09577298467048 0 0 0 0 33.506325902778599 62.988179656429566 0 62.988179656429566 465.91926021200197 0 0 0 0 1.7522624652630601 -2.3191459969911534 0 -2.3191459969911534 1.766537222805276 0 0 0 0 -44.80945420000171 22.457291645179794 0 22.457291645179794 666.10860492476058 0 0 0 0 22.021343912968007 46.57377204833665 0 46.57377204833665 329.11665685503976 0 0 0 0 13.297223800677557 -26.210870325972792 0 -26.210870325972792 352.01195743185235 0 0 0 0 -31.221470805395256 9.2715887293597916 0 9.2715887293597916 458.3648300702007 0 0 0 0 9.9848318775570988 35.850631787121529 0 35.850631787121529 347.34732166814501 0 0 0 0 1.0767149732358803 -10.742338463362103 0 -10.742338463362103 356.66116631377372 0 0 0 0 38.263062986487512 -3.7160244198457804 0 -3.7160244198457804 144.61677224545565 0 0 0 0 -5.3462906905460841 -5.180811370300944 0 -5.180811370300944 320.18045894734678 0 0 0 0 11.647541344347246 55.092505248168891 0 55.092505248168891 215.67474456850323 0 0 0 0 -55.81131820807741 -146.70932810827799 0 -146.70932810827799 107.5078431436541 0 0 0 0 11.918178619949231 -103.95124714008853 0 -103.95124714008853 -46.095425490944763 0 0 0 0 -1.8402161668166475 -0.24377684329991212 0 -0.24377684329991212 1.1860108257372417 0 0 0 0 2.9109163473870439 -4.563274420624964 0 -4.563274420624964 2.8135083293009586 0 0 0 0 20.51539223177042 -27.132819909620594 0 -27.132819909620594 12.879664203326683 0 0 0 0 -29.817113810729097 43.638680570118595 0 43.638680570118595 81.621351355512161 0 0 0 0 -18.202224669831594 57.563996674525697 0 57.563996674525697 198.56456147338031 0 0 0 0 -35.918631378156078 -15.251968476288312 0 -15.251968476288312 251.10200871853158 0 0 0 0 8.6175786666499903 40.265801061090315 0 40.265801061090315 286.41488347706036 0 0 0 0 -17.580933498675677 -12.766992356991977 0 -12.766992356991977 301.83246591070929 0 0 0 0 -22.954163352032992 -36.745127081056125 0 -36.745127081056125 372.55287729832344 0 0 0 0 -24.072825176921469 -44.268375892919721 0 -44.268375892919721 196.56692992149328 0 0 0 0 -7.6273746641588787 34.451632891563349 0 34.451632891563349 255.40602010692237 0 0 0 0 7.332076896337071 41.224712127164821 0 41.224712127164821 367.8261105454003 0 0 0 0 28.803967595358927 -17.065989211361739 0 -17.065989211361739 261.65581799091888 0 0 0 0 -48.047578425685174 26.204449356489931 0 26.204449356489931 239.00166196991631 0 0 0 0 38.528474268241666 -3.997305082702951 0 -3.997305082702951 0.79602043359773234 0 0 0 0 -86.752662563490048 39.386547490561497 0 39.386547490561497 85.319478552039072 0 0 0 0 0.79582243327354418 0.11873543934444797 0 0.11873543934444797 0.00474345340604998 0 0 0 0 -51.589733244951674 37.123237875577615 0 37.123237875577615 35.230854259629268 0 0 0 0 32.717870024179433 -54.087711167187081 0 -54.087711167187081 -2.1696784594096243 0 0 0 0 36.851571143303318 -11.922657772192906 0 -11.922657772192906 84.601491036359221 0 0 0 0 -0.18458672630626527 0.037314143093198027 0 0.037314143093198027 0.0357011276673731 0 0 0 0 -33.16909855070412 26.276840331163839 0 26.276840331163839 231.94583116160356 0 0 0 0 -10.874771072385101 -5.1354867367772385 0 -5.1354867367772385 235.05922511966492 0 0 0 0 2.1572460153177766 -3.6335180540663714 0 -3.6335180540663714 2.694914573639835 0 0 0 0 -53.510109323261076 -7.4934478727809619 0 -7.4934478727809619 263.07480304603814 0 0 0 0 10.14020078683734 7.3989124157669721 0 7.3989124157669721 242.51522214089346 0 0 0 0 54.349267807474462 77.262042709393427 0 77.262042709393427 318.73951115118689 0 0 0 0 -39.124811573901752 -45.957734247145709 0 -45.957734247145709 374.51887407136383 0 0 0 0 -28.018880433688764 -51.070126492464624 0 -51.070126492464624 243.27788096742006 0 0 0 0 -54.876456854532535 -53.444185654225294 0 -53.444185654225294 288.83318790450357 0 0 0 0 -25.838058999039731 15.015228819247568 0 15.015228819247568 281.11170704296092 0 0 0 0 -55.811752337525377 -40.251000301381282 0 -40.251000301381282 242.54669540494797 0 0 0 0 -69.723993351713943 -49.858788612895296 0 -49.858788612895296 223.17947714778711 0 0 0 0 -65.584895116179723 -56.754713794653071 0 -56.754713794653071 231.67979344865307 0 0 0 0 -72.230033513939816 -39.984976291510975 0 -39.984976291510975 249.97853473297437 0 0 0 0 -72.138777818458266 -42.636370594158507 0 -42.636370594158507 214.47861614238354 0 0 0 0 -73.348586090827666 -52.977253909062711 0 -52.977253909062711 222.30421046960691 0 0 0 0 -62.978574786139916 -57.505111961952935 0 -57.505111961952935 202.6078992865514 0 0 0 0 -65.824534174500513 -64.644204824624467 0 -64.644204824624467 187.34427768953901 0 0 0 0 -24.47582380699896 -45.971095929155126 0 -45.971095929155126 195.76603640890971 0 0 0 0 -59.170098673541816 -31.619759964101831 0 -31.619759964101831 181.16252527214237 0 0 0 0 -53.157812773812111 -42.882483468223654 0 -42.882483468223654 198.21965322850156 0 0 0 0 19.966075303805155 -62.243323985181632 0 -62.243323985181632 160.82573259511264 0 0 0 0 -31.830776811940268 -19.269232163496781 0 -19.269232163496781 125.35217129570083 0 0 0 0 -62.274672004261447 -39.63325158508087 0 -39.63325158508087 180.97294122059247 0 0 0 0 -48.288928162023694 -16.738880763878115 0 -16.738880763878115 107.84317278166418 0 0 0 0 -54.795278089948624 -9.4376733675017022 0 -9.4376733675017022 202.68051234204904 0 0 0 0 -37.4170878904456 50.716511351623922 0 50.716511351623922 168.06133795826463 0 0 0 0 -51.526421074092696 -9.5154837344489351 0 -9.5154837344489351 229.14936925360234 0 0 0 0 -57.660626350978418 -25.75248964833736 0 -25.75248964833736 191.53132427227683 0 0 0 0 -69.450449801443028 -27.404612037309562 0 -27.404612037309562 225.68726162538223 0 0 0 0 -8.8515366793699286 12.525220513198292 0 12.525220513198292 164.58485957038647 0 0 0 0 -5.2339549612888732 -88.111351735351491 0 -88.111351735351491 188.45187625967083 0 0 0 0 -22.32813816850387 -52.932526069434061 0 -52.932526069434061 228.28071604511933 0 0 0 0 -8.0085833689809078 -21.260332096993807 0 -21.260332096993807 152.25003721268149 0 0 0 0 -20.117453715754209 -42.706843658852449 0 -42.706843658852449 143.52246804887545 0 0 0 0 -17.996451168630301 28.114032556783059 0 28.114032556783059 365.4918314874958 0 0 0 0 2.8986488341242875 -110.82589490439568 0 -110.82589490439568 253.81120291542902 0 0 0 0 -0.91425366791463603 -59.408620140893618 0 -59.408620140893618 200.21930469096696 0 0 0 0 -21.734043608377277 -82.413558135611311 0 -82.413558135611311 180.08533775230171 0 0 0 0 -18.872058554323303 -73.561061913875164 0 -73.561061913875164 174.69491957335413 0 0 0 0 -5.9991897317709117 -72.428203578689136 0 -72.428203578689136 162.2422246792994 0 0 0 0 -4.5402440118468803 -90.235480923947762 0 -90.235480923947762 149.38891424140456 0 0 0 0 3.9280430865128437 -34.9804346397068 0 -34.9804346397068 150.05661373842668 0 0 0 0 -1.4318623358130935 -67.317754921532469 0 -67.317754921532469 167.8860523312178 0 0 0 0 95.927449937803431 -203.41871302145228 0 -203.41871302145228 25.768871403895901 0 0 0 0 13.347053678663048 -74.668936620686054 0 -74.668936620686054 124.8939938162554 0 0 0 0 1.3081194826100893 -21.90787460199742 0 -21.90787460199742 31.741377422565733 0 0 0 0 10.964777921813948 -67.052549670479493 0 -67.052549670479493 124.55694908193254 0 0 0 0 9.6204172455286425 -31.834334534974914 0 -31.834334534974914 87.161585495370673 0 0 0 0 -0.076693022930385268 -7.5166008776432136 0 -7.5166008776432136 42.897537848417414 0 0 0 0 -8.2587294626810035 15.414653398154769 0 15.414653398154769 62.535579154267907 0 0 0 0 -3.2317345015717365 -3.2746082247467712 0 -3.2746082247467712 44.052821831630354 0 0 0 0 112.59223840721234 14.575476157249796 0 14.575476157249796 17.123942175385309 0 0 0 0 0.28611572826916465 2.3810577762757674 0 2.3810577762757674 11.634986076138944 0 0 0 0 351.67405990681618 87.411867308081128 0 87.411867308081128 37.277901511231903 0 0 0 0 -2.7538789464797411 -1.4533655475123339 0 -1.4533655475123339 7.2026076121257461 0 0 0 0 4.5069705386345049 -4.053988507403119 0 -4.053988507403119 5.8579395165143069 0 0 0 0 -42.678809583878319 -191.59335952038236 0 -191.59335952038236 -74.506269570876611 0 0 0 0 -230.53917487671697 -66.796643679470435 0 -66.796643679470435 112.74958144914126 0 0 0 0 37.254105749881091 104.81655883005442 0 104.81655883005442 95.478655441605952 0 0 0 0 -111.25459274512104 -21.096844770829193 0 -21.096844770829193 154.73779169211048 0 0 0 0 17.117313282597024 83.509357805087348 0 83.509357805087348 227.0527291909093 0 0 0 0 87.585822104805175 -26.466865933725785 0 -26.466865933725785 279.29337615010445 0 0 0 0 -174.26904573791262 70.997883771276975 0 70.997883771276975 27.552522957499605 0 0 0 0 50.501528333079477 -173.43532953501563 0 -173.43532953501563 -391.16819087009208 0 0 0 0 -11.100495809118286 -408.34226227239697 0 -408.34226227239697 232.58249115280341 0 0 0 0 1.7550920593184856 -278.3663707934611 0 -278.3663707934611 -359.15933698876324 0 0 0 0 3.72023911393444 -12.220868102711393 0 -12.220868102711393 86.664555616895086 0 0 0 0 -0.59626182420801577 -2.5184074732343618 0 -2.5184074732343618 2.4529202891935711 0 0 0 0 4.5647601743075938 -10.023787250524038 0 -10.023787250524038 87.400563446746673 0 0 0 0 -43.809670792163161 -141.5897212435375 0 -141.5897212435375 -338.99729162712174 0 0 0 0 -0.55175564961336931 -1.1583956272984608 0 -1.1583956272984608 1.4165914112952294 0 0 0 0 -149.48327192552551 -176.9454510323776 0 -176.9454510323776 -350.41944265516941 0 0 0 0 3.2098409441750846 10.112216816574801 0 10.112216816574801 323.21099627640797 0 0 0 0 1.2110359449593471 -1.8890585791850185 0 -1.8890585791850185 1.3874906595400205 0 0 0 0 18.048402858277768 -2.373099687800277 0 -2.373099687800277 333.58181121047528 0 0 0 0 -21.224594856669036 -38.208991783384135 0 -38.208991783384135 14.39134694103268 0 0 0 0 -1.588596441544821 -1.318073342720794 0 -1.318073342720794 1.2940135802744592 0 0 0 0 -16.091481053005282 41.57091576953826 0 41.57091576953826 319.41767314646859 0 0 0 0 -8.2765048005762765 41.039529747969937 0 41.039529747969937 432.47363470178971 0 0 0 0 -3.3938143076038614 41.817119291939889 0 41.817119291939889 353.80954074692272 0 0 0 0 30.475931347791629 40.031136578938458 0 40.031136578938458 350.93702720626607 0 0 0 0 -38.725765386541752 79.991647226881469 0 79.991647226881469 349.74724166686065 0 0 0 0 -53.763137936386556 153.93895978170622 0 153.93895978170622 212.57741462365811 0 0 0 0 -49.632566290818886 83.206689878519683 0 83.206689878519683 526.32513094277238 0 0 0 0 -101.93683625283666 181.11739184262115 0 181.11739184262115 526.60365764820017 0 0 0 0 -44.425676168132668 117.1953720408419 0 117.1953720408419 339.05975060813944 0 0 0 0 -84.37834761756676 41.751344186981441 0 41.751344186981441 528.18568298786977 0 0 0 0 -92.872807851323159 11.820581706166195 0 11.820581706166195 656.32197001358145 0 0 0 0 -71.494647430168243 9.0531534616093268 0 9.0531534616093268 601.93213967428892 0 0 0 0 -20.757331534178661 48.474280225716939 0 48.474280225716939 694.72588789657311 0 0 0 0 -46.862763499856953 76.053231312087519 0 76.053231312087519 753.16924849555653 0 0 0 0 4.9064815247646854 -2.4954662408038075 0 -2.4954662408038075 1.7467780581930015 0 0 0 0 -23.57588729787733 57.194121171256484 0 57.194121171256484 805.69542472792091 0 0 0 0 -79.257963048382862 84.760823096941749 0 84.760823096941749 896.32748714945774 0 0 0 0 -82.103285436998704 272.27674011331692 0 272.27674011331692 1009.5573223967149 0 0 0 0 -36.249358216818564 -83.98806105519725 0 -83.98806105519725 1330.4233909418108 0 0 0 0 8.5261138280680342 -2.1632082812438398 0 -2.1632082812438398 1.3344713157321735 0 0 0 0 115.37331847348378 86.801409138141025 0 86.801409138141025 601.36860960726335 0 0 0 0 -97.764411002694033 249.45951338868326 0 249.45951338868326 793.31875650931033 0 0 0 0 130.63166062280652 -165.7039733191923 0 -165.7039733191923 850.58349377393097 0 0 0 0 291.27475330808829 -235.78313982674445 0 -235.78313982674445 353.81209056247644 0 0 0 0 -130.17647673125612 17.825122026159079 0 17.825122026159079 756.52115973179752 0 0 0 0 -105.2458430920442 153.89160312006425 0 153.89160312006425 703.9585699712552 0 0 0 0 15.814130071378713 217.16396256180815 0 217.16396256180815 392.96111084194854 0 0 0 0 82.5808413478685 119.11760343761853 0 119.11760343761853 36.801380555378273 0 0 0 0 -22.360506588227508 6.4164726054004859 0 6.4164726054004859 21.497912803111831 0 0 0 0 0.037042657544818169 0.65167726439855755 0 0.65167726439855755 6.6616038767156169 0 0 0 0 218.34368387973791 -142.91607764654327 0 -142.91607764654327 519.80721152183833 0 0 0 0 199.19998034076661 -303.7193983520483 0 -303.7193983520483 560.59944098169217 0 0 0 0 1.1110107243303915 -0.77279162483978325 0 -0.77279162483978325 2.0781945622474325 0 0 0 0 264.21063312468823 -344.08357358754074 0 -344.08357358754074 275.97487950976938 0 0 0 0 147.71152891392285 11.951871010955074 0 11.951871010955074 411.50873694390611 0 0 0 0 438.16014439208629 -278.21886555897072 0 -278.21886555897072 187.91946085508971 0 0 0 0 145.54060906907398 -145.37597872332844 0 -145.37597872332844 189.35607712833735 0 0 0 0 -66.910084054128674 -223.59640474845946 0 -223.59640474845946 159.83706997349509 0 0 0 0 -61.68713348673009 -132.42063194749062 0 -132.42063194749062 273.89414390469028 0 0 0 0 423.54662920157261 -54.017207948767464 0 -54.017207948767464 131.49101125194284 0 0 0 0 -54.61396460267224 -100.55841371226416 0 -100.55841371226416 182.35404351068428 0 0 0 0 -50.291556936373809 -125.05812807855909 0 -125.05812807855909 317.54402543240576 0 0 0 0 292.95549544825735 1.9981034818738408 0 1.9981034818738408 287.55475956841838 0 0 0 0 376.68862815396824 217.52718881442706 0 217.52718881442706 399.81835801906345 0 0 0 0 258.27334122953016 85.054310947663907 0 85.054310947663907 522.22023111404997 0 0 0 0 4.9611289965951713 -0.97252867509027396 0 -0.97252867509027396 0.96386592211204913 0 0 0 0 203.45863118684474 287.10844976695444 0 287.10844976695444 431.57620795347611 0 0 0 0 -185.26102245021184 -218.76643136328494 0 -218.76643136328494 522.49104098335374 0 0 0 0 97.444893929327918 716.54209682689907 0 716.54209682689907 23.300728624570183 0 0 0 0 248.41488530662446 290.03748351248942 0 290.03748351248942 1112.7387390134973 0 0 0 0 237.58636310918564 -484.43206215804821 0 -484.43206215804821 755.52818450797349 0 0 0 0 -102.55712131189102 -519.03121362635284 0 -519.03121362635284 1181.5769294540405 0 0 0 0 580.0935839520489 -1048.0977196098465 0 -1048.0977196098465 1681.0972883258503 0 0 0 0 0.44366017943083058 1.9758053999151315 0 1.9758053999151315 10.065315991336774 0 0 0 0 -562.58613249116934 251.19831586915461 0 251.19831586915461 170.59669053202379 0 0 0 0 -0.29103874788219919 7.1527145762857884 0 7.1527145762857884 22.129202613996313 0 0 0 0 7.4022037020968128 -168.22849184780898 0 -168.22849184780898 602.067218373777 0 0 0 0 188.29300955174767 -300.55702324599406 0 -300.55702324599406 455.6856074702082 0 0 0 0 12.725766506023115 -7.606849590315619 0 -7.606849590315619 40.378637359167328 0 0 0 0 61.539842069902988 -48.573264558530354 0 -48.573264558530354 112.21664135831088 0 0 0 0 116.75244116839895 3.5316279788967222 0 3.5316279788967222 143.19741607688775 0 0 0 0 -181.56380442394584 -185.08104404836195 0 -185.08104404836195 196.98304104128965 0 0 0 0 -300.9018453519202 -121.85880273435032 0 -121.85880273435032 208.0179704084876 0 0 0 0 -168.73111035202601 -163.70681984373368 0 -163.70681984373368 169.09853970614495 0 0 0 0 -164.26667199110489 -183.72039673788822 0 -183.72039673788822 236.84523011794954 0 0 0 0 -189.84477363836686 -191.55419709457783 0 -191.55419709457783 152.10247049800819 0 0 0 0 -197.10989348853946 -170.33883166812302 0 -170.33883166812302 110.86848062256468 0 0 0 0 -160.62589452099564 -201.77011052469607 0 -201.77011052469607 38.960412093307241 0 0 0 0 -128.3345242233745 -180.43195548462973 0 -180.43195548462973 135.8795519665 0 0 0 0 -172.18285677229869 -234.73500113081536 0 -234.73500113081536 137.05409481427341 0 0 0 0 -318.14265049300832 -25.781215239474477 0 -25.781215239474477 139.77182182302931 0 0 0 0 -253.145070666229 -70.663332155207172 0 -70.663332155207172 158.49999324028613 0 0 0 0 -139.48763631756947 -72.614165788800165 0 -72.614165788800165 87.163379762117984 0 0 0 0 13.296778018028817 -118.96958473578707 0 -118.96958473578707 94.011518561368575 0 0 0 0 46.224576663256201 -80.921001545446302 0 -80.921001545446302 57.953535737896289 0 0 0 0 -13.598166239256379 -14.265616291349033 0 -14.265616291349033 28.509198883935255 0 0 0 0 -33.758545951018405 -45.298048973926086 0 -45.298048973926086 -1.031350308726843 0 0 0 0 150.04204747040785 -134.43166918278439 0 -134.43166918278439 66.656928734373651 0 0 0 0 11.606791242925492 -22.296017132734619 0 -22.296017132734619 19.320895389050747 0 0 0 0 9.5131740153337887 -153.2729597545549 0 -153.2729597545549 100.22609447738796 0 0 0 0 -368.1026036680596 140.86282949512679 0 140.86282949512679 1116.5324454065994 0 0 0 0 171.93396056346319 -319.25078352620039 0 -319.25078352620039 60.251960598558071 0 0 0 0 125.35458174530413 -238.45531978368672 0 -238.45531978368672 10.302616595690779 0 0 0 0 209.31489795526522 -275.67688864873344 0 -275.67688864873344 -22.606180120521458 0 0 0 0 -61.874003515309596 120.04769257305088 0 120.04769257305088 94.871279278417205 0 0 0 0 1.5199237356076001 -4.2001479633243974 0 -4.2001479633243974 8.1082419374650669 0 0 0 0 -122.71950248380517 38.451752392216804 0 38.451752392216804 0.76518817832402419 0 0 0 0 5.352121425605235 -63.344374266593107 0 -63.344374266593107 105.80348110668496 0 0 0 0 -149.44917101946589 -988.43177811998567 0 -988.43177811998567 971.27000269433483 0 0 0 0 -188.59739647175957 -282.11226765946776 0 -282.11226765946776 64.001868521037977 0 0 0 0 -223.04330165424608 -231.09565895870765 0 -231.09565895870765 140.90593587970943 0 0 0 0 47.072729341773083 -279.86808500949701 0 -279.86808500949701 132.54844249089365 0 0 0 0 -72.963959937254003 -140.12023724323808 0 -140.12023724323808 -25.694861505064182 0 0 0 0 -36.620006823769472 -180.63223707389261 0 -180.63223707389261 18.638562223799454 0 0 0 0 155.42900702769111 -78.023142527195887 0 -78.023142527195887 46.361612752880319 0 0 0 0 169.92911234618714 -34.898979455785593 0 -34.898979455785593 -27.037946193144307 0 0 0 0 12.434645850002092 -63.159426187383644 0 -63.159426187383644 101.40194128507812 0 0 0 0 -148.10202405522978 80.881863493948913 0 80.881863493948913 331.58812305378524 0 0 0 0 -8.6889128069587969 -301.45521414128598 0 -301.45521414128598 -134.27534687330262 0 0 0 0 191.11409123752401 17.238535603864875 0 17.238535603864875 -159.44775528123137 0 0 0 0 11.522330610906394 -62.54031980165712 0 -62.54031980165712 102.71954649618573 0 0 0 0 66.31460841497983 -159.40391415282284 0 -159.40391415282284 -88.791578517513699 0 0 0 0 188.62547793591057 -4.2693620721584011 0 -4.2693620721584011 113.31905290314899 0 0 0 0 2.5290419965954314 -21.87320935642223 0 -21.87320935642223 8.1838565977695623 0 0 0 0 -87.774404881598457 -173.62193446966921 0 -173.62193446966921 9.567761959930067 0 0 0 0 -103.1380148824037 241.62384014729469 0 241.62384014729469 -264.87502223798947 0 0 0 0 -185.4820199883161 -56.837531746314198 0 -56.837531746314198 -127.60386689188454 0 0 0 0 -381.32534898845552 -258.01958504316281 0 -258.01958504316281 68.405112788186671 0 0 0 0 82.488961416557686 -226.93840930394072 0 -226.93840930394072 -57.82430632168689 0 0 0 0 -223.4304582679888 -77.488124192881514 0 -77.488124192881514 57.981899735124898 0 0 0 0 175.30507909815788 -202.03200990993355 0 -202.03200990993355 -100.77067204240302 0 0 0 0 -466.44189733599296 26.70298367525902 0 26.70298367525902 135.30463138870255 0 0 0 0 1.65043750936238 -8.3237251252267281 0 -8.3237251252267281 24.190705255894756 0 0 0 0 -158.19943440502175 -103.78968130978319 0 -103.78968130978319 -117.16620530042201 0 0 0 0 -269.62718922024942 165.8175923673989 0 165.8175923673989 82.848046268001781 0 0 0 0 -212.15956972138702 -78.973051575900172 0 -78.973051575900172 218.4081839765222 0 0 0 0 -101.04260129447266 24.87959058434717 0 24.87959058434717 189.21323226782988 0 0 0 0 59.893669866743949 -158.37164070195513 0 -158.37164070195513 52.840081350470427 0 0 0 0 -176.64041818180613 -112.95562678674469 0 -112.95562678674469 140.02788663235333 0 0 0 0 2.097216866368024 -11.341947517019742 0 -11.341947517019742 29.517746814267639 0 0 0 0 -573.32963471372568 -217.11566238113119 0 -217.11566238113119 109.08964915535762 0 0 0 0 591.01969803935935 -158.89500782539108 0 -158.89500782539108 -377.40467198978695 0 0 0 0 -1370.1838128606087 -32.103164650347026 0 -32.103164650347026 1906.035718339961 0 0 0 0 274.15956597665263 -625.13832978577557 0 -625.13832978577557 563.34483207607991 0 0 0 0 10.068966433913829 51.771512883113246 0 51.771512883113246 261.24349673026882 0 0 0 0 165.24915104252068 405.00912891991175 0 405.00912891991175 937.10862225714118 0 0 0 0 798.42183902931993 -558.39408247388928 0 -558.39408247388928 -958.01257890475972 0 0 0 0 5.2309877016156996 -8.5234661231987943 0 -8.5234661231987943 13.634362519703785 0 0 0 0 634.89996823730871 -711.55453416443925 0 -711.55453416443925 -664.6707328904522 0 0 0 0 2.8493587641702316 -8.0917107728452571 0 -8.0917107728452571 12.959681319829087 0 0 0 0 70.940583353611146 98.347249327980535 0 98.347249327980535 207.49885382514913 0 0 0 0 -1189.5786582803858 -834.75507720768292 0 -834.75507720768292 1022.4668653330518 0 0 0 0 6.7306347617635218 -17.994352868325095 0 -17.994352868325095 41.129285502043757 0 0 0 0 11.588043318208292 47.213184548658319 0 47.213184548658319 256.98499736085796 0 0 0 0 276.07973634869995 249.34307460337368 0 249.34307460337368 -42.369030965870479 0 0 0 0 471.36425536909883 -378.55513040604274 0 -378.55513040604274 316.71607650057558 0 0 0 0 -166.67303005927147 -22.859671539559713 0 -22.859671539559713 524.38349794602254 0 0 0 0 -248.61159922204934 -258.59337485086871 0 -258.59337485086871 909.47130414432468 0 0 0 0 -444.14373989704109 89.502412166415525 0 89.502412166415525 587.94440537970513 0 0 0 0 -278.16199448519546 70.163586166883761 0 70.163586166883761 565.17871527934039 0 0 0 0 -181.62094146216623 82.788499708745803 0 82.788499708745803 260.16211250642118 0 0 0 0 -161.2756811761883 9.401295098290575 0 9.401295098290575 519.50100590629154 0 0 0 0 -174.0359027219929 -1.8845098228885035 0 -1.8845098228885035 473.97767820333684 0 0 0 0 75.014723302998391 -13.54908770230395 0 -13.54908770230395 267.9532713507142 0 0 0 0 -60.346600881113091 28.407940711744686 0 28.407940711744686 469.67587037558405 0 0 0 0 68.823223837757268 -44.958301503961593 0 -44.958301503961593 207.69108410307672 0 0 0 0 48.142791759915781 -19.71500096777163 0 -19.71500096777163 177.8709813910682 0 0 0 0 3.6505430037486803 110.93693124560741 0 110.93693124560741 244.7913927316331 0 0 0 0 -119.26754904747395 6.6394618384729256 0 6.6394618384729256 266.45891240859464 0 0 0 0 -48.04549531702196 -4.85671212806119 0 -4.85671212806119 34.272213915988686 0 0 0 0 -0.88183637960105443 -1.3834591745173483 0 -1.3834591745173483 2.1220878004987753 0 0 0 0 54.529678646324101 84.018227937045594 0 84.018227937045594 8.5078467146595358 0 0 0 0 90.187158549015294 139.16507504630954 0 139.16507504630954 67.662801670769113 0 0 0 0 -59.981216652618969 19.706705579821573 0 19.706705579821573 35.405350914043083 0 0 0 0 -38.140647601087039 20.85629683019215 0 20.85629683019215 18.395568648040353 0 0 0 0 -0.8943001082996096 -1.1336083647213542 0 -1.1336083647213542 3.2381507106277638 0 0 0 0 -51.841924992351778 73.0016463136526 0 73.0016463136526 21.122601106057118 0 0 0 0 -66.465940025973396 35.447036471732645 0 35.447036471732645 -1.2281349186232546 0 0 0 0 -54.478040031658566 13.619844195071892 0 13.619844195071892 197.33083773613907 0 0 0 0 -53.997913672348659 45.174033050789149 0 45.174033050789149 248.4020893940542 0 0 0 0 -49.457407419457013 49.868364119414764 0 49.868364119414764 139.62590716779232 0 0 0 0 -56.904598359622469 37.032202160611632 0 37.032202160611632 169.11920810361335 0 0 0 0 -53.890671629233111 -26.759219167644915 0 -26.759219167644915 56.791551481292117 0 0 0 0 -40.548485133756913 -38.149527037348889 0 -38.149527037348889 46.222188148676651 0 0 0 0 -9.4430008032818051 0.82937082833029052 0 0.82937082833029052 17.133796174557389 0 0 0 0 -33.257195923106337 -15.7819480287435 0 -15.7819480287435 60.425185953841719 0 0 0 0 -20.72980792276212 -30.952764951012796 0 -30.952764951012796 41.776509377094044 0 0 0 0 -66.125860759915668 46.221073452456039 0 46.221073452456039 151.12720734943287 0 0 0 0 -52.432455086527625 -20.323757215373917 0 -20.323757215373917 67.633818604750559 0 0 0 0 -53.347798978579249 -24.012176940052996 0 -24.012176940052996 66.902895050749066 0 0 0 0 -25.606386422316064 47.47797690923835 0 47.47797690923835 52.976385660464075 0 0 0 0 -56.098458971771834 54.442716714689595 0 54.442716714689595 121.32261769983597 0 0 0 0 -69.190165720148798 88.929170569201233 0 88.929170569201233 103.05753292071677 0 0 0 0 -79.416433990065343 109.16809301584362 0 109.16809301584362 120.65380165689567 0 0 0 0 -53.219464641120794 135.07576360410167 0 135.07576360410167 101.01887348065065 0 0 0 0 -99.254681665215685 114.33322505006072 0 114.33322505006072 134.52000465898891 0 0 0 0 -77.96872826929939 66.592422033239927 0 66.592422033239927 158.95167739644239 0 0 0 0 -78.62562707786492 71.892294948425842 0 71.892294948425842 149.96848321378639 0 0 0 0 -112.43241363684137 37.478369593205571 0 37.478369593205571 173.84927390902885 0 0 0 0 -146.57304698065491 79.071841301389213 0 79.071841301389213 153.46211441218838 0 0 0 0 -181.22843719176308 93.698803827435768 0 93.698803827435768 132.17780000375933 0 0 0 0 -179.51933849442139 92.676025678076257 0 92.676025678076257 129.98952875625946 0 0 0 0 -93.33988969789425 182.1717077299927 0 182.1717077299927 94.940804655372631 0 0 0 0 16.988313318510336 109.29130207757044 0 109.29130207757044 98.956451889681375 0 0 0 0 126.89314504674985 37.993620920431567 0 37.993620920431567 67.71396390499558 0 0 0 0 -688.44225387556435 -141.49152647349365 0 -141.49152647349365 98.176479754089087 0 0 0 0 -374.7593730777553 304.82201933021133 0 304.82201933021133 169.01121996898291 0 0 0 0 7.3175409936629876 12.806645995864528 0 12.806645995864528 139.54949244421732 0 0 0 0 -8.5480361225536399 -30.546987370536954 0 -30.546987370536954 85.737013100719196 0 0 0 0 7.7399049872237633 -22.729829120420085 0 -22.729829120420085 57.402696229244498 0 0 0 0 37.794835629309091 -4.7339113858761266 0 -4.7339113858761266 79.428974584637103 0 0 0 0 17.399599706237495 -26.243476944611757 0 -26.243476944611757 111.23748347209767 0 0 0 0 11.218186226622493 -51.574913525135344 0 -51.574913525135344 79.938928886588997 0 0 0 0 -4.5214004877829872 -3.3562837597876438 0 -3.3562837597876438 55.239557157772424 0 0 0 0 6.8630128764479217 -21.503309720205333 0 -21.503309720205333 71.178199003884515 0 0 0 0 -253.19492946921673 47.700382234401332 0 47.700382234401332 147.49012608818884 0 0 0 0 -258.90814972316923 -66.173966984636991 0 -66.173966984636991 127.13725224984228 0 0 0 0 -121.49746825228431 44.222802903979755 0 44.222802903979755 133.22695924654545 0 0 0 0 -146.69097976701596 52.936659688399232 0 52.936659688399232 166.92816813052923 0 0 0 0 -88.751274953865504 16.909486063828808 0 16.909486063828808 177.64182843829622 0 0 0 0 -104.25545289590809 7.4640462427323655 0 7.4640462427323655 176.95119728308055 0 0 0 0 -25.404138448451704 -62.955912785122564 0 -62.955912785122564 250.08653055780451 0 0 0 0 -31.481157490568876 -30.72603891439212 0 -30.72603891439212 171.2714176871159 0 0 0 0 -89.278230295512003 -42.391686928553099 0 -42.391686928553099 207.16047975125548 0 0 0 0 -9.8671552165027165 -16.882998388777295 0 -16.882998388777295 29.114146150561709 0 0 0 0 -63.008469315478578 22.486938337940956 0 22.486938337940956 68.893837537412765 0 0 0 0 -149.04029800845251 -9.6591921505057599 0 -9.6591921505057599 210.29265748773469 0 0 0 0 18.959882848956113 -34.625193010775547 0 -34.625193010775547 105.54269548026787 0 0 0 0 18.878681885058541 -32.771078262179799 0 -32.771078262179799 114.30655331755406 0 0 0 0 0.47642402681378115 11.364497610649892 0 11.364497610649892 54.667095960244353 0 0 0 0 9.1367346301526169 -35.648871539638058 0 -35.648871539638058 110.33254668071015 0 0 0 0 -7.6876137067847594 -36.287479092479771 0 -36.287479092479771 171.51038519198482 0 0 0 0 -3.2806001851693853 -11.336566911578046 0 -11.336566911578046 91.946182145375872 0 0 0 0 28.865335199309811 9.4999114395104698 0 9.4999114395104698 110.37931489210314 0 0 0 0 -8.8247430003623322 -20.514997683999354 0 -20.514997683999354 89.430851329918369 0 0 0 0 -15.857796202687968 12.59667919776561 0 12.59667919776561 67.308452950064776 0 0 0 0 -7.678120093230973 -16.585440092581848 0 -16.585440092581848 96.185939709685044 0 0 0 0 -35.028008435408992 -3.9639840017807728 0 -3.9639840017807728 158.31736120541973 0 0 0 0 -13.202149054122856 -6.8131747113657184 0 -6.8131747113657184 147.53108586271992 0 0 0 0 -22.073493487064894 -10.029230737343568 0 -10.029230737343568 36.172089109395131 0 0 0 0 -3.7019752695961454 10.412034426099705 0 10.412034426099705 1.1883874435620783 0 0 0 0 22.642105381222791 117.57713676156709 0 117.57713676156709 157.39603719324805 0 0 0 0 -57.366049717013084 -8.9250402493562433 0 -8.9250402493562433 176.62966829653669 0 0 0 0 -42.124237032578094 16.940224255995417 0 16.940224255995417 196.15550029784208 0 0 0 0 -73.447203124997031 -4.5762549367791507 0 -4.5762549367791507 181.64087754442153 0 0 0 0 -4.6795456317186108 2.9159517435327871 0 2.9159517435327871 97.329787682629103 0 0 0 0 9.6424488022457808 -23.780165307063726 0 -23.780165307063726 83.608441253694764 0 0 0 0 8.3663699764219928 -27.829642667820735 0 -27.829642667820735 140.78537894639157 0 0 0 0 -15.791035591341231 0.33238218140476761 0 0.33238218140476761 49.98591094287346 0 0 0 0 -69.804666713369897 -14.703613897952891 0 -14.703613897952891 128.84180917451158 0 0 0 0 -30.133118231824483 -35.909441973257344 0 -35.909441973257344 106.70159825604787 0 0 0 0 -4.7706215469771713 -12.817913531485416 0 -12.817913531485416 85.492585826594507 0 0 0 0 -19.147749851132176 39.961573877102637 0 39.961573877102637 84.275316386308987 0 0 0 0 -5.7385540664540713 -8.2246487559896195 0 -8.2246487559896195 233.01159684121376 0 0 0 0 -1.2730564350383524 -7.4222413629471475 0 -7.4222413629471475 23.484816867699038 0 0 0 0 16.704709768079738 -27.848173092010256 0 -27.848173092010256 117.04543632268906 0 0 0 0 9.834912495844037 -18.561126299762691 0 -18.561126299762691 109.16718707350083 0 0 0 0 20.511232348460908 -30.336807859494002 0 -30.336807859494002 109.84685384950717 0 0 0 0 17.391817525156512 -42.057182769167412 0 -42.057182769167412 119.59600185895397 0 0 0 0 -2.5398247419689142 35.856849914518534 0 35.856849914518534 130.27888691541739 0 0 0 0 37.225603857527858 -13.414126302945078 0 -13.414126302945078 162.95859484659741 0 0 0 0 2.9546291480606914 -18.300584520664948 0 -18.300584520664948 92.451118777658962 0 0 0 0 12.530485835863146 -7.8028323980179266 0 -7.8028323980179266 65.040607805756736 0 0 0 0 -4.9054324316557043 7.9194864295742775 0 7.9194864295742775 78.496471770482913 0 0 0 0 -3.8188246833169615 -16.224390215505991 0 -16.224390215505991 151.37888872766052 0 0 0 0 31.793969375725283 53.926403201148787 0 53.926403201148787 125.14714529902267 0 0 0 0 14.973271099005615 24.620000032657117 0 24.620000032657117 128.38797985792917 0 0 0 0 61.175977859873456 -21.651644658108125 0 -21.651644658108125 184.35225023580369 0 0 0 0 1.4874993903204903 36.569708033496141 0 36.569708033496141 123.5645384624755 0 0 0 0 2.7205994108771847 30.950818952725967 0 30.950818952725967 109.03099476516945 0 0 0 0 -13.560498500271777 1.2233972697229945 0 1.2233972697229945 129.40467737417566 0 0 0 0 27.299469555608994 0.45079625121434219 0 0.45079625121434219 202.04145027243067 0 0 0 0 47.902181939033653 4.8938892080295773 0 4.8938892080295773 170.8614325679664 0 0 0 0 41.329764558084207 18.342990914330585 0 18.342990914330585 155.45370834834466 0 0 0 0 60.467893115030165 -8.7432584139569371 0 -8.7432584139569371 149.54224759990757 0 0 0 0 1.8748170468195795 49.970766582492843 0 49.970766582492843 116.58349693953483 0 0 0 0 17.433544638668536 27.293134759172972 0 27.293134759172972 131.76106891611926 0 0 0 0 20.644432704322753 13.970908918541681 0 13.970908918541681 186.56774668941216 0 0 0 0 45.853390206089898 46.069786448402738 0 46.069786448402738 100.8069975394701 0 0 0 0 14.462433312914072 50.88597664376357 0 50.88597664376357 207.7265651011403 0 0 0 0 11.011680104267725 41.748588429261872 0 41.748588429261872 205.25343834058913 0 0 0 0 -22.918380375405832 0.31130052064690972 0 0.31130052064690972 202.58943985849328 0 0 0 0 -17.98320377401501 24.512036622696542 0 24.512036622696542 256.24485298954824 0 0 0 0 -33.502242906064566 -4.001127659183112 0 -4.001127659183112 237.5941978686933 0 0 0 0 -26.723405821760025 28.897224235039175 0 28.897224235039175 395.1301573459059 0 0 0 0 125.351725581148 -291.04092942964235 0 -291.04092942964235 285.97749781249149 0 0 0 0 -87.543964454647721 -18.566947766848898 0 -18.566947766848898 303.64427236406482 0 0 0 0 -77.14537300517145 -87.411419347628907 0 -87.411419347628907 191.02806329769373 0 0 0 0 -8.1222170028158871 -82.12919244087243 0 -82.12919244087243 146.54325310650165 0 0 0 0 15.523487506724743 -78.031554160266353 0 -78.031554160266353 125.26421413878262 0 0 0 0 -6.0238875779355112 -87.023043063913065 0 -87.023043063913065 131.4216375912074 0 0 0 0 -40.466397752761623 -97.821034687498468 0 -97.821034687498468 147.45478268503211 0 0 0 0 18.577147615461193 -79.303662744372858 0 -79.303662744372858 125.78719000861082 0 0 0 0 37.708831568061214 -6.2134211499505909 0 -6.2134211499505909 188.32183019143486 0 0 0 0 -43.127757905858743 -117.08261799991305 0 -117.08261799991305 115.00448104061797 0 0 0 0 -43.655871785965246 -102.95791784785979 0 -102.95791784785979 108.97350736321823 0 0 0 0 32.900066917965887 -25.298582693609205 0 -25.298582693609205 197.78762660683424 0 0 0 0 -86.366598656822134 -106.922477191285 0 -106.922477191285 120.13509328749205 0 0 0 0 -60.235098222367697 -74.46590429614298 0 -74.46590429614298 135.53707611004938 0 0 0 0 -86.788960731861835 -85.927935861000151 0 -85.927935861000151 166.54397861042526 0 0 0 0 -91.189625933793195 -108.67949571648205 0 -108.67949571648205 112.29614504726123 0 0 0 0 -66.008313917844134 -102.78708075238683 0 -102.78708075238683 109.87125324843146 0 0 0 0 -68.556195813791533 -81.728276253601507 0 -81.728276253601507 159.02778957641567 0 0 0 0 -60.648991557208319 -83.026706807300798 0 -83.026706807300798 159.20149313414004 0 0 0 0 -48.520770724342356 -65.682755556066695 0 -65.682755556066695 182.50243850486004 0 0 0 0 -77.150249999880998 -77.69930731675413 0 -77.69930731675413 193.45660446631518 0 0 0 0 -71.380988432633785 -66.497777684151515 0 -66.497777684151515 193.61876099609071 0 0 0 0 -68.989679313362103 -91.511039825214539 0 -91.511039825214539 168.29307011446508 0 0 0 0 -74.347505508115546 -83.097578115226497 0 -83.097578115226497 209.96375117625576 0 0 0 0 -76.147090670317993 -73.933187604721752 0 -73.933187604721752 217.84020246877117 0 0 0 0 -69.115776592847851 -71.483570818119915 0 -71.483570818119915 241.90511900376805 0 0 0 0 -66.052101083231946 -65.384621697441617 0 -65.384621697441617 209.63280983854202 0 0 0 0 -61.689146479666533 -88.32539460924454 0 -88.32539460924454 225.47306627682701 0 0 0 0 -48.934560301831198 -47.579851821450575 0 -47.579851821450575 245.11251751045347 0 0 0 0 -29.381776179730906 -54.91693029569069 0 -54.91693029569069 262.75427015927562 0 0 0 0 -62.493061503988429 -94.191574923854205 0 -94.191574923854205 141.26930787900164 0 0 0 0 -6.8327502770256388 -75.203280190169608 0 -75.203280190169608 145.27208031376358 0 0 0 0 -56.188631744820668 -96.385128193513083 0 -96.385128193513083 159.04312325300998 0 0 0 0 -50.363350912041255 -104.40798763152634 0 -104.40798763152634 31.971431882149773 0 0 0 0 -8.833623989888963 -53.639792728237808 0 -53.639792728237808 64.746603443432832 0 0 0 0 -73.820549887157782 -73.873438908703974 0 -73.873438908703974 -30.700230859380099 0 0 0 0 -42.714831658988828 -114.13002561756002 0 -114.13002561756002 16.289912150881719 0 0 0 0 -90.331249623399572 -160.88218457186304 0 -160.88218457186304 -78.157269199211441 0 0 0 0 -81.244436033162401 -62.842815967567731 0 -62.842815967567731 6.1078575262363302 0 0 0 0 -126.67555646041819 -104.06985937598074 0 -104.06985937598074 45.104107079096138 0 0 0 0 -63.71680863749134 -106.60432765229052 0 -106.60432765229052 44.055414986039978 0 0 0 0 13.195858145053466 -18.044518333413805 0 -18.044518333413805 40.485109266059453 0 0 0 0 -95.083607738977435 -151.24764185115419 0 -151.24764185115419 19.824504173535388 0 0 0 0 -106.6928228219258 -139.26035778169171 0 -139.26035778169171 123.24078358215047 0 0 0 0 -55.529712772834046 -95.403028911845468 0 -95.403028911845468 20.597800275194459 0 0 0 0 31.989149523348715 51.429676434680005 0 51.429676434680005 143.10972581757233 0 0 0 0 41.793010476245399 44.975275087403134 0 44.975275087403134 142.01024286219581 0 0 0 0 25.784319767100897 44.808815836498979 0 44.808815836498979 161.73277341849462 0 0 0 0 -3.8820955615101411 19.166354580389452 0 19.166354580389452 164.79805696946278 0 0 0 0 22.263703920709986 65.141409855667007 0 65.141409855667007 204.0269627316593 0 0 0 0 91.153438314183632 103.56659088581364 0 103.56659088581364 192.67858912679367 0 0 0 0 46.41873956857944 49.560971283135586 0 49.560971283135586 182.59613729978446 0 0 0 0 -36.374900185563092 41.477038457072922 0 41.477038457072922 196.06940572732128 0 0 0 0 -27.731387221245313 -3.1481551676479285 0 -3.1481551676479285 88.822109683751478 0 0 0 0 5.0248385263607815 44.891998598799546 0 44.891998598799546 236.77046266713296 0 0 0 0 19.311412249979185 29.668510281750059 0 29.668510281750059 149.1943055982847 0 0 0 0 -40.500226078498599 -0.73522473845514469 0 -0.73522473845514469 180.82550417089806 0 0 0 0 -9.1773855618521338 -43.393658403976588 0 -43.393658403976588 113.97387732441712 0 0 0 0 -1.183609918086832 -17.889064626010914 0 -17.889064626010914 91.794948815779208 0 0 0 0 -79.576883897132575 -71.09527236262511 0 -71.09527236262511 100.61325680625669 0 0 0 0 -44.208042008043321 -22.005542471597437 0 -22.005542471597437 112.37672339903656 0 0 0 0 -224.52497018807117 90.204805175526417 0 90.204805175526417 331.2163057382204 0 0 0 0 -55.087031030849403 -86.114791328784122 0 -86.114791328784122 119.06976177412434 0 0 0 0 -0.39256941229905351 -3.0709085727066849 0 -3.0709085727066849 206.68103224578226 0 0 0 0 52.545119313757823 28.573144120746292 0 28.573144120746292 177.8936703825384 0 0 0 0 148.04970899690011 151.31773763983074 0 151.31773763983074 271.63001992643694 0 0 0 0 -0.085939608041769588 77.014773891809455 0 77.014773891809455 301.67434933234472 0 0 0 0 3.2968485348215988 -12.954114798666296 0 -12.954114798666296 20.937502673336894 0 0 0 0 112.65270373242578 195.62549661570119 0 195.62549661570119 314.8143138049345 0 0 0 0 90.749336753469834 77.721580288911355 0 77.721580288911355 194.11768178877537 0 0 0 0 7.0435583170308789 -18.875827547684196 0 -18.875827547684196 25.442237580326264 0 0 0 0 -69.522002656786469 -153.93209288113576 0 -153.93209288113576 -126.50691902845574 0 0 0 0 -50.734337821723415 -102.20169521610296 0 -102.20169521610296 -35.560504216307891 0 0 0 0 -5.6978588857971744 -57.743103995046113 0 -57.743103995046113 -82.232362103750347 0 0 0 0 -60.953627125667737 -90.038707329673343 0 -90.038707329673343 -78.845335398116731 0 0 0 0 -67.912342078188658 -76.534977871211595 0 -76.534977871211595 -72.619201567555137 0 0 0 0 101.27408509794259 351.40145437894535 0 351.40145437894535 438.89858121500583 0 0 0 0 -50.649559646162146 -125.98029822183889 0 -125.98029822183889 -139.00681611061009 0 0 0 0 0.50278890529829301 -7.9192128400985098 0 -7.9192128400985098 14.279985339307586 0 0 0 0 154.7055181159987 116.02318742688658 0 116.02318742688658 285.23290601754707 0 0 0 0 -31.455615567162099 -58.478171128233953 0 -58.478171128233953 -86.869918419382884 0 0 0 0 -0.90124145182189142 -3.681839238954467 0 -3.681839238954467 8.3011915793802586 0 0 0 0 -43.181570671574079 -92.140813193647773 0 -92.140813193647773 -109.33893299199917 0 0 0 0 -16.890816727659697 -66.220672931493027 0 -66.220672931493027 -104.05004770677988 0 0 0 0 0.013591339018927936 -61.531376561695652 0 -61.531376561695652 -101.15646797585941 0 0 0 0 -21.440297718314511 -58.996472523154807 0 -58.996472523154807 -84.235855394748796 0 0 0 0 0.0033398923045136128 -75.389671545446618 0 -75.389671545446618 -73.012182463986392 0 0 0 0 -7.6713400544301038 -78.317605127787829 0 -78.317605127787829 -24.446440902873292 0 0 0 0 4.0631270979932594 -41.039979513720027 0 -41.039979513720027 -31.078773913628538 0 0 0 0 0.013422012342683483 -72.394338485792105 0 -72.394338485792105 24.121790480508935 0 0 0 0 11.928009957049653 -27.464485037446138 0 -27.464485037446138 74.335075080634851 0 0 0 0 8.7402465827596387 -67.07499370266305 0 -67.07499370266305 82.336917043823632 0 0 0 0 7.5836981689494394 -35.785141831504006 0 -35.785141831504006 15.628370726677531 0 0 0 0 -13.530654353942879 -77.811482753302698 0 -77.811482753302698 36.64688527090766 0 0 0 0 6.5099923167458655 -72.562670118233655 0 -72.562670118233655 -40.784239140639329 0 0 0 0 -29.79249725905413 -51.418110499558679 0 -51.418110499558679 34.56913559458917 0 0 0 0 1.2467694983653814 -92.507703003102506 0 -92.507703003102506 84.536685164028313 0 0 0 0 22.970783959764844 -34.050665676491917 0 -34.050665676491917 73.404898849061283 0 0 0 0 -39.102941822694618 -56.242766730760195 0 -56.242766730760195 156.02923422653112 0 0 0 0 54.236153325793339 -81.455324241658673 0 -81.455324241658673 161.57710810990829 0 0 0 0 55.33189547130678 -30.906274111723178 0 -30.906274111723178 262.19504542468349 0 0 0 0 -0.33237180139434486 -13.069560957283102 0 -13.069560957283102 256.57184458170377 0 0 0 0 18.684761394223358 -62.202639212817303 0 -62.202639212817303 278.94331360934302 0 0 0 0 1.8928773780975234 -55.037404167836939 0 -55.037404167836939 248.47640303865774 0 0 0 0 7.5230982552435535 -16.38403463587747 0 -16.38403463587747 303.0961245965882 0 0 0 0 0.020672302796488351 -55.704676249784825 0 -55.704676249784825 294.64900496080372 0 0 0 0 8.0146252889006604 -20.860577277118864 0 -20.860577277118864 200.12704596933327 0 0 0 0 -0.00084806351566104937 -62.426683847236191 0 -62.426683847236191 162.14320337536628 0 0 0 0 37.271764590662457 -40.607285444588342 0 -40.607285444588342 153.67334934604878 0 0 0 0 -12.791457319235604 -41.296190850996936 0 -41.296190850996936 153.69196208489302 0 0 0 0 -38.672626175797646 -10.975893169648771 0 -10.975893169648771 32.494359412051381 0 0 0 0 -135.26761292156883 -9.9753025503450772 0 -9.9753025503450772 33.349306533898925 0 0 0 0 -177.15307299346733 19.316873348907393 0 19.316873348907393 107.03286336993915 0 0 0 0 -144.38088761359958 -39.991737319665845 0 -39.991737319665845 66.437337550582015 0 0 0 0 -99.6918680512469 -4.4731573289100197 0 -4.4731573289100197 79.68036391917849 0 0 0 0 -116.52136129132342 33.33426177965157 0 33.33426177965157 109.39466975949472 0 0 0 0 -78.687056472671927 11.918850576112163 0 11.918850576112163 117.79403674776404 0 0 0 0 -78.174379254057527 -7.4281303323950851 0 -7.4281303323950851 109.63935578329256 0 0 0 0 -64.567577468916767 -5.9134553551120916 0 -5.9134553551120916 79.093920594794326 0 0 0 0 -122.4089175783503 26.791146912357362 0 26.791146912357362 138.46392986018327 0 0 0 0 -292.69729098032576 -79.470727764812182 0 -79.470727764812182 135.68613736431871 0 0 0 0 1.0416127049156549 0.074881938838984752 0 0.074881938838984752 -0.1604452194710575 0 0 0 0 -90.910945432876417 -14.725504835390893 0 -14.725504835390893 218.62192376816529 0 0 0 0 -2.9142482911497902 -1.1147774972960462 0 -1.1147774972960462 -1.1510329022398906 0 0 0 0 -85.077197045574394 41.340956651110901 0 41.340956651110901 28.057364594904357 0 0 0 0 -0.17317908197047904 -38.654885329699027 0 -38.654885329699027 -8.4593819754518336 0 0 0 0 -26.718106518370824 -24.775502424738079 0 -24.775502424738079 18.60449493068154 0 0 0 0 -139.54237763489152 -141.4132647451479 0 -141.4132647451479 -82.603977195836706 0 0 0 0 0.7860091546841983 -13.894971513125315 0 -13.894971513125315 470.05372541979887 0 0 0 0 1.7661992224500977 47.592172483156901 0 47.592172483156901 -130.55262635672625 0 0 0 0 -57.371867288092574 22.437031781824771 0 22.437031781824771 106.7810789569703 0 0 0 0 100.51224664798254 98.595716055737284 0 98.595716055737284 76.384404828222614 0 0 0 0 254.86705804237118 527.30199131347763 0 527.30199131347763 722.56651518685248 0 0 0 0 160.13159457358216 108.44522298721768 0 108.44522298721768 335.12915406331012 0 0 0 0 -0.090520492316651699 -43.378604505256071 0 -43.378604505256071 -79.923770694920677 0 0 0 0 -0.52797772391082454 -0.67677561633496452 0 -0.67677561633496452 3.2556200351377242 0 0 0 0 77.134263808386777 233.89842952716572 0 233.89842952716572 108.48459849749634 0 0 0 0 -199.68180689458654 -85.681812012262526 0 -85.681812012262526 200.69288648517977 0 0 0 0 236.66163311673807 393.08909573393612 0 393.08909573393612 478.88903407545877 0 0 0 0 7.1652472948946979 132.5594522584579 0 132.5594522584579 397.71775411465205 0 0 0 0 7.5095415786453472 -27.706600057058232 0 -27.706600057058232 160.71473242825596 0 0 0 0 -157.30679343420093 -137.17503651717197 0 -137.17503651717197 200.57247501684469 0 0 0 0 -66.476307914251834 -116.9158866251455 0 -116.9158866251455 295.62775303072704 0 0 0 0 -18.839024190997179 -61.573182501233532 0 -61.573182501233532 90.238354066736065 0 0 0 0 -320.43895774391967 -127.28263995023008 0 -127.28263995023008 89.788837851912831 0 0 0 0 -44.041145627385049 -153.95581913256319 0 -153.95581913256319 -179.17117773098289 0 0 0 0 -37.115735826318542 -74.978369956137612 0 -74.978369956137612 63.148380027516396 0 0 0 0 -18.607615472349835 -75.218208202291862 0 -75.218208202291862 55.503686414667754 0 0 0 0 -60.205133431026297 -65.255478435385157 0 -65.255478435385157 66.117358104093 0 0 0 0 -62.980682478660242 -42.569983779481845 0 -42.569983779481845 70.585280727682402 0 0 0 0 -30.333993892531907 -32.217647471698001 0 -32.217647471698001 62.697593112563482 0 0 0 0 -36.392030437556855 -16.953188665225753 0 -16.953188665225753 74.832273970270762 0 0 0 0 -89.76492827084553 -38.383746803810936 0 -38.383746803810936 96.798158421370317 0 0 0 0 -45.051579517312348 -39.607240323079168 0 -39.607240323079168 63.450266240828569 0 0 0 0 -142.90051823229851 -111.56399406214041 0 -111.56399406214041 66.046760302139319 0 0 0 0 -229.97661690126324 110.65117629785527 0 110.65117629785527 19.875164650700754 0 0 0 0 -71.705240855242664 -21.743211431552481 0 -21.743211431552481 106.28501106653857 0 0 0 0 -0.47615919138845797 -1.6682569523667325 0 -1.6682569523667325 -4.2888802455665029 0 0 0 0 26.251597171435606 -80.279958028979308 0 -80.279958028979308 114.39344098837319 0 0 0 0 -22.863066599852573 -67.532077425108582 0 -67.532077425108582 72.671850510116201 0 0 0 0 -70.4157334978199 -1.2048338376173433 0 -1.2048338376173433 80.01729282810993 0 0 0 0 -6.5393647079803365 -9.4887182212408447 0 -9.4887182212408447 16.278113288674774 0 0 0 0 -12.352663756324546 -45.596943801203452 0 -45.596943801203452 107.67214105417952 0 0 0 0 -3.5346399170680698 -19.577918432530304 0 -19.577918432530304 100.81634190847632 0 0 0 0 -12.403765373549049 -14.177643615141278 0 -14.177643615141278 116.72582785184204 0 0 0 0 -11.538242687527351 1.8628533662981397 0 1.8628533662981397 46.5018492130136 0 0 0 0 -7.1487660970442448 -14.190634615726594 0 -14.190634615726594 116.07566697166476 0 0 0 0 -14.24433169201302 -13.014899285815773 0 -13.014899285815773 86.080101497063879 0 0 0 0 -6.6162437917487722 -9.1465416678111922 0 -9.1465416678111922 69.572506224157451 0 0 0 0 -18.762929554027778 -26.319231705936545 0 -26.319231705936545 58.791814217765932 0 0 0 0 -12.134679053247055 -2.892633199604461 0 -2.892633199604461 76.551210334102507 0 0 0 0 -48.844755723397839 -24.698841498136971 0 -24.698841498136971 73.677771835908061 0 0 0 0 -26.32587532251091 -13.242656619469926 0 -13.242656619469926 68.691376971903082 0 0 0 0 -5.9912055386659571 -15.952048018928721 0 -15.952048018928721 58.787077007392554 0 0 0 0 -9.7111883319776098 -17.813589663710445 0 -17.813589663710445 65.717372450628318 0 0 0 0 -24.360672917341617 -25.290132520691259 0 -25.290132520691259 43.311272959690541 0 0 0 0 -15.80884020605151 -17.467582358147155 0 -17.467582358147155 35.682447739715855 0 0 0 0 28.984609427196119 41.825328606628318 0 41.825328606628318 128.4781992007629 0 0 0 0 2.3492361070784291 -4.1015876421484165 0 -4.1015876421484165 19.176390377998146 0 0 0 0 -10.234672545472069 -22.712389360276603 0 -22.712389360276603 51.44301536193575 0 0 0 0 15.123609054038297 18.185582517689909 0 18.185582517689909 94.43398250824248 0 0 0 0 14.548566618297485 25.946611936615227 0 25.946611936615227 95.167490582854953 0 0 0 0 -4.9925684521012954 22.608258584237774 0 22.608258584237774 158.35872778884368 0 0 0 0 2.5236854371544029 2.9668519566549492 0 2.9668519566549492 20.941016183940995 0 0 0 0 -106.27847569264196 -116.91493788342632 0 -116.91493788342632 130.23467004028498 0 0 0 0 9.9022501320891934 -4.8750499988091178 0 -4.8750499988091178 101.33828414471463 0 0 0 0 -7.6319881319416485 -13.729999760570834 0 -13.729999760570834 83.058119894898368 0 0 0 0 10.131951201385846 -7.757562265953311 0 -7.757562265953311 86.919744902246748 0 0 0 0 1.1432505739717271 -6.5908326056160149 0 -6.5908326056160149 103.58008370579046 0 0 0 0 9.26813715698961 5.1297072106710857 0 5.1297072106710857 32.085987992132488 0 0 0 0 13.596408245392013 29.138002263462113 0 29.138002263462113 147.6167029884673 0 0 0 0 11.765932254889776 18.630315867834724 0 18.630315867834724 166.5980822632846 0 0 0 0 -15.526658154571258 -9.1117609871563729 0 -9.1117609871563729 78.687240336659102 0 0 0 0 287.98929117194683 -379.34808618808165 0 -379.34808618808165 -22.826310895063216 0 0 0 0 -8.8825896951704824 -10.493716146956899 0 -10.493716146956899 48.726614274362362 0 0 0 0 -20.948463951739086 -12.95770608233579 0 -12.95770608233579 95.340143986977637 0 0 0 0 -17.040983835837324 -32.677360103931278 0 -32.677360103931278 63.524911766995501 0 0 0 0 355.22397320898961 -620.70858753510402 0 -620.70858753510402 399.52275735075818 0 0 0 0 -3.2179352219832253 3.3621193712824606 0 3.3621193712824606 51.555453373526689 0 0 0 0 -138.13206921182143 378.72219035544549 0 378.72219035544549 -488.0549708149556 0 0 0 0 -17.100706770628811 -13.167550814052277 0 -13.167550814052277 69.188300502532059 0 0 0 0 -3.2597294156547365 18.3792179835703 0 18.3792179835703 62.000615477747225 0 0 0 0 -33.104781530371383 -49.36560668059974 0 -49.36560668059974 46.293515980054508 0 0 0 0 -8.761339672455108 -1.4162427144053993 0 -1.4162427144053993 9.9435102789654408 0 0 0 0 3.1818126400696656 -21.789464694011258 0 -21.789464694011258 -4.2060502519598231 0 0 0 0 -15.376834007264563 -10.082081611006288 0 -10.082081611006288 73.277119490874611 0 0 0 0 0.076379176966820062 1.0798433935366063 0 1.0798433935366063 10.996484021680402 0 0 0 0 -29.08305564032753 -62.077381290626363 0 -62.077381290626363 60.14228686784918 0 0 0 0 -129.68986163776395 57.050259200463188 0 57.050259200463188 272.32289481269254 0 0 0 0 -3.5802208544990179 213.55573253502371 0 213.55573253502371 73.492203329282347 0 0 0 0 -168.88036741303117 133.04377390135778 0 133.04377390135778 224.19892053495278 0 0 0 0 99.738196396501678 72.593324512272375 0 72.593324512272375 88.475329778098967 0 0 0 0 20.961473827797391 121.06767240408226 0 121.06767240408226 211.72915003163507 0 0 0 0 162.26485960330146 227.65074440815079 0 227.65074440815079 173.8410301200347 0 0 0 0 -116.9513703464348 -248.18489607870288 0 -248.18489607870288 494.23195819184184 0 0 0 0 -4.9487274119342146 -17.16129412920418 0 -17.16129412920418 85.528836803568993 0 0 0 0 -130.83205676480543 100.12472818194374 0 100.12472818194374 -206.65869204310002 0 0 0 0 -3.8325214982210607 -12.417187447158128 0 -12.417187447158128 85.313774061058496 0 0 0 0 0.6644491706653024 -1.3227487092305523 0 -1.3227487092305523 5.0827324475191062 0 0 0 0 30.556073311043662 72.401388902391773 0 72.401388902391773 529.49646591185592 0 0 0 0 3.5067192836316963 6.8713778425371856 0 6.8713778425371856 84.201435208931798 0 0 0 0 -0.22831633805913043 2.1218677196884528 0 2.1218677196884528 82.049045712730731 0 0 0 0 -102.40696805526318 -141.27239173234557 0 -141.27239173234557 90.541630476611317 0 0 0 0 -8.4232911829540775 -5.5657719397772638 0 -5.5657719397772638 60.297226927147335 0 0 0 0 -0.99876126103110918 -10.625787485835346 0 -10.625787485835346 11.670898637968094 0 0 0 0 -21.140885842319722 -10.449835854757112 0 -10.449835854757112 49.180910975570441 0 0 0 0 -26.380456871432756 -23.03483700214565 0 -23.03483700214565 44.614899286461878 0 0 0 0 -51.951579258314695 25.858540617991821 0 25.858540617991821 113.4760291170096 0 0 0 0 -46.513428377626504 50.803104481907212 0 50.803104481907212 143.59094067831757 0 0 0 0 46.870715334407464 13.511804890702479 0 13.511804890702479 28.673306932061678 0 0 0 0 -136.10382886700563 -41.464308148162672 0 -41.464308148162672 -9.5798264027107507 0 0 0 0 -20.529844413193942 9.3040813680854626 0 9.3040813680854626 58.937356391759749 0 0 0 0 -60.992470637792323 -55.18980207372806 0 -55.18980207372806 1.0124625620956067 0 0 0 0 -17.899082802610607 -0.1684444978385784 0 -0.1684444978385784 78.634339710889918 0 0 0 0 16.358833594908447 30.502744211029494 0 30.502744211029494 108.72192096151412 0 0 0 0 -9.335239499421732 -15.444885301345494 0 -15.444885301345494 -34.794712393355439 0 0 0 0 0.57525253296836887 -5.8881324324833599 0 -5.8881324324833599 -5.0060084844155881 0 0 0 0 0.081064172841712856 2.043676071121979 0 2.043676071121979 16.492745991972939 0 0 0 0 5.6544492952048131 32.394395718947635 0 32.394395718947635 86.658789417866501 0 0 0 0 -7.2168082091575343 25.175779038923793 0 25.175779038923793 117.76027428502857 0 0 0 0 2.3724520728735534 3.9283572766643431 0 3.9283572766643431 11.544740969005531 0 0 0 0 5.0528100332466011 4.1359368909791669 0 4.1359368909791669 23.18913954821047 0 0 0 0 -9.4699163411417082 0.22450640592164461 0 0.22450640592164461 62.748299581133665 0 0 0 0 -9.4219712569456533 14.943564585526474 0 14.943564585526474 109.20780493242091 0 0 0 0 -9.0418927891610252 1.3427580046082639 0 1.3427580046082639 56.493311385794271 0 0 0 0 13.368811398274142 17.17000059188635 0 17.17000059188635 27.505939342728603 0 0 0 0 -3.1330636281027227 -0.76240364863748411 0 -0.76240364863748411 2.3265169675967172 0 0 0 0 633.00600311956077 -217.71999011712614 0 -217.71999011712614 69.162062114963192 0 0 0 0 105.49937998991891 259.99145975813008 0 259.99145975813008 11.307095633201243 0 0 0 0 -58.23906537694802 -199.07974222677149 0 -199.07974222677149 95.090752969006644 0 0 0 0 -69.462393177377635 -61.708888300257968 0 -61.708888300257968 61.449983359052567 0 0 0 0 -5.367170753365933 -10.188525930075002 0 -10.188525930075002 93.45304933366026 0 0 0 0 -60.384311567202303 32.480341866430535 0 32.480341866430535 159.31823246985732 0 0 0 0 2.580102904360956 2.3086656111263437 0 2.3086656111263437 101.11963942650618 0 0 0 0 6.7380557257617397 -1.8289227919485711 0 -1.8289227919485711 88.67594582401216 0 0 0 0 8.2190690877635006 -4.9981040869024582 0 -4.9981040869024582 73.292888005766144 0 0 0 0 8.0721371479969548 -3.8581158118176972 0 -3.8581158118176972 90.141499714343809 0 0 0 0 -22.220467642767858 19.673327521662941 0 19.673327521662941 189.87812082553864 0 0 0 0 -19.960657322080806 32.286968143285776 0 32.286968143285776 257.58929049530707 0 0 0 0 45.936632150904757 -57.307063052168814 0 -57.307063052168814 139.94218184559577 0 0 0 0 -1.1730407340359568 0.14287442784862492 0 0.14287442784862492 6.8385581259263759 0 0 0 0 47.937439913151593 144.94519243469404 0 144.94519243469404 237.92515059871948 0 0 0 0 2.4888050310534129 4.2883036636632994 0 4.2883036636632994 5.0305688727584084 0 0 0 0 16.798038696269714 -36.535760165221291 0 -36.535760165221291 -46.866859378926165 0 0 0 0 -40.864206189267293 -16.045855279517127 0 -16.045855279517127 -0.35162696632323787 0 0 0 0 -44.281811962826424 -44.662165797351918 0 -44.662165797351918 126.265672130452 0 0 0 0 -36.926209670649314 -19.141354040650185 0 -19.141354040650185 -19.555483025083959 0 0 0 0 40.21157312304922 -70.230061318296066 0 -70.230061318296066 -20.693103779033891 0 0 0 0 -16.317838304968518 -21.928507338787313 0 -21.928507338787313 -13.677767895209399 0 0 0 0 -17.642343629227526 -45.291328182538564 0 -45.291328182538564 -32.048294587839337 0 0 0 0 -0.44150275347304557 -0.9836915441818519 0 -0.9836915441818519 0.400846486207314 0 0 0 0 12.652553325003055 -32.096436721891223 0 -32.096436721891223 -129.65212517210603 0 0 0 0 -9.2087227508217993 42.273143533726 0 42.273143533726 240.94255489484931 0 0 0 0 17.571662448529651 -47.713161868421594 0 -47.713161868421594 -108.24703924779897 0 0 0 0 -1.1144506100017804 -2.3234783334332292 0 -2.3234783334332292 0.4231257855072954 0 0 0 0 -10.895483266151771 -14.952500204199396 0 -14.952500204199396 181.61249019285606 0 0 0 0 -33.010475243294877 12.991585687312181 0 12.991585687312181 233.49662624426128 0 0 0 0 1.8949714206587487 28.005986182019114 0 28.005986182019114 120.21291154835126 0 0 0 0 -26.319022168111587 -24.048660929576727 0 -24.048660929576727 159.46410900602132 0 0 0 0 -12.147164671313476 5.2027544505399419 0 5.2027544505399419 109.44934994564755 0 0 0 0 -13.223976225740184 24.896113004977281 0 24.896113004977281 34.606427502480031 0 0 0 0 -11.863397275046736 121.36648198063267 0 121.36648198063267 -49.87725786138617 0 0 0 0 11.159566890920814 41.078327027655178 0 41.078327027655178 49.53597184226237 0 0 0 0 12.804448381265274 7.7633321013745444 0 7.7633321013745444 39.233273811951221 0 0 0 0 -6.8267381042799116 -2.6766345541072951 0 -2.6766345541072951 83.298500922319363 0 0 0 0 30.989679664123742 40.708022561739199 0 40.708022561739199 98.315655579644954 0 0 0 0 10.235800522648219 25.876519366684079 0 25.876519366684079 115.2900817332993 0 0 0 0 -8.7127500619894818 32.71517183310425 0 32.71517183310425 190.95168755030318 0 0 0 0 11.888710997223029 -135.95621024543652 0 -135.95621024543652 105.45050953813916 0 0 0 0 153.43970093636403 1.0225682700620382 0 1.0225682700620382 86.149781127940514 0 0 0 0 47.064716904277475 94.739887761767022 0 94.739887761767022 207.32329692379426 0 0 0 0 41.035490685917097 -3.5228215354400163 0 -3.5228215354400163 51.320713107386837 0 0 0 0 -21.775348549116416 7.1599026818730636 0 7.1599026818730636 52.615266852575587 0 0 0 0 -50.766497145789344 -21.463788599838153 0 -21.463788599838153 93.917779494586284 0 0 0 0 -63.322799622332582 1.7542250410988345 0 1.7542250410988345 51.631341756787151 0 0 0 0 -91.490236172426648 -88.506872054480482 0 -88.506872054480482 -75.708120544673875 0 0 0 0 -36.094562346986777 -4.8269240019471908 0 -4.8269240019471908 75.114440381148597 0 0 0 0 -9.8386446988179657 2.7027788172096834 0 2.7027788172096834 62.296185103707273 0 0 0 0 -28.630555144917821 -12.132094972563209 0 -12.132094972563209 51.100280379294418 0 0 0 0 -1.6049754480232288 5.2937314147155803 0 5.2937314147155803 14.987652151169456 0 0 0 0 14.165181884265621 -22.216976336898369 0 -22.216976336898369 40.82858598724124 0 0 0 0 1.2264369266955963 -0.99782198035717329 0 -0.99782198035717329 27.942590323613956 0 0 0 0 6.7358053500752249 15.75290339404819 0 15.75290339404819 106.37654123437824 0 0 0 0 -1.4741143187384296 19.04111872172507 0 19.04111872172507 128.62793898623931 0 0 0 0 -16.161349087199028 2.5184739086289483 0 2.5184739086289483 32.894167446938809 0 0 0 0 7.5265178093527538 13.875563552184758 0 13.875563552184758 108.35852750187041 0 0 0 0 -6.1256949630085025 16.099333091396844 0 16.099333091396844 84.242037422429348 0 0 0 0 -20.79523915398331 23.457647890229254 0 23.457647890229254 88.491586832432077 0 0 0 0 -23.487815136740487 15.347618697704689 0 15.347618697704689 89.181763532228189 0 0 0 0 -22.171027093543671 13.947021547617624 0 13.947021547617624 61.404975299898069 0 0 0 0 -85.853061682697444 -2.1367588117827836 0 -2.1367588117827836 103.50677489858572 0 0 0 0 -15.027134776792268 24.745458124887307 0 24.745458124887307 40.938596833388146 0 0 0 0 -11.741041687312929 19.113000621186075 0 19.113000621186075 35.648238227295224 0 0 0 0 -59.408247227697302 16.635238035316434 0 16.635238035316434 279.91267217027053 0 0 0 0 -13.725125484559612 -27.048062778136227 0 -27.048062778136227 125.76210858663035 0 0 0 0 -6.1036997262993928 -18.728819050102892 0 -18.728819050102892 83.086272186845036 0 0 0 0 -1.7295964617567101 2.3427461588549789 0 2.3427461588549789 23.735245194895867 0 0 0 0 -6.1778198664333104 -7.2905642229634395 0 -7.2905642229634395 65.992064181817113 0 0 0 0 -7.0957560755351494 -12.305098372177554 0 -12.305098372177554 120.29814724509197 0 0 0 0 -4.9570026115914381 -14.558583851196403 0 -14.558583851196403 61.481384612760735 0 0 0 0 1.3320073225087476 -9.2806679063581612 0 -9.2806679063581612 76.553707519900911 0 0 0 0 4.8911335339553261 -22.253526644577505 0 -22.253526644577505 115.07967644746532 0 0 0 0 -2.4636571280090429 -21.472546172661666 0 -21.472546172661666 60.553620011143579 0 0 0 0 -0.64837250545842195 -23.532175437830531 0 -23.532175437830531 68.068737716378337 0 0 0 0 21.68830289288826 -6.0963396900115185 0 -6.0963396900115185 92.521654444484739 0 0 0 0 13.128596641639888 -9.9468824850046076 0 -9.9468824850046076 93.029914671147708 0 0 0 0 -29.166610947052504 -24.655819534258626 0 -24.655819534258626 99.629469775420148 0 0 0 0 -2.114850976760863 -11.175908850247652 0 -11.175908850247652 97.906675353573519 0 0 0 0 -2.126246658830496 -7.1573883864475647 0 -7.1573883864475647 94.6966599436264 0 0 0 0 -10.879078250696921 -5.2562452119341287 0 -5.2562452119341287 -13.747275924833957 0 0 0 0 -12.937821031562635 -42.882859561403166 0 -42.882859561403166 -13.564828165923245 0 0 0 0 -10.775622585605412 -23.181602830927744 0 -23.181602830927744 50.251050196684275 0 0 0 0 0.68717008397652535 -10.80136486687843 0 -10.80136486687843 73.925513874739408 0 0 0 0 -37.112470778654824 -97.494869886511879 0 -97.494869886511879 90.892485880871391 0 0 0 0 -2.1041352185775395 -20.880959180678474 0 -20.880959180678474 60.851347234827699 0 0 0 0 -46.730960888111895 -74.121509721509938 0 -74.121509721509938 199.59692438000639 0 0 0 0 7.3673317362927264 -132.55452763697213 0 -132.55452763697213 210.51425327529432 0 0 0 0 15.349783278094947 -81.324042271400685 0 -81.324042271400685 -31.131378596974173 0 0 0 0 -49.289961623292584 -144.75206940728276 0 -144.75206940728276 356.02404613960243 0 0 0 0 85.392843515865025 -78.215884974739311 0 -78.215884974739311 210.28534480835515 0 0 0 0 -84.009440345147596 -65.553646121144993 0 -65.553646121144993 198.66533094521947 0 0 0 0 -85.680652682950438 -8.1993785941942861 0 -8.1993785941942861 312.67249765593442 0 0 0 0 -23.729689684392724 178.10375393816321 0 178.10375393816321 299.78899854850897 0 0 0 0 2.461023727688616 1.2768544027412077 0 1.2768544027412077 2.3082369919181929 0 0 0 0 23.118643800273276 156.23370926879579 0 156.23370926879579 479.69013331225506 0 0 0 0 -1.3739882041973033 -8.7721435028870474 0 -8.7721435028870474 24.37010348003605 0 0 0 0 26.483500395544979 -96.933501829655143 0 -96.933501829655143 336.21427858930838 0 0 0 0 -271.2722074914418 -471.85215045580844 0 -471.85215045580844 416.43243159184203 0 0 0 0 -4.1942535784836714 2.4515568888041273 0 2.4515568888041273 12.015282289929104 0 0 0 0 2.4756271426688823 4.2862021420842851 0 4.2862021420842851 3.1902105271104517 0 0 0 0 -20.369822815373482 12.79435860158992 0 12.79435860158992 1.1677014117594808 0 0 0 0 -0.58335227375881971 -0.073386250765146599 0 -0.073386250765146599 3.9500367060807093 0 0 0 0 -4.6072537721556728 313.35809298472668 0 313.35809298472668 750.78728314921318 0 0 0 0 130.60455579042537 -353.57050804766186 0 -353.57050804766186 916.62900066486327 0 0 0 0 -0.51856753602715777 0.15385251226800278 0 0.15385251226800278 3.4595830331499542 0 0 0 0 -387.08948059673276 -760.35084872074367 0 -760.35084872074367 658.34054667531746 0 0 0 0 510.91455376671274 -436.43019731136519 0 -436.43019731136519 388.80226185207721 0 0 0 0 1079.4720133142509 -1110.4714499758375 0 -1110.4714499758375 349.61946260592958 0 0 0 0 -65.908809010221376 33.702247648328921 0 33.702247648328921 29.812981420265714 0 0 0 0 -105.54071102048329 562.42945488262762 0 562.42945488262762 276.19185535067663 0 0 0 0 -9.5340061600034858 3.8008123318287801 0 3.8008123318287801 27.865840339266668 0 0 0 0 950.00082966502669 397.70704007992026 0 397.70704007992026 -123.60285697664949 0 0 0 0 414.49247791287598 -899.20956955745714 0 -899.20956955745714 -134.33594937936869 0 0 0 0 482.35928659050114 -400.45523131875234 0 -400.45523131875234 1466.4195712270739 0 0 0 0 866.96281970404016 588.07273171641282 0 588.07273171641282 320.4515926553795 0 0 0 0 297.69422329592999 256.01889734995348 0 256.01889734995348 1363.6818619166806 0 0 0 0 -39.290459300849761 -6.5988706510834163 0 -6.5988706510834163 671.99529839098977 0 0 0 0 190.84690616359444 -302.16139217558884 0 -302.16139217558884 752.99478737838217 0 0 0 0 8.0576562931946683 -12.096295606344938 0 -12.096295606344938 371.55546517416951 0 0 0 0 83.620923217513791 -127.73513795185499 0 -127.73513795185499 -222.50218489615509 0 0 0 0 -136.28390758022033 -266.14661550986784 0 -266.14661550986784 281.51819576588787 0 0 0 0 -47.94979719175717 18.867245572204411 0 18.867245572204411 11.029937191386125 0 0 0 0 -40.364009122218704 10.598928275212529 0 10.598928275212529 45.724598595086718 0 0 0 0 -34.814424621215323 4.4533865091170526 0 4.4533865091170526 23.133529600723705 0 0 0 0 -34.666157469344228 15.595968391174495 0 15.595968391174495 42.05150945938658 0 0 0 0 -31.425911775013446 57.922646378956415 0 57.922646378956415 -123.02902986442132 0 0 0 0 -12.078660999841471 -2.2624994959136231 0 -2.2624994959136231 19.624810791833653 0 0 0 0 -35.071734445198672 7.6458811112679541 0 7.6458811112679541 18.566209661075845 0 0 0 0 -59.161846334856818 -10.41383777653391 0 -10.41383777653391 67.293983127776301 0 0 0 0 2.6515650142296323 -2.6639947155130272 0 -2.6639947155130272 2.2181013383028727 0 0 0 0 -47.243537897775241 -7.0959082365588984 0 -7.0959082365588984 7.943171303058989 0 0 0 0 -40.626070687846266 4.6656708565302552 0 4.6656708565302552 7.5636637959905784 0 0 0 0 -47.233550238241151 -7.5470314496524225 0 -7.5470314496524225 22.325420681478136 0 0 0 0 -55.494424050046291 10.920084193356161 0 10.920084193356161 52.796760358927713 0 0 0 0 -48.334850471645041 48.607652719987527 0 48.607652719987527 109.20676930167974 0 0 0 0 -56.372014704529647 23.208657001792744 0 23.208657001792744 29.169590414370759 0 0 0 0 -60.675489411250965 -16.908901531831361 0 -16.908901531831361 45.816130517785496 0 0 0 0 -72.386838529982924 2.6695197728058702 0 2.6695197728058702 95.848417071305448 0 0 0 0 -0.79755285032103984 -1.3441476704906066 0 -1.3441476704906066 1.9446302389355878 0 0 0 0 51.188179790731738 162.79247933295846 0 162.79247933295846 165.43210140004521 0 0 0 0 -14.515399352022541 60.865129579582572 0 60.865129579582572 12.433205355642713 0 0 0 0 -16.186778156959917 47.075463262757694 0 47.075463262757694 1.9817409155621135 0 0 0 0 -41.8125107369342 40.187876372190658 0 40.187876372190658 42.634274921460019 0 0 0 0 -16.313654452910669 46.347116423570696 0 46.347116423570696 -1.5031032331899041 0 0 0 0 -18.649383955664234 45.497274661218398 0 45.497274661218398 1.2496637456788449 0 0 0 0 -57.725123926042215 15.321154438348458 0 15.321154438348458 6.182979603894637 0 0 0 0 -293.00747246238302 -341.43335192167206 0 -341.43335192167206 399.14115246505389 0 0 0 0 -11.494555734524276 2.5816251868089282 0 2.5816251868089282 27.893496040097858 0 0 0 0 -15.091648516681744 47.555065411896067 0 47.555065411896067 0.59178393326146761 0 0 0 0 -15.858078329787531 46.243220975113218 0 46.243220975113218 0.951802801238955 0 0 0 0 -16.671026115109271 48.347358461440308 0 48.347358461440308 0.3826786016652477 0 0 0 0 178.45042336470306 -392.81726032181905 0 -392.81726032181905 87.403644842823269 0 0 0 0 -132.02056963126415 -545.7429127997566 0 -545.7429127997566 240.90067461237777 0 0 0 0 -6.4699697944024983 11.475393357572187 0 11.475393357572187 -13.238560061389933 0 0 0 0 -15.245403688833903 48.307833856702928 0 48.307833856702928 0.72304800442361739 0 0 0 0 57.745736919096089 306.62826968988884 0 306.62826968988884 335.60266169781971 0 0 0 0 60.927740099381026 288.99458733055326 0 288.99458733055326 428.84525597644097 0 0 0 0 -177.33888079264671 185.967435987106 0 185.967435987106 598.14915712218499 0 0 0 0 -256.63660358728066 -509.65965021857119 0 -509.65965021857119 146.52589318591345 0 0 0 0 -428.49497500372763 16.333693817792664 0 16.333693817792664 534.3784193254105 0 0 0 0 1410.2520072177686 783.8034618748643 0 783.8034618748643 -343.73530161639792 0 0 0 0 -177.82038093557185 497.09530504999566 0 497.09530504999566 1364.4450363121578 0 0 0 0 -1.2096388281155033 1.8657964730735728 0 1.8657964730735728 0.045440403838597376 0 0 0 0 148.45317204387902 638.35843066970119 0 638.35843066970119 2300.1125824936607 0 0 0 0 -758.28506124324394 -430.51892804112867 0 -430.51892804112867 1153.3248668563465 0 0 0 0 338.05209937589279 930.36904818697803 0 930.36904818697803 2129.3292982750572 0 0 0 0 11.207088616183682 6.0509028807618961 0 6.0509028807618961 14.369325788786227 0 0 0 0 -17.565311185657265 25.705875752097199 0 25.705875752097199 7.6238903382836725 0 0 0 0 2.7890516259384732 14.254201640163494 0 14.254201640163494 -0.56658992088270566 0 0 0 0 1.6550821952591352 4.9001332960744577 0 4.9001332960744577 10.597277417830014 0 0 0 0 -3.0298970702133374 6.1600356711369386 0 6.1600356711369386 19.957877358920086 0 0 0 0 1.8705027317094505 7.4014038161143105 0 7.4014038161143105 10.199177337242972 0 0 0 0 -27.401676406503611 16.355939507273433 0 16.355939507273433 1.8872538803261705 0 0 0 0 137.64863096768204 -560.92824426849256 0 -560.92824426849256 240.49112205569691 0 0 0 0 655.60788509421218 469.35223468684853 0 469.35223468684853 693.04652084415284 0 0 0 0 1096.1676561069435 -323.94316647858068 0 -323.94316647858068 45.365579423305462 0 0 0 0 -4.716625095503324 1.9673193099587571 0 1.9673193099587571 5.0980269958540134 0 0 0 0 -26.647877946285007 18.558685258125479 0 18.558685258125479 2.649793906344712 0 0 0 0 3.7987681763225591 9.0752985429899908 0 9.0752985429899908 7.1012932693817845 0 0 0 0 35.464272741026434 -0.54959604957912234 0 -0.54959604957912234 -26.192346945477766 0 0 0 0 -15.480436730306494 1.8580569747672655 0 1.8580569747672655 25.129547318867907 0 0 0 0 12.400164639292598 30.368708291864095 0 30.368708291864095 -26.474074885918526 0 0 0 0 42.730276630005619 8.4719731939212579 0 8.4719731939212579 -55.336137689177122 0 0 0 0 -14.232409681078934 91.543153922950296 0 91.543153922950296 -89.445824973041454 0 0 0 0 -14.901969214268608 23.767660967049622 0 23.767660967049622 33.682783801122909 0 0 0 0 -17.009526079223633 -13.468773904809495 0 -13.468773904809495 88.621922584949061 0 0 0 0 -47.989427728436567 38.698047910045716 0 38.698047910045716 -5.7077946735844307 0 0 0 0 -18.866505417709959 5.7046850750557496 0 5.7046850750557496 -1.924907970125787 0 0 0 0 -6.9929336770946975 51.592304408921336 0 51.592304408921336 -39.927354920524522 0 0 0 0 3.45392212715592 -10.664339399940218 0 -10.664339399940218 73.996989311548532 0 0 0 0 -17.017457187185947 19.789503154321437 0 19.789503154321437 37.501899937888879 0 0 0 0 6.3924190166553672 -2.1984953512583161 0 -2.1984953512583161 60.206846629967913 0 0 0 0 11.272351457912691 -3.50908427804643 0 -3.50908427804643 56.654422057967167 0 0 0 0 -3.6341529052833721 6.9702859320022981 0 6.9702859320022981 60.107493047275057 0 0 0 0 -34.797962978935402 -25.282786944493637 0 -25.282786944493637 27.763345043342269 0 0 0 0 2.6250642857527211 -2.5406475719772317 0 -2.5406475719772317 0.51579284715582219 0 0 0 0 1.3551847386352165 -35.985498268048104 0 -35.985498268048104 117.26003710762961 0 0 0 0 4.9002574415392495 -2.6633010531461281 0 -2.6633010531461281 7.9983845151224813 0 0 0 0 33.021957977068269 -19.137219627569721 0 -19.137219627569721 0.52600418274960248 0 0 0 0 233.02271330250824 30.288294430916721 0 30.288294430916721 -18.304343121591955 0 0 0 0 2.2274613299529431 7.0574479136458095 0 7.0574479136458095 10.649713191077865 0 0 0 0 253.15349337840235 174.83442801040655 0 174.83442801040655 -16.927370895806234 0 0 0 0 -9.332025644386249 30.663747719620005 0 30.663747719620005 98.228912534395931 0 0 0 0 0.012102592052087857 -12.068129023452457 0 -12.068129023452457 66.219033951638266 0 0 0 0 67.907762749503746 -51.254483583384399 0 -51.254483583384399 58.567864679993363 0 0 0 0 66.336000938468999 1.6828854983718884 0 1.6828854983718884 35.83844981144648 0 0 0 0 113.51150596820298 3.1759494387806626 0 3.1759494387806626 2.1051358044496737 0 0 0 0 120.78155141380557 86.211837278038729 0 86.211837278038729 15.876178916805657 0 0 0 0 15.488484782108571 45.942465433618054 0 45.942465433618054 16.234986621289863 0 0 0 0 -9.3150615271588322 81.659911162030767 0 81.659911162030767 104.98757119604852 0 0 0 0 -107.91760333791171 -14.250894290657016 0 -14.250894290657016 55.186285433941521 0 0 0 0 11.955619228232536 -1.0575210841489024 0 -1.0575210841489024 5.4985876983846538 0 0 0 0 -25.506438806049118 -7.6478161036793608 0 -7.6478161036793608 5.8192256881739013 0 0 0 0 33.765374601531221 33.070287388181896 0 33.070287388181896 18.773069839902746 0 0 0 0 64.498462538860622 46.936769284249749 0 46.936769284249749 12.817568314509117 0 0 0 0 -4.5808578863761795 11.390998535614926 0 11.390998535614926 28.737229059392121 0 0 0 0 -141.4603096005012 -75.58288371245726 0 -75.58288371245726 46.44828314933693 0 0 0 0 -40.399636960934004 -79.467615882240352 0 -79.467615882240352 -37.389839822455542 0 0 0 0 11.10636820171203 -51.998479940346442 0 -51.998479940346442 -81.97785082255723 0 0 0 0 10.18989046601213 25.666258825468191 0 25.666258825468191 36.388267482159875 0 0 0 0 4.4927234860369936 98.748758145782631 0 98.748758145782631 -37.775798571732594 0 0 0 0 37.783716996164003 3.6230188506015111 0 3.6230188506015111 -107.19413905437978 0 0 0 0 43.69574137995005 10.930278182742768 0 10.930278182742768 32.999474495474715 0 0 0 0 14.993871046084678 53.717888634797418 0 53.717888634797418 71.067014895001194 0 0 0 0 21.041168442436174 21.756469853775343 0 21.756469853775343 34.426756085827947 0 0 0 0 37.316117791866418 10.46023292792961 0 10.46023292792961 -30.342382895352785 0 0 0 0 44.003252321046602 54.354439838061808 0 54.354439838061808 18.277770729444455 0 0 0 0 -9.6341584691763273 11.323730256903218 0 11.323730256903218 87.040280832763528 0 0 0 0 8.3105848426562794 7.4983190416157015 0 7.4983190416157015 -10.250664055200275 0 0 0 0 -6.5581190369011892 11.883055655271164 0 11.883055655271164 65.331166671705432 0 0 0 0 11.511060691147577 26.25826301464258 0 26.25826301464258 34.400593151178327 0 0 0 0 3.9077846505983125 10.937568135523151 0 10.937568135523151 15.534459211251999 0 0 0 0 2.8717616669891868 13.059693239229091 0 13.059693239229091 -1.0563699222402647 0 0 0 0 4.1768295414667591 14.690805365235065 0 14.690805365235065 43.012913230646518 0 0 0 0 1.1497372149715375 21.630441273333417 0 21.630441273333417 27.204655718443973 0 0 0 0 4.9680381304531593 10.241302076918416 0 10.241302076918416 12.813091516521808 0 0 0 0 2.5846871791245576 24.771499692838916 0 24.771499692838916 50.977733776548121 0 0 0 0 8.5596355505622341 32.75494883240026 0 32.75494883240026 39.188451391270064 0 0 0 0 -7.8461064213194049 15.207485547330833 0 15.207485547330833 43.057525211458639 0 0 0 0 8.8602340634739072 20.828165604376061 0 20.828165604376061 6.6222648394311818 0 0 0 0 4.9894527423020918 9.8682847403397318 0 9.8682847403397318 69.041390185160708 0 0 0 0 -18.075496965382627 26.538193171400053 0 26.538193171400053 15.324856289546005 0 0 0 0 4.3291562132570505 14.036050294789028 0 14.036050294789028 19.856278614573455 0 0 0 0 -12.607229545319711 16.666673399160267 0 16.666673399160267 30.219062233643513 0 0 0 0 -3.2263682161546576 9.3849587063731263 0 9.3849587063731263 16.024939889103592 0 0 0 0 -9.5093029949493939 13.854976470276597 0 13.854976470276597 18.162454648292623 0 0 0 0 -9.5248515788478407 8.192592356181521 0 8.192592356181521 36.76341602522227 0 0 0 0 -11.10748323975713 15.958121127885533 0 15.958121127885533 6.6232926768134348 0 0 0 0 21.704544803182216 -35.50858055757999 0 -35.50858055757999 82.546674114462803 0 0 0 0 -0.98436627826049516 -64.689202215711703 0 -64.689202215711703 105.64620448199548 0 0 0 0 82.946469911315944 -209.29069059088943 0 -209.29069059088943 -67.551627713721246 0 0 0 0 269.92590797845963 315.60009078324737 0 315.60009078324737 320.73809204953432 0 0 0 0 -0.77129095833646666 -1.36162977167794 0 -1.36162977167794 1.1644078097378383 0 0 0 0 -33.620152216662973 38.894240544599597 0 38.894240544599597 331.9095394797032 0 0 0 0 23.542291986428609 147.14286517261644 0 147.14286517261644 272.94869221531553 0 0 0 0 272.17475053475573 193.55093171418412 0 193.55093171418412 166.2788616529142 0 0 0 0 116.02597215911373 211.71755863736325 0 211.71755863736325 316.82516644112548 0 0 0 0 -369.14486488857801 0.59619220523745753 0 0.59619220523745753 232.92457307258155 0 0 0 0 64.13756310395911 106.31881458219141 0 106.31881458219141 88.751423530397005 0 0 0 0 -2.6619999475642508 16.413830459933351 0 16.413830459933351 12.5026953966223 0 0 0 0 210.66449408528752 133.0153751088219 0 133.0153751088219 118.40561599400826 0 0 0 0 -869.14085144973615 1251.3869145843928 0 1251.3869145843928 818.15387758763973 0 0 0 0 88.567812606415828 88.012638413885725 0 88.012638413885725 101.85682121398713 0 0 0 0 89.393965807089899 113.18146405900188 0 113.18146405900188 82.928309533308493 0 0 0 0 56.488404741461636 125.25411583228197 0 125.25411583228197 82.647940565482713 0 0 0 0 231.32751829137942 363.44933434921404 0 363.44933434921404 56.804187155154068 0 0 0 0 -778.67394345182583 479.39032329792099 0 479.39032329792099 614.51229060179321 0 0 0 0 146.26270969891084 570.54855887730082 0 570.54855887730082 185.42127106094267 0 0 0 0 -267.11138391580153 971.99701057405764 0 971.99701057405764 461.02937816048507 0 0 0 0 -123.71445878139548 154.72056826898188 0 154.72056826898188 236.24058633041568 0 0 0 0 -182.77183383914962 39.172268532012822 0 39.172268532012822 108.78083162911935 0 0 0 0 -70.74121378088239 175.28943654708564 0 175.28943654708564 152.44347169593675 0 0 0 0 -117.34299600825761 204.9967117664346 0 204.9967117664346 185.71065619765432 0 0 0 0 76.767718056042213 88.18875723832025 0 88.18875723832025 134.24533715625876 0 0 0 0 1479.8387943785347 -28.806989807490027 0 -28.806989807490027 -612.05439712492807 0 0 0 0 42.725158935787931 30.468399037024938 0 30.468399037024938 101.65408856561407 0 0 0 0 47.162106796931766 29.691653080495598 0 29.691653080495598 93.307880605803803 0 0 0 0 16.530192496530617 16.946371102843841 0 16.946371102843841 66.182866362105415 0 0 0 0 32.864357756952813 -18.772810853937699 0 -18.772810853937699 110.96929484969587 0 0 0 0 -5.3413560069250252 -37.22760528568142 0 -37.22760528568142 135.56093192016124 0 0 0 0 -11.674165018806889 -50.514465340071183 0 -50.514465340071183 130.60490787667368 0 0 0 0 73.450322875149141 -117.66053604385888 0 -117.66053604385888 182.15260570514511 0 0 0 0 -67.839860346998648 -81.527174955186638 0 -81.527174955186638 251.3426945999563 0 0 0 0 117.34075530836571 -12.666670385693578 0 -12.666670385693578 99.209042921924265 0 0 0 0 19.112628674502957 -10.453262599472509 0 -10.453262599472509 251.91672814026242 0 0 0 0 169.71363609358056 154.22169700952441 0 154.22169700952441 330.48728329699952 0 0 0 0 154.93274866402319 -152.08733652162232 0 -152.08733652162232 245.65631134262367 0 0 0 0 30.409432293862665 258.18234099175243 0 258.18234099175243 223.83389185839042 0 0 0 0 4.7487710116289144 2.4851451997951415 0 2.4851451997951415 -2.2069120963807336 0 0 0 0 200.07828617833911 116.54996411962202 0 116.54996411962202 -39.141430777061032 0 0 0 0 220.08947395898304 232.78728710800351 0 232.78728710800351 57.301900012913393 0 0 0 0 60.415953958149657 176.89743100659689 0 176.89743100659689 520.03410705447459 0 0 0 0 72.044948937460504 -101.1254703341292 0 -101.1254703341292 290.48777542481912 0 0 0 0 121.74734440030988 55.305089742214477 0 55.305089742214477 523.79693003170905 0 0 0 0 46.744291239130689 -17.87909586961905 0 -17.87909586961905 96.421976351302874 0 0 0 0 -34.847769561780296 -90.955692973911937 0 -90.955692973911937 128.3354066323227 0 0 0 0 2.7795655030725683 -0.0164919924945508 0 -0.0164919924945508 18.729555363719442 0 0 0 0 -47.431481445526515 92.320951843430521 0 92.320951843430521 57.841235794010572 0 0 0 0 -82.693415502246353 47.818315842596348 0 47.818315842596348 125.74434148108412 0 0 0 0 24.078205692780102 -18.978071481174993 0 -18.978071481174993 -34.787938726964057 0 0 0 0 -17.143705820662944 20.225620504519611 0 20.225620504519611 127.23908547393512 0 0 0 0 -66.299321321377647 39.255430201541458 0 39.255430201541458 221.3204898742697 0 0 0 0 -43.644568996933231 -21.534925117521198 0 -21.534925117521198 78.259199617801642 0 0 0 0 0.27785169159297141 23.075927975633149 0 23.075927975633149 17.359608301772255 0 0 0 0 4.2043445949284433 24.488396749613457 0 24.488396749613457 119.61755579683813 0 0 0 0 29.462381311568606 44.207239881448913 0 44.207239881448913 192.7625247953838 0 0 0 0 -27.937759678651609 -18.141977904475226 0 -18.141977904475226 44.435354811156586 0 0 0 0 -3.1175364540395094 57.923082561457704 0 57.923082561457704 215.11833841369662 0 0 0 0 -0.78657471359728781 2.8054183306273899 0 2.8054183306273899 23.409973492346609 0 0 0 0 -45.792203841573155 45.772817509707238 0 45.772817509707238 249.27347244762495 0 0 0 0 -26.754075457176913 -11.633803391558018 0 -11.633803391558018 17.530437536834903 0 0 0 0 221.3175337460508 585.04021094151176 0 585.04021094151176 3030.4354673845664 0 0 0 0 -2.7597695745724691 -17.230972889732129 0 -17.230972889732129 14.206252327330731 0 0 0 0 -96.373226372102977 9.2703301590372575 0 9.2703301590372575 74.782306218650774 0 0 0 0 -209.25874854521967 1214.7135589295922 0 1214.7135589295922 4498.2358409907392 0 0 0 0 240.53456711767154 1272.0037401205882 0 1272.0037401205882 3025.1794466560532 0 0 0 0 -361.05656672717726 187.69754456907322 0 187.69754456907322 2538.1058892937654 0 0 0 0 -234.79779221448518 689.04035849988577 0 689.04035849988577 3904.7829091349704 0 0 0 0 118.19595779027156 -953.19514340748901 0 -953.19514340748901 3186.5276023964398 0 0 0 0 -16.525703662403849 -12.912702959647049 0 -12.912702959647049 8.6584283233378301 0 0 0 0 23.051453820718507 84.826896913888049 0 84.826896913888049 293.4902090677715 0 0 0 0 193.52709898624943 -120.97325277223354 0 -120.97325277223354 -39.287224771192996 0 0 0 0 -0.35075206296580619 -3.9077223349577679 0 -3.9077223349577679 11.605678512365699 0 0 0 0 674.37575355998217 2072.7273687581765 0 2072.7273687581765 4498.8704833404472 0 0 0 0 7.2106867261481966 36.695721833735661 0 36.695721833735661 183.30521091593255 0 0 0 0 -13.78348082816774 58.026552841532975 0 58.026552841532975 210.65143479788821 0 0 0 0 51.165654186334677 57.000922406998143 0 57.000922406998143 210.45614086391288 0 0 0 0 9.4560717632875821 54.181699187320191 0 54.181699187320191 268.65158660567977 0 0 0 0 43.656610130775107 99.444276608478503 0 99.444276608478503 206.67277297093824 0 0 0 0 48.123438658506529 98.418545042113692 0 98.418545042113692 113.30876018165145 0 0 0 0 91.714660044999619 89.43523399366677 0 89.43523399366677 96.383307845535455 0 0 0 0 70.118662093344142 128.33668674385262 0 128.33668674385262 119.92983883577108 0 0 0 0 75.487100455031396 146.19853207695996 0 146.19853207695996 16.770623066822736 0 0 0 0 47.897984847847056 139.29810822313084 0 139.29810822313084 131.22297126557532 0 0 0 0 -5.4553418035873733 33.858924906635366 0 33.858924906635366 105.7395463362991 0 0 0 0 15.795304118496887 0.70665943764470285 0 0.70665943764470285 75.142608587979339 0 0 0 0 64.458830808146786 31.238596271377901 0 31.238596271377901 87.03830981738065 0 0 0 0 60.464448520502174 82.65552805113839 0 82.65552805113839 242.10772708965669 0 0 0 0 0.38463055291856563 -1.8212418074136281 0 -1.8212418074136281 -0.45644497441759313 0 0 0 0 60.618536034140277 194.15403755622174 0 194.15403755622174 238.62458186718868 0 0 0 0 72.263870009808215 134.90492923033889 0 134.90492923033889 354.75360999471013 0 0 0 0 -5.7108644184290416 -5.6104860143666997 0 -5.6104860143666997 8.3905511598701423 0 0 0 0 -289.47856123353159 999.35630037066949 0 999.35630037066949 4502.9086194168267 0 0 0 0 -16.707127665664814 123.26216789915634 0 123.26216789915634 364.82668966694473 0 0 0 0 -291.2091887580919 1004.2726780435769 0 1004.2726780435769 4490.8435286190361 0 0 0 0 1022.216725492689 -2297.7541303297148 0 -2297.7541303297148 3155.9814639361066 0 0 0 0 -117.51291210432123 147.28746289718401 0 147.28746289718401 512.53054068834172 0 0 0 0 3.1425288311859583 3.0566181751902377 0 3.0566181751902377 12.966870408289054 0 0 0 0 212.13502453738587 1384.7023767665378 0 1384.7023767665378 4430.1550928817696 0 0 0 0 712.12793790024205 484.71804051448999 0 484.71804051448999 136.39614133906434 0 0 0 0 78.272491109846158 267.42571760108694 0 267.42571760108694 406.07812224920417 0 0 0 0 254.31804161929233 -130.11419416811987 0 -130.11419416811987 5.4902720756781491 0 0 0 0 -21.608743954965576 -5.104248497314984 0 -5.104248497314984 55.109656033411738 0 0 0 0 10.556263661148023 8.8405172234706697 0 8.8405172234706697 62.370956884398765 0 0 0 0 0.83483711973452301 -0.46379570483858856 0 -0.46379570483858856 11.263611722273808 0 0 0 0 6.9334395774564834 11.671242696506127 0 11.671242696506127 29.952951710473997 0 0 0 0 3.2040911752730068 7.1034580215389269 0 7.1034580215389269 83.429105945338961 0 0 0 0 0.58132726685653324 3.4608271419128869 0 3.4608271419128869 99.357146202208241 0 0 0 0 2.6673992025635016 1.3467725612135837 0 1.3467725612135837 84.739255832517301 0 0 0 0 -1.6136595474154092 17.501825380877563 0 17.501825380877563 101.37495078967186 0 0 0 0 0.9500530559400886 19.27808339218609 0 19.27808339218609 82.803540498731309 0 0 0 0 -6.4206982480291117 12.267815801460529 0 12.267815801460529 110.22803031296644 0 0 0 0 -5.1707265425015407 11.611536241303838 0 11.611536241303838 109.33363925400408 0 0 0 0 -5.7430975201823458 9.6301066416344838 0 9.6301066416344838 106.92060030650464 0 0 0 0 -6.0576099058967543 10.471035478019985 0 10.471035478019985 114.30550172494259 0 0 0 0 -0.25600727620940233 13.867263658932643 0 13.867263658932643 110.36420578484103 0 0 0 0 -0.92351894967032422 17.256191434709763 0 17.256191434709763 128.83080831728876 0 0 0 0 11.329617241446613 18.468290283402894 0 18.468290283402894 115.9191530837852 0 0 0 0 -1.1382475848813556 8.2620585052791284 0 8.2620585052791284 115.03106236507301 0 0 0 0 1.0818475316227705 19.926406512764515 0 19.926406512764515 130.6622039823269 0 0 0 0 5.649745610865466 -2.2383378358354094 0 -2.2383378358354094 192.17834509082604 0 0 0 0 -3.4279648996506342 1.0958484642230388 0 1.0958484642230388 4.2347625152274873 0 0 0 0 5.0293094370272229 10.322775934124365 0 10.322775934124365 132.69969892522204 0 0 0 0 -10.787582661539432 -4.3790365755066887 0 -4.3790365755066887 91.613981143091223 0 0 0 0 0.1423734582472207 23.926334366703486 0 23.926334366703486 38.611435058017378 0 0 0 0 -14.374204404611419 14.639885938180669 0 14.639885938180669 97.086539459458436 0 0 0 0 -27.664382361814376 -2.3729065379011445 0 -2.3729065379011445 142.38617459840316 0 0 0 0 -26.194794163363042 2.5040990169254655 0 2.5040990169254655 142.3321167427639 0 0 0 0 -7.6590699811667946 27.259147464155831 0 27.259147464155831 91.802765773616557 0 0 0 0 -19.20518977875588 15.648571384428578 0 15.648571384428578 135.93848003148742 0 0 0 0 5.6747753420651179 33.972948711289064 0 33.972948711289064 84.23519285502698 0 0 0 0 2.3147676234507344 -2.9029922316949524 0 -2.9029922316949524 52.770478686055867 0 0 0 0 -7.8274309404103306 1.9133218692894616 0 1.9133218692894616 3.9464293359523879 0 0 0 0 -3.2704292045808012 -0.49013471861448465 0 -0.49013471861448465 0.38911103653667567 0 0 0 0 -63.86283572322418 -19.444868486705673 0 -19.444868486705673 60.557650483053294 0 0 0 0 -148.537839461771 130.254783956756 0 130.254783956756 161.95284914962031 0 0 0 0 -8.0144044610028686 25.334497297542839 0 25.334497297542839 95.980560221505584 0 0 0 0 -9.0974343350042091 -21.504335992798588 0 -21.504335992798588 203.59636305387176 0 0 0 0 -63.924603907848905 46.611190729923692 0 46.611190729923692 132.05726915545529 0 0 0 0 -110.3201560296452 -25.258872179258105 0 -25.258872179258105 220.6610356154124 0 0 0 0 -18.841572815427867 -56.600372251490626 0 -56.600372251490626 204.91048477508593 0 0 0 0 -24.500747783737097 -17.03472379840241 0 -17.03472379840241 154.85776081409131 0 0 0 0 -27.760875323243894 29.014360567588142 0 29.014360567588142 260.04370230906352 0 0 0 0 0.2869641510592853 -1.5097527111352207 0 -1.5097527111352207 1.0808972427017096 0 0 0 0 -12.763291465240968 38.68101907982782 0 38.68101907982782 138.45367440864084 0 0 0 0 -27.80590925702657 18.716649379570299 0 18.716649379570299 118.38385419388942 0 0 0 0 -21.922009607928089 62.650701378799567 0 62.650701378799567 115.63827742100693 0 0 0 0 -19.160014153881619 36.425155168481979 0 36.425155168481979 166.67382399864437 0 0 0 0 -20.731143426295034 21.480747296460322 0 21.480747296460322 133.81006384630018 0 0 0 0 14.899579569738336 26.225063401068837 0 26.225063401068837 123.44977083861886 0 0 0 0 -3.9192308056162801 21.714878708706237 0 21.714878708706237 73.668668626763974 0 0 0 0 -13.538835194775675 10.3291261175752 0 10.3291261175752 47.41655943972728 0 0 0 0 -46.663884618758857 11.509615722337912 0 11.509615722337912 82.420605029437866 0 0 0 0 -4.0899112575260173 -7.5113322208358824 0 -7.5113322208358824 50.304176017430223 0 0 0 0 -217.36291255098649 -103.64820716296526 0 -103.64820716296526 88.89436626607494 0 0 0 0 532.45642846047406 -156.26509892501781 0 -156.26509892501781 -84.748113697423832 0 0 0 0 -32.013980787441369 -31.170463400623703 0 -31.170463400623703 17.340563491459761 0 0 0 0 -22.991430280197278 106.30931535502896 0 106.30931535502896 284.56796235304319 0 0 0 0 -6.6533328947315509 1.6780276670347121 0 1.6780276670347121 41.630009891315808 0 0 0 0 32.110218728127734 -19.61397028029387 0 -19.61397028029387 13.697603373468155 0 0 0 0 13.26691889727033 -22.558897617351249 0 -22.558897617351249 68.622153421820258 0 0 0 0 39.259800003613691 71.145618238308089 0 71.145618238308089 85.058171294411295 0 0 0 0 6.5274923785809733 6.7271348627255065 0 6.7271348627255065 53.629866746108746 0 0 0 0 2.8268854509988159 18.865036709641572 0 18.865036709641572 102.95448070114071 0 0 0 0 -8.904177606453537 3.807932641814503 0 3.807932641814503 53.550922433019537 0 0 0 0 10.865682240699243 10.706786934802949 0 10.706786934802949 54.896636804798618 0 0 0 0 -1.8963561926143484 15.738772681514092 0 15.738772681514092 95.887257406226126 0 0 0 0 -9.5833439704051671 39.367705155076692 0 39.367705155076692 6.2718304878799245 0 0 0 0 0.45083292000367337 17.310729125258973 0 17.310729125258973 28.140620154140436 0 0 0 0 -1.3428907981253815 24.199926204280928 0 24.199926204280928 48.278382610016706 0 0 0 0 32.563997144832797 71.656782843700057 0 71.656782843700057 -185.13050319562899 0 0 0 0 -16.561519312764403 2.4134847982495558 0 2.4134847982495558 54.190972653867902 0 0 0 0 -181.37551244776273 147.33387610909267 0 147.33387610909267 -36.500214352534385 0 0 0 0 31.521454997153796 98.08805698328797 0 98.08805698328797 71.10478205193067 0 0 0 0 -81.145098519755265 189.8729984726524 0 189.8729984726524 25.359850382745208 0 0 0 0 -2.493941142498052 9.0477893467167121 0 9.0477893467167121 7.2704776107455018 0 0 0 0 -12.273246653045703 280.45244889436435 0 280.45244889436435 -141.99989833743894 0 0 0 0 -39.522275745962133 261.01567983459245 0 261.01567983459245 50.947001585911494 0 0 0 0 26.314405635655021 38.075839089244255 0 38.075839089244255 183.07586330793856 0 0 0 0 109.22259744727194 158.93557148690888 0 158.93557148690888 277.92559285320021 0 0 0 0 -125.16827240269413 235.23659868980758 0 235.23659868980758 39.033924858784303 0 0 0 0 -108.65200075594112 200.36249289760599 0 200.36249289760599 101.02670609357301 0 0 0 0 -186.1468078060534 195.2858752735192 0 195.2858752735192 105.06199142744299 0 0 0 0 -218.78858693184156 265.10297431350773 0 265.10297431350773 157.81672976282425 0 0 0 0 -165.15474863350028 173.95829387450067 0 173.95829387450067 217.62319862215372 0 0 0 0 -185.28777488348624 228.79082496421324 0 228.79082496421324 137.65234397351742 0 0 0 0 -231.50963482384759 215.96845338764251 0 215.96845338764251 204.33039970426762 0 0 0 0 -27.945555221831455 3.1900345629110234 0 3.1900345629110234 61.326250887992501 0 0 0 0 -4.3679803064999039 -0.39285827550362029 0 -0.39285827550362029 82.648075465455236 0 0 0 0 -245.94629928797985 43.156311455546529 0 43.156311455546529 124.05360570544144 0 0 0 0 -241.84779368744785 145.02281857864 0 145.02281857864 153.31940482967184 0 0 0 0 -307.36130072414744 119.16391202289378 0 119.16391202289378 178.75992004619911 0 0 0 0 -248.09395643086827 134.06880798377097 0 134.06880798377097 138.01678035198711 0 0 0 0 -251.91919086565213 162.00230847450439 0 162.00230847450439 129.9595406051958 0 0 0 0 -186.59293086699472 13.266518098025699 0 13.266518098025699 122.55756646738155 0 0 0 0 -246.31516928508677 39.317423170977236 0 39.317423170977236 142.9178832754842 0 0 0 0 -172.82836949745979 174.21198476071004 0 174.21198476071004 131.64609398582252 0 0 0 0 -209.08475696531605 119.80693075196177 0 119.80693075196177 105.29468752548564 0 0 0 0 -109.12911085504675 113.2793974467495 0 113.2793974467495 105.26714628363266 0 0 0 0 -149.28788035072466 157.57336849994317 0 157.57336849994317 61.44354383769678 0 0 0 0 -23.673781594981847 59.634713231353089 0 59.634713231353089 165.77974076531245 0 0 0 0 -6.9877631668310665 12.396127400426565 0 12.396127400426565 80.868390164260802 0 0 0 0 -14.248649916204158 126.78587122741737 0 126.78587122741737 66.238734706537798 0 0 0 0 -26.87096648317879 10.477373783713119 0 10.477373783713119 62.49103573244065 0 0 0 0 -74.421324089203154 -15.352219634754874 0 -15.352219634754874 127.43047408372513 0 0 0 0 8.6675804095857529 32.578542743402068 0 32.578542743402068 62.691907357075252 0 0 0 0 -13.855608257258748 15.501155286681097 0 15.501155286681097 18.461075070967979 0 0 0 0 -7.7184189608309985 15.800770801919441 0 15.800770801919441 75.893475510254234 0 0 0 0 -8.8557905551991958 5.5159405940979696 0 5.5159405940979696 43.741476939214692 0 0 0 0 1.2485687934608265 21.713181954055415 0 21.713181954055415 46.739059267456582 0 0 0 0 -44.353799963861093 49.771672493166989 0 49.771672493166989 56.056532270158641 0 0 0 0 -5.4877043518899411 11.383515360282651 0 11.383515360282651 8.8280446045347389 0 0 0 0 34.692445847161935 -43.1340061878509 0 -43.1340061878509 72.220568051452574 0 0 0 0 15.275060977849421 -58.360793421299604 0 -58.360793421299604 128.03921346498828 0 0 0 0 125.06195697680573 103.66769383069186 0 103.66769383069186 -0.97697659942787141 0 0 0 0 -335.95938274993023 353.06135335397266 0 353.06135335397266 382.77712171355961 0 0 0 0 -21.061179906807411 -50.093958170560654 0 -50.093958170560654 258.69163860747722 0 0 0 0 -5.716904869571179 1.4382671582445994 0 1.4382671582445994 89.421302835884603 0 0 0 0 -5.8325348467269578 9.4114013588550733 0 9.4114013588550733 49.772771839292545 0 0 0 0 -3.8033068039063664 9.1518097103770657 0 9.1518097103770657 27.144385450072207 0 0 0 0 -3.5908125252220797 5.597892559395369 0 5.597892559395369 44.710502778983084 0 0 0 0 -8.2051651929650689 6.1325845956744161 0 6.1325845956744161 151.22045238199644 0 0 0 0 -5.9778283861301089 -15.576249203556841 0 -15.576249203556841 33.996191258025419 0 0 0 0 113.55110633340053 -705.13194937798471 0 -705.13194937798471 4499.2783305505327 0 0 0 0 38.273912403179565 -13.710410427825991 0 -13.710410427825991 133.96781588086742 0 0 0 0 -27.141416947413745 1.1005400260182796 0 1.1005400260182796 66.468710556073347 0 0 0 0 -292.46397805206288 52.293283752514981 0 52.293283752514981 16.439793825120432 0 0 0 0 -282.25310145347089 87.820703545541619 0 87.820703545541619 57.030259792343713 0 0 0 0 -297.22880775225531 138.20093787669612 0 138.20093787669612 69.601451744500082 0 0 0 0 -257.70379177575523 92.423275693989126 0 92.423275693989126 8.6716874989215285 0 0 0 0 -767.57932758446259 91.144523971132003 0 91.144523971132003 29.348772468933021 0 0 0 0 -430.32751991567784 -271.31706197618041 0 -271.31706197618041 119.38425768958405 0 0 0 0 -4.7301184270682484 -15.681783208744775 0 -15.681783208744775 84.397970184757583 0 0 0 0 -4.6941949865393795 -3.6248076813612471 0 -3.6248076813612471 7.6757939994619164 0 0 0 0 51.72018360898619 56.73688472660433 0 56.73688472660433 -75.634343310201075 0 0 0 0 -2.3206286028957814 7.2171261886985292 0 7.2171261886985292 2.5901152822121958 0 0 0 0 -22.380111579252116 -15.59933372301748 0 -15.59933372301748 37.454393223510124 0 0 0 0 -22.200092477114787 -3.6261578663487342 0 -3.6261578663487342 87.40904537817724 0 0 0 0 -73.995550694919075 159.62538848817348 0 159.62538848817348 -124.11704341811128 0 0 0 0 -4.0940527075431561 -3.1731537095928957 0 -3.1731537095928957 12.647677993777819 0 0 0 0 -25.877144189449609 3.2200187348644249 0 3.2200187348644249 25.492045742692426 0 0 0 0 -23.733932865392024 8.2884062143975967 0 8.2884062143975967 84.519037751538008 0 0 0 0 -0.74382766209260964 5.105789594857967 0 5.105789594857967 64.079584678177753 0 0 0 0 11.206446604795929 119.28501370479353 0 119.28501370479353 -171.19689347702661 0 0 0 0 -21.554559528114623 -8.6305747922742739 0 -8.6305747922742739 123.1776689379476 0 0 0 0 -641.0706121766716 -87.096052549855813 0 -87.096052549855813 221.14981897358666 0 0 0 0 5.0855312350867994 -9.6355719624444589 0 -9.6355719624444589 64.662736680920432 0 0 0 0 -188.25953349776046 -128.89591189511702 0 -128.89591189511702 175.63641607339378 0 0 0 0 -356.03106517883862 -23.675405569447321 0 -23.675405569447321 315.21972296049353 0 0 0 0 -294.28240151964155 -132.65944120114 0 -132.65944120114 274.54134954608162 0 0 0 0 -364.07548304345073 31.184342562628444 0 31.184342562628444 201.51365349518164 0 0 0 0 7.3177680182534459 0.21041132223399472 0 0.21041132223399472 54.945668090498657 0 0 0 0 8.293381845795011 -12.105144748595194 0 -12.105144748595194 73.718031095631886 0 0 0 0 0.93181649288158042 3.3115000298166706 0 3.3115000298166706 133.0375845763192 0 0 0 0 1.2438077039033963 4.4539010170529707 0 4.4539010170529707 63.647831266703434 0 0 0 0 7.6808615352747438 -10.325270594497852 0 -10.325270594497852 134.58977351087015 0 0 0 0 3.7437357167682137 18.005695057315506 0 18.005695057315506 71.760962158121401 0 0 0 0 3.5157604857461759 12.818273270196073 0 12.818273270196073 40.841952053807347 0 0 0 0 13.01819642402188 -4.0527619274798781 0 -4.0527619274798781 57.484066498975153 0 0 0 0 -2.3735002088486254 -739.24801960715558 0 -739.24801960715558 3539.0975912938084 0 0 0 0 17.466140822513005 -1.3211640197986014 0 -1.3211640197986014 21.352683659173749 0 0 0 0 305.41061078722311 811.45119206991512 0 811.45119206991512 2459.9054730747375 0 0 0 0 24.742460945581971 -16.90041620659332 0 -16.90041620659332 11.758222181260059 0 0 0 0 -167.67253983881392 -200.06923012303741 0 -200.06923012303741 -299.36973636203038 0 0 0 0 153.70620336234583 -744.17815145071836 0 -744.17815145071836 4424.70701707642 0 0 0 0 10.118306048219774 -10.564676399131486 0 -10.564676399131486 -3.2543418393232741 0 0 0 0 700.1406079016889 -741.51915856520645 0 -741.51915856520645 4411.2237853476545 0 0 0 0 1093.2222919122121 -2235.1529423488828 0 -2235.1529423488828 6872.104385512881 0 0 0 0 -234.35709412257529 -364.96423286058416 0 -364.96423286058416 144.25261111979489 0 0 0 0 -220.41829099635652 -112.71944961596455 0 -112.71944961596455 -47.831087977494462 0 0 0 0 9.4652249691042503 -5.634653800034954 0 -5.634653800034954 4.6273554788710811 0 0 0 0 965.7149591701093 -644.56537710419798 0 -644.56537710419798 -458.54841683582345 0 0 0 0 715.12625748774894 -246.35473797580198 0 -246.35473797580198 -1054.5503168933938 0 0 0 0 154.4597704129892 -635.48079767455056 0 -635.48079767455056 632.75070380343823 0 0 0 0 290.28941339593985 40.87096294661751 0 40.87096294661751 382.0976780422061 0 0 0 0 -97.88962058967445 -56.598315151553834 0 -56.598315151553834 710.50845799748822 0 0 0 0 -261.44133957232953 -113.45616500769393 0 -113.45616500769393 242.73078814367182 0 0 0 0 -128.16522900137807 -203.79330575623317 0 -203.79330575623317 291.13741438474972 0 0 0 0 -347.96745127923271 -80.651068972292705 0 -80.651068972292705 471.38376406457974 0 0 0 0 -183.03673412824173 123.78852952144371 0 123.78852952144371 203.71592821678496 0 0 0 0 -148.32812844480577 12.767270494685363 0 12.767270494685363 547.99475008953596 0 0 0 0 32.340046421163606 183.27889734131168 0 183.27889734131168 203.98554307205632 0 0 0 0 -284.12368195354429 120.41479220750625 0 120.41479220750625 239.18295407629921 0 0 0 0 -272.8398546516346 11.322356202552328 0 11.322356202552328 101.79265043255873 0 0 0 0 607.8441575534913 -433.80102203526985 0 -433.80102203526985 644.40495751873823 0 0 0 0 55.250980157475439 -28.529356435085901 0 -28.529356435085901 614.95397648696962 0 0 0 0 -398.4024067732671 -1224.623176079831 0 -1224.623176079831 4495.0942881405099 0 0 0 0 0.44707378901562655 -244.05128963234347 0 -244.05128963234347 1986.131218663555 0 0 0 0 97.194433999376628 -136.91885427723173 0 -136.91885427723173 1083.2583096934286 0 0 0 0 583.18853385438706 -812.65721121131355 0 -812.65721121131355 1327.4347716065095 0 0 0 0 222.63863756486853 -487.49405817684601 0 -487.49405817684601 1406.901184254828 0 0 0 0 990.21015590682271 -2180.0025160654554 0 -2180.0025160654554 2870.7016297734372 0 0 0 0 709.95353557007377 -958.47362505478577 0 -958.47362505478577 3652.6189691663458 0 0 0 0 -229.37700485421854 -539.70567176726036 0 -539.70567176726036 3665.2070567363553 0 0 0 0 0.30485563871558752 41.513096652062167 0 41.513096652062167 103.17122124026355 0 0 0 0 -5.0932710170227438 -311.53141973886522 0 -311.53141973886522 515.52283124478345 0 0 0 0 500.51677528893771 -432.60804789590838 0 -432.60804789590838 401.94813787243038 0 0 0 0 325.93799827925977 -298.48675739315513 0 -298.48675739315513 356.62630402957438 0 0 0 0 -286.13233816944444 -74.339121316974342 0 -74.339121316974342 404.43433975647531 0 0 0 0 189.9484038474389 24.714633096362377 0 24.714633096362377 -166.74214429402491 0 0 0 0 -345.96500402588833 86.107008250051877 0 86.107008250051877 107.87116829497973 0 0 0 0 -65.006978954214276 122.14548345405274 0 122.14548345405274 -94.454704284900799 0 0 0 0 -345.61941527416747 65.054720635878766 0 65.054720635878766 8.8215045680990443 0 0 0 0 1.3077892804269633 5.586173234613014 0 5.586173234613014 -0.62622021700150299 0 0 0 0 -307.27158999467798 184.29264046020398 0 184.29264046020398 -48.196292705051746 0 0 0 0 -4.5192717952429531 -0.5179586422471516 0 -0.5179586422471516 6.46823784494714 0 0 0 0 -56.530343459697619 -56.955332254703535 0 -56.955332254703535 37.877942372229882 0 0 0 0 -306.25835879326553 202.80294235672045 0 202.80294235672045 84.109258081189182 0 0 0 0 2.4115716471999491 0.60154986287467693 0 0.60154986287467693 0.44066210129783911 0 0 0 0 30.389751418888409 17.788712463880074 0 17.788712463880074 15.242718195200723 0 0 0 0 2.8579365383529485 2.7128990006305003 0 2.7128990006305003 1.2888157696287328 0 0 0 0 158.17726800072523 187.95538081330233 0 187.95538081330233 247.95701631574025 0 0 0 0 342.9984966742195 596.10317782851052 0 596.10317782851052 955.21014163723089 0 0 0 0 95.573198210499868 209.22403232168836 0 209.22403232168836 392.71109897080169 0 0 0 0 410.42392733898123 38.179370024077798 0 38.179370024077798 597.06302158231119 0 0 0 0 245.81795211248573 -233.20825004782819 0 -233.20825004782819 179.81831250893265 0 0 0 0 1.3289073502890041 1.9291206418046869 0 1.9291206418046869 0.67920817529495725 0 0 0 0 217.46776122759911 -61.666030219053937 0 -61.666030219053937 244.42585217792293 0 0 0 0 233.85815271459433 -128.58542216927526 0 -128.58542216927526 273.86927066197677 0 0 0 0 298.00227771264326 -299.78093357213947 0 -299.78093357213947 442.83289438884094 0 0 0 0 102.77556184971581 -131.80202418601402 0 -131.80202418601402 394.51791756942566 0 0 0 0 10.481373984963284 -20.006075233937736 0 -20.006075233937736 418.96620190073827 0 0 0 0 33.384749689696037 -46.801863062381017 0 -46.801863062381017 299.80770600451069 0 0 0 0 -3.3000396523734707 11.462081874622527 0 11.462081874622527 268.14209869556362 0 0 0 0 -21.570447340060127 68.160419327716227 0 68.160419327716227 263.02875298946128 0 0 0 0 42.985840996282604 -41.332769067408663 0 -41.332769067408663 301.99270297841576 0 0 0 0 -20.514949603143805 31.686736314481095 0 31.686736314481095 263.65265108910535 0 0 0 0 17.927070073656068 -24.310222014759347 0 -24.310222014759347 204.70806123321017 0 0 0 0 8.8728319620149705 7.7410788532070001 0 7.7410788532070001 1.5773668703441217 0 0 0 0 4.6229229963045455 2.1596625156676765 0 2.1596625156676765 0.72620912124864656 0 0 0 0 1.5996250935805634 0.50356657506013391 0 0.50356657506013391 0.74925142884193008 0 0 0 0 80.113749168008326 36.959104212465263 0 36.959104212465263 124.59590500943887 0 0 0 0 52.010922962782388 34.506571989364602 0 34.506571989364602 127.34423689325558 0 0 0 0 81.895043516552505 178.31102611505776 0 178.31102611505776 251.44244666301893 0 0 0 0 1.5308917695411974 -0.42679017846164413 0 -0.42679017846164413 0.23016895796850889 0 0 0 0 2.5488250462403812 11.376655839914747 0 11.376655839914747 17.274565962856286 0 0 0 0 51.517470909928306 46.160463506881115 0 46.160463506881115 170.68794087896094 0 0 0 0 111.79213620027986 125.05264884879944 0 125.05264884879944 279.55722969613271 0 0 0 0 56.410199657559133 131.51178844855531 0 131.51178844855531 249.34711698238971 0 0 0 0 129.28318027512341 112.12318518984466 0 112.12318518984466 251.07106202272917 0 0 0 0 110.2824118348517 134.26253791775343 0 134.26253791775343 308.00845296815532 0 0 0 0 204.15728434444463 246.22156977678605 0 246.22156977678605 317.19111578645288 0 0 0 0 17.440569494887608 -21.525150600561311 0 -21.525150600561311 25.479147377432994 0 0 0 0 -164.5434369050289 -142.43073893373503 0 -142.43073893373503 45.793050044183474 0 0 0 0 271.87987350717049 198.90205932117897 0 198.90205932117897 246.57176965122198 0 0 0 0 37.801046947100986 142.67091794775297 0 142.67091794775297 320.41350140594295 0 0 0 0 254.58218420716958 376.8371329535687 0 376.8371329535687 411.28671138761274 0 0 0 0 -171.31148095365089 26.553687629100978 0 26.553687629100978 43.139958035688323 0 0 0 0 -182.2256084505043 -257.648970076556 0 -257.648970076556 -99.501778464600648 0 0 0 0 11.383410708169677 -13.557430962689793 0 -13.557430962689793 16.218800703692196 0 0 0 0 -21.872393961714806 -42.573841454955982 0 -42.573841454955982 -70.171558946455889 0 0 0 0 -6.1648502259549378 8.929622910214249 0 8.929622910214249 180.57178970922763 0 0 0 0 99.237760237278962 -23.467922572230236 0 -23.467922572230236 -26.318805067732683 0 0 0 0 10.749535868159001 119.67004414835537 0 119.67004414835537 274.42544533688306 0 0 0 0 52.539993175013265 4.9738631372629154 0 4.9738631372629154 -8.9408885560404912 0 0 0 0 139.64271067086224 94.951275303084913 0 94.951275303084913 174.95543610430468 0 0 0 0 -413.27470450538749 -337.534517789858 0 -337.534517789858 -193.95393657211935 0 0 0 0 169.83421516173576 240.84547047643719 0 240.84547047643719 249.97865586338185 0 0 0 0 93.935479549815582 96.498171813285808 0 96.498171813285808 219.08655192738684 0 0 0 0 45.387511167862151 2.6914623811298313 0 2.6914623811298313 -27.878768064689019 0 0 0 0 111.86095683956364 278.6346916050461 0 278.6346916050461 402.01296891915626 0 0 0 0 72.483306809184796 68.91423913348649 0 68.91423913348649 179.0756548435802 0 0 0 0 42.314236448976047 5.5112342387470932 0 5.5112342387470932 -28.851322776351907 0 0 0 0 230.15949621821528 254.74687956339221 0 254.74687956339221 363.20519147413506 0 0 0 0 165.67503884774987 339.76387882298786 0 339.76387882298786 538.17472961945896 0 0 0 0 59.227038752036606 104.87057296226703 0 104.87057296226703 329.02058964750722 0 0 0 0 -61.736784483766314 123.52853639486784 0 123.52853639486784 504.39293222626111 0 0 0 0 -23.715645508107627 4.2203304094982741 0 4.2203304094982741 246.83488437625056 0 0 0 0 60.303406078851822 155.23737371242896 0 155.23737371242896 481.59154543492332 0 0 0 0 -10.361965434891793 0.15989460809498013 0 0.15989460809498013 240.35814804781603 0 0 0 0 421.58000519724101 445.1444795160387 0 445.1444795160387 1220.2938899571163 0 0 0 0 5.8306477653605029 -4.5931553681848314 0 -4.5931553681848314 4.3373152682477922 0 0 0 0 -379.48909911108672 -768.48708185796704 0 -768.48708185796704 1048.7187960116717 0 0 0 0 73.199938366211427 117.30463173897442 0 117.30463173897442 1514.7542405082495 0 0 0 0 -21.927083468252022 163.20219267764696 0 163.20219267764696 327.27663615163328 0 0 0 0 -236.04663322712622 5.6768833452133549 0 5.6768833452133549 332.04968076395926 0 0 0 0 -35.526760259999719 312.65350539375504 0 312.65350539375504 62.519987087005575 0 0 0 0 980.26303513366838 -1223.3324505277269 0 -1223.3324505277269 165.32322046811896 0 0 0 0 629.71452816787496 160.26488904609869 0 160.26488904609869 -204.03819739104256 0 0 0 0 -409.50710047352823 78.124928731207547 0 78.124928731207547 305.81044869287507 0 0 0 0 -9.5119753214712546 -32.053155357720243 0 -32.053155357720243 243.91929461816108 0 0 0 0 -312.02086935501256 -56.085991705944707 0 -56.085991705944707 390.75526136851113 0 0 0 0 -7.8264964884319603 -5.257917436448583 0 -5.257917436448583 287.6292871313226 0 0 0 0 -200.48854106891304 -143.96998093626462 0 -143.96998093626462 322.9565595837048 0 0 0 0 -13.737867204775714 -20.924402835374636 0 -20.924402835374636 315.41974846452536 0 0 0 0 -22.635268774340148 74.200476366695511 0 74.200476366695511 372.13230620578179 0 0 0 0 59.086210322526313 14.841159490475547 0 14.841159490475547 249.87065856764821 0 0 0 0 -123.01443059930534 -53.324249921681258 0 -53.324249921681258 560.77564298841025 0 0 0 0 -20.234875530102727 2.4170076370719471 0 2.4170076370719471 535.38326217675058 0 0 0 0 -102.12310867153428 -64.468736109407473 0 -64.468736109407473 270.81121709569561 0 0 0 0 -92.063658717868748 -22.099067710827512 0 -22.099067710827512 427.72570792034094 0 0 0 0 -121.17627454827743 -171.70176151970009 0 -171.70176151970009 290.64655334313102 0 0 0 0 -113.07084036116794 -145.26401800813255 0 -145.26401800813255 302.81059340535285 0 0 0 0 -114.68739629102856 -182.44816850770439 0 -182.44816850770439 392.54995001568568 0 0 0 0 -90.234126696007479 -157.28740871864284 0 -157.28740871864284 359.77219276598771 0 0 0 0 -118.64193763805088 -228.76610076064389 0 -228.76610076064389 342.20465986256386 0 0 0 0 -167.52849387584138 -155.68894573885336 0 -155.68894573885336 593.32185155975458 0 0 0 0 -72.269085356645519 -118.97680431631306 0 -118.97680431631306 244.99631378894264 0 0 0 0 -6.6341110786460789 -1.580547751888588 0 -1.580547751888588 48.366109566458817 0 0 0 0 -51.425797911353584 6.8432102768565528 0 6.8432102768565528 -284.8080487587431 0 0 0 0 -97.52840188603659 -27.583081776443578 0 -27.583081776443578 64.040820801630616 0 0 0 0 -52.308460868276597 -160.77331744362891 0 -160.77331744362891 -8.6756956441677175 0 0 0 0 -111.78896650344541 -217.68139207760396 0 -217.68139207760396 185.26802831859095 0 0 0 0 -67.352738643261546 -242.91533133501798 0 -242.91533133501798 -41.235399755794788 0 0 0 0 -97.185118167300971 -241.48712620846709 0 -241.48712620846709 177.96620498338598 0 0 0 0 -55.78351232931891 -193.58354202566261 0 -193.58354202566261 8.026112806310266 0 0 0 0 -65.987217948062607 -182.39730039302958 0 -182.39730039302958 187.70328661841631 0 0 0 0 -92.048196690198893 -62.53659323811371 0 -62.53659323811371 194.54379693696683 0 0 0 0 -57.464961180385671 -192.77787886119768 0 -192.77787886119768 164.73378964865697 0 0 0 0 -55.878731673699804 -147.87153468262841 0 -147.87153468262841 218.28629046923015 0 0 0 0 -65.602775213485756 -175.92871503671995 0 -175.92871503671995 277.79332885719487 0 0 0 0 -71.753700682323597 -60.657291722663103 0 -60.657291722663103 335.21830395160941 0 0 0 0 -15.482025196474964 12.457762326435692 0 12.457762326435692 134.39564259328938 0 0 0 0 -21.289312411577505 -63.65591455044769 0 -63.65591455044769 134.45320029755592 0 0 0 0 -46.287822034930286 -32.109017031770236 0 -32.109017031770236 225.68014741551087 0 0 0 0 -27.149250684966319 -3.7730017034746197 0 -3.7730017034746197 215.9955187521482 0 0 0 0 -10.640822250350254 -66.683548707006111 0 -66.683548707006111 37.841957354159561 0 0 0 0 -25.898859350939347 -17.109960409922678 0 -17.109960409922678 259.27830416164034 0 0 0 0 1.4468757461982023 -40.928968657475707 0 -40.928968657475707 222.00076612111661 0 0 0 0 2.3377320547297131 15.497468802874209 0 15.497468802874209 763.56660089709658 0 0 0 0 0.77308297051906294 2.5296470409219438 0 2.5296470409219438 0.092312683734064649 0 0 0 0 -77.635295431049599 -110.01914687981571 0 -110.01914687981571 596.25177887336758 0 0 0 0 -23.940153739818015 17.293519624332475 0 17.293519624332475 602.99368017991219 0 0 0 0 179.67592280394274 133.70270251426882 0 133.70270251426882 194.85973535985977 0 0 0 0 -105.75084074116239 -82.108641096914653 0 -82.108641096914653 224.41462936270818 0 0 0 0 -93.854020386642333 -2.4778086498099583 0 -2.4778086498099583 382.2326005630166 0 0 0 0 -2.5043943755460916 7.0459569399598792 0 7.0459569399598792 77.72186757142893 0 0 0 0 -3.576729345850616 0.10283020924731545 0 0.10283020924731545 59.803715710928998 0 0 0 0 -15.183783526168554 47.231323342450196 0 47.231323342450196 619.7844009331202 0 0 0 0 2.9745605794305447 23.385524108125537 0 23.385524108125537 332.73401330176966 0 0 0 0 -1.8203688972503667 -73.051327409409339 0 -73.051327409409339 150.18923893097798 0 0 0 0 -100.1496063090417 -86.551973553199787 0 -86.551973553199787 220.25985143575235 0 0 0 0 -63.043127871732395 -98.070810254226672 0 -98.070810254226672 168.1056327708211 0 0 0 0 -78.375336993678047 -151.00264477705969 0 -151.00264477705969 -11.98126703404705 0 0 0 0 -2.876744680077004 -26.519051005537484 0 -26.519051005537484 193.24696303362586 0 0 0 0 -51.299632917012786 -15.596607594023226 0 -15.596607594023226 -7.597434183335281 0 0 0 0 -110.99239662108448 13.098179651911778 0 13.098179651911778 305.73236559700717 0 0 0 0 -59.600617524017252 12.986437243474938 0 12.986437243474938 196.71112715284107 0 0 0 0 -106.62105274842907 -75.985624900335097 0 -75.985624900335097 215.19285407504503 0 0 0 0 -100.88319794620475 -82.799276171443125 0 -82.799276171443125 203.99815018370282 0 0 0 0 -104.86816646855641 -62.601725085841281 0 -62.601725085841281 282.80218069144757 0 0 0 0 -134.18420605189021 -21.06863121328206 0 -21.06863121328206 265.01290145826351 0 0 0 0 198.9043771404431 -161.53395643350814 0 -161.53395643350814 -172.07206896819116 0 0 0 0 -115.77526566732558 -121.57418196248909 0 -121.57418196248909 686.78543962268304 0 0 0 0 95.453342897908442 124.28000916018573 0 124.28000916018573 407.9595782324468 0 0 0 0 272.29872007698577 -378.52514785767198 0 -378.52514785767198 147.21308336104266 0 0 0 0 57.032099944690344 -100.16527913438767 0 -100.16527913438767 412.22162500888226 0 0 0 0 -1.2206790424170322 -44.318135759105644 0 -44.318135759105644 660.01986383869371 0 0 0 0 80.663363261195627 -23.580847372912103 0 -23.580847372912103 425.17741547037622 0 0 0 0 133.40735203032898 -37.912917522819953 0 -37.912917522819953 164.63790360967687 0 0 0 0 136.34722429756584 -6.3883507687314705 0 -6.3883507687314705 325.75044229368359 0 0 0 0 95.607628656443921 -58.152997501492791 0 -58.152997501492791 326.35668101008196 0 0 0 0 112.77989081834494 -53.154676993330213 0 -53.154676993330213 274.0165507914644 0 0 0 0 99.560030065249521 -62.587859029918036 0 -62.587859029918036 285.30257664625969 0 0 0 0 -77.030730566373677 -162.67652072259079 0 -162.67652072259079 622.16237992481911 0 0 0 0 -1.4763655865398135 -0.21061367026959488 0 -0.21061367026959488 -1.3356244590375574 0 0 0 0 85.563733588291143 -39.703510144114261 0 -39.703510144114261 326.62915593841899 0 0 0 0 72.71305573626978 -94.673417421876366 0 -94.673417421876366 371.56136307056295 0 0 0 0 78.967199641105253 -99.101651617376774 0 -99.101651617376774 282.81894594054756 0 0 0 0 86.88202109150734 -59.486870588210877 0 -59.486870588210877 380.75996567569382 0 0 0 0 43.497514890133061 21.599767767174853 0 21.599767767174853 361.35784276796039 0 0 0 0 103.71259979190654 18.180669511119049 0 18.180669511119049 247.38894433001406 0 0 0 0 122.31329341558376 -17.255044164799983 0 -17.255044164799983 312.16179246208048 0 0 0 0 87.460837289576375 -45.713501346628618 0 -45.713501346628618 308.63528442295501 0 0 0 0 96.106496383058129 -61.253989952687334 0 -61.253989952687334 294.31215711815457 0 0 0 0 98.968135726729088 -61.804468334474223 0 -61.804468334474223 290.50231473699387 0 0 0 0 108.29916133702227 -55.487858945103653 0 -55.487858945103653 275.87766648177058 0 0 0 0 113.90697352649659 -46.208053823411319 0 -46.208053823411319 289.38910955724896 0 0 0 0 112.64553802526279 -40.532683131470549 0 -40.532683131470549 264.86804254111485 0 0 0 0 95.128257025316998 -60.12461708509727 0 -60.12461708509727 274.50815484777922 0 0 0 0 135.41544677193815 -70.682510283280862 0 -70.682510283280862 275.13742306355198 0 0 0 0 80.519437189238488 -78.796384997236601 0 -78.796384997236601 310.06621758377878 0 0 0 0 134.0636364520783 -64.076515439245668 0 -64.076515439245668 242.90718113748881 0 0 0 0 321.35926580192881 -39.441701275452942 0 -39.441701275452942 149.30556719344168 0 0 0 0 168.88960293107993 -3.9591772624553414 0 -3.9591772624553414 242.70322706329898 0 0 0 0 89.56443485093223 72.386757183336158 0 72.386757183336158 175.33658409195777 0 0 0 0 158.7141248532771 -43.573002194218134 0 -43.573002194218134 259.77916386682409 0 0 0 0 50.349579210584352 20.616041096450317 0 20.616041096450317 230.13439963071869 0 0 0 0 76.573707959400053 -36.440763208003773 0 -36.440763208003773 267.52800041244518 0 0 0 0 42.192756053937387 -17.544000553412388 0 -17.544000553412388 272.8328124273612 0 0 0 0 55.611363886326217 -25.439974091961631 0 -25.439974091961631 273.91812952315286 0 0 0 0 38.434165488657527 -38.238689260208048 0 -38.238689260208048 287.78588471416151 0 0 0 0 94.596687971550637 -60.910064960480668 0 -60.910064960480668 286.15311026211566 0 0 0 0 87.181673962507375 -59.695751654537162 0 -59.695751654537162 281.77764448575908 0 0 0 0 67.504966130833964 -44.014276969082857 0 -44.014276969082857 281.07028337736119 0 0 0 0 93.988201551415386 -51.804749897378315 0 -51.804749897378315 290.89486331934313 0 0 0 0 89.436906712607197 -62.045460811616067 0 -62.045460811616067 271.58143992739497 0 0 0 0 84.136203717972421 -49.188590774789191 0 -49.188590774789191 253.38851601901843 0 0 0 0 61.151001289246778 -23.404694615241169 0 -23.404694615241169 258.21017105326609 0 0 0 0 73.772464064157248 -48.341688447035267 0 -48.341688447035267 284.90486246756973 0 0 0 0 77.383064676983849 -62.221380482493259 0 -62.221380482493259 277.55339658779849 0 0 0 0 75.121918941292279 -97.43915016939718 0 -97.43915016939718 290.08010291512619 0 0 0 0 79.183571874231347 -66.734096484316979 0 -66.734096484316979 288.85793509986797 0 0 0 0 86.814114734328541 -59.412825654813787 0 -59.412825654813787 294.20744109024963 0 0 0 0 80.19747066268792 -56.031714240540168 0 -56.031714240540168 314.03264983036934 0 0 0 0 58.651388479589514 -80.087546751678019 0 -80.087546751678019 319.54242390186664 0 0 0 0 102.90989128511046 -36.172986261408369 0 -36.172986261408369 326.65537282470905 0 0 0 0 70.18971209364463 -55.50799234923943 0 -55.50799234923943 332.00787305484118 0 0 0 0 55.586594661008348 -102.78519311647324 0 -102.78519311647324 333.7845021558112 0 0 0 0 65.301352452105675 -61.816577596335264 0 -61.816577596335264 366.38738482603367 0 0 0 0 55.694120580454751 -110.70675500621428 0 -110.70675500621428 354.57022145115479 0 0 0 0 60.421781005581579 -135.25431591461893 0 -135.25431591461893 315.50519078269178 0 0 0 0 64.133530630957466 -86.267965291062865 0 -86.267965291062865 324.15252802289615 0 0 0 0 38.663015781922695 -116.14539467179929 0 -116.14539467179929 326.83817556688882 0 0 0 0 89.668526149412628 -128.65794047923555 0 -128.65794047923555 282.5886706801175 0 0 0 0 108.66582565063254 -104.87134665668054 0 -104.87134665668054 259.52925155959383 0 0 0 0 79.072634140940636 -101.83122176561938 0 -101.83122176561938 273.23432701505226 0 0 0 0 126.24677364905119 -92.61397855719224 0 -92.61397855719224 192.97366955823236 0 0 0 0 132.32743528425772 -174.65785349641737 0 -174.65785349641737 316.3221589732857 0 0 0 0 100.03211856997837 -1.3597375251192716 0 -1.3597375251192716 290.2881114441343 0 0 0 0 233.20314456291914 -77.899219041833931 0 -77.899219041833931 214.63034578499355 0 0 0 0 109.74176636721548 -7.1734568334941287 0 -7.1734568334941287 178.64938100468135 0 0 0 0 7.1208429486727454 54.769267560964636 0 54.769267560964636 268.46213032683954 0 0 0 0 96.355266107403281 73.450739810206869 0 73.450739810206869 232.19166266273169 0 0 0 0 51.983621835946508 -92.400787950491576 0 -92.400787950491576 157.99476947591756 0 0 0 0 90.100142384117589 -46.426088320233248 0 -46.426088320233248 213.44741264909158 0 0 0 0 18.947805328264963 -43.995747010945706 0 -43.995747010945706 141.71726212068461 0 0 0 0 108.2878367022854 -19.216412939953443 0 -19.216412939953443 115.3046048781689 0 0 0 0 55.963178338250145 -17.121129274222767 0 -17.121129274222767 156.53984799611499 0 0 0 0 11.114187444859889 0.91844752917631922 0 0.91844752917631922 37.8997181749437 0 0 0 0 -277.6807966207943 -81.736759941322816 0 -81.736759941322816 204.07404525218226 0 0 0 0 73.1297566855892 -44.760382965276222 0 -44.760382965276222 101.72622463240987 0 0 0 0 66.758969150616394 31.515624252835551 0 31.515624252835551 106.5647323094372 0 0 0 0 113.64829297575307 -12.862303333778982 0 -12.862303333778982 157.87241457858454 0 0 0 0 152.95679032500448 42.386013927480235 0 42.386013927480235 163.51774087984359 0 0 0 0 93.66368352139034 -7.0890098960335308 0 -7.0890098960335308 244.06289878570897 0 0 0 0 102.92881435304434 -7.5026708078403317 0 -7.5026708078403317 202.87004722640995 0 0 0 0 113.94064324229748 -52.132205879624962 0 -52.132205879624962 218.70846180566878 0 0 0 0 89.998465080211645 -61.838166663699212 0 -61.838166663699212 217.71043053962785 0 0 0 0 108.40405197016582 -22.35802807773598 0 -22.35802807773598 178.96982468332862 0 0 0 0 110.03136468593402 -34.959556709218305 0 -34.959556709218305 159.44634134826265 0 0 0 0 122.92311835865348 116.20660345691431 0 116.20660345691431 18.217679062021489 0 0 0 0 -3.9106640256099521 5.0532523013751423 0 5.0532523013751423 -6.6718290054932083 0 0 0 0 121.10542790381805 54.288081174570834 0 54.288081174570834 188.59850586752873 0 0 0 0 171.28771375437191 110.96969229472234 0 110.96969229472234 -26.233275629463606 0 0 0 0 -481.2125184415741 -29.902232224450017 0 -29.902232224450017 145.53219945495221 0 0 0 0 -0.68744614201771626 0.90673296633877243 0 0.90673296633877243 -2.398846416967757 0 0 0 0 -556.42311727531387 -302.51469508442824 0 -302.51469508442824 28.524185531838157 0 0 0 0 -73.46882432176244 179.88792492042649 0 179.88792492042649 64.438017106578627 0 0 0 0 -180.3575711301055 -126.18571978076943 0 -126.18571978076943 -118.52220126412249 0 0 0 0 -282.66378014168731 96.823053503550909 0 96.823053503550909 197.87546859203212 0 0 0 0 -103.17800074069601 90.098558611280168 0 90.098558611280168 416.13884724088712 0 0 0 0 -59.888729640501879 72.618304967461881 0 72.618304967461881 -15.700920673128167 0 0 0 0 126.67606116345837 45.770724946349219 0 45.770724946349219 83.568039458355997 0 0 0 0 42.671742116338919 -50.541154701691994 0 -50.541154701691994 123.9482752475742 0 0 0 0 -389.63139237887304 -284.29928259824646 0 -284.29928259824646 12.435820560451248 0 0 0 0 0.1033981842673648 -0.49847720412505225 0 -0.49847720412505225 2.1470545511472494 0 0 0 0 -155.11660378587197 -34.454722402850166 0 -34.454722402850166 -64.385153107534279 0 0 0 0 -181.37079273388963 -27.904009847199632 0 -27.904009847199632 110.13589460273215 0 0 0 0 -301.87547735211638 -105.39354559251115 0 -105.39354559251115 44.47693001449079 0 0 0 0 -1.3345552174713551 -1.3576974078039328 0 -1.3576974078039328 7.3360455078106668 0 0 0 0 429.12756440556018 460.2128901488104 0 460.2128901488104 289.41158913024628 0 0 0 0 -78.214437989257931 129.24013743996693 0 129.24013743996693 269.44646827522229 0 0 0 0 -49.452135283177768 124.04905386260725 0 124.04905386260725 118.58757394197892 0 0 0 0 121.57527330857147 279.1718468703184 0 279.1718468703184 253.35947406636183 0 0 0 0 -15.306767271177705 94.473852850707772 0 94.473852850707772 218.04887465284628 0 0 0 0 -146.01886518263109 153.90332585664146 0 153.90332585664146 253.83886331142321 0 0 0 0 -180.80325782802174 87.812382461226662 0 87.812382461226662 335.91911313030869 0 0 0 0 3.2684595824894132 186.3376491820527 0 186.3376491820527 138.7352864736531 0 0 0 0 -156.46971198600363 141.87767162821183 0 141.87767162821183 377.19182159552292 0 0 0 0 -339.54650517222353 -127.68048253173765 0 -127.68048253173765 94.101816643997154 0 0 0 0 -78.368370074980703 29.832119782066002 0 29.832119782066002 -16.68909804202849 0 0 0 0 -167.42609346919016 108.98004282335023 0 108.98004282335023 257.54911960628897 0 0 0 0 -7.8183439360063858 -60.67375493633881 0 -60.67375493633881 -162.06938137135512 0 0 0 0 13.363675908703954 10.529785711070872 0 10.529785711070872 33.074260813615183 0 0 0 0 7.8521632728242192 9.9178958086283728 0 9.9178958086283728 11.444142367426011 0 0 0 0 10.232747764367787 7.2000124832029542 0 7.2000124832029542 34.087782491529651 0 0 0 0 -102.835646243572 -2.9155555739371266 0 -2.9155555739371266 145.76461759955419 0 0 0 0 -185.26035809357199 -13.459331866339198 0 -13.459331866339198 402.36807643072461 0 0 0 0 -144.09075382051606 12.983589901199593 0 12.983589901199593 387.71089706945349 0 0 0 0 5.5732450296784464 27.366881762174671 0 27.366881762174671 134.18772121059737 0 0 0 0 -146.20021352276967 -9.9649923298511567 0 -9.9649923298511567 24.523237680448801 0 0 0 0 -0.19223935730433528 -0.75000376345406039 0 -0.75000376345406039 13.126457131456675 0 0 0 0 -149.56725011698586 6.390879753853369 0 6.390879753853369 95.555905650311615 0 0 0 0 -3.7900321192884103 1.0949308342476627 0 1.0949308342476627 10.183329024311767 0 0 0 0 -8.6981621666163846 4.0149053504792391 0 4.0149053504792391 114.59236899016105 0 0 0 0 -135.29173801473416 22.033366541818395 0 22.033366541818395 71.627752018132014 0 0 0 0 -137.31284054795725 -5.8592517938095625 0 -5.8592517938095625 11.820019552775193 0 0 0 0 -140.24254894285301 57.500221001545469 0 57.500221001545469 125.18352699100069 0 0 0 0 -170.80206033277577 -15.373016819889017 0 -15.373016819889017 122.42229924826825 0 0 0 0 -124.77621350742294 37.573064444230113 0 37.573064444230113 111.45329616207255 0 0 0 0 -110.40247247682674 13.765116615244551 0 13.765116615244551 144.4115518286344 0 0 0 0 -132.00143456199785 32.28573688448887 0 32.28573688448887 144.54307119481382 0 0 0 0 -128.43730371543919 42.899115961364259 0 42.899115961364259 147.54182957659214 0 0 0 0 -56.144012982931031 22.505837902834173 0 22.505837902834173 118.18413398937992 0 0 0 0 -145.72218006000685 -6.1344892937108852 0 -6.1344892937108852 121.24796633714141 0 0 0 0 -31.60516068360937 30.399579283697676 0 30.399579283697676 85.704678401394631 0 0 0 0 -154.78125158505759 36.160156081323294 0 36.160156081323294 137.70229707013641 0 0 0 0 -163.31642113627572 50.857829385131481 0 50.857829385131481 149.44269371878727 0 0 0 0 -172.76127297364042 33.472157471398532 0 33.472157471398532 149.63567961667286 0 0 0 0 -210.12197367748763 48.766715918962291 0 48.766715918962291 149.38415071117925 0 0 0 0 -173.725192446557 22.478922299815167 0 22.478922299815167 128.81400915185804 0 0 0 0 -140.15117654686219 91.295092224987457 0 91.295092224987457 110.5340167828108 0 0 0 0 -181.87283200852585 62.06851010358514 0 62.06851010358514 126.07107442533106 0 0 0 0 -194.33415128850493 94.868435398260772 0 94.868435398260772 137.03218956216006 0 0 0 0 -141.30720521992043 68.882990050609806 0 68.882990050609806 135.58561194066715 0 0 0 0 -133.29818495815744 67.966664095874876 0 67.966664095874876 135.6842202693224 0 0 0 0 -152.30488824970303 71.824408846401639 0 71.824408846401639 146.09031187085202 0 0 0 0 -163.79651251579929 50.800909067040266 0 50.800909067040266 150.27857144911832 0 0 0 0 -153.47614449458001 50.292049624906213 0 50.292049624906213 149.44232243342776 0 0 0 0 -153.17172284521325 48.019112620473607 0 48.019112620473607 137.18738250927709 0 0 0 0 -152.80185634063264 35.723734945026081 0 35.723734945026081 139.27896598538064 0 0 0 0 -144.71409855475804 55.067320141097298 0 55.067320141097298 131.49169798840012 0 0 0 0 -153.6829923471231 28.831038116883065 0 28.831038116883065 116.11289120168658 0 0 0 0 -123.49908058753681 58.864385981189116 0 58.864385981189116 113.57082698743761 0 0 0 0 -117.58664672707664 16.946708279756422 0 16.946708279756422 127.26060497012077 0 0 0 0 -94.50057427262152 60.678923189121633 0 60.678923189121633 132.57015354618488 0 0 0 0 -13.442963281882385 39.108047084791906 0 39.108047084791906 108.16573834908922 0 0 0 0 -96.647018140844011 66.786588666334865 0 66.786588666334865 128.7330943113484 0 0 0 0 -146.38515863835454 48.932943818825152 0 48.932943818825152 142.94035606706166 0 0 0 0 -118.65773172167565 46.373408906649274 0 46.373408906649274 139.22522479521649 0 0 0 0 -84.969431221915329 61.439280079466698 0 61.439280079466698 124.75169396260753 0 0 0 0 -121.24494134899214 82.504216861776513 0 82.504216861776513 131.54921529087005 0 0 0 0 -88.990601491069356 90.010951441243378 0 90.010951441243378 106.26890593691496 0 0 0 0 -142.42030198551493 84.213589799546753 0 84.213589799546753 131.43838992885321 0 0 0 0 -84.040759068124544 99.901010906183728 0 99.901010906183728 96.702240900951438 0 0 0 0 -141.9896563926809 103.50995189992682 0 103.50995189992682 115.33771905695903 0 0 0 0 -3.1126024210418564 83.102288059088096 0 83.102288059088096 116.21254997642245 0 0 0 0 -33.402948149890562 50.252846424476957 0 50.252846424476957 106.45114340180589 0 0 0 0 -89.698146179303194 55.197486351025873 0 55.197486351025873 133.32380446253228 0 0 0 0 33.737486201760476 16.932121358422592 0 16.932121358422592 126.88301071670503 0 0 0 0 19.5482918739431 58.30556411737534 0 58.30556411737534 69.430581512119602 0 0 0 0 55.252230617546957 117.46268560753379 0 117.46268560753379 36.557749204614083 0 0 0 0 -7.3044451032467945 6.2748995329866517 0 6.2748995329866517 59.057994311265901 0 0 0 0 24.88248348317893 51.873178941787046 0 51.873178941787046 110.37746799765591 0 0 0 0 -12.71725408374931 32.635855641961371 0 32.635855641961371 126.43773908384901 0 0 0 0 2.6857485830677916 6.1677450188174134 0 6.1677450188174134 9.6919392000757512 0 0 0 0 -2.1472423474005637 -1.6101398343682192 0 -1.6101398343682192 29.070978506851048 0 0 0 0 -2.0847754794534694 16.972217898800409 0 16.972217898800409 52.61184064570989 0 0 0 0 35.797423343926766 -24.452777847403922 0 -24.452777847403922 19.023804913151821 0 0 0 0 59.549419112138821 100.41003977012588 0 100.41003977012588 317.27437489556405 0 0 0 0 1.7906421144785796 1.5544507406769696 0 1.5544507406769696 0.26257650958519108 0 0 0 0 87.237524082170239 43.561592681366164 0 43.561592681366164 243.92423647934993 0 0 0 0 87.520824000247586 50.725237341197499 0 50.725237341197499 188.50132350181957 0 0 0 0 94.559195102080366 -3.2741788040475512 0 -3.2741788040475512 146.88325925029494 0 0 0 0 176.11441554147132 123.42100001899962 0 123.42100001899962 223.08568855325575 0 0 0 0 206.20688674738295 44.636784247395553 0 44.636784247395553 126.0102150709281 0 0 0 0 -22.364767613409299 -12.20340196764846 0 -12.20340196764846 139.17600515452796 0 0 0 0 -32.973168882785899 18.497599948394054 0 18.497599948394054 50.383310388031532 0 0 0 0 14.705022377188925 63.54289958913796 0 63.54289958913796 120.79439919345168 0 0 0 0 -68.200136181607036 58.373601562550903 0 58.373601562550903 150.34518290855885 0 0 0 0 -47.772750647039175 8.2735029032774037 0 8.2735029032774037 130.65764226660031 0 0 0 0 55.841008842078622 9.9657625588788505 0 9.9657625588788505 177.89889322764793 0 0 0 0 106.47935039911044 87.359352591636707 0 87.359352591636707 145.06213449004463 0 0 0 0 18.277901891308943 53.903235475056135 0 53.903235475056135 162.9769593583369 0 0 0 0 17.772553557001629 38.386190197996257 0 38.386190197996257 109.78437800723987 0 0 0 0 42.86282742663218 57.268059626920149 0 57.268059626920149 132.88856129893975 0 0 0 0 -56.18949643694009 21.787230609652397 0 21.787230609652397 152.16663871906349 0 0 0 0 38.941260032370792 70.136641228466033 0 70.136641228466033 92.382402847360936 0 0 0 0 74.36247158516062 93.2419934684076 0 93.2419934684076 149.56409084796178 0 0 0 0 101.65955928819457 41.379468934524517 0 41.379468934524517 168.74463911524799 0 0 0 0 101.66780502490019 37.930231942318642 0 37.930231942318642 104.06533794751886 0 0 0 0 86.042040987191513 67.672850785103947 0 67.672850785103947 175.22980348878991 0 0 0 0 147.8971861702089 69.053934634317557 0 69.053934634317557 143.79518992626254 0 0 0 0 161.17905034180058 1.2910170995055523 0 1.2910170995055523 229.85164696176798 0 0 0 0 169.80332795098855 35.103200612117632 0 35.103200612117632 -12.489422532671597 0 0 0 0 169.84122620419271 53.487690851825391 0 53.487690851825391 111.99171051388839 0 0 0 0 1.1639908758500734 0.099364955761387819 0 0.099364955761387819 -0.14309710601099113 0 0 0 0 64.257551135957328 14.011021131951566 0 14.011021131951566 282.09996033448988 0 0 0 0 26.141169323030681 54.592088899269584 0 54.592088899269584 268.57343047679024 0 0 0 0 110.18596348557458 56.372321944923897 0 56.372321944923897 266.13073822652404 0 0 0 0 109.83469447177231 71.984743379925931 0 71.984743379925931 237.28609352301282 0 0 0 0 118.22465815704618 92.098023666505469 0 92.098023666505469 247.91814882282961 0 0 0 0 148.84389047660687 125.69412239069879 0 125.69412239069879 253.55249163393455 0 0 0 0 148.26083252987891 80.080225037296344 0 80.080225037296344 234.74227278880426 0 0 0 0 168.2426529735194 100.2518914927241 0 100.2518914927241 224.4279564274766 0 0 0 0 187.51020664642533 85.515588998459862 0 85.515588998459862 213.15873204520904 0 0 0 0 191.44252596746617 127.97735459883324 0 127.97735459883324 246.59140525877592 0 0 0 0 109.98273737121031 75.014859749451716 0 75.014859749451716 215.74408532635425 0 0 0 0 122.96832805278154 101.07146345844376 0 101.07146345844376 244.7584451748553 0 0 0 0 252.44159262396192 151.77505032978934 0 151.77505032978934 221.51536761733587 0 0 0 0 46.660632115661429 -24.020780902152183 0 -24.020780902152183 161.0303842551275 0 0 0 0 372.53524373488108 -76.138709724851651 0 -76.138709724851651 -135.68216049544571 0 0 0 0 259.26566372969319 119.76429611480853 0 119.76429611480853 209.17184830363931 0 0 0 0 197.14497236864008 33.002143458677892 0 33.002143458677892 171.0327208419767 0 0 0 0 50.793408733767137 136.18640416419294 0 136.18640416419294 237.99325225532084 0 0 0 0 77.042330729977039 116.83289101550326 0 116.83289101550326 223.90315647230818 0 0 0 0 50.626705220518943 102.6902093288918 0 102.6902093288918 219.02866369879484 0 0 0 0 79.154023739547483 102.78882799843268 0 102.78882799843268 233.89302790650981 0 0 0 0 86.389966572196784 126.9485860268228 0 126.9485860268228 191.38198373788327 0 0 0 0 116.82180109722998 84.461074747217481 0 84.461074747217481 209.40403873550531 0 0 0 0 109.45812025439864 49.177836671515252 0 49.177836671515252 196.05439418074457 0 0 0 0 112.46837840524768 74.728861616535141 0 74.728861616535141 220.13931587878324 0 0 0 0 112.89686647738061 96.967643244102618 0 96.967643244102618 150.12697467771068 0 0 0 0 89.615291443158867 122.12575888046922 0 122.12575888046922 107.10464920945469 0 0 0 0 89.977459558730061 127.60760744561776 0 127.60760744561776 189.69569076626431 0 0 0 0 -21.880281573386412 14.255389681227825 0 14.255389681227825 66.662997363644536 0 0 0 0 1.0292657403647354 97.20002224297059 0 97.20002224297059 91.938931072491869 0 0 0 0 64.377682476693479 90.352311763066609 0 90.352311763066609 57.619675813395588 0 0 0 0 72.66876087681004 148.18263036089957 0 148.18263036089957 161.31640182290721 0 0 0 0 72.216516289569881 191.59410664356255 0 191.59410664356255 229.75058160137269 0 0 0 0 100.59071640360401 186.18256214769644 0 186.18256214769644 98.409175851258624 0 0 0 0 93.042864252362278 176.35893646257318 0 176.35893646257318 148.50441437873269 0 0 0 0 70.285125513457274 177.52957611906095 0 177.52957611906095 243.74300246862549 0 0 0 0 52.837060992084844 152.44458420960291 0 152.44458420960291 210.66038233179279 0 0 0 0 31.574122006526864 191.24501980722562 0 191.24501980722562 368.27561519685696 0 0 0 0 21.237599364215612 136.39457582273826 0 136.39457582273826 253.79813838935024 0 0 0 0 56.544319819120005 167.61170587656397 0 167.61170587656397 373.08102277408034 0 0 0 0 88.800459400088812 186.48578796375295 0 186.48578796375295 229.65235953149624 0 0 0 0 1.2313982437576068 1.7098042797100916 0 1.7098042797100916 0.77835938669205262 0 0 0 0 -33.001635624949429 70.090048005500648 0 70.090048005500648 708.79161198785732 0 0 0 0 32.858249292308784 108.37301847903655 0 108.37301847903655 -28.140960432336215 0 0 0 0 49.32130784553965 27.134963646791221 0 27.134963646791221 129.09346763363283 0 0 0 0 -5.5714912114676736 -21.025633799516072 0 -21.025633799516072 295.48687532858457 0 0 0 0 19.302791699391037 37.056173833847424 0 37.056173833847424 126.05602562090826 0 0 0 0 4.0106764022871175 75.333007588891633 0 75.333007588891633 200.96933273575632 0 0 0 0 36.136808629677944 67.786257949999708 0 67.786257949999708 75.307104480962153 0 0 0 0 2.2767799036535461 -11.121574863708915 0 -11.121574863708915 18.154528281920165 0 0 0 0 4.9216406437685691 -36.34952946372141 0 -36.34952946372141 46.452950553098162 0 0 0 0 -32.125790337406215 15.043566492997343 0 15.043566492997343 98.019732544431463 0 0 0 0 35.429589333107288 39.343392438153387 0 39.343392438153387 111.99048387095536 0 0 0 0 50.670818999411154 100.66172199628181 0 100.66172199628181 154.82651774717669 0 0 0 0 39.745283065356489 56.895583319543221 0 56.895583319543221 155.43271563692542 0 0 0 0 78.205247772937582 71.750015929115762 0 71.750015929115762 102.18643681504182 0 0 0 0 60.484265548240728 95.03421379671272 0 95.03421379671272 181.99316441651899 0 0 0 0 46.090621112134613 122.14063279587572 0 122.14063279587572 326.87261354878137 0 0 0 0 80.314603185289343 34.083161744005338 0 34.083161744005338 252.89731255608785 0 0 0 0 36.198147881859768 -47.56513892118528 0 -47.56513892118528 378.35265445624827 0 0 0 0 45.58117421485349 77.47286792279192 0 77.47286792279192 195.23507683066418 0 0 0 0 65.284713067928351 93.624488495748665 0 93.624488495748665 208.4611681671995 0 0 0 0 18.558589709184787 106.64199051912738 0 106.64199051912738 213.0060358542687 0 0 0 0 37.504323459905208 114.01647536014571 0 114.01647536014571 210.13544435814401 0 0 0 0 42.102378848495846 100.64382267328619 0 100.64382267328619 182.3026422884941 0 0 0 0 -55.41609677129054 96.597514134562516 0 96.597514134562516 218.34165067359572 0 0 0 0 -1.3920844252529605 89.814129760668948 0 89.814129760668948 172.94183932866144 0 0 0 0 28.890480842248508 132.95741726673441 0 132.95741726673441 166.69002614285273 0 0 0 0 -17.169371454741849 80.054698334752175 0 80.054698334752175 106.17592127026728 0 0 0 0 -17.815206629848944 77.871593693454997 0 77.871593693454997 133.12223200115841 0 0 0 0 -31.441841974910403 27.404896095271397 0 27.404896095271397 122.35701402289942 0 0 0 0 24.761428789329685 63.401348482285329 0 63.401348482285329 72.636815261706403 0 0 0 0 -24.691438668195474 100.24431795860801 0 100.24431795860801 9.9927479241450783 0 0 0 0 -13.257432233513555 37.745766433487006 0 37.745766433487006 83.055078759753087 0 0 0 0 -85.388202946071488 149.870486519103 0 149.870486519103 -13.635996261087712 0 0 0 0 -135.1249513427797 -145.42386585463919 0 -145.42386585463919 115.87012747301196 0 0 0 0 -95.867482314923109 42.574565778711985 0 42.574565778711985 168.96868444944266 0 0 0 0 -13.31899884539969 -2.0018385454840448 0 -2.0018385454840448 131.78614638010538 0 0 0 0 -131.86632994871491 -163.17159324041586 0 -163.17159324041586 -38.007297972595552 0 0 0 0 -372.2294459977 -61.006703102340907 0 -61.006703102340907 136.76185248596448 0 0 0 0 -247.65527539404638 230.88460272355587 0 230.88460272355587 -42.773871683995822 0 0 0 0 -10.648136083767143 -4.0668772033955136 0 -4.0668772033955136 31.493500383580567 0 0 0 0 -253.8565831682688 57.159388729414786 0 57.159388729414786 126.59886064060402 0 0 0 0 -247.25840163726207 149.03668036608724 0 149.03668036608724 86.879314966645325 0 0 0 0 -211.55951563647264 46.714305793560925 0 46.714305793560925 92.484931464423425 0 0 0 0 -252.22719643197374 35.02394141908735 0 35.02394141908735 127.00459569892155 0 0 0 0 -496.71472062558979 54.237754247067642 0 54.237754247067642 97.885359133186284 0 0 0 0 -166.81292367850176 -109.14391958116903 0 -109.14391958116903 -128.65504400443024 0 0 0 0 -165.24630252442964 -66.226705788985782 0 -66.226705788985782 22.519860299158609 0 0 0 0 14.149740635347143 44.997966138245829 0 44.997966138245829 -8.9860776233108481 0 0 0 0 -35.445574789058071 175.86948198217942 0 175.86948198217942 -58.465566766586562 0 0 0 0 42.06804324447296 188.57628771526288 0 188.57628771526288 197.39145171825658 0 0 0 0 39.645977507875614 63.728597085828369 0 63.728597085828369 84.325603150697134 0 0 0 0 191.49391517384817 333.68816635998519 0 333.68816635998519 447.03424914477546 0 0 0 0 121.50278125211418 269.83332797208277 0 269.83332797208277 215.95497784284635 0 0 0 0 170.36502139364416 164.68408222501603 0 164.68408222501603 121.46208526750343 0 0 0 0 -77.261514903824889 71.08423818180745 0 71.08423818180745 300.34969531148818 0 0 0 0 239.08622118799522 105.89079865305757 0 105.89079865305757 299.18621127574443 0 0 0 0 146.58158806728892 69.510206288126028 0 69.510206288126028 491.85891525204352 0 0 0 0 54.039818783107521 375.45934144768466 0 375.45934144768466 724.80352361350378 0 0 0 0 41.385298748185846 231.97413436892384 0 231.97413436892384 300.31501627150283 0 0 0 0 14.989862404069555 -9.1453011005178269 0 -9.1453011005178269 402.59639577492635 0 0 0 0 368.05020239825126 331.43808549758978 0 331.43808549758978 620.74493409955176 0 0 0 0 325.63922168214401 -3.9963234890378772 0 -3.9963234890378772 438.2526645148464 0 0 0 0 40.262880617003503 208.74085826565715 0 208.74085826565715 670.41950326591541 0 0 0 0 39.469124012061485 225.36643038150214 0 225.36643038150214 335.551769634842 0 0 0 0 2.8691368461120703 -100.63462008511488 0 -100.63462008511488 376.26806443102396 0 0 0 0 -144.03599976138977 -13.877191472902268 0 -13.877191472902268 361.5851251301101 0 0 0 0 -24.557663084660248 38.55452251634415 0 38.55452251634415 495.71405294513534 0 0 0 0 35.650823932146665 1.9306331506486458 0 1.9306331506486458 136.47279911667141 0 0 0 0 -130.80110847701536 -60.858300786254404 0 -60.858300786254404 73.035023951772018 0 0 0 0 -248.05034879589311 -99.119604242736386 0 -99.119604242736386 262.29576170747532 0 0 0 0 -58.151888016967064 99.944795238225197 0 99.944795238225197 184.62298154504242 0 0 0 0 -14.287846377817765 -8.0610244228690142 0 -8.0610244228690142 134.68109041405501 0 0 0 0 -174.11610793327691 -81.465206954733731 0 -81.465206954733731 239.05427064138348 0 0 0 0 -6.0715714236225722 20.889898628936862 0 20.889898628936862 151.04186329980439 0 0 0 0 24.132113829547954 74.655945290820711 0 74.655945290820711 113.85195747340765 0 0 0 0 48.388236904732366 149.58632511988617 0 149.58632511988617 173.10995289243874 0 0 0 0 -0.18637430075659722 51.068695120906341 0 51.068695120906341 193.04083154813998 0 0 0 0 -8.4226890582635683 1.1563541872944612 0 1.1563541872944612 143.65595413507421 0 0 0 0 -99.659456266919619 59.345646987072541 0 59.345646987072541 197.3035214270858 0 0 0 0 -76.632226389290054 106.66354286570277 0 106.66354286570277 210.31336415358965 0 0 0 0 2.878994375673404 109.54064164544297 0 109.54064164544297 116.39854477009067 0 0 0 0 6.0401318595379507 80.442130684350559 0 80.442130684350559 92.499228082673653 0 0 0 0 -4.5543302262165071 128.74768199942628 0 128.74768199942628 183.09187737739194 0 0 0 0 -20.423546866441427 97.950641183671905 0 97.950641183671905 143.13376092740509 0 0 0 0 -15.148265894575616 74.262092484619643 0 74.262092484619643 160.44206096575363 0 0 0 0 60.91502022367446 172.48133043691814 0 172.48133043691814 174.51897951270075 0 0 0 0 74.54547625584965 21.925487232746036 0 21.925487232746036 15.212015014258213 0 0 0 0 -67.290417263915373 117.43402653224894 0 117.43402653224894 237.84979853329423 0 0 0 0 0.74546509074807732 1.3796806025574853 0 1.3796806025574853 2.7001793692462144 0 0 0 0 376.32479535483253 247.10162949324331 0 247.10162949324331 121.67442638351349 0 0 0 0 59.498810078383229 -100.24672936748539 0 -100.24672936748539 65.369731593837059 0 0 0 0 30.508379703809624 42.244071576047645 0 42.244071576047645 33.484892065331223 0 0 0 0 -1.0555451321845291 4.8689913554272728 0 4.8689913554272728 6.5518686760979392 0 0 0 0 -2.6003129921872685 17.589080343023696 0 17.589080343023696 -0.24800792727178589 0 0 0 0 378.81386283850304 -28.23788303235051 0 -28.23788303235051 -214.99401806697824 0 0 0 0 -184.41208756343894 373.32506327992087 0 373.32506327992087 558.82776519215258 0 0 0 0 -155.7205603074751 -270.92608339642902 0 -270.92608339642902 688.17149126715231 0 0 0 0 -143.10122905780364 847.95646358868544 0 847.95646358868544 4490.1556097836656 0 0 0 0 429.90586880070464 551.55686471098397 0 551.55686471098397 67.967058310896391 0 0 0 0 682.3171300297189 -2179.3043224565918 0 -2179.3043224565918 4495.7170504183741 0 0 0 0 2.8656305581749013 5.040426227591297 0 5.040426227591297 14.729578904923628 0 0 0 0 -124.01999249552478 -123.36832238463649 0 -123.36832238463649 324.29586301551171 0 0 0 0 -5.9006065706286428 17.823485168519994 0 17.823485168519994 9.9341960589674443 0 0 0 0 -154.00597081161391 -28.320199980964389 0 -28.320199980964389 35.916291578825621 0 0 0 0 96.585889924170033 -263.90804398671025 0 -263.90804398671025 2214.2579363417753 0 0 0 0 6.9406011709425677 17.90604275007405 0 17.90604275007405 28.046281315164308 0 0 0 0 81.204536157559687 -1010.0114357270249 0 -1010.0114357270249 2332.927405589915 0 0 0 0 -355.17286902107799 133.94426802588714 0 133.94426802588714 3011.4674694329369 0 0 0 0 -673.57066814614245 -572.09702091501822 0 -572.09702091501822 4499.5662326408601 0 0 0 0 245.01205620314701 -381.49317156002326 0 -381.49317156002326 1150.0344222596032 0 0 0 0 1.2890553178031041 27.87567512314854 0 27.87567512314854 115.6830434282092 0 0 0 0 -3.3449790282449143 1.1397617500688852 0 1.1397617500688852 23.874297831542293 0 0 0 0 -0.89492097252492275 28.533003605286979 0 28.533003605286979 92.128561112629711 0 0 0 0 448.07478684796376 265.60070323931086 0 265.60070323931086 467.04967041233976 0 0 0 0 480.5183399862895 1178.7999417219762 0 1178.7999417219762 1461.004297503101 0 0 0 0 71.277200449935435 908.42062507197625 0 908.42062507197625 2091.3505606116805 0 0 0 0 -274.12956411980952 234.80172905747168 0 234.80172905747168 2225.0540472836587 0 0 0 0 3.8805849858853305 2.3919060262379404 0 2.3919060262379404 16.482619411003746 0 0 0 0 9.9876295900546666 0.54669313719205093 0 0.54669313719205093 43.066789391588827 0 0 0 0 3.5153548108190797 2.9312289191961725 0 2.9312289191961725 7.5049142314173523 0 0 0 0 4.0747287228519644 -2.3436012316810775 0 -2.3436012316810775 5.5615379619383525 0 0 0 0 2.1574657018863945 -2.1127674077451957 0 -2.1127674077451957 19.760058243851745 0 0 0 0 -2.42550873722909 -9.0503621227265683 0 -9.0503621227265683 11.76390714258207 0 0 0 0 -7.1004411768584532 8.9696277275252214 0 8.9696277275252214 33.708809841180482 0 0 0 0 -32.152397892100225 -24.210878924179269 0 -24.210878924179269 29.492230114326958 0 0 0 0 22.814904594209452 -37.264675095968414 0 -37.264675095968414 -14.883919365507609 0 0 0 0 0.90944276107597943 -45.99271519406102 0 -45.99271519406102 34.834793247044217 0 0 0 0 1.131381788316304 1.7517200784623128 0 1.7517200784623128 -11.542617132057785 0 0 0 0 -4.5164347866447088 -9.0298155726468394 0 -9.0298155726468394 37.453624647430843 0 0 0 0 -12.489899291806779 -8.2421709106993291 0 -8.2421709106993291 14.511988532543086 0 0 0 0 9.0243201054673534 -35.34605666367861 0 -35.34605666367861 -18.771807783861732 0 0 0 0 -4.4073953912075909 -0.5125906488156815 0 -0.5125906488156815 0.11547878803695255 0 0 0 0 692.97491150054202 118.12632025593848 0 118.12632025593848 -34.625151408534293 0 0 0 0 173.34613201224198 561.59134664906469 0 561.59134664906469 1020.3559992916853 0 0 0 0 6.6047585112914566 25.838133146893544 0 25.838133146893544 47.736569330668459 0 0 0 0 -247.53186159364759 68.710712029067508 0 68.710712029067508 111.36475872307892 0 0 0 0 -229.42359193002721 -78.232316193592851 0 -78.232316193592851 938.57757972044055 0 0 0 0 -170.29222620411178 -1009.0148222256066 0 -1009.0148222256066 4491.1754435499897 0 0 0 0 8.6146026816105952 10.315085344361609 0 10.315085344361609 19.593325103549518 0 0 0 0 2982.3363741172393 748.17426339703525 0 748.17426339703525 -221.64541024039499 0 0 0 0 291.22930942878077 2520.1684241355088 0 2520.1684241355088 4490.9560930351845 0 0 0 0 2302.6997523209698 2639.1399379551576 0 2639.1399379551576 1641.8710332714618 0 0 0 0 36.429824605805806 1832.0705554833321 0 1832.0705554833321 2637.4941644725004 0 0 0 0 -172.86805449443602 1074.8464703215068 0 1074.8464703215068 2684.5539746579052 0 0 0 0 -515.33269132185239 1502.3025233575063 0 1502.3025233575063 4501.285941955728 0 0 0 0 -537.84004321681869 1246.4237384279586 0 1246.4237384279586 3464.366993084459 0 0 0 0 -312.84141182617105 812.86139444593391 0 812.86139444593391 3745.8760518751897 0 0 0 0 -571.08351225766285 911.70422609047819 0 911.70422609047819 4498.6340058222613 0 0 0 0 -228.58004880695756 597.40670338100426 0 597.40670338100426 2963.5223488251177 0 0 0 0 -457.9905608701938 596.94968526514276 0 596.94968526514276 3871.9641284879954 0 0 0 0 -187.83970895967582 726.33814452039223 0 726.33814452039223 3290.9811635959859 0 0 0 0 -45.818357678061943 986.86889117668852 0 986.86889117668852 2936.7861051585642 0 0 0 0 176.24931095901221 376.65134511681617 0 376.65134511681617 4501.9654910040899 0 0 0 0 406.06920151100604 454.85377429812434 0 454.85377429812434 3761.2398787146885 0 0 0 0 -309.62041157878105 720.45732455316647 0 720.45732455316647 4258.6884058751875 0 0 0 0 503.3168313632334 865.71249492700463 0 865.71249492700463 3869.4287866320719 0 0 0 0 807.179758761421 580.34310447158805 0 580.34310447158805 3692.9153493634403 0 0 0 0 44.774249260839269 538.08844280633457 0 538.08844280633457 4018.2114398465819 0 0 0 0 2.0028692089699973 -626.09615688859708 0 -626.09615688859708 5352.6318128665262 0 0 0 0 -1.5748526056043106 3.4447559880793506 0 3.4447559880793506 10.001384882054296 0 0 0 0 796.88212647933619 1124.2502083759418 0 1124.2502083759418 4312.9776114830038 0 0 0 0 14.571436193117393 -727.15501298325398 0 -727.15501298325398 2363.5138262683649 0 0 0 0 -182.99604085839928 -222.84050453273812 0 -222.84050453273812 2409.6645446452694 0 0 0 0 -505.22789665517485 -229.43076285863572 0 -229.43076285863572 3972.5510710950293 0 0 0 0 -196.87901129319653 -14.905961484015279 0 -14.905961484015279 2415.8514963710768 0 0 0 0 -190.96571249883101 733.25007040819764 0 733.25007040819764 3887.4312753442391 0 0 0 0 -230.2455697239933 280.82849020780111 0 280.82849020780111 3260.683839123034 0 0 0 0 -445.55833710794343 127.47612794366978 0 127.47612794366978 3307.8612549775935 0 0 0 0 17.759994056554433 107.88009173807222 0 107.88009173807222 1399.1787720280117 0 0 0 0 -234.46341113468225 -210.5820858156153 0 -210.5820858156153 1320.9760479423276 0 0 0 0 5.5779825541088286 5.7310071022037263 0 5.7310071022037263 12.505065246929746 0 0 0 0 -44.437671476867422 290.22005302888419 0 290.22005302888419 1012.3149384074968 0 0 0 0 30.806834117703147 -33.808504363756583 0 -33.808504363756583 17.572754921991873 0 0 0 0 283.5790635223558 -235.49010851670027 0 -235.49010851670027 1070.6021460906377 0 0 0 0 -283.97284982208112 -8.7482200499229066 0 -8.7482200499229066 61.466233492712377 0 0 0 0 127.75590925776851 116.01558468145231 0 116.01558468145231 -41.326028873410905 0 0 0 0 29.385421634777956 27.391572758722624 0 27.391572758722624 26.142455551630711 0 0 0 0 95.078130643154509 -306.23358094314972 0 -306.23358094314972 78.734209639413621 0 0 0 0 -83.657798505781159 545.72686952442928 0 545.72686952442928 2606.5669186502819 0 0 0 0 37.783602589743509 602.45429491068171 0 602.45429491068171 2530.7740031120156 0 0 0 0 70.711175767541761 474.55361230425206 0 474.55361230425206 3004.6794154455602 0 0 0 0 -166.64861907149907 336.30566860483668 0 336.30566860483668 2366.1910053056126 0 0 0 0 -274.63957691374867 18.627968992168462 0 18.627968992168462 2500.0668407998091 0 0 0 0 332.3656842038472 -210.51352057092117 0 -210.51352057092117 252.10725181492307 0 0 0 0 -61.693835893949085 936.69211938399894 0 936.69211938399894 2142.0683131802816 0 0 0 0 13.44956551592184 -5.1880491224849337 0 -5.1880491224849337 10.973166580517852 0 0 0 0 -186.53665888048909 69.297522309847409 0 69.297522309847409 2298.3123315317644 0 0 0 0 168.63133548958501 560.04982064861724 0 560.04982064861724 767.52611907501705 0 0 0 0 43.527130185824376 13.015152527565078 0 13.015152527565078 31.801269904060973 0 0 0 0 8.2302462422492226 3.3352456962679753 0 3.3352456962679753 47.157342420978239 0 0 0 0 6.0541539847341426 2.1198223364197659 0 2.1198223364197659 4.8944619325478769 0 0 0 0 6.5223431799700506 -5.692677301550404 0 -5.692677301550404 5.1004737706152738 0 0 0 0 8.7710476108836701 -43.859017888286871 0 -43.859017888286871 41.570707041704736 0 0 0 0 11.731023354038825 -3.9545178630469309 0 -3.9545178630469309 36.308985641084291 0 0 0 0 3.6721305462919354 -10.311643975922486 0 -10.311643975922486 22.423274096571078 0 0 0 0 64.953161921779952 63.807903402495867 0 63.807903402495867 73.464062110208033 0 0 0 0 -19.690068967710431 53.348714160718373 0 53.348714160718373 164.15103057948727 0 0 0 0 35.6153715684693 -10.012074722359102 0 -10.012074722359102 32.24600914932671 0 0 0 0 1.0618632923760742 -69.626251708927157 0 -69.626251708927157 279.90030471060891 0 0 0 0 -1.0308413944997294 -2.4844439959629128 0 -2.4844439959629128 15.046763491570744 0 0 0 0 -33.686854211671744 104.50455901589885 0 104.50455901589885 339.97864133315306 0 0 0 0 1.7335128490631178 7.1698775112417934 0 7.1698775112417934 57.610157038727266 0 0 0 0 35.961275564769949 -74.546061758857832 0 -74.546061758857832 62.62600344618113 0 0 0 0 3.0537670374853008 -14.255846658339308 0 -14.255846658339308 64.902515763138979 0 0 0 0 12.100115205585297 34.74304313027092 0 34.74304313027092 58.615101210367776 0 0 0 0 20.213764677635481 10.687305487384947 0 10.687305487384947 58.195441059022414 0 0 0 0 6.0218427293165657 11.920917818025693 0 11.920917818025693 29.036469596604217 0 0 0 0 12.056332244433634 0.81476638809726865 0 0.81476638809726865 47.529094353251821 0 0 0 0 32.679961080139037 57.85801778431005 0 57.85801778431005 62.70866391149616 0 0 0 0 27.827612386211406 13.015109169549262 0 13.015109169549262 31.990140729660645 0 0 0 0 19.87771367703408 8.2947364235801615 0 8.2947364235801615 43.352210352055408 0 0 0 0 14.658552590285311 23.567727831283008 0 23.567727831283008 31.024135862333708 0 0 0 0 4.0789448750620068 51.96276150983735 0 51.96276150983735 61.936858119639112 0 0 0 0 -8.3705487591359926 2.9544062895541385 0 2.9544062895541385 16.007118342752836 0 0 0 0 42.755897670686863 -5.9874228770750051 0 -5.9874228770750051 33.025574930724133 0 0 0 0 80.616312918624317 20.095892742730712 0 20.095892742730712 43.105956553119192 0 0 0 0 6.9615516969995497 9.9146621439513751 0 9.9146621439513751 42.924981786371632 0 0 0 0 42.824504812291252 -25.225431504643495 0 -25.225431504643495 68.977392329333952 0 0 0 0 182.97477239599948 -6.2047299221349022 0 -6.2047299221349022 -21.550187515181278 0 0 0 0 15.114904087779905 71.597746601845529 0 71.597746601845529 151.77479411651029 0 0 0 0 55.839779240273856 31.585121465092925 0 31.585121465092925 81.324223712334742 0 0 0 0 -31.629043714118769 -12.280288654214583 0 -12.280288654214583 51.817616964871931 0 0 0 0 178.15688562007017 147.72264337045453 0 147.72264337045453 188.83221371181185 0 0 0 0 72.363488898820833 70.804685454532319 0 70.804685454532319 173.70365449705241 0 0 0 0 0.090915234216364382 -28.991822792513517 0 -28.991822792513517 66.171946398586215 0 0 0 0 -82.229953968016162 -92.878907548183633 0 -92.878907548183633 181.53737752949019 0 0 0 0 92.183416976542503 80.246869385024183 0 80.246869385024183 278.90511202585913 0 0 0 0 -30.265920238460467 112.91478597074843 0 112.91478597074843 238.68164538868587 0 0 0 0 5.2830421568866086 -59.778824600617213 0 -59.778824600617213 32.629573447102302 0 0 0 0 133.27765742209976 155.56554054234584 0 155.56554054234584 295.62051363351929 0 0 0 0 21.577946321903557 -28.623654343964226 0 -28.623654343964226 38.331620319633224 0 0 0 0 171.3367742530254 171.25801280495944 0 171.25801280495944 274.25286761609095 0 0 0 0 112.01013031551287 120.85177829740928 0 120.85177829740928 264.13549531872559 0 0 0 0 160.34031137960028 121.37788317778177 0 121.37788317778177 243.0185263532403 0 0 0 0 -25.125805188489274 10.331380768599761 0 10.331380768599761 57.570861082522171 0 0 0 0 170.56626369045171 177.99250586347534 0 177.99250586347534 309.0133817390888 0 0 0 0 210.84751402343136 129.22343497848487 0 129.22343497848487 234.31102607975481 0 0 0 0 0.30458981509862149 -2.5112136766632602 0 -2.5112136766632602 5.5744199079340859 0 0 0 0 -73.731725629319044 32.5042543060772 0 32.5042543060772 259.32901956269052 0 0 0 0 279.23771925692199 154.3433938214439 0 154.3433938214439 137.80444296711357 0 0 0 0 -91.141996318500787 -83.135582670904114 0 -83.135582670904114 70.573919489048421 0 0 0 0 -10.055374378155202 2.001873440261285 0 2.001873440261285 14.05818001636483 0 0 0 0 27.119517505889235 -233.82164476225444 0 -233.82164476225444 -49.89999735087622 0 0 0 0 107.27112834031504 124.05448069189151 0 124.05448069189151 279.62830767358537 0 0 0 0 -79.093134330413477 -71.569847627933996 0 -71.569847627933996 73.800245502432517 0 0 0 0 -67.820270835661404 -17.630338188697351 0 -17.630338188697351 130.49470024430229 0 0 0 0 -29.267757501678489 -21.959097588234727 0 -21.959097588234727 73.715844372996798 0 0 0 0 -33.311615051211902 27.971593326097718 0 27.971593326097718 131.89817733560994 0 0 0 0 237.61180203486231 157.73569077289335 0 157.73569077289335 -287.31305233397916 0 0 0 0 146.49351723248722 -254.72833748794397 0 -254.72833748794397 -568.1853206232181 0 0 0 0 -5.0561629205061545 2.7562777224271695 0 2.7562777224271695 -1.718117531532112 0 0 0 0 -3.8709719310854211 107.55228856158288 0 107.55228856158288 -140.5787904439776 0 0 0 0 183.57313649682283 141.33567520521092 0 141.33567520521092 -257.99995202227728 0 0 0 0 -4.1612346273702414 138.32118267286887 0 138.32118267286887 204.85708237917243 0 0 0 0 -14.982855227900668 7.6187179238472922 0 7.6187179238472922 -6.4544392073301697 0 0 0 0 74.142316075322469 32.83275561952064 0 32.83275561952064 59.978349582675946 0 0 0 0 112.90749433733504 63.626968122706785 0 63.626968122706785 96.260597482940284 0 0 0 0 21.631838172327434 127.45131345053596 0 127.45131345053596 258.02058669080452 0 0 0 0 197.76654174670375 246.5179017350888 0 246.5179017350888 300.54201155697228 0 0 0 0 242.96605139664052 221.46702006041141 0 221.46702006041141 193.61522591744142 0 0 0 0 268.82547381356744 146.65745025753313 0 146.65745025753313 288.74276606037211 0 0 0 0 335.57291808478476 225.47336438840648 0 225.47336438840648 276.25015820506178 0 0 0 0 15.509284444573257 -9.7760150907090928 0 -9.7760150907090928 -4.1115601056844646 0 0 0 0 244.16034873388389 83.671044381411321 0 83.671044381411321 182.37413599896718 0 0 0 0 339.81734285374296 161.70612140624007 0 161.70612140624007 120.921616965466 0 0 0 0 151.61320701797104 -454.42903365143229 0 -454.42903365143229 -568.78116451650999 0 0 0 0 -1.7923756076884878 -1.0038775658593178 0 -1.0038775658593178 0.750634988051333 0 0 0 0 288.16131291836223 223.57172476142489 0 223.57172476142489 245.30720147764714 0 0 0 0 195.9297871008265 211.42732945204125 0 211.42732945204125 243.7405442199406 0 0 0 0 212.69983903259072 -248.59765268161095 0 -248.59765268161095 39.222636885443904 0 0 0 0 99.959255610354745 193.77245986222488 0 193.77245986222488 290.95816721996243 0 0 0 0 -184.47272427077255 -217.76495029920875 0 -217.76495029920875 40.733643386213316 0 0 0 0 109.05755486736689 10.621886480771423 0 10.621886480771423 -201.25391867480153 0 0 0 0 121.44208299182628 -50.959033657373539 0 -50.959033657373539 57.044163130428387 0 0 0 0 7.1743699775456662 -67.658792018987754 0 -67.658792018987754 254.54212799127276 0 0 0 0 -3.9452317723279791 -3.8635925679342482 0 -3.8635925679342482 1.6702780048455919 0 0 0 0 757.64139062873346 22.683351025064439 0 22.683351025064439 -276.18362342663363 0 0 0 0 -15.839292187532919 0.14833989257954272 0 0.14833989257954272 58.025495920283106 0 0 0 0 399.25973388108741 910.6416706104535 0 910.6416706104535 1436.4658884979199 0 0 0 0 114.63876969504827 290.85199655820395 0 290.85199655820395 943.12359097778335 0 0 0 0 177.40559424611791 539.10254745483041 0 539.10254745483041 1431.2790130058056 0 0 0 0 268.7001754745196 64.166511174617085 0 64.166511174617085 384.52102376006007 0 0 0 0 11.453524975515847 107.69805264225602 0 107.69805264225602 344.66435521567564 0 0 0 0 380.71300568833567 337.00822420099422 0 337.00822420099422 431.56694632628978 0 0 0 0 344.88947028029384 -66.187891857703789 0 -66.187891857703789 399.44929670045798 0 0 0 0 341.21779958299703 112.58618475710909 0 112.58618475710909 -144.95315772247568 0 0 0 0 -173.22147089646057 1177.7127887836443 0 1177.7127887836443 3449.5318219790197 0 0 0 0 -211.4942180970113 352.11878157508426 0 352.11878157508426 3289.4040592261599 0 0 0 0 -15.653932401456586 220.89537486546254 0 220.89537486546254 1671.9784838306894 0 0 0 0 -127.21738559354469 1001.4392050456745 0 1001.4392050456745 2879.2563956654385 0 0 0 0 -99.366404387555804 1040.247716252602 0 1040.247716252602 2702.2507021090582 0 0 0 0 -34.702637152676061 1192.6805791290521 0 1192.6805791290521 2968.0137165821907 0 0 0 0 -18.409714144734419 879.4687230649306 0 879.4687230649306 3118.3995666219344 0 0 0 0 -336.60372672225458 985.5197867957886 0 985.5197867957886 3489.0546883671259 0 0 0 0 -335.97069288243745 953.74482618020693 0 953.74482618020693 3267.3176094450155 0 0 0 0 -255.58476484495873 835.2506416972094 0 835.2506416972094 3116.4177016284198 0 0 0 0 -225.57979881608958 -186.5892694037874 0 -186.5892694037874 598.94510622989128 0 0 0 0 1661.0020839917202 767.77819812910275 0 767.77819812910275 -172.41118771647234 0 0 0 0 1446.3441117143784 2193.6079185616068 0 2193.6079185616068 2735.4500276449871 0 0 0 0 12.269395707108878 9.9925268952970825 0 9.9925268952970825 10.239907313694413 0 0 0 0 1222.6937728212411 1224.4785512035364 0 1224.4785512035364 641.95392604465997 0 0 0 0 367.55959818609222 1022.2204483247947 0 1022.2204483247947 1372.8118609963963 0 0 0 0 459.04900755120468 1430.7377050919245 0 1430.7377050919245 3032.2961914363841 0 0 0 0 -46.277689053595964 1320.7031458300153 0 1320.7031458300153 3823.5010441487848 0 0 0 0 175.83803312449481 475.07333140955052 0 475.07333140955052 3873.327341143116 0 0 0 0 334.82588638890229 1320.8538875203403 0 1320.8538875203403 3018.8086401593864 0 0 0 0 309.04666139026608 1315.255200823681 0 1315.255200823681 5277.0281260278498 0 0 0 0 968.19314928836729 562.61085529201591 0 562.61085529201591 3937.0496693318728 0 0 0 0 2782.1182570502583 280.62146123529237 0 280.62146123529237 3881.1568447616901 0 0 0 0 1266.9179115983202 749.70808925282108 0 749.70808925282108 3969.2124218026511 0 0 0 0 1546.9576330777334 1504.6037568100928 0 1504.6037568100928 5622.2285366223987 0 0 0 0 136.15501705360748 710.90681303274323 0 710.90681303274323 5692.7150120155929 0 0 0 0 1573.2790276424894 955.79237378126891 0 955.79237378126891 3781.6751432955225 0 0 0 0 1598.4983651457819 234.52309131296562 0 234.52309131296562 3181.6218953258867 0 0 0 0 1155.108920608197 450.99791253403328 0 450.99791253403328 3125.8039512651631 0 0 0 0 951.99656281961882 713.95561138203857 0 713.95561138203857 3073.4602683478697 0 0 0 0 583.55690658194112 271.62491460440515 0 271.62491460440515 2028.0219187976763 0 0 0 0 560.3767073790093 161.92036825891591 0 161.92036825891591 3249.0374110989005 0 0 0 0 698.00599335790571 -667.35337473209802 0 -667.35337473209802 2997.5469892181559 0 0 0 0 833.76499216034188 -843.50684816281557 0 -843.50684816281557 1117.7264039877691 0 0 0 0 741.57703303158826 -39.876692230829121 0 -39.876692230829121 4490.7428404668044 0 0 0 0 -6.6263674335008549 -9.9312336642608212 0 -9.9312336642608212 24.512708122613127 0 0 0 0 41.771719615441327 1036.4643341469568 0 1036.4643341469568 3107.6509206105875 0 0 0 0 -149.72074139734718 958.93647432395733 0 958.93647432395733 3125.9489967053028 0 0 0 0 -261.31689561835526 1131.921413420604 0 1131.921413420604 3037.1879335492058 0 0 0 0 554.52657576291745 834.13796046360494 0 834.13796046360494 1378.5149959112441 0 0 0 0 -91.493710957272469 823.32701701359292 0 823.32701701359292 3149.2108374808486 0 0 0 0 -122.30482126236535 1200.2451764691377 0 1200.2451764691377 2172.1841661283706 0 0 0 0 -1.7814993429106882 -4.5581771546296999 0 -4.5581771546296999 14.86364112865926 0 0 0 0 1005.7352412813008 2323.9319974399396 0 2323.9319974399396 4498.2728115284717 0 0 0 0 744.4668841032842 1691.3031357530324 0 1691.3031357530324 3252.3304120091916 0 0 0 0 -349.2324596979833 1391.812031763222 0 1391.812031763222 4499.4617431343104 0 0 0 0 -68.821600728075055 1313.7658833311557 0 1313.7658833311557 2921.8131339392703 0 0 0 0 -818.5459167971012 490.57073976855281 0 490.57073976855281 4498.8994781565434 0 0 0 0 -632.25325022987647 701.86044988189587 0 701.86044988189587 3382.2571648867265 0 0 0 0 -961.15701429882279 -401.72693947454445 0 -401.72693947454445 4499.0822174804644 0 0 0 0 -627.06021107955735 -165.89392782967934 0 -165.89392782967934 3953.1741139199876 0 0 0 0 -565.54280960913809 -431.94181845944058 0 -431.94181845944058 3159.7435649720737 0 0 0 0 -459.57587381337817 -243.57292481799414 0 -243.57292481799414 3150.4566283576928 0 0 0 0 -246.43555753107967 -135.38717293903574 0 -135.38717293903574 3311.740140978502 0 0 0 0 -737.11050890195804 127.16378800118991 0 127.16378800118991 3231.1131104823526 0 0 0 0 -341.25565904361906 -146.73162381143948 0 -146.73162381143948 3599.9637386047771 0 0 0 0 -255.17706938829519 -173.09495610017348 0 -173.09495610017348 3416.6401421804367 0 0 0 0 -366.95371911920745 -222.1106000323 0 -222.1106000323 2963.4582593671839 0 0 0 0 -348.971866763609 -85.656228636875312 0 -85.656228636875312 3455.2933971293678 0 0 0 0 -351.98658252435462 534.11516771618699 0 534.11516771618699 2543.1642481510935 0 0 0 0 -474.59687448227555 -8.0020609362018149 0 -8.0020609362018149 3217.6431119745421 0 0 0 0 -323.89951145965028 347.41320263113357 0 347.41320263113357 3728.1259696201414 0 0 0 0 114.04381602117428 486.87727876454255 0 486.87727876454255 3519.7424722518026 0 0 0 0 602.21324129366576 -182.22617142067702 0 -182.22617142067702 4430.7924027452809 0 0 0 0 1528.0231550434264 776.1781616093831 0 776.1781616093831 4536.1494864871711 0 0 0 0 -564.9659513218744 745.62097308659645 0 745.62097308659645 4733.4790463001327 0 0 0 0 588.91344473646006 2322.2292774447669 0 2322.2292774447669 5402.8919579846506 0 0 0 0 601.40344611216324 1064.1997356782588 0 1064.1997356782588 3052.1569884630958 0 0 0 0 -3.9140646427846972 -3.3771766956060301 0 -3.3771766956060301 13.659755356834285 0 0 0 0 -226.51249422792796 -417.17769491427362 0 -417.17769491427362 1565.8466167318888 0 0 0 0 -108.64226528311991 -706.24953489322024 0 -706.24953489322024 276.09037214906857 0 0 0 0 -807.41792864397712 -2375.8382235105846 0 -2375.8382235105846 4492.8819269552641 0 0 0 0 1252.7418036785589 -2943.5744458196605 0 -2943.5744458196605 2066.0241656183098 0 0 0 0 -975.75770797291125 -1603.9056756052296 0 -1603.9056756052296 2713.9181122569789 0 0 0 0 -532.44822051024028 -1466.9224084459529 0 -1466.9224084459529 2754.5165577606695 0 0 0 0 -382.09881582584387 -744.31058035603019 0 -744.31058035603019 1426.3804784834247 0 0 0 0 -434.1494948405857 -755.02279106314381 0 -755.02279106314381 3129.5906706523228 0 0 0 0 -1072.5008342922338 -1358.9511599538469 0 -1358.9511599538469 4500.2409182065148 0 0 0 0 -834.35087481715107 -767.41710903362309 0 -767.41710903362309 3167.7021729798053 0 0 0 0 -836.92145780224644 -581.89005168040785 0 -581.89005168040785 3892.3444755035489 0 0 0 0 -474.49008646739867 -316.38142486793913 0 -316.38142486793913 2961.5220035593156 0 0 0 0 -522.40938050589057 168.03446893360524 0 168.03446893360524 2572.0473662991972 0 0 0 0 -459.08869787626577 130.70584139244602 0 130.70584139244602 2259.2894941314698 0 0 0 0 -443.46073213059418 123.68816367524187 0 123.68816367524187 1980.7924064338222 0 0 0 0 -494.43340014674641 -2.6874404108111776 0 -2.6874404108111776 2547.045526492504 0 0 0 0 -505.04463582470157 -179.49265213525041 0 -179.49265213525041 2360.2740199133113 0 0 0 0 -367.91002825961368 86.846223996373737 0 86.846223996373737 1974.1207574779146 0 0 0 0 -817.79290959751097 388.64132562136547 0 388.64132562136547 2224.4774719888901 0 0 0 0 -814.49978463766843 453.96972984298009 0 453.96972984298009 2829.0696255750918 0 0 0 0 -1820.2268363572939 1676.4552467197373 0 1676.4552467197373 3307.0100331078902 0 0 0 0 -684.0733264128927 1402.3961695200851 0 1402.3961695200851 1091.9005865733943 0 0 0 0 -1.9661804777088436 -3.0023171061743459 0 -3.0023171061743459 29.483434869587924 0 0 0 0 -2153.7611659219665 -375.01774931539876 0 -375.01774931539876 1160.1066020760609 0 0 0 0 -397.30687507440558 -275.80496800999663 0 -275.80496800999663 226.29333822057743 0 0 0 0 -166.75406316902718 -125.29641480955797 0 -125.29641480955797 643.36917131932023 0 0 0 0 -33.977097011201295 -479.01733987280568 0 -479.01733987280568 294.82056829428075 0 0 0 0 66.655346617254054 -223.55616948692477 0 -223.55616948692477 -112.26228183423518 0 0 0 0 2471.3228336801149 -494.60538917362646 0 -494.60538917362646 5013.2955989646725 0 0 0 0 -0.626325984067023 -5.4948255890365232 0 -5.4948255890365232 2.585717899232753 0 0 0 0 -1251.9735818807617 -880.24359685719355 0 -880.24359685719355 5829.6227763286006 0 0 0 0 -533.65354601727859 -137.83350925800187 0 -137.83350925800187 2246.8967364381697 0 0 0 0 -1231.6948314135966 -117.84878159630608 0 -117.84878159630608 2418.2433080535156 0 0 0 0 -576.75068561074841 30.69250279773064 0 30.69250279773064 1728.2447603200853 0 0 0 0 -127.26778491354435 -53.271859626682271 0 -53.271859626682271 829.47145661760442 0 0 0 0 -36.59704070851577 -611.51807678848672 0 -611.51807678848672 1667.2394557833795 0 0 0 0 -182.32953427345421 20.824087650679758 0 20.824087650679758 1712.2888772760925 0 0 0 0 -166.46954094246644 240.5635474278306 0 240.5635474278306 969.76912872167668 0 0 0 0 -541.57675981339548 330.45662530799746 0 330.45662530799746 2317.387090290661 0 0 0 0 -542.38590475577917 316.82230569135481 0 316.82230569135481 2121.0728036001692 0 0 0 0 -312.44132149897939 504.61585003276014 0 504.61585003276014 2506.4512280148156 0 0 0 0 -305.81277576964544 495.32166262136889 0 495.32166262136889 1702.0246568277289 0 0 0 0 -196.52444176782092 326.33801306567329 0 326.33801306567329 1625.2540077464519 0 0 0 0 41.030760096752374 453.37056246621978 0 453.37056246621978 787.39008579475558 0 0 0 0 104.23892961689876 198.41878183790141 0 198.41878183790141 335.73046905257615 0 0 0 0 -108.75632331758061 366.30073912664557 0 366.30073912664557 804.77929739507772 0 0 0 0 -16.105503591393926 83.313170013438139 0 83.313170013438139 217.44146488862634 0 0 0 0 3.4162327500161833 0.72994298839063987 0 0.72994298839063987 0.33604021596206657 0 0 0 0 77.662711431177627 74.926580661329353 0 74.926580661329353 52.945497375283594 0 0 0 0 -52.824426281065826 105.92414778816601 0 105.92414778816601 931.32299798857821 0 0 0 0 -1.2198020020416607 171.12125446146865 0 171.12125446146865 652.8840596195223 0 0 0 0 -2.1104246616105229 20.92767232715596 0 20.92767232715596 860.40817913548563 0 0 0 0 1.3721272164580238 0.3948481306026963 0 0.3948481306026963 0.44634914255022906 0 0 0 0 25.800302943057886 142.25396990565787 0 142.25396990565787 607.48735411872804 0 0 0 0 -10.312766789495527 83.913478486070744 0 83.913478486070744 57.579852226022012 0 0 0 0 19.938486650901723 166.79505361307747 0 166.79505361307747 542.84655523274705 0 0 0 0 1.9822433241989756 -5.402127179786703 0 -5.402127179786703 468.69758019087385 0 0 0 0 -867.44971781970719 191.38092886347533 0 191.38092886347533 185.7115183636015 0 0 0 0 -371.94659336659242 579.44140088528275 0 579.44140088528275 30.71586178322741 0 0 0 0 -1.6554752700146858 6.3497835544942003 0 6.3497835544942003 49.09117434389762 0 0 0 0 -120.66142738926601 155.2584174825879 0 155.2584174825879 392.55260264816388 0 0 0 0 154.80789922268559 85.244968545111078 0 85.244968545111078 288.47031391162591 0 0 0 0 324.78697563300284 218.74863900836749 0 218.74863900836749 -150.03678975653793 0 0 0 0 325.17372854449741 -114.76544506494838 0 -114.76544506494838 -113.18070710732161 0 0 0 0 151.36974526540735 81.179127875117729 0 81.179127875117729 1936.4951761929478 0 0 0 0 28.203760154088286 -319.32995402917686 0 -319.32995402917686 1833.6614226984746 0 0 0 0 0.11790003695755757 3.6940021712390969 0 3.6940021712390969 22.143161738632934 0 0 0 0 2046.0481790547606 1869.2496504684555 0 1869.2496504684555 1496.8884509264062 0 0 0 0 -859.21458629316965 -975.33916271870703 0 -975.33916271870703 2269.3306972993696 0 0 0 0 247.69836636247106 1334.4659103498125 0 1334.4659103498125 2421.3624511584349 0 0 0 0 239.3203800434967 1386.9383164492756 0 1386.9383164492756 4361.647361534825 0 0 0 0 109.89041250985906 760.27606349958296 0 760.27606349958296 1735.2732493814747 0 0 0 0 129.54746938085987 783.78492456061576 0 783.78492456061576 1404.790273495968 0 0 0 0 -51.255757256804372 371.81384690252889 0 371.81384690252889 1153.2666542420138 0 0 0 0 433.31517319506656 592.61279280834424 0 592.61279280834424 581.06124216302851 0 0 0 0 829.53648282394317 764.86054137505562 0 764.86054137505562 600.31440538698916 0 0 0 0 387.12379780534968 -33.240534096741612 0 -33.240534096741612 84.274630112748127 0 0 0 0 339.32005776615074 163.87966700902143 0 163.87966700902143 170.79976869317761 0 0 0 0 115.66504967976289 135.74190052760696 0 135.74190052760696 -270.02746706086327 0 0 0 0 167.94479472481595 313.62122612899202 0 313.62122612899202 73.653073533892893 0 0 0 0 223.61174851946845 -350.79037925872808 0 -350.79037925872808 89.019159340401529 0 0 0 0 395.06069929209298 41.656312783166868 0 41.656312783166868 -270.44010745491505 0 0 0 0 1.7538805471584429 -0.58883951036244042 0 -0.58883951036244042 0.3619763116699275 0 0 0 0 -120.53950666004903 -27.139357998030391 0 -27.139357998030391 315.62116360145774 0 0 0 0 29.444206885024528 -17.494275777125949 0 -17.494275777125949 189.63223506261602 0 0 0 0 -43.75988212169095 165.14296648367781 0 165.14296648367781 426.47728494736111 0 0 0 0 144.43755788930045 171.56328078779984 0 171.56328078779984 108.89492378060095 0 0 0 0 -20.052644686308895 101.19989117929072 0 101.19989117929072 175.07627134233553 0 0 0 0 29.979755281768007 89.69606722766548 0 89.69606722766548 -17.535931774313212 0 0 0 0 -126.81550437264309 46.201334502631198 0 46.201334502631198 102.20027124449189 0 0 0 0 -0.8278559033777646 9.3301741907500926 0 9.3301741907500926 55.242401348172308 0 0 0 0 -24.151016901523704 22.983821746659881 0 22.983821746659881 17.759156718154614 0 0 0 0 -0.64413567369027813 6.9445320752355713 0 6.9445320752355713 22.069090695075076 0 0 0 0 -168.02375809043269 103.05040058371083 0 103.05040058371083 38.954685787205563 0 0 0 0 -94.972533593736898 -16.127996973691552 0 -16.127996973691552 161.62661270542594 0 0 0 0 58.451167424902451 77.582016541888152 0 77.582016541888152 150.96165055387974 0 0 0 0 -41.259164057358248 136.54487455850176 0 136.54487455850176 140.81973356809567 0 0 0 0 -65.94089535504645 156.33390196383584 0 156.33390196383584 -18.400371718418683 0 0 0 0 -117.37298853539141 117.47865052618727 0 117.47865052618727 -70.701392223183575 0 0 0 0 -141.99741652765988 166.02175569536098 0 166.02175569536098 -12.742081595735726 0 0 0 0 -192.69864400436791 125.70239308564783 0 125.70239308564783 -41.459614673214674 0 0 0 0 -163.00241871717208 85.31727482775932 0 85.31727482775932 -83.926753730329892 0 0 0 0 -78.219838488817459 304.64259242009211 0 304.64259242009211 -96.821246946315568 0 0 0 0 137.8322082487025 239.52101164602482 0 239.52101164602482 -126.52352331364636 0 0 0 0 119.1918804076372 66.641198248583351 0 66.641198248583351 -277.70179648583667 0 0 0 0 -67.861246432740472 109.39489159635559 0 109.39489159635559 136.86144450516713 0 0 0 0 15.738930688270102 144.34903399641098 0 144.34903399641098 -148.49824166118185 0 0 0 0 38.750029459430152 102.38597536810812 0 102.38597536810812 148.3698167636355 0 0 0 0 -59.039002421115583 46.589919449052104 0 46.589919449052104 147.98569580512776 0 0 0 0 17.986988327205836 4.1986211381681642 0 4.1986211381681642 76.000730329013095 0 0 0 0 7.8197166176869359 29.731505742984154 0 29.731505742984154 83.583345793501394 0 0 0 0 -17.646442673856416 47.316607695140853 0 47.316607695140853 80.65397239382014 0 0 0 0 -9.027907358908152 30.971030220091144 0 30.971030220091144 119.22148400335996 0 0 0 0 80.834371849399417 49.77066013798526 0 49.77066013798526 101.01108649084563 0 0 0 0 -62.128262983696914 42.479768955849977 0 42.479768955849977 158.33161125379047 0 0 0 0 97.934228867668935 182.26801191756022 0 182.26801191756022 233.8211644449475 0 0 0 0 33.755017843932364 103.68450684364052 0 103.68450684364052 168.33038964722437 0 0 0 0 287.85100405659614 419.96339796794564 0 419.96339796794564 628.38411206593082 0 0 0 0 44.590340981751467 11.414865041360976 0 11.414865041360976 -22.811341250249583 0 0 0 0 309.01893749864439 386.19364969095841 0 386.19364969095841 539.43298219217104 0 0 0 0 -21.193811455901141 278.18402078825056 0 278.18402078825056 840.88026898373209 0 0 0 0 2.3215643761275824 -5.2131835860384683 0 -5.2131835860384683 7.6512593715606698 0 0 0 0 48.535318490619488 463.41580468400934 0 463.41580468400934 1138.7926141705975 0 0 0 0 200.34288275431436 390.48064912992777 0 390.48064912992777 670.71114098886028 0 0 0 0 -153.84991242701335 -196.5125274044658 0 -196.5125274044658 -536.07271405527581 0 0 0 0 0.98332476912283018 27.238755815603085 0 27.238755815603085 102.34863506777108 0 0 0 0 -519.35275683452335 -228.98592222375919 0 -228.98592222375919 1116.2767664754647 0 0 0 0 -69.006670528738709 -214.08123654799056 0 -214.08123654799056 1293.6828538098198 0 0 0 0 324.6743089283691 -456.67336185632666 0 -456.67336185632666 38.549721760056855 0 0 0 0 100.35263844888436 -20.911697655799799 0 -20.911697655799799 489.7904591523511 0 0 0 0 88.284281083543419 -38.481131767526676 0 -38.481131767526676 502.54216267023003 0 0 0 0 14.410308019029344 129.65870622842704 0 129.65870622842704 507.20150149342953 0 0 0 0 25.5742889153953 -4.6627777598769171 0 -4.6627777598769171 822.72356479946757 0 0 0 0 119.01971977092694 -50.456685873376045 0 -50.456685873376045 432.58920163281437 0 0 0 0 -26.182961108499057 214.83428416433162 0 214.83428416433162 157.16450167687071 0 0 0 0 -15.535865345199047 4.990878802861161 0 4.990878802861161 24.225920144526285 0 0 0 0 196.77818831535205 16.706372989745432 0 16.706372989745432 45.370461593134678 0 0 0 0 77.845605326333271 124.41556980284804 0 124.41556980284804 332.85100108938786 0 0 0 0 312.17575396252516 -134.78389617175708 0 -134.78389617175708 123.1549384091486 0 0 0 0 78.489954638661288 142.41413114441457 0 142.41413114441457 -44.428702099805378 0 0 0 0 63.242933936963482 194.26030141103547 0 194.26030141103547 -20.849669393486693 0 0 0 0 -298.41693879950873 194.48233160040763 0 194.48233160040763 129.891610049468 0 0 0 0 -142.29009498137793 340.42022954423737 0 340.42022954423737 -103.13820864533773 0 0 0 0 220.60662780477628 183.71048264865385 0 183.71048264865385 -316.7487077014739 0 0 0 0 -183.64128424651096 71.935127965731226 0 71.935127965731226 194.17715158603096 0 0 0 0 -24.376976625779761 -9.5860844143026043 0 -9.5860844143026043 32.057531011596438 0 0 0 0 23.921489390309219 -39.477301554754376 0 -39.477301554754376 -78.894480530815599 0 0 0 0 11.636286380838282 41.088945395132399 0 41.088945395132399 6.5609129637809502 0 0 0 0 -1.4194527334166556 26.751797856423398 0 26.751797856423398 29.148546104498728 0 0 0 0 31.271470970035921 81.850032449267701 0 81.850032449267701 131.44674411736196 0 0 0 0 50.142248612878802 -0.75494891912239837 0 -0.75494891912239837 -73.289792298875909 0 0 0 0 15.288366797452214 44.994365072270348 0 44.994365072270348 -40.466763945288193 0 0 0 0 9.9587109899893562 110.6339108665743 0 110.6339108665743 29.262147035722592 0 0 0 0 -32.057382143415907 73.107319242955782 0 73.107319242955782 55.525765406892788 0 0 0 0 -9.0641088597797079 89.53686467956004 0 89.53686467956004 0.1632468146563042 0 0 0 0 39.55794111784212 40.31245125904843 0 40.31245125904843 23.043196200200327 0 0 0 0 8.3233784881613246 -87.315251781561528 0 -87.315251781561528 295.7642608137312 0 0 0 0 -2.3680702484472702 51.287015122588215 0 51.287015122588215 -42.569231769326535 0 0 0 0 2.9401233168325689 285.61080821538053 0 285.61080821538053 238.54770367321908 0 0 0 0 42.016076545389751 41.505081159307338 0 41.505081159307338 -78.281927436288242 0 0 0 0 20.165414815520762 62.628966245410084 0 62.628966245410084 -28.386820570793134 0 0 0 0 -17.779896860165842 60.799827855410228 0 60.799827855410228 -28.782118761482494 0 0 0 0 4.6186883376406058 70.872041048260144 0 70.872041048260144 -45.132034400818156 0 0 0 0 -20.441444895778957 54.760529151790912 0 54.760529151790912 64.501620389579188 0 0 0 0 -23.840913310649739 139.20828640198965 0 139.20828640198965 -79.779316026717424 0 0 0 0 -53.73926410997683 8.1590218480741896 0 8.1590218480741896 98.504283710426535 0 0 0 0 -3.1570533847413849 -1.8194405099454798 0 -1.8194405099454798 20.915563257575755 0 0 0 0 -240.32044870272875 304.47742121412011 0 304.47742121412011 1073.1620552923559 0 0 0 0 591.77782753776319 -67.324496161905699 0 -67.324496161905699 -0.87615876505878987 0 0 0 0 177.68056200857973 326.47117199936474 0 326.47117199936474 391.45153538191516 0 0 0 0 134.6585534624428 -222.04776227481489 0 -222.04776227481489 725.39803585168556 0 0 0 0 4.0174133869316329 2.7739189777730786 0 2.7739189777730786 -14.658414122925024 0 0 0 0 70.992271840312242 184.03301198483678 0 184.03301198483678 669.38090966674304 0 0 0 0 111.07623632298419 429.10297603008803 0 429.10297603008803 660.67947498765716 0 0 0 0 -2.3488234548378912 -8.4700206762552597 0 -8.4700206762552597 14.052833126917164 0 0 0 0 -154.11700789167116 -589.15118524003628 0 -589.15118524003628 226.03745190127665 0 0 0 0 170.08800149969466 -178.97900516546542 0 -178.97900516546542 -368.79363048001687 0 0 0 0 -430.68027969294599 52.922171744765365 0 52.922171744765365 994.82155252571829 0 0 0 0 -3.3627354038475232 45.935138313978086 0 45.935138313978086 454.84213905300567 0 0 0 0 -18.950331526894388 83.060703905017363 0 83.060703905017363 438.55366440108628 0 0 0 0 -8.9059126505208415 -8.0141423417701674 0 -8.0141423417701674 12.891048037242527 0 0 0 0 -46.291296508467894 67.012368874493404 0 67.012368874493404 578.3373192420986 0 0 0 0 -311.56921063285336 548.44729767727404 0 548.44729767727404 312.92318025170243 0 0 0 0 16.059406239088275 173.07502294226288 0 173.07502294226288 464.73751893520603 0 0 0 0 163.23993418300415 258.39779432590876 0 258.39779432590876 462.02791190356947 0 0 0 0 -94.783968346348047 184.00321213356801 0 184.00321213356801 523.14508292555547 0 0 0 0 -46.987435077973714 155.00956594206218 0 155.00956594206218 425.22759170533391 0 0 0 0 -54.364620108031886 259.78404534405854 0 259.78404534405854 539.10535506391898 0 0 0 0 -144.56862049388474 169.21956858293561 0 169.21956858293561 488.27833047512831 0 0 0 0 4.1818172549174051 52.728919532637519 0 52.728919532637519 265.65966618955645 0 0 0 0 -26.345814061415922 152.00640913258394 0 152.00640913258394 481.93232584102952 0 0 0 0 -78.498905577323058 177.89924513374717 0 177.89924513374717 502.83640832049423 0 0 0 0 -76.985787798434103 160.11443313851487 0 160.11443313851487 622.20679428701624 0 0 0 0 129.4665919860779 207.61913235990323 0 207.61913235990323 379.00459436939855 0 0 0 0 72.03223867033546 -789.29552038897418 0 -789.29552038897418 177.88635180026176 0 0 0 0 -188.95562959900053 -61.159425922611263 0 -61.159425922611263 320.75994820809137 0 0 0 0 4.9641358076263815 -12.293619324742963 0 -12.293619324742963 16.961036985859437 0 0 0 0 1425.290558877439 724.57615282948973 0 724.57615282948973 -45.951951942950473 0 0 0 0 -304.06231139370084 140.12744363250386 0 140.12744363250386 459.96425542694487 0 0 0 0 -92.365464040428378 280.34875998323332 0 280.34875998323332 382.34630533230666 0 0 0 0 73.476674353709313 251.80002782269366 0 251.80002782269366 377.29747021926596 0 0 0 0 0.80466656845483087 -6.7896991737989225 0 -6.7896991737989225 12.547265146578667 0 0 0 0 -14.893915527766694 -442.72027831225932 0 -442.72027831225932 11.876697091045571 0 0 0 0 -431.61380699410711 803.89915694460433 0 803.89915694460433 2327.5563816374633 0 0 0 0 194.56201340106838 -254.86451400065562 0 -254.86451400065562 1295.5356059180922 0 0 0 0 -442.95453008947584 639.28823177219238 0 639.28823177219238 2334.7803235219617 0 0 0 0 -63.400303545867928 15.132155796884035 0 15.132155796884035 2068.9806922071002 0 0 0 0 4.4897007668362221 723.99715564382495 0 723.99715564382495 1988.6034311286057 0 0 0 0 195.36801548484505 437.39033346226597 0 437.39033346226597 1746.5883104094974 0 0 0 0 -0.030788344189328853 -3.7367027422931045 0 -3.7367027422931045 6.53527439257401 0 0 0 0 256.55694813269542 238.97583045285364 0 238.97583045285364 613.43316235564998 0 0 0 0 -18.399474791304783 -348.52147998061992 0 -348.52147998061992 1184.0562605706073 0 0 0 0 43.560215530137611 -294.74836595432862 0 -294.74836595432862 1230.6558786937931 0 0 0 0 49.688845937324459 -679.40217592299769 0 -679.40217592299769 638.14152363462199 0 0 0 0 74.471818468447466 502.8515527930972 0 502.8515527930972 753.57493173768307 0 0 0 0 155.68202794407171 -137.75193537385348 0 -137.75193537385348 -191.1342514853277 0 0 0 0 26.293960275279503 2.6190467591164577 0 2.6190467591164577 -7.0424990586419085 0 0 0 0 0.71039370215530184 6.858654615695567 0 6.858654615695567 16.210710077539147 0 0 0 0 327.02788773787063 -193.4208217048963 0 -193.4208217048963 696.75445162746473 0 0 0 0 -180.03814924686529 682.48590927701662 0 682.48590927701662 1141.0089235459745 0 0 0 0 -18.192774603443922 491.25825677382818 0 491.25825677382818 47.237175038913847 0 0 0 0 295.35400749055884 -8.3290610905387439 0 -8.3290610905387439 -47.935191914017196 0 0 0 0 219.29239886532923 123.40673816844355 0 123.40673816844355 -213.27533890854102 0 0 0 0 223.51732195142358 34.402138054530951 0 34.402138054530951 -163.59044743073173 0 0 0 0 225.59743394511452 45.048855105298571 0 45.048855105298571 -165.57383018813562 0 0 0 0 188.14123333892167 36.594738665538898 0 36.594738665538898 -22.114353890472557 0 0 0 0 314.68549392468685 -119.58457091038872 0 -119.58457091038872 60.699938687583199 0 0 0 0 215.47471295059495 -137.73117386896774 0 -137.73117386896774 578.95355363548151 0 0 0 0 207.72680031822142 -94.887740527032292 0 -94.887740527032292 582.21671701516607 0 0 0 0 -296.53614966787609 -201.43575704126852 0 -201.43575704126852 1982.7733940069011 0 0 0 0 399.72686640041866 -691.62589967987151 0 -691.62589967987151 -164.99908111682453 0 0 0 0 2.1196782241776759 672.21301850636519 0 672.21301850636519 291.84566904854728 0 0 0 0 530.82153776327539 -207.08822993718059 0 -207.08822993718059 -942.15147425432224 0 0 0 0 -6.6541884272414791 25.237278599088313 0 25.237278599088313 91.504429861655808 0 0 0 0 10.623528120707574 6.1975681016577653 0 6.1975681016577653 0.24594033256161651 0 0 0 0 -9.1495738257867743 29.939124722128327 0 29.939124722128327 83.780517268460244 0 0 0 0 -7.8905401140845584 28.646117268410308 0 28.646117268410308 73.291766931477468 0 0 0 0 -104.96239504900609 1.0930785840610042 0 1.0930785840610042 -253.69452915529837 0 0 0 0 -79.749140929349551 48.968648654474237 0 48.968648654474237 -472.55340132000856 0 0 0 0 0.4445083733235547 4.3408507371176572 0 4.3408507371176572 55.304500680441464 0 0 0 0 79.315160311633463 101.16087771789171 0 101.16087771789171 -178.33045094190675 0 0 0 0 92.094015813068012 -21.61053900254592 0 -21.61053900254592 -185.88374017580645 0 0 0 0 108.13167820121089 156.5051381917292 0 156.5051381917292 -199.06155009952636 0 0 0 0 168.32577760608456 6.676684260222828 0 6.676684260222828 -295.34751748001872 0 0 0 0 -19.366950190662919 -77.655009812428034 0 -77.655009812428034 -316.05187691812171 0 0 0 0 -87.126147282777879 -140.78085708161962 0 -140.78085708161962 -354.20473711947852 0 0 0 0 -2.8572979680148558 -0.23812686180629328 0 -0.23812686180629328 -2.7076654592677727 0 0 0 0 226.35392082626731 -192.1463169102426 0 -192.1463169102426 -727.43133627054704 0 0 0 0 -34.423110318781255 -198.74120710204443 0 -198.74120710204443 -397.84279735376185 0 0 0 0 119.11695732424027 -198.60586448871709 0 -198.60586448871709 56.766469507463626 0 0 0 0 55.694956559402272 111.58659243939837 0 111.58659243939837 -426.63333990119281 0 0 0 0 170.75954641081944 -12.104481233938714 0 -12.104481233938714 -217.66860838075809 0 0 0 0 133.91987552068076 -147.95822144945851 0 -147.95822144945851 -400.53042925995396 0 0 0 0 81.894586856865772 -198.36699530316764 0 -198.36699530316764 -414.49461810299545 0 0 0 0 129.59962719885493 -115.71418617173549 0 -115.71418617173549 68.912521856749663 0 0 0 0 267.97172701819181 -120.56413361363229 0 -120.56413361363229 68.694041655243836 0 0 0 0 195.65341437879488 -28.934475869033122 0 -28.934475869033122 114.76470008738397 0 0 0 0 128.37834712057156 -252.47212197647605 0 -252.47212197647605 937.5433418232642 0 0 0 0 111.86176144348951 -32.102401712392748 0 -32.102401712392748 670.27430470500258 0 0 0 0 98.490442240494616 -195.72512860425297 0 -195.72512860425297 391.15511224308284 0 0 0 0 103.16928931116854 30.288875520564034 0 30.288875520564034 394.94644071784569 0 0 0 0 30.621368592476301 -110.05821392313374 0 -110.05821392313374 530.1093331169468 0 0 0 0 106.95582713335079 138.39697271431214 0 138.39697271431214 742.03210963777383 0 0 0 0 136.05245331992683 -80.995078576495871 0 -80.995078576495871 514.29176520658075 0 0 0 0 177.84778532824748 -203.32716246480413 0 -203.32716246480413 113.91225956984272 0 0 0 0 86.660097815884001 -51.453500929128495 0 -51.453500929128495 -11.692072488549456 0 0 0 0 83.266438974235683 -315.46683351959069 0 -315.46683351959069 -3.8718346456007566 0 0 0 0 13.783144092836665 -378.31186595986219 0 -378.31186595986219 -292.80801926075947 0 0 0 0 -197.00340955746742 -216.0328465463972 0 -216.0328465463972 -70.409994429241124 0 0 0 0 -15.227426075379043 -3.2934387390131974 0 -3.2934387390131974 21.435704367300914 0 0 0 0 -35.519251558732321 13.960052188434929 0 13.960052188434929 137.59653602994149 0 0 0 0 8.1984882707838551 -294.44848866519169 0 -294.44848866519169 -411.45852048335655 0 0 0 0 -400.27470097434343 -253.48948044052668 0 -253.48948044052668 -272.25009267880523 0 0 0 0 -6.0282493522535905 -24.552864161031501 0 -24.552864161031501 16.424458362680156 0 0 0 0 122.61710815677179 -268.69816439302667 0 -268.69816439302667 -331.48180217389017 0 0 0 0 11.096001711152528 -73.820009353495209 0 -73.820009353495209 42.339562448508872 0 0 0 0 -4.9139707847934915 -133.1505620815733 0 -133.1505620815733 528.836377734915 0 0 0 0 20.342280428227241 -26.059582480919289 0 -26.059582480919289 209.77635748774151 0 0 0 0 -19.353479992036455 78.539148273169303 0 78.539148273169303 600.45821632416482 0 0 0 0 -2.3473268245285119 -5.2170553492311313 0 -5.2170553492311313 -1.3038945240580286 0 0 0 0 92.954053455454414 -321.63180240005022 0 -321.63180240005022 -559.96666059443305 0 0 0 0 77.878972025682742 -80.093469552433817 0 -80.093469552433817 -447.5318950523797 0 0 0 0 -22.342091584592708 -202.558880903729 0 -202.558880903729 -341.22619378747186 0 0 0 0 40.301680808544916 -290.73468494703411 0 -290.73468494703411 -400.93204519893334 0 0 0 0 -50.550439194350474 -228.54714759477065 0 -228.54714759477065 -106.80470931710443 0 0 0 0 -53.369601956624138 -328.03225217405634 0 -328.03225217405634 -117.34985594628961 0 0 0 0 -43.529398365499219 -349.94289842349826 0 -349.94289842349826 -310.69260096820653 0 0 0 0 -148.12263751729915 -554.45635389300878 0 -554.45635389300878 -333.7438974645047 0 0 0 0 -76.237005469723954 -470.72626686211152 0 -470.72626686211152 -328.27161614451325 0 0 0 0 -351.97545030976107 -480.84437952531152 0 -480.84437952531152 -153.39183737634448 0 0 0 0 -142.60149224901488 -351.76943105725513 0 -351.76943105725513 -148.80652795938659 0 0 0 0 -244.52658516594602 -419.65515171749576 0 -419.65515171749576 5.5977589470130624 0 0 0 0 -103.20629952378204 -249.22831160305395 0 -249.22831160305395 95.129260228248313 0 0 0 0 -156.3739221149217 -398.22592029547741 0 -398.22592029547741 117.42091851387522 0 0 0 0 -60.487395372168976 -292.27993043699826 0 -292.27993043699826 -116.92941921738839 0 0 0 0 -65.166324723461003 -326.94301921977603 0 -326.94301921977603 -59.645783183004824 0 0 0 0 -131.76902313627215 -217.97173871809355 0 -217.97173871809355 263.20635883873183 0 0 0 0 -112.07401363800818 -308.28889044410607 0 -308.28889044410607 169.70680695217015 0 0 0 0 -106.37460780874426 -223.42688985534915 0 -223.42688985534915 120.09907545262831 0 0 0 0 29.941998084994339 -151.46748919798119 0 -151.46748919798119 -201.25626696212566 0 0 0 0 -27.133048438667174 -128.65684630147007 0 -128.65684630147007 -50.180362376526318 0 0 0 0 -9.2561836413831315 -309.66882999258087 0 -309.66882999258087 -89.788592640165007 0 0 0 0 -59.392815050148783 -185.86054711832548 0 -185.86054711832548 -314.02913549380173 0 0 0 0 -248.68435543348096 -379.7944156594167 0 -379.7944156594167 -298.52592118243047 0 0 0 0 -386.3471570881884 -361.17059223460819 0 -361.17059223460819 -78.89469824070693 0 0 0 0 -126.96966789156431 -227.61437974890578 0 -227.61437974890578 -54.081911019398831 0 0 0 0 -130.43348222019995 -310.88539262467384 0 -310.88539262467384 134.57767136595794 0 0 0 0 -91.455980182727217 -351.35129024832713 0 -351.35129024832713 271.6409396158997 0 0 0 0 -107.37923074663195 -173.64713058988127 0 -173.64713058988127 438.92410932247003 0 0 0 0 -29.316187829168484 -159.74728246034647 0 -159.74728246034647 194.56207415086465 0 0 0 0 70.67872875676585 -270.15838148766488 0 -270.15838148766488 146.24778180377325 0 0 0 0 87.649058077553491 -65.208125426266633 0 -65.208125426266633 145.98006682219057 0 0 0 0 180.73479538871788 -207.59722241042255 0 -207.59722241042255 432.62278716167202 0 0 0 0 87.318966306326274 -93.560509413367981 0 -93.560509413367981 744.27314461197238 0 0 0 0 -11.94879868636508 -262.92396365619607 0 -262.92396365619607 579.12827855403884 0 0 0 0 -39.605461433642631 -96.588880480041553 0 -96.588880480041553 766.75741514270339 0 0 0 0 209.57912872807537 -267.86414545719163 0 -267.86414545719163 883.77189733352861 0 0 0 0 373.10295156954044 51.620873586743983 0 51.620873586743983 755.01417465765553 0 0 0 0 -121.72353905320597 -122.39093575645529 0 -122.39093575645529 616.84963460898143 0 0 0 0 -148.53975481768066 -214.9250811128004 0 -214.9250811128004 413.17371449399798 0 0 0 0 -126.36656805214261 -221.8868897455759 0 -221.8868897455759 415.3232348396632 0 0 0 0 -96.676860667605069 -302.76651554536511 0 -302.76651554536511 365.5588928933139 0 0 0 0 -123.44758241864656 -165.1768117970787 0 -165.1768117970787 496.4071021299751 0 0 0 0 -186.36362401121551 -181.48913309979253 0 -181.48913309979253 844.59254706167849 0 0 0 0 -92.438754950509974 26.925399691988787 0 26.925399691988787 793.35959526716761 0 0 0 0 16.396321868850464 98.601012174243806 0 98.601012174243806 781.44476750028116 0 0 0 0 113.05007441291218 -42.875864885307237 0 -42.875864885307237 1720.9446659187888 0 0 0 0 799.99504378485244 1025.7932707452892 0 1025.7932707452892 1077.4088473541815 0 0 0 0 -5.5522660147928491 220.61342735173503 0 220.61342735173503 1268.081967321792 0 0 0 0 2.9975898985170488 213.07593590289389 0 213.07593590289389 2245.3436522994598 0 0 0 0 12.390089932312154 10.772654176019984 0 10.772654176019984 6.757473430479223 0 0 0 0 7.1834970276932477 3.4287754655135672 0 3.4287754655135672 17.496226216185761 0 0 0 0 86.245282574147041 256.79133314516366 0 256.79133314516366 1830.6910477914498 0 0 0 0 1015.6834458955605 251.84751968037745 0 251.84751968037745 1095.4058903994883 0 0 0 0 514.71295527521397 748.64634084348654 0 748.64634084348654 1889.7486344653225 0 0 0 0 212.66247702570354 318.66556847136962 0 318.66556847136962 1277.6545936287584 0 0 0 0 -25.651534631622781 -42.7868920312103 0 -42.7868920312103 -557.14677258506254 0 0 0 0 -527.71234172727361 -135.8029811185952 0 -135.8029811185952 1602.4592104019393 0 0 0 0 33.724550454888458 489.75222611256322 0 489.75222611256322 1253.5923800307901 0 0 0 0 45.965932459573651 424.5534147282815 0 424.5534147282815 1843.6980393859258 0 0 0 0 154.92423622006208 327.74601167458241 0 327.74601167458241 1393.3021695562784 0 0 0 0 7.1217948356720626 124.54507336909592 0 124.54507336909592 1048.0814328191063 0 0 0 0 -13.859112050747854 205.22920347793115 0 205.22920347793115 1397.6104732481908 0 0 0 0 140.30217341729576 20.632388684869511 0 20.632388684869511 937.23708140099188 0 0 0 0 283.24257836968627 144.39469277035096 0 144.39469277035096 728.88923011963925 0 0 0 0 206.04319646674503 163.31907446488185 0 163.31907446488185 733.28963118879619 0 0 0 0 302.47844691590581 -26.624531022920564 0 -26.624531022920564 421.14239452560832 0 0 0 0 189.46085891157509 41.214409327956673 0 41.214409327956673 1112.3412103841256 0 0 0 0 519.41360867975436 392.66640876059682 0 392.66640876059682 1136.3251824184845 0 0 0 0 -567.9516597147267 242.17203262140538 0 242.17203262140538 922.34302068647958 0 0 0 0 -321.59144181296142 873.12129769063176 0 873.12129769063176 1870.4217046872363 0 0 0 0 181.16417838573761 -213.14250272085337 0 -213.14250272085337 -90.636826054727862 0 0 0 0 296.08222673878117 1313.1401906956598 0 1313.1401906956598 1666.6476433949647 0 0 0 0 492.92884218163817 534.43705708764901 0 534.43705708764901 289.18588599645591 0 0 0 0 9.4841190841190013 10.679627174576112 0 10.679627174576112 13.368443277363781 0 0 0 0 305.91075121477087 -1061.5980012425271 0 -1061.5980012425271 2745.1307822246599 0 0 0 0 19.312472886671646 27.864599239802217 0 27.864599239802217 29.428962216022086 0 0 0 0 307.3101341570931 -899.81743795425155 0 -899.81743795425155 1779.8649897621799 0 0 0 0 -51.800913348536824 158.48602516319261 0 158.48602516319261 3505.7079373612214 0 0 0 0 -28.854529828330101 331.45718615731221 0 331.45718615731221 1756.9521889640455 0 0 0 0 1041.3226494600567 1305.300754472315 0 1305.300754472315 1437.3980036609792 0 0 0 0 -211.9190366426883 1134.2534362348524 0 1134.2534362348524 2190.5128952301893 0 0 0 0 726.96399436442516 -840.60315355666535 0 -840.60315355666535 1594.208400020565 0 0 0 0 8.2233894973705404 -14.20456446880371 0 -14.20456446880371 26.689710712822915 0 0 0 0 103.54437735660758 -70.282259981613606 0 -70.282259981613606 -252.62927573708293 0 0 0 0 315.94286870383803 -994.65057738202449 0 -994.65057738202449 162.91199944990876 0 0 0 0 284.72299871381711 -628.69118758966215 0 -628.69118758966215 750.21808676954242 0 0 0 0 595.32212493119459 2283.8405007338961 0 2283.8405007338961 2611.8105221508304 0 0 0 0 -98.394731358393074 -1270.4079665515728 0 -1270.4079665515728 2532.4763147894992 0 0 0 0 -278.11896054207318 -2182.6876248513072 0 -2182.6876248513072 3055.7279869507911 0 0 0 0 -56.918597077954473 1906.7599459095873 0 1906.7599459095873 4042.8659601374675 0 0 0 0 -77.297342491558084 972.04717273824645 0 972.04717273824645 1646.5112883352267 0 0 0 0 714.35666394098371 -569.30031833537578 0 -569.30031833537578 -752.89259694323846 0 0 0 0 110.67178254361716 -43.377126409715856 0 -43.377126409715856 5.9250032768395613 0 0 0 0 46.655528133923866 -2.0406267382646774 0 -2.0406267382646774 -1.5914926797461213 0 0 0 0 104.7743489508025 -0.90981016118530533 0 -0.90981016118530533 -49.795901380428404 0 0 0 0 24.347425406869661 -23.076294536629575 0 -23.076294536629575 63.679153606979526 0 0 0 0 21.349049452126565 -49.309400110960269 0 -49.309400110960269 166.23247352503677 0 0 0 0 105.92288563630063 -76.565403539410909 0 -76.565403539410909 78.881799908638641 0 0 0 0 62.032757890816356 -22.671909069154935 0 -22.671909069154935 55.067840491363313 0 0 0 0 172.93664083829754 -77.957205123137101 0 -77.957205123137101 70.886405541725253 0 0 0 0 -90.273495841260228 97.333772384554322 0 97.333772384554322 43.471434486709768 0 0 0 0 58.487965022286062 76.177470432165137 0 76.177470432165137 34.148667818080867 0 0 0 0 7.2360868059426977 -1.7641754719157348 0 -1.7641754719157348 8.3406005591928754 0 0 0 0 -42.1241436338114 38.896790181475808 0 38.896790181475808 39.894636552089651 0 0 0 0 -66.738386087359686 -95.430989271277213 0 -95.430989271277213 -145.81380751001416 0 0 0 0 21.154415225815683 -7.0770133449550485 0 -7.0770133449550485 52.758885369505151 0 0 0 0 -88.477546528019957 -1.6720492875319906 0 -1.6720492875319906 57.908227879059268 0 0 0 0 12.411224278751671 -10.930049381837293 0 -10.930049381837293 26.569198558563471 0 0 0 0 33.592025425877182 7.4878952175495215 0 7.4878952175495215 10.511095714869953 0 0 0 0 35.741661801409577 -2.6791582169771573 0 -2.6791582169771573 -4.6070803928596433 0 0 0 0 17.55643044745106 16.526774997338727 0 16.526774997338727 24.95388785657525 0 0 0 0 -134.53783476264744 144.4027287270037 0 144.4027287270037 151.44929134988342 0 0 0 0 34.20660206078901 55.288699074648321 0 55.288699074648321 -129.72713962952548 0 0 0 0 -87.477130012863199 -119.19700154470047 0 -119.19700154470047 895.21256232704036 0 0 0 0 0.63533756560536858 -107.51130346030186 0 -107.51130346030186 48.663460141548057 0 0 0 0 72.670748046615699 145.89688660362299 0 145.89688660362299 86.421908465548768 0 0 0 0 3.2205735960373012 5.6499679536070744 0 5.6499679536070744 10.338219341391635 0 0 0 0 73.020642734708815 121.23030875045384 0 121.23030875045384 832.48079659767973 0 0 0 0 4.8615061834795696 15.840748647577932 0 15.840748647577932 51.45898298440278 0 0 0 0 145.22440890978305 224.20814643447375 0 224.20814643447375 30.529470853471139 0 0 0 0 2.4845301242658024 20.278071027423721 0 20.278071027423721 105.42554793635645 0 0 0 0 30.811903628946311 53.337780893878517 0 53.337780893878517 138.93386971260043 0 0 0 0 2.4366629831311002 -27.520220602993504 0 -27.520220602993504 697.69410673373932 0 0 0 0 160.61039855628587 -20.046178973290807 0 -20.046178973290807 688.84363959618713 0 0 0 0 -98.448742418569964 -209.1377601371405 0 -209.1377601371405 1472.3943126020604 0 0 0 0 -111.06045290807469 37.272335402734825 0 37.272335402734825 1146.9293611495668 0 0 0 0 -169.02627902365748 -155.79702496193931 0 -155.79702496193931 1061.5578075321118 0 0 0 0 27.735891702544905 -378.65728015737841 0 -378.65728015737841 938.61385285833603 0 0 0 0 37.000581430071179 -254.7163160099808 0 -254.7163160099808 700.82454167463948 0 0 0 0 -128.75090881939286 -58.283712843898684 0 -58.283712843898684 724.21595946305024 0 0 0 0 -141.43569592497079 -42.088015688954329 0 -42.088015688954329 941.44472682567175 0 0 0 0 -79.929183752315112 -201.48473714599822 0 -201.48473714599822 1347.327626953127 0 0 0 0 -107.93311463517784 138.5667601124369 0 138.5667601124369 1471.2652697059093 0 0 0 0 -108.04229986225801 148.89433103176998 0 148.89433103176998 1076.6868126032314 0 0 0 0 272.73858877773273 276.03897149436671 0 276.03897149436671 370.76534144747711 0 0 0 0 180.30116336149786 105.63267298583014 0 105.63267298583014 374.48347215085232 0 0 0 0 -16.688578192464774 21.266138001617946 0 21.266138001617946 918.59017732134453 0 0 0 0 142.98945569295302 -66.810560059784621 0 -66.810560059784621 362.60925961892644 0 0 0 0 381.71006577744902 -7.4816893578681629 0 -7.4816893578681629 -291.67618577194662 0 0 0 0 183.04608647710484 -46.222176549461437 0 -46.222176549461437 307.78620715276611 0 0 0 0 -81.653325454534752 -42.148962014216522 0 -42.148962014216522 858.36244696729409 0 0 0 0 -13.251971797402803 -14.395807128347769 0 -14.395807128347769 580.73080462726648 0 0 0 0 -101.46801145415247 -108.65759739114947 0 -108.65759739114947 156.19335890959337 0 0 0 0 -97.276035032418804 -8.9662310868079658 0 -8.9662310868079658 585.73089164166777 0 0 0 0 -0.62319907920676343 -0.065735803178071706 0 -0.065735803178071706 0.076965350990931825 0 0 0 0 -56.927389948157725 -4.0695925290347077 0 -4.0695925290347077 106.49473161575224 0 0 0 0 -54.548035579889984 -123.59114775309718 0 -123.59114775309718 -30.089191207574913 0 0 0 0 -122.02272378560701 0.7619410555344075 0 0.7619410555344075 252.07149833527365 0 0 0 0 -38.978978368427761 20.582990718366091 0 20.582990718366091 120.62303411154426 0 0 0 0 -90.988411592570628 173.73673166231674 0 173.73673166231674 132.65975847549635 0 0 0 0 -55.115853396945568 161.32583408525898 0 161.32583408525898 -54.045962571828568 0 0 0 0 -76.714426451929853 184.03975752666156 0 184.03975752666156 254.42488574019808 0 0 0 0 -22.361285383218728 49.446545577705749 0 49.446545577705749 77.103380528978818 0 0 0 0 189.81198769248022 -230.494134976243 0 -230.494134976243 513.24432460508251 0 0 0 0 153.19065910519748 24.865180402804981 0 24.865180402804981 250.01287873237743 0 0 0 0 -8.9878871586297464 133.52737314423575 0 133.52737314423575 365.35668170721664 0 0 0 0 291.64897267845117 28.861619385825179 0 28.861619385825179 148.00965757423546 0 0 0 0 32.345338957911736 212.73001970943733 0 212.73001970943733 -94.861022260221944 0 0 0 0 -82.899062043452432 64.904965617679409 0 64.904965617679409 116.24016575673886 0 0 0 0 -42.040220965147455 158.17426638788311 0 158.17426638788311 -121.57379846129334 0 0 0 0 -21.56353054376687 42.26729291161395 0 42.26729291161395 80.314219852646147 0 0 0 0 -3.8494657740775438 114.78141377740394 0 114.78141377740394 146.15882839603 0 0 0 0 31.030274010514404 -11.642548232277477 0 -11.642548232277477 -40.405986781377578 0 0 0 0 161.79072212486426 83.213812854344724 0 83.213812854344724 25.319928063254338 0 0 0 0 168.03205815577934 -108.05504303539499 0 -108.05504303539499 97.001962381400517 0 0 0 0 101.36374001252989 8.1482234438881278 0 8.1482234438881278 -8.2548441814142279 0 0 0 0 153.33574479525851 -96.80263680925782 0 -96.80263680925782 2.5212805744668003 0 0 0 0 -40.487423519061849 -67.692273868578923 0 -67.692273868578923 50.452281634876272 0 0 0 0 292.70400326869276 -159.98148617651168 0 -159.98148617651168 108.07479259486354 0 0 0 0 13.286480120554188 -136.95138682886682 0 -136.95138682886682 117.96635922387941 0 0 0 0 -224.21562620940313 -319.84756427765024 0 -319.84756427765024 228.83900187741528 0 0 0 0 -423.42925260721313 -102.04217388236793 0 -102.04217388236793 418.66421106809867 0 0 0 0 9.9163381980585648 -45.616312835069323 0 -45.616312835069323 131.9566435170907 0 0 0 0 -315.99467871261368 -31.64241927235571 0 -31.64241927235571 379.70681810501264 0 0 0 0 -293.67998819525928 -300.89069780232694 0 -300.89069780232694 210.31788390295696 0 0 0 0 -17.201770947413081 10.561972283300008 0 10.561972283300008 28.83909569863556 0 0 0 0 -242.86594279400742 -122.59252171957633 0 -122.59252171957633 366.60242879606085 0 0 0 0 -2.8679002527577779 -29.515758899176461 0 -29.515758899176461 122.49723876799965 0 0 0 0 -330.44856034078475 -278.38794455165771 0 -278.38794455165771 48.295418567897286 0 0 0 0 -311.64150837654779 41.451543577233679 0 41.451543577233679 370.1188051453355 0 0 0 0 -170.24965023868572 -248.3985941902065 0 -248.3985941902065 -56.682410787536355 0 0 0 0 -321.9137636056912 57.331570065623964 0 57.331570065623964 98.722176782583119 0 0 0 0 35.055488768914074 -161.07476608748402 0 -161.07476608748402 584.22260013186315 0 0 0 0 0.1204854021925712 -200.05099353347032 0 -200.05099353347032 691.37999227568798 0 0 0 0 16.244062662321085 -132.36435128695302 0 -132.36435128695302 -66.418986069278617 0 0 0 0 -7.8156027250556193 4.9564614820307611 0 4.9564614820307611 15.69232028650714 0 0 0 0 14.386952867651416 325.19610424287384 0 325.19610424287384 436.66919414663425 0 0 0 0 0.2144687133713532 -4.2317575208978582 0 -4.2317575208978582 14.70302436558093 0 0 0 0 247.65094502600186 356.17485610770382 0 356.17485610770382 73.55682517203968 0 0 0 0 -55.764035568697111 48.54349541714987 0 48.54349541714987 11.018605096569054 0 0 0 0 -460.96044518599956 -149.65241218636947 0 -149.65241218636947 336.80091847447693 0 0 0 0 1.156354507619767 29.478168316487313 0 29.478168316487313 134.72134623315651 0 0 0 0 -218.91635054922699 -676.83114680601648 0 -676.83114680601648 -239.49328535428504 0 0 0 0 26.148983277868425 -54.96252292869265 0 -54.96252292869265 94.75186728263705 0 0 0 0 -124.37610241012953 670.33595116963261 0 670.33595116963261 983.02890944445971 0 0 0 0 -8.7467466350064811 9.9328055422020611 0 9.9328055422020611 11.715092778027099 0 0 0 0 -940.75924262690751 -132.35384140627502 0 -132.35384140627502 1294.5065152346651 0 0 0 0 1314.4478796076419 103.76859056294779 0 103.76859056294779 -312.53594128326949 0 0 0 0 559.83713257804447 654.29480500733916 0 654.29480500733916 676.82346917773248 0 0 0 0 201.39445850224729 195.0977750275124 0 195.0977750275124 852.37029877765963 0 0 0 0 50.163921992178075 65.248036147742823 0 65.248036147742823 223.93154317573499 0 0 0 0 -84.952164035525129 140.95523392290852 0 140.95523392290852 811.58594182551315 0 0 0 0 -469.46443575835292 -627.56258899613022 0 -627.56258899613022 -137.10666728718206 0 0 0 0 25.430813487449491 -42.008308789107872 0 -42.008308789107872 64.590567935242717 0 0 0 0 -406.25232941505237 139.64774359622243 0 139.64774359622243 233.24321617664827 0 0 0 0 868.27091037420905 100.09736336849164 0 100.09736336849164 -414.64604446597514 0 0 0 0 -319.72314273133816 -9.9172383244513185 0 -9.9172383244513185 720.90724830904219 0 0 0 0 5.7246134341439756 -118.81049253405217 0 -118.81049253405217 638.22917707412853 0 0 0 0 -83.041205940273358 -286.17327270902751 0 -286.17327270902751 -307.55227527191892 0 0 0 0 -14.101337954889928 4.3920290932226749 0 4.3920290932226749 17.132486434596913 0 0 0 0 -236.16565696886391 -150.77786184442812 0 -150.77786184442812 -147.72806547682558 0 0 0 0 -320.797819896703 -251.7175860186544 0 -251.7175860186544 36.813335116075905 0 0 0 0 -3.4836049533792846 3.1758482833950836 0 3.1758482833950836 -1.9303552882260249 0 0 0 0 -122.27324997307005 -591.61033126492111 0 -591.61033126492111 -810.59327909660351 0 0 0 0 -97.293858129152795 -48.875420990763814 0 -48.875420990763814 80.274009210179429 0 0 0 0 -6.3929863678822585 -260.88938853487343 0 -260.88938853487343 307.25611548320012 0 0 0 0 -174.95518658125002 -291.12152784837235 0 -291.12152784837235 81.092690272067557 0 0 0 0 -15.171486776111124 -18.926038018529653 0 -18.926038018529653 163.20662413531682 0 0 0 0 -241.47182579331638 -127.52796635868435 0 -127.52796635868435 275.89016880455893 0 0 0 0 -25.292244344138084 5.0690140445995837 0 5.0690140445995837 0.98575087959054031 0 0 0 0 -23.348646612786979 395.89762119085935 0 395.89762119085935 709.54462546609466 0 0 0 0 -244.33016631932878 8.5369672026317858 0 8.5369672026317858 751.99408178076555 0 0 0 0 127.76272604305996 -106.36147914966568 0 -106.36147914966568 233.59934190331842 0 0 0 0 -603.11642050065166 -65.123376644844029 0 -65.123376644844029 397.76302256050985 0 0 0 0 -496.70142399756378 -89.98528838418315 0 -89.98528838418315 -712.98502827581251 0 0 0 0 -310.21830023407711 298.2542951584619 0 298.2542951584619 409.68241788099044 0 0 0 0 -628.60634944090725 84.284579038878292 0 84.284579038878292 504.15586568137223 0 0 0 0 -510.52650286881908 -63.669665438581433 0 -63.669665438581433 641.27278786335955 0 0 0 0 187.99196631218911 -338.39940434353775 0 -338.39940434353775 230.97568693611538 0 0 0 0 -631.23354894903241 -329.79436687468842 0 -329.79436687468842 877.21123767942481 0 0 0 0 -188.13705998105615 -835.53916801372543 0 -835.53916801372543 1403.2396579478518 0 0 0 0 -965.33372260046235 718.64635459633428 0 718.64635459633428 507.45994530926328 0 0 0 0 -1509.1979619740969 215.51401781948152 0 215.51401781948152 1711.0736433933198 0 0 0 0 -51.158460082766346 11.198481396023084 0 11.198481396023084 8.6461542439102175 0 0 0 0 -211.30990271780684 39.961887134028075 0 39.961887134028075 320.5548704466928 0 0 0 0 1496.4690035799022 -1677.7327874820039 0 -1677.7327874820039 501.09624110428558 0 0 0 0 -60.954738831504073 67.079715294690686 0 67.079715294690686 78.004519280908426 0 0 0 0 -58.460848334145339 -50.345091590126685 0 -50.345091590126685 20.509434394043637 0 0 0 0 -12.3964585488776 -30.840487207472123 0 -30.840487207472123 86.03477231666858 0 0 0 0 -13.069814828144445 -71.954422546834394 0 -71.954422546834394 11.910433519609796 0 0 0 0 32.186737845504467 -96.697896547957498 0 -96.697896547957498 25.358433113055071 0 0 0 0 11.731006318525033 -63.920434182087774 0 -63.920434182087774 -0.91222618882238748 0 0 0 0 -1.0815484362972327 -40.334829246753372 0 -40.334829246753372 41.883305650537011 0 0 0 0 -391.54879035600015 -97.662249826873449 0 -97.662249826873449 312.74232550412125 0 0 0 0 -40.79445869018403 -9.3910097950709428 0 -9.3910097950709428 82.382364470145575 0 0 0 0 -12.871734254962576 -98.463591918291058 0 -98.463591918291058 -17.430095287723816 0 0 0 0 -20.913444999683367 -2.6388870092880552 0 -2.6388870092880552 1.0606938881434189 0 0 0 0 438.43212524133924 -567.6082182655191 0 -567.6082182655191 429.69966975282296 0 0 0 0 698.56055175513393 1135.3287101069327 0 1135.3287101069327 -212.95868202955535 0 0 0 0 2.7730623265312975 -5.7845932864946832 0 -5.7845932864946832 21.324975329097128 0 0 0 0 -203.02757456595555 114.93353001638752 0 114.93353001638752 540.12509257395868 0 0 0 0 4.8736962664852399 92.306192726093286 0 92.306192726093286 135.61100615961186 0 0 0 0 136.20500236048065 282.43022054095127 0 282.43022054095127 340.55596854892428 0 0 0 0 -9.7794537198781946 2.2401411598717829 0 2.2401411598717829 79.245777200595285 0 0 0 0 -19.135319445479183 60.789319692752272 0 60.789319692752272 56.746766723113687 0 0 0 0 -103.86415024153803 7.9888125892666721 0 7.9888125892666721 246.29164395628322 0 0 0 0 -141.72128613720815 52.583431295712217 0 52.583431295712217 205.51007088863116 0 0 0 0 -49.622460588685499 90.232977017614758 0 90.232977017614758 236.91790134265648 0 0 0 0 -160.18692772675604 34.006635292924329 0 34.006635292924329 504.89956006208376 0 0 0 0 -100.24843313429392 -16.483382640955824 0 -16.483382640955824 229.72198016471521 0 0 0 0 -64.862792407795496 -27.108989175620081 0 -27.108989175620081 58.592578506621066 0 0 0 0 -120.67106835817845 58.752878729269469 0 58.752878729269469 312.52479440383468 0 0 0 0 -59.229659420215057 9.9045620388187672 0 9.9045620388187672 232.07663723756195 0 0 0 0 -118.29212307236753 145.96831483420874 0 145.96831483420874 161.11212946452906 0 0 0 0 -98.148319882053784 17.64334429617611 0 17.64334429617611 180.94288572189726 0 0 0 0 -123.80812835801953 -75.530357519950485 0 -75.530357519950485 358.20564309290148 0 0 0 0 -140.39408408032182 25.372060998935922 0 25.372060998935922 207.15930321440828 0 0 0 0 -13.453063656582808 -5.9399705513289511 0 -5.9399705513289511 122.39044564028853 0 0 0 0 3.9187035194178588 28.020544768640438 0 28.020544768640438 -11.396479037361445 0 0 0 0 -100.17325154606442 173.55318905054446 0 173.55318905054446 -125.88225441942268 0 0 0 0 -0.45794593676663453 -8.2967929051094842 0 -8.2967929051094842 24.625403151600665 0 0 0 0 -57.006520805625769 109.32703184595448 0 109.32703184595448 -57.502095430666486 0 0 0 0 40.870482751071904 52.656252006039722 0 52.656252006039722 -53.654841679221136 0 0 0 0 0.93954323215075419 12.535474338124914 0 12.535474338124914 0.045366991562332259 0 0 0 0 50.665285176302859 -24.228270198032988 0 -24.228270198032988 -20.905173342340277 0 0 0 0 -16.814254384407377 -36.666292598196378 0 -36.666292598196378 18.305020827538101 0 0 0 0 -94.271650806316757 -16.680342835814372 0 -16.680342835814372 32.06479913124349 0 0 0 0 -49.682350234972546 -5.4127398450655164 0 -5.4127398450655164 -11.32525173657632 0 0 0 0 -50.195592380528979 -59.649030047861743 0 -59.649030047861743 73.398011804165435 0 0 0 0 -56.682516904518707 -18.97823592631903 0 -18.97823592631903 131.06972941661297 0 0 0 0 -122.31001472037178 -56.71455783339843 0 -56.71455783339843 281.35219084207347 0 0 0 0 -42.084167148669835 -7.270518730970565 0 -7.270518730970565 136.43461425344174 0 0 0 0 -67.99799191267266 -6.1345955101423897 0 -6.1345955101423897 146.16565443204672 0 0 0 0 -154.15844625221951 -22.05700516899924 0 -22.05700516899924 254.65179790293041 0 0 0 0 -97.172125589208918 84.321274225178058 0 84.321274225178058 355.29096677142661 0 0 0 0 -5.9117010135771952 39.481010326432425 0 39.481010326432425 208.43723651259171 0 0 0 0 614.38562404323466 -842.91278089249681 0 -842.91278089249681 1595.5656991992546 0 0 0 0 469.24766155573889 -384.73315382310102 0 -384.73315382310102 25.437316575491423 0 0 0 0 -59.211355586752404 162.81457345315584 0 162.81457345315584 378.28923635580577 0 0 0 0 -18.866437466439603 -22.190915555543803 0 -22.190915555543803 23.505234334062212 0 0 0 0 337.74437289158357 -617.02537201171413 0 -617.02537201171413 2244.1705582977447 0 0 0 0 -4.054878910450058 12.907981964649416 0 12.907981964649416 34.977127539020039 0 0 0 0 -71.060393601166652 -35.26854914258729 0 -35.26854914258729 131.84301229974153 0 0 0 0 -43.270472601720485 -151.97318347581131 0 -151.97318347581131 182.43040916756581 0 0 0 0 -116.4513355629233 -64.943724989725524 0 -64.943724989725524 282.27459379052743 0 0 0 0 -107.95970079737003 -100.24993729980451 0 -100.24993729980451 300.94250578159699 0 0 0 0 -122.27270536300875 -131.40695009992123 0 -131.40695009992123 246.2575070396324 0 0 0 0 -64.99345762558255 -224.53392227285576 0 -224.53392227285576 374.68231407715939 0 0 0 0 -604.42170583149664 55.742642932615126 0 55.742642932615126 1058.6277467808359 0 0 0 0 -742.04196484974682 -1035.7648649873845 0 -1035.7648649873845 4169.3808687792225 0 0 0 0 -5.5255514443512439 -17.320033139767418 0 -17.320033139767418 -2.0809414469778797 0 0 0 0 -156.86463184635568 5.2684058553095383 0 5.2684058553095383 239.70558676092332 0 0 0 0 -174.832607770001 -558.25538688315282 0 -558.25538688315282 3769.0403500862958 0 0 0 0 349.0999046143346 -486.05327298521297 0 -486.05327298521297 2808.8197581378045 0 0 0 0 -60.472504920508072 -84.504936126744724 0 -84.504936126744724 306.08902627998395 0 0 0 0 -841.80313667454993 -1314.2139935106206 0 -1314.2139935106206 3811.7708853796648 0 0 0 0 -841.26553858738498 -1381.515872880027 0 -1381.515872880027 6220.8614339958367 0 0 0 0 -47.59040699998377 -129.82558205863825 0 -129.82558205863825 292.5453494011017 0 0 0 0 -92.864278256324724 -111.79592677602341 0 -111.79592677602341 309.76477245903516 0 0 0 0 -120.84358523068818 -147.30183360218143 0 -147.30183360218143 292.66692203984712 0 0 0 0 -2522.6182452583016 195.5049840959673 0 195.5049840959673 1203.903364560314 0 0 0 0 -119.63911130269628 -576.77517985562008 0 -576.77517985562008 59.203173418458391 0 0 0 0 -4.3007678145820094 -3.473731736641148 0 -3.473731736641148 57.566304039963669 0 0 0 0 488.62715441880198 -2450.9270698971814 0 -2450.9270698971814 1735.312825848916 0 0 0 0 460.94105941577345 -2955.396129910891 0 -2955.396129910891 3554.7947958304503 0 0 0 0 -623.24228799961111 -1349.8659779581139 0 -1349.8659779581139 3808.1668441869551 0 0 0 0 -610.85265985512319 -1418.6449265733058 0 -1418.6449265733058 3286.9159380634519 0 0 0 0 103.08353112760713 -1350.1422141602707 0 -1350.1422141602707 2445.0804007365878 0 0 0 0 250.82224738232716 -1110.4047857046971 0 -1110.4047857046971 2824.7771690129448 0 0 0 0 317.05957221407215 -1492.3533013055385 0 -1492.3533013055385 2086.886342374346 0 0 0 0 148.03479350961402 -1406.2750248015727 0 -1406.2750248015727 2465.5794454864754 0 0 0 0 371.1418822543435 -1100.2825022392317 0 -1100.2825022392317 2018.1497245344071 0 0 0 0 559.02404616151182 -1161.4171246568621 0 -1161.4171246568621 921.36135915839986 0 0 0 0 337.84957038815247 -1678.9170624893304 0 -1678.9170624893304 1730.5730828067899 0 0 0 0 342.1689230641191 -1173.6905593387637 0 -1173.6905593387637 2593.0016118124913 0 0 0 0 515.43848879662255 -1465.9365624325583 0 -1465.9365624325583 2257.1530865502136 0 0 0 0 441.63853403380381 -1361.0065066162679 0 -1361.0065066162679 2109.4445338214864 0 0 0 0 462.74385060914813 -1192.8086356302229 0 -1192.8086356302229 2164.5117655342765 0 0 0 0 321.39608185579078 -1126.621592441621 0 -1126.621592441621 2133.7746184561402 0 0 0 0 492.37347146275005 -1086.9664335070438 0 -1086.9664335070438 1798.7597626495553 0 0 0 0 663.18475242472527 -1387.1546602080052 0 -1387.1546602080052 1924.2383263973607 0 0 0 0 659.97079554064658 -1351.5920354500731 0 -1351.5920354500731 1579.2099682738772 0 0 0 0 60.75492027026371 112.34871587797215 0 112.34871587797215 26.948412855890638 0 0 0 0 629.25131893203297 -1100.1403162233619 0 -1100.1403162233619 1750.2987215276444 0 0 0 0 675.80227515099318 -1146.3886503559152 0 -1146.3886503559152 1776.4388626629516 0 0 0 0 5.6859152719335162 10.253169568936425 0 10.253169568936425 -6.1715021196129101 0 0 0 0 287.8767400471711 -1827.5987730680154 0 -1827.5987730680154 3098.2786431793138 0 0 0 0 410.82715288420741 -175.8681702032427 0 -175.8681702032427 4198.7543961435586 0 0 0 0 807.53537256813058 -341.20512010966195 0 -341.20512010966195 3279.9257679258553 0 0 0 0 134.61931378184903 -511.63531434215656 0 -511.63531434215656 3889.2874179924256 0 0 0 0 1256.8776449634627 74.175450017290132 0 74.175450017290132 3642.6725890991402 0 0 0 0 247.25778416375744 121.79331670751708 0 121.79331670751708 3355.5650031853729 0 0 0 0 -193.77179642121936 223.94580952310389 0 223.94580952310389 4501.5039735280297 0 0 0 0 212.59386903220511 -482.43289314233334 0 -482.43289314233334 2172.9200701824648 0 0 0 0 -61.893679399597431 148.17393374754829 0 148.17393374754829 1354.0635378495463 0 0 0 0 123.1486346906907 -392.01368827776969 0 -392.01368827776969 2674.4958145785786 0 0 0 0 -639.09235151249618 1139.0750864055626 0 1139.0750864055626 2781.2070333771881 0 0 0 0 -914.17260680829531 1171.3353429547415 0 1171.3353429547415 4490.0806573192458 0 0 0 0 -479.09921324656943 2326.5655874867316 0 2326.5655874867316 1503.2652897625885 0 0 0 0 -0.25937193141178927 -2.2248914646082234 0 -2.2248914646082234 28.367466934994013 0 0 0 0 -575.4395671319179 -745.17347549984606 0 -745.17347549984606 485.18262847710866 0 0 0 0 170.67879858591775 -611.75510834708621 0 -611.75510834708621 1639.3819124061065 0 0 0 0 -152.56354340726341 -241.21722365979076 0 -241.21722365979076 1492.5175814647519 0 0 0 0 63.836855431806953 -306.82187951373635 0 -306.82187951373635 472.09243119791063 0 0 0 0 -367.85407050157846 333.01986534645403 0 333.01986534645403 545.31048692912827 0 0 0 0 -51.755398491150821 84.671260139185534 0 84.671260139185534 19.788569801810883 0 0 0 0 -83.143399012800728 114.92475287506386 0 114.92475287506386 228.03605552409135 0 0 0 0 33.545233319490876 341.75804155344849 0 341.75804155344849 471.43575110090751 0 0 0 0 -500.94894859632876 261.25636652817411 0 261.25636652817411 1329.2589416773117 0 0 0 0 -47.901872885212519 80.577490029105036 0 80.577490029105036 35.623930093567878 0 0 0 0 557.91302807279544 149.65609193026467 0 149.65609193026467 -36.305821661114351 0 0 0 0 -6.7399846973939255 7.9683055693883986 0 7.9683055693883986 38.001441444361262 0 0 0 0 1710.8499290543393 -1036.4410962837537 0 -1036.4410962837537 804.47440572578489 0 0 0 0 -59.802883343669123 716.39764931414811 0 716.39764931414811 2369.1139019856273 0 0 0 0 144.50034142106767 -1278.7978602701332 0 -1278.7978602701332 3520.8463365863954 0 0 0 0 -247.1081413209433 -385.79039096525048 0 -385.79039096525048 2645.3676410054541 0 0 0 0 1519.1893799519573 -857.70428032224299 0 -857.70428032224299 3391.4713926248223 0 0 0 0 51.34107890799983 -1243.7168515519443 0 -1243.7168515519443 3527.5992469638659 0 0 0 0 577.34263246839964 -492.29656269499355 0 -492.29656269499355 4497.9580972765252 0 0 0 0 -85.82407294209348 -1115.3027113532826 0 -1115.3027113532826 4501.2036630832954 0 0 0 0 -234.56757013641032 -1497.8747705176502 0 -1497.8747705176502 2783.9662438471278 0 0 0 0 -258.22834120801275 -1646.0729735862406 0 -1646.0729735862406 3639.9049441364987 0 0 0 0 421.56273794728935 -1532.5302562695142 0 -1532.5302562695142 2125.9714208115001 0 0 0 0 142.94145654547185 -797.98404839565228 0 -797.98404839565228 1145.9012175362732 0 0 0 0 -100.35904181705395 -2236.7792174637689 0 -2236.7792174637689 4491.1680052292068 0 0 0 0 1412.8543922562822 -2529.7137029161604 0 -2529.7137029161604 2349.5830204782033 0 0 0 0 1552.0926910667358 -1173.7032657164527 0 -1173.7032657164527 379.43642527839984 0 0 0 0 681.1705086146012 -221.41800585090095 0 -221.41800585090095 -452.42879928013281 0 0 0 0 14.434468980254474 -9.5655000997343933 0 -9.5655000997343933 10.915810138031532 0 0 0 0 -45.674510780813435 1508.0775368917602 0 1508.0775368917602 4497.4587105462197 0 0 0 0 -59.973626813182818 -45.521548515022005 0 -45.521548515022005 -12.316456555803597 0 0 0 0 -383.20346913651747 -244.57288824347052 0 -244.57288824347052 460.21137963484216 0 0 0 0 -344.77526217084778 93.861900237774535 0 93.861900237774535 353.63862922495355 0 0 0 0 46.150642058283665 198.94077967014164 0 198.94077967014164 397.44026893185469 0 0 0 0 779.79656236529854 -642.07394469206338 0 -642.07394469206338 670.6833814754209 0 0 0 0 -8.5719567838092132 1.1122794468139006 0 1.1122794468139006 0.30023557468506112 0 0 0 0 -658.66640307192415 233.92151864930929 0 233.92151864930929 842.34447746992191 0 0 0 0 47.977864008359575 733.66078898893284 0 733.66078898893284 -348.18706488507451 0 0 0 0 -254.5670392262009 -195.44381879568391 0 -195.44381879568391 1033.4019669229747 0 0 0 0 -400.89746715683793 -576.61609937208232 0 -576.61609937208232 897.25670101502328 0 0 0 0 -22.126247203817911 109.78775159762881 0 109.78775159762881 74.682285579054223 0 0 0 0 -60.025064864533476 81.388466247539128 0 81.388466247539128 36.098092670104961 0 0 0 0 -122.26029927721902 -240.61423466724955 0 -240.61423466724955 822.435220342908 0 0 0 0 -76.700916062146007 -55.063331205041322 0 -55.063331205041322 1039.4220808227938 0 0 0 0 -37.886232295529823 109.5966455432749 0 109.5966455432749 29.963362473299632 0 0 0 0 -98.372679862241966 135.75387573735497 0 135.75387573735497 93.325895718135143 0 0 0 0 1166.2331857897616 -43.568831954980851 0 -43.568831954980851 274.47759287097142 0 0 0 0 157.7183001487366 448.89550285810765 0 448.89550285810765 622.81724491012574 0 0 0 0 -20.887783456733327 52.763382723735369 0 52.763382723735369 15.844422183871387 0 0 0 0 468.28389921345615 -394.62951272429927 0 -394.62951272429927 846.76130474050296 0 0 0 0 -309.48176832143417 117.62673846168036 0 117.62673846168036 828.1404689208066 0 0 0 0 -195.96568076716983 25.307355796667252 0 25.307355796667252 411.51147790500545 0 0 0 0 -73.695805396254173 209.88877154132933 0 209.88877154132933 383.35088740655192 0 0 0 0 -142.15827336320578 96.511444841289631 0 96.511444841289631 481.706022086546 0 0 0 0 -19.260890471067782 -42.54901560268263 0 -42.54901560268263 48.324271219067398 0 0 0 0 11.485126619719267 27.125716264134098 0 27.125716264134098 152.24864936147787 0 0 0 0 -85.824721067934206 -228.61399522496868 0 -228.61399522496868 118.78123991152097 0 0 0 0 -212.03098169137365 -244.83642233291175 0 -244.83642233291175 558.72205154799667 0 0 0 0 21.179958907331198 12.316262770401025 0 12.316262770401025 44.184332645447455 0 0 0 0 114.46108953326893 231.10901913126872 0 231.10901913126872 301.81449579122727 0 0 0 0 -377.87881677429141 -192.88909121832512 0 -192.88909121832512 49.045196838575066 0 0 0 0 -349.92596129916274 23.219463871320841 0 23.219463871320841 43.551660763485415 0 0 0 0 32.759623855756388 -29.875876413362391 0 -29.875876413362391 25.1765036535175 0 0 0 0 -24.874709195141293 -11.44230850380545 0 -11.44230850380545 16.680900384849096 0 0 0 0 199.20173778839393 -560.7101316941189 0 -560.7101316941189 2111.9990613919217 0 0 0 0 -40.726844512507661 892.68953330915974 0 892.68953330915974 2813.9611337401147 0 0 0 0 6.7055639035941113 -184.58308934752131 0 -184.58308934752131 4478.1967734682694 0 0 0 0 22.8211824773974 44.148504232121923 0 44.148504232121923 69.066538268743898 0 0 0 0 4.4309345539890366 2.4693650627173156 0 2.4693650627173156 15.995422676117911 0 0 0 0 -35.028845895448555 -159.99634580641577 0 -159.99634580641577 4499.0885369740208 0 0 0 0 13.553054557560198 -235.4694193503592 0 -235.4694193503592 3125.2414484422479 0 0 0 0 28.692482284476579 21.928701088436327 0 21.928701088436327 24.499779574187471 0 0 0 0 -161.80613775012353 49.163244248484261 0 49.163244248484261 100.89389384019887 0 0 0 0 1913.0930654915935 373.40486151388177 0 373.40486151388177 -315.23699819543981 0 0 0 0 12.869712058668046 6.0526241161085466 0 6.0526241161085466 8.1837513029229569 0 0 0 0 145.67057255323331 -1546.2792415453732 0 -1546.2792415453732 4498.0327159838198 0 0 0 0 -218.07474010619092 141.67736935760513 0 141.67736935760513 556.38231865629496 0 0 0 0 1069.2347786622604 14.98290111006645 0 14.98290111006645 15.194326399338024 0 0 0 0 -9.9605032087741101 -20.17056127437283 0 -20.17056127437283 17.302483786847546 0 0 0 0 -12.932586641070209 -12.227939162872957 0 -12.227939162872957 26.629742979689183 0 0 0 0 27.280854850302603 9.6524422991933534 0 9.6524422991933534 129.90630252943811 0 0 0 0 -211.8523669159417 1727.2773871156423 0 1727.2773871156423 4493.1891969875142 0 0 0 0 1938.8731098674255 2543.5398259977246 0 2543.5398259977246 1517.557372807918 0 0 0 0 -82.398725080616401 958.2313234844878 0 958.2313234844878 1917.9415228183498 0 0 0 0 345.03124158130782 516.41029735596385 0 516.41029735596385 933.00529505502345 0 0 0 0 13.465857347090321 47.191441145991121 0 47.191441145991121 211.56713732876233 0 0 0 0 -8.7546435379267162 -13.475780163672795 0 -13.475780163672795 35.461122919657328 0 0 0 0 21.388463279829011 59.934253530445858 0 59.934253530445858 190.53460139187519 0 0 0 0 -2.5886676457640414 -0.081077711599562008 0 -0.081077711599562008 14.583995335480466 0 0 0 0 17.3402225427958 46.351257505637477 0 46.351257505637477 169.04098819522915 0 0 0 0 12.532876122207458 53.476685733755914 0 53.476685733755914 23.149471054636706 0 0 0 0 15.304310881195761 85.393712324941589 0 85.393712324941589 198.95801577901148 0 0 0 0 79.68635887522305 -10.610722866447759 0 -10.610722866447759 -146.70847744199273 0 0 0 0 -16.538964721152951 17.512543371823597 0 17.512543371823597 29.818643829854864 0 0 0 0 9.8264089030816422 58.91628725708506 0 58.91628725708506 147.27712139750656 0 0 0 0 -7.7299361510144591 4.1307960594778876 0 4.1307960594778876 -6.5293081161163684 0 0 0 0 -66.370596321718722 16.518008087055932 0 16.518008087055932 464.13652266532154 0 0 0 0 -16.666135155900982 111.98903323475193 0 111.98903323475193 38.02368075923691 0 0 0 0 11.285947778244974 63.216184868662822 0 63.216184868662822 234.23914678246365 0 0 0 0 -10.259350216380199 37.220630604912003 0 37.220630604912003 181.8149191070479 0 0 0 0 -17.44552406595577 -37.982995780328153 0 -37.982995780328153 84.291296013495696 0 0 0 0 -5.0186124680110424 31.247652592424856 0 31.247652592424856 179.60048558555718 0 0 0 0 51.889473759548309 172.84003331035638 0 172.84003331035638 -61.521894439343669 0 0 0 0 -25.36952601532289 109.7025971478979 0 109.7025971478979 -29.023382614934235 0 0 0 0 -60.420626288447238 205.5012944124901 0 205.5012944124901 4.9271508343954338 0 0 0 0 124.84428146631899 201.51969372288659 0 201.51969372288659 -9.4270244699146133 0 0 0 0 72.790507487282412 125.09819415381935 0 125.09819415381935 105.16671421310457 0 0 0 0 190.85314097448645 142.57841512621962 0 142.57841512621962 -24.388935314840637 0 0 0 0 291.31850277914236 165.4836733808188 0 165.4836733808188 91.18146150141547 0 0 0 0 -158.26450712700262 280.98156083447248 0 280.98156083447248 164.2613228528935 0 0 0 0 14.042747133754604 -162.76675662586399 0 -162.76675662586399 -16.522723356771166 0 0 0 0 72.013736343036612 -9.9229243327354197 0 -9.9229243327354197 70.664017838578729 0 0 0 0 25.787598489032916 99.91041504793975 0 99.91041504793975 -21.100739962836087 0 0 0 0 67.497156611433525 -15.340045316144824 0 -15.340045316144824 119.46594974052277 0 0 0 0 183.13627409168885 -69.509652639630076 0 -69.509652639630076 402.23961549258092 0 0 0 0 202.96309084592531 45.610075451855664 0 45.610075451855664 138.30065841090982 0 0 0 0 127.93085813416332 -215.81967065502795 0 -215.81967065502795 423.64308092178544 0 0 0 0 1.8172162500258082 -105.14875029541872 0 -105.14875029541872 563.41668811637646 0 0 0 0 173.35933376279851 -275.71417725639549 0 -275.71417725639549 687.65110961918253 0 0 0 0 -20.4607080314874 -165.68120910736616 0 -165.68120910736616 952.59542448128923 0 0 0 0 163.09587694983418 -313.01381573272374 0 -313.01381573272374 997.91193112017936 0 0 0 0 557.61141040528605 -109.75006869152276 0 -109.75006869152276 390.52825606307306 0 0 0 0 124.25944135277081 -412.18656056558029 0 -412.18656056558029 1649.5404329659214 0 0 0 0 152.52194090562466 -208.29004507656646 0 -208.29004507656646 962.97262555211637 0 0 0 0 152.07355933445638 -98.815702058767783 0 -98.815702058767783 1009.8107323777422 0 0 0 0 231.67670095653102 -100.66010479231045 0 -100.66010479231045 453.66117396981281 0 0 0 0 319.00864349721974 114.72058018096868 0 114.72058018096868 6.8788139274402056 0 0 0 0 215.93056556725787 51.468030567306414 0 51.468030567306414 694.90650447983353 0 0 0 0 1089.0507890745198 -194.79526304795581 0 -194.79526304795581 713.74575148901567 0 0 0 0 -776.09480507179705 -523.65506169699802 0 -523.65506169699802 817.5708783631344 0 0 0 0 -107.7007376821748 419.39400071756972 0 419.39400071756972 161.57400828197569 0 0 0 0 -0.04226138249349809 1.0696425624448764 0 1.0696425624448764 15.158389708312654 0 0 0 0 1383.6119876958001 1151.2973883223603 0 1151.2973883223603 729.54738094467757 0 0 0 0 -53.238634240320607 334.20930163653247 0 334.20930163653247 405.97661918648373 0 0 0 0 -477.93501171676508 155.1588263574813 0 155.1588263574813 714.38802402192232 0 0 0 0 -274.98625210667387 237.48694840589633 0 237.48694840589633 416.26047291315626 0 0 0 0 -52.973120616361484 317.20566332386079 0 317.20566332386079 381.88650453090668 0 0 0 0 40.800961761098279 172.31379712376111 0 172.31379712376111 164.95708727596502 0 0 0 0 -52.532781481086204 305.04415811681974 0 305.04415811681974 398.91595987345136 0 0 0 0 -224.14793640735934 156.54047039889701 0 156.54047039889701 284.03273690375499 0 0 0 0 -72.92274136031574 142.40054334143861 0 142.40054334143861 284.96155000008002 0 0 0 0 -13.860379179802257 22.476802326136557 0 22.476802326136557 60.334596622635274 0 0 0 0 -12.679471213794386 151.68424484510615 0 151.68424484510615 164.06266737217084 0 0 0 0 -245.49590817366902 212.93931173148485 0 212.93931173148485 73.521338960636058 0 0 0 0 -183.25162244010335 90.720741722223465 0 90.720741722223465 -26.509848690700892 0 0 0 0 -889.13213731232531 200.5361494391309 0 200.5361494391309 305.21967003305326 0 0 0 0 405.70652761181373 436.9350232939978 0 436.9350232939978 295.87932848554192 0 0 0 0 0.60750250264465677 -1.1885503555022012 0 -1.1885503555022012 38.76911818018317 0 0 0 0 1.1919461378623617 155.0860081775063 0 155.0860081775063 3248.2940921334448 0 0 0 0 -289.03188520407508 574.27450144429349 0 574.27450144429349 4496.9459320546594 0 0 0 0 270.82976002497708 283.51072746847603 0 283.51072746847603 2601.9948463225301 0 0 0 0 375.06571053269192 888.27456740529306 0 888.27456740529306 3518.0825462879111 0 0 0 0 -43.170873507114422 1185.5729575625883 0 1185.5729575625883 3466.6120037246237 0 0 0 0 342.6718646310909 1370.2710673170659 0 1370.2710673170659 1346.2909858658822 0 0 0 0 302.70243928594863 249.16326799793023 0 249.16326799793023 2339.5174738899441 0 0 0 0 237.37291016865439 -224.62680812916369 0 -224.62680812916369 2203.3661577288585 0 0 0 0 326.2395669857143 197.3824845192612 0 197.3824845192612 2039.47872592973 0 0 0 0 408.65909213980592 -22.487172492557875 0 -22.487172492557875 699.50662610394647 0 0 0 0 549.66152738496373 348.86889143052395 0 348.86889143052395 1476.5478645778785 0 0 0 0 -62.472554361975199 112.27055983548053 0 112.27055983548053 405.4359563679136 0 0 0 0 -101.41422753447159 20.450887375307502 0 20.450887375307502 1152.1619758175802 0 0 0 0 -371.23623006370963 -22.323066681979981 0 -22.323066681979981 240.25436805393838 0 0 0 0 -319.09406189219476 243.97708099432202 0 243.97708099432202 495.85981766237455 0 0 0 0 -234.43596866190285 416.67643404340379 0 416.67643404340379 -145.25002863211557 0 0 0 0 3.7883920827846191 8.0383844572035343 0 8.0383844572035343 5.182924764196926 0 0 0 0 365.02280055338781 748.85585875124161 0 748.85585875124161 -1291.3592688361678 0 0 0 0 59.89821038857292 939.12899561126687 0 939.12899561126687 5791.5769051005045 0 0 0 0 -73.663786025354355 516.72150403558589 0 516.72150403558589 4501.7738078171169 0 0 0 0 -186.73323826332421 1030.1428399836677 0 1030.1428399836677 2515.4928079936144 0 0 0 0 -229.69073639566329 786.37199509852508 0 786.37199509852508 4142.8888933102426 0 0 0 0 159.27318594513238 915.13279224161306 0 915.13279224161306 2519.5172603171814 0 0 0 0 -69.575007075083704 97.904669612224097 0 97.904669612224097 128.6636379158881 0 0 0 0 7.9149845363843276 29.060165733666452 0 29.060165733666452 18.638981958741816 0 0 0 0 10.132335351357142 37.349914054531837 0 37.349914054531837 102.49175928857585 0 0 0 0 24.654952282183785 48.450616176203766 0 48.450616176203766 143.4591194785171 0 0 0 0 7.849766940213101 21.704088151876022 0 21.704088151876022 8.3953239365307226 0 0 0 0 -196.40374329459746 133.41391644668329 0 133.41391644668329 314.18860268984281 0 0 0 0 -160.9403601703637 51.194544678834063 0 51.194544678834063 162.40044715057593 0 0 0 0 -35.820030059025157 89.783192485687323 0 89.783192485687323 134.36619799363143 0 0 0 0 -30.074040031891855 30.247671457371325 0 30.247671457371325 144.31923854451452 0 0 0 0 -222.79497468471573 -135.53871583156433 0 -135.53871583156433 17.649639132854645 0 0 0 0 -3.0957628710673384 0.96962492218716534 0 0.96962492218716534 0.40848406329274667 0 0 0 0 -76.206710842312589 -139.07973678525741 0 -139.07973678525741 496.15921133029042 0 0 0 0 43.724855655437921 -270.66313117495883 0 -270.66313117495883 608.20339907649031 0 0 0 0 -97.409088483354495 -105.85506893755883 0 -105.85506893755883 487.08341773785651 0 0 0 0 -87.112555781037088 -166.6764652122074 0 -166.6764652122074 749.80966063788219 0 0 0 0 10.87902609250753 -262.67373665433843 0 -262.67373665433843 817.75283804998617 0 0 0 0 -26.62711867320246 -85.941981301584747 0 -85.941981301584747 977.13035810661677 0 0 0 0 -46.233975249085802 -195.29616410098242 0 -195.29616410098242 1130.299634790601 0 0 0 0 10.610701613540641 -203.02087812026002 0 -203.02087812026002 757.32051846404943 0 0 0 0 -107.17651293826518 -329.28221540248614 0 -329.28221540248614 759.14928695344133 0 0 0 0 -28.291270732577459 -364.47328228288097 0 -364.47328228288097 743.94054673559549 0 0 0 0 -13.265446332678039 -398.71557612680044 0 -398.71557612680044 612.4072166053229 0 0 0 0 8.6253646826474899 -1.1675597461604923 0 -1.1675597461604923 1.3362607084348035 0 0 0 0 242.79396310095672 -317.95391630435188 0 -317.95391630435188 617.10507491065073 0 0 0 0 80.778652500296459 -230.6160028068407 0 -230.6160028068407 586.67324935667421 0 0 0 0 255.8304739918251 -515.67391114436759 0 -515.67391114436759 216.93612977072189 0 0 0 0 289.19804973455075 -438.60495791366702 0 -438.60495791366702 350.49589353628107 0 0 0 0 227.8705380318093 -599.46280652684072 0 -599.46280652684072 526.30171963007888 0 0 0 0 213.47184115031075 -527.88494502300819 0 -527.88494502300819 346.7178666323889 0 0 0 0 156.58403097624864 -687.48757861772901 0 -687.48757861772901 747.0429433893878 0 0 0 0 94.784812294361927 -555.66010877303779 0 -555.66010877303779 607.76431775309902 0 0 0 0 223.75555041042685 -610.03923710317031 0 -610.03923710317031 555.67203645373229 0 0 0 0 108.29566023161919 -611.31965279656288 0 -611.31965279656288 1083.017916320212 0 0 0 0 -3.4669992086642196 -440.01327035750728 0 -440.01327035750728 827.53349873403931 0 0 0 0 206.3259911473142 -274.40126784154563 0 -274.40126784154563 953.05116415589873 0 0 0 0 -93.875641474974259 -530.89644292898447 0 -530.89644292898447 742.1484326756472 0 0 0 0 -400.99571300805451 -280.93784180717194 0 -280.93784180717194 734.56195022530483 0 0 0 0 -15.398979942822507 -194.01454833849857 0 -194.01454833849857 536.87557962253049 0 0 0 0 -377.6412516371625 52.347765815531602 0 52.347765815531602 783.66305950694368 0 0 0 0 -29.476787791528636 -275.81623354330804 0 -275.81623354330804 1084.5083469696692 0 0 0 0 108.61611669089757 -374.84131516457273 0 -374.84131516457273 1069.3789321210061 0 0 0 0 602.96403889773046 -509.55038107736618 0 -509.55038107736618 1179.5807167601652 0 0 0 0 358.15878090416572 -171.34723067969026 0 -171.34723067969026 877.62518098199507 0 0 0 0 472.73267913308405 -285.7492228437186 0 -285.7492228437186 1195.8121743292504 0 0 0 0 357.86384762444203 -203.41459818939325 0 -203.41459818939325 1175.8472129816946 0 0 0 0 496.19576410383036 -185.48977897230361 0 -185.48977897230361 1623.7719265182386 0 0 0 0 475.65937050811141 -332.4280368143809 0 -332.4280368143809 1624.6126311409171 0 0 0 0 570.62989835435519 -559.49804148280236 0 -559.49804148280236 1190.9156260624295 0 0 0 0 396.38925811798157 -550.85052828070911 0 -550.85052828070911 1297.1324655379285 0 0 0 0 582.71155183083101 -597.39294931014592 0 -597.39294931014592 1308.5195352130395 0 0 0 0 457.40112837696961 -649.90771589695942 0 -649.90771589695942 1253.4749908122976 0 0 0 0 577.59209906906563 -771.15948746973299 0 -771.15948746973299 1279.4701873952872 0 0 0 0 373.49937314193795 -542.03350084894828 0 -542.03350084894828 1371.5761904207757 0 0 0 0 383.44159010220278 -715.54834578759619 0 -715.54834578759619 1272.0047489638091 0 0 0 0 71.525586079857135 -636.09406397298153 0 -636.09406397298153 1343.0553154720983 0 0 0 0 -31.359331298684083 -142.5083381908189 0 -142.5083381908189 1057.8746321671852 0 0 0 0 347.07543214800558 -776.79485530106467 0 -776.79485530106467 1111.8962537436746 0 0 0 0 253.18577378649684 -479.65686338931846 0 -479.65686338931846 1348.2023767521823 0 0 0 0 1068.3903548581875 -689.63614985760069 0 -689.63614985760069 1155.3962604276603 0 0 0 0 926.16768838244388 -349.05496909379144 0 -349.05496909379144 -34.253261046949774 0 0 0 0 698.08991484733951 -1483.0952608455846 0 -1483.0952608455846 2838.4013922319864 0 0 0 0 2349.928568462803 -1652.5688390832511 0 -1652.5688390832511 57.160960097360658 0 0 0 0 549.03473858796951 -928.13054008383187 0 -928.13054008383187 1151.1881787348539 0 0 0 0 572.46249264070593 -792.87113132959348 0 -792.87113132959348 1247.9485816422384 0 0 0 0 721.95778484930634 -261.6881502000324 0 -261.6881502000324 1698.98625513562 0 0 0 0 651.6704739672341 -453.24214031721203 0 -453.24214031721203 1194.7700051761931 0 0 0 0 995.95368105032867 65.847677090787329 0 65.847677090787329 2003.4122206694738 0 0 0 0 1372.8284021590998 -227.14098690249375 0 -227.14098690249375 1412.7193017201498 0 0 0 0 1014.3700908655555 -584.55084046823322 0 -584.55084046823322 1168.6848868593224 0 0 0 0 663.97958529334505 -517.49326655243931 0 -517.49326655243931 1160.5045349993743 0 0 0 0 985.02207654202175 -564.48902004674892 0 -564.48902004674892 1155.4077570623485 0 0 0 0 610.04280572800872 -562.4920797496452 0 -562.4920797496452 1167.4796143081185 0 0 0 0 419.60566740687841 -287.04362652842246 0 -287.04362652842246 1270.8079613827285 0 0 0 0 381.26554632577154 -407.13010617801046 0 -407.13010617801046 972.3661289368174 0 0 0 0 259.51558336468952 -528.58895673928782 0 -528.58895673928782 1026.1444834334543 0 0 0 0 259.14060114254744 -524.13570094184252 0 -524.13570094184252 1485.9864507837628 0 0 0 0 397.14737317488198 -809.32264328445308 0 -809.32264328445308 908.06661362585146 0 0 0 0 264.03619399782701 -725.16017119219759 0 -725.16017119219759 857.27389819381642 0 0 0 0 310.39569087383779 -706.84593013483391 0 -706.84593013483391 977.76413662283449 0 0 0 0 468.69512153274718 -563.39588002605888 0 -563.39588002605888 379.2791688060388 0 0 0 0 431.03703715557549 -315.04914965636272 0 -315.04914965636272 341.2663825864438 0 0 0 0 1024.822320800542 -201.238924655132 0 -201.238924655132 -216.99562283420528 0 0 0 0 1251.9468857377308 -1053.0331894880364 0 -1053.0331894880364 739.46023506077472 0 0 0 0 665.14394784075103 -856.92028555375873 0 -856.92028555375873 748.4821728291281 0 0 0 0 602.04066010492716 -499.94263920094818 0 -499.94263920094818 340.12240315976669 0 0 0 0 718.95398992134506 -475.21889296687732 0 -475.21889296687732 243.19678202521754 0 0 0 0 372.7420635282719 -219.64752650365153 0 -219.64752650365153 162.0968951677205 0 0 0 0 426.99354520834055 -583.46386237577644 0 -583.46386237577644 369.99096014891984 0 0 0 0 295.1744031106 -437.76592872623587 0 -437.76592872623587 249.21264565549791 0 0 0 0 231.27347481187917 -662.63558661611751 0 -662.63558661611751 535.46180311591161 0 0 0 0 103.51737411053728 40.750991122451524 0 40.750991122451524 25.921611471887445 0 0 0 0 -11.768004237529471 -10.111144286579872 0 -10.111144286579872 -4.557280254468651 0 0 0 0 -92.088748856998336 -375.0812125451921 0 -375.0812125451921 362.91501720675296 0 0 0 0 87.778022816987459 -576.81197823527327 0 -576.81197823527327 343.80261267731839 0 0 0 0 -140.0955205410778 -34.069217334865243 0 -34.069217334865243 142.39760898920213 0 0 0 0 -141.06640204429459 25.086897222921834 0 25.086897222921834 109.44929747701099 0 0 0 0 3.5706504440105276 10.805157604911116 0 10.805157604911116 30.5044744297698 0 0 0 0 -53.454533880467807 -85.606544600435882 0 -85.606544600435882 116.26684037454834 0 0 0 0 4.98515388652703 25.77160673369508 0 25.77160673369508 2.1309778413415188 0 0 0 0 22.430982967832279 -0.17333250855153892 0 -0.17333250855153892 -7.1011238768987823 0 0 0 0 -2.7644645800996344 0.011901173427673939 0 0.011901173427673939 21.86348042691003 0 0 0 0 -11.502684950578868 -0.2751922660463606 0 -0.2751922660463606 19.75466933241114 0 0 0 0 -11.527411153361443 2.0413319523804461 0 2.0413319523804461 30.013547742418154 0 0 0 0 -11.555229412885183 -1.0584447339351755 0 -1.0584447339351755 20.382159365108237 0 0 0 0 -10.168284131227665 -2.3270835637522396 0 -2.3270835637522396 20.298758489441752 0 0 0 0 -14.503208940927378 -3.9547506845816542 0 -3.9547506845816542 22.071048645468181 0 0 0 0 -9.9027932293474237 -1.2412701929642935 0 -1.2412701929642935 18.26696339820046 0 0 0 0 549.36518298001101 -258.17882153231767 0 -258.17882153231767 -36.482159536208201 0 0 0 0 441.07560047279367 -363.00076007976895 0 -363.00076007976895 118.19028752110898 0 0 0 0 176.68787104895819 18.7814006585686 0 18.7814006585686 42.901372999651358 0 0 0 0 -4.2452073872404856 0.93009064528095564 0 0.93009064528095564 -3.7620907421518268 0 0 0 0 7.6940301851263069 -6.3100006853955506 0 -6.3100006853955506 5.9652391883724079 0 0 0 0 12.021504592044948 10.342611822299659 0 10.342611822299659 25.183373235864565 0 0 0 0 -21.642977574175347 52.299908086381038 0 52.299908086381038 44.521535075851716 0 0 0 0 -5.3933671150113476 2.2993798959941216 0 2.2993798959941216 23.484647976843803 0 0 0 0 -1.9589763268694151 2.7174792914579484 0 2.7174792914579484 12.77739618206499 0 0 0 0 -2.4796396196326249 19.640455973189091 0 19.640455973189091 41.251456859870814 0 0 0 0 3.0799548153236982 -1.6005449486068812 0 -1.6005449486068812 8.0493744557314812 0 0 0 0 -0.83649560413937252 -1.569366360155982 0 -1.569366360155982 10.949298131774412 0 0 0 0 4.6978544769623793 0.73495851787447464 0 0.73495851787447464 19.160725757537875 0 0 0 0 0.47430691343213471 1.2168675385328243 0 1.2168675385328243 19.579870862602547 0 0 0 0 -0.32464014016342835 0.73984493641646054 0 0.73984493641646054 4.9594873446396548 0 0 0 0 0.73518434661050813 0.52031916120678545 0 0.52031916120678545 12.320846231548899 0 0 0 0 -16.246623801884667 -6.4922362214856548 0 -6.4922362214856548 43.649609332454929 0 0 0 0 0.0025912249921503116 1.1557456361697405 0 1.1557456361697405 11.199249251607398 0 0 0 0 -5.5452114605261542 20.85095991815615 0 20.85095991815615 98.233706039536628 0 0 0 0 0.27251263817308297 -0.0083600346978869311 0 -0.0083600346978869311 -0.068723180619315372 0 0 0 0 -0.45855483124336871 3.9856026578854653 0 3.9856026578854653 18.470554331346648 0 0 0 0 1.3151840505865375 1.6421702506486326 0 1.6421702506486326 17.065469290086185 0 0 0 0 0.80226090320312116 -0.2063895340252202 0 -0.2063895340252202 18.358394693350419 0 0 0 0 -0.0023468884157490334 1.7163916185672861 0 1.7163916185672861 14.704337249801029 0 0 0 0 1.1054376297159942 2.3780935632967157 0 2.3780935632967157 20.665227317891549 0 0 0 0 0.77962826369444838 -0.45014245319134716 0 -0.45014245319134716 20.625240591383772 0 0 0 0 12.275491064867431 272.13176337048935 0 272.13176337048935 214.35697382554645 0 0 0 0 282.0187060021932 -626.28312982150237 0 -626.28312982150237 664.58721726213116 0 0 0 0 169.9557406677078 -716.78084539287374 0 -716.78084539287374 1423.0040489348175 0 0 0 0 0.29852365544976711 3.1254952357648733 0 3.1254952357648733 12.411315785503461 0 0 0 0 1.0546636133515197 1.6116636288732025 0 1.6116636288732025 0.17156705527389704 0 0 0 0 6.6249594846909758 -34.724958367762156 0 -34.724958367762156 1389.3576276469976 0 0 0 0 506.0305884569633 -363.18505556316813 0 -363.18505556316813 1358.7112570107802 0 0 0 0 307.46001827385351 -483.16983613152115 0 -483.16983613152115 1555.4330397697049 0 0 0 0 166.86628899267311 -553.35246255606762 0 -553.35246255606762 1502.4384515919082 0 0 0 0 318.49959482098876 -343.70054252677073 0 -343.70054252677073 1557.7881920775471 0 0 0 0 296.13487880074769 -526.26367575374024 0 -526.26367575374024 1800.1121095069684 0 0 0 0 216.86839638257837 -1000.676445461213 0 -1000.676445461213 3239.1408188450587 0 0 0 0 -0.26175173505950966 1.017015899855096 0 1.017015899855096 6.9940435913355827 0 0 0 0 -67.812018904011026 140.9801018640137 0 140.9801018640137 882.87755682491115 0 0 0 0 1.1342561043316339 -17.452256775002752 0 -17.452256775002752 1010.17151083098 0 0 0 0 -238.36901526589293 73.525684104104585 0 73.525684104104585 1020.7126711161691 0 0 0 0 -116.59538036643883 74.61902748036664 0 74.61902748036664 1017.1384867611268 0 0 0 0 57.493841577563529 377.93517347883244 0 377.93517347883244 770.90387019902118 0 0 0 0 -109.22506327312394 50.010597986872199 0 50.010597986872199 903.61910323190386 0 0 0 0 -120.30532090559795 150.42392019292038 0 150.42392019292038 1322.6834090354096 0 0 0 0 130.32658211056525 545.8147997934575 0 545.8147997934575 1143.1518450818767 0 0 0 0 -0.19640786749256142 -0.23605433867778913 0 -0.23605433867778913 4.061235485284385 0 0 0 0 -0.035113572101319671 -10.028722341521643 0 -10.028722341521643 -10.662796029559104 0 0 0 0 -8.3650627639383419 -3.4486805142805679 0 -3.4486805142805679 -5.90126149666321 0 0 0 0 0.058099535031522188 -16.006289196302962 0 -16.006289196302962 11.881615781079745 0 0 0 0 -16.18788467076272 -31.10905779443965 0 -31.10905779443965 23.224746285734 0 0 0 0 2.190370773720133 52.035285659323563 0 52.035285659323563 256.11247566359816 0 0 0 0 0.30143624559097654 -2.5069378286701749 0 -2.5069378286701749 6.7213227327590062 0 0 0 0 7.5510502665333483 9.018317238358577 0 9.018317238358577 1.5016175484342966 0 0 0 0 62.882351034375404 -40.044526785088237 0 -40.044526785088237 294.96605335997083 0 0 0 0 37.202172559043731 120.32110255399311 0 120.32110255399311 348.20791041061602 0 0 0 0 90.387218586871882 11.068031678041734 0 11.068031678041734 1.8270058462949237 0 0 0 0 -48.70779100857942 -14.340113526304776 0 -14.340113526304776 280.06535247594002 0 0 0 0 4.8382663228625074 10.270371163155957 0 10.270371163155957 20.832892544113577 0 0 0 0 34.51976494003361 -211.00944631710445 0 -211.00944631710445 138.91777868595091 0 0 0 0 -319.53328997366748 137.27856255680672 0 137.27856255680672 114.46969548924972 0 0 0 0 91.075094084268812 -15.097110058515682 0 -15.097110058515682 -42.196330936538288 0 0 0 0 375.59920144652267 472.38947182941047 0 472.38947182941047 34.921414262935286 0 0 0 0 -118.57436089362017 -161.2451918864499 0 -161.2451918864499 123.85340798809193 0 0 0 0 2.4772199782173705 4.2135111283245976 0 4.2135111283245976 8.2475115865448174 0 0 0 0 -46.53731244787329 -377.20790870709243 0 -377.20790870709243 1820.994001539264 0 0 0 0 -51.340147123814461 -188.13219071190542 0 -188.13219071190542 707.87076728825923 0 0 0 0 -237.25163962047313 94.90798472728784 0 94.90798472728784 1353.9780010535615 0 0 0 0 -101.88979884525739 133.27007977856556 0 133.27007977856556 825.73961861437419 0 0 0 0 -32.215865918509394 287.50392084239138 0 287.50392084239138 928.57831779238768 0 0 0 0 563.24793047203389 194.28906687368726 0 194.28906687368726 833.01136955354013 0 0 0 0 47.946833027145829 486.7829639006377 0 486.7829639006377 1335.3782224416645 0 0 0 0 385.34809195068402 -306.36256266292548 0 -306.36256266292548 1330.8920736405998 0 0 0 0 229.71442927084172 -46.26273581534042 0 -46.26273581534042 913.9759312396709 0 0 0 0 218.04282151144434 -55.946153049007989 0 -55.946153049007989 906.02825962659472 0 0 0 0 36.625619157412984 -488.89177745276538 0 -488.89177745276538 1236.3716169516338 0 0 0 0 292.82571162127715 -206.2154889247322 0 -206.2154889247322 1335.1728586175595 0 0 0 0 278.29994475221065 -8.1645445670437766 0 -8.1645445670437766 1032.6674246988405 0 0 0 0 225.2911150565651 -26.243129996495554 0 -26.243129996495554 1027.660954603256 0 0 0 0 225.94629747543513 -138.3418343403755 0 -138.3418343403755 1058.6217229768226 0 0 0 0 157.89764228351214 300.04707241943834 0 300.04707241943834 892.92780756787397 0 0 0 0 109.43631095265171 122.48268623538411 0 122.48268623538411 1301.1189320714329 0 0 0 0 106.27003611191927 230.99685676036324 0 230.99685676036324 816.43042564604548 0 0 0 0 -8.8202596360238203 369.05737270545796 0 369.05737270545796 970.39813964889618 0 0 0 0 165.23758730228292 325.89823699669796 0 325.89823699669796 790.44280767487362 0 0 0 0 191.52203462976081 696.51810022859718 0 696.51810022859718 963.67639899876667 0 0 0 0 14.287636854361153 233.61797002414824 0 233.61797002414824 1680.6044839777314 0 0 0 0 253.59226220581877 296.02982645654993 0 296.02982645654993 277.55121935457282 0 0 0 0 -83.332307900312571 239.10925965684874 0 239.10925965684874 355.54983793196152 0 0 0 0 -144.6737899165953 368.29312992292398 0 368.29312992292398 505.8167294835439 0 0 0 0 129.53069989813639 27.896762695905636 0 27.896762695905636 187.20871245814487 0 0 0 0 -1.849146285837119 -2.7267497193148813 0 -2.7267497193148813 -3.6771063517149969 0 0 0 0 361.08393054067187 -596.38901808427545 0 -596.38901808427545 359.95640163117787 0 0 0 0 -61.847086799498356 -31.150094621829339 0 -31.150094621829339 940.08310594852082 0 0 0 0 -24.815859658486261 -354.62411550301476 0 -354.62411550301476 1188.3109757980274 0 0 0 0 273.34387576498193 156.45140934060328 0 156.45140934060328 25.529752432274108 0 0 0 0 325.40813917081323 -61.600657040136866 0 -61.600657040136866 710.39087372930953 0 0 0 0 116.51771410989022 283.19794813168119 0 283.19794813168119 505.09179647033307 0 0 0 0 168.50656292450094 440.66774681464449 0 440.66774681464449 732.85301196645014 0 0 0 0 6.6036197331677613 478.47634618365555 0 478.47634618365555 795.72564035597316 0 0 0 0 113.4887431367822 284.7606083951805 0 284.7606083951805 1037.1574690307898 0 0 0 0 -325.56584443621432 95.307625309382274 0 95.307625309382274 976.13660294106739 0 0 0 0 -321.74179566063248 179.6799361087642 0 179.6799361087642 1557.5515274186037 0 0 0 0 22.769700790055218 0.088418719515203748 0 0.088418719515203748 2.0637813662687456 0 0 0 0 1917.7254115326778 -888.58784984363592 0 -888.58784984363592 633.21119882799758 0 0 0 0 -482.87893567798255 259.53151891877496 0 259.53151891877496 2057.923544094825 0 0 0 0 -317.66353197224043 849.27442502923077 0 849.27442502923077 1808.8946767863818 0 0 0 0 17.818993097679595 521.16494526439055 0 521.16494526439055 620.36805623254622 0 0 0 0 -229.30094836199351 815.72805947592133 0 815.72805947592133 1109.6935986600074 0 0 0 0 58.411867501738016 561.28001639900867 0 561.28001639900867 549.42539762819069 0 0 0 0 142.98186666917718 336.01265635479649 0 336.01265635479649 215.65277911865269 0 0 0 0 183.321932062624 352.73050422707456 0 352.73050422707456 655.71438725285407 0 0 0 0 138.89719237523423 370.24122209256166 0 370.24122209256166 657.49314027288347 0 0 0 0 58.873608072582101 131.5401092027023 0 131.5401092027023 644.59177992856712 0 0 0 0 216.01872665323754 74.406189118759357 0 74.406189118759357 600.09292979375095 0 0 0 0 208.84893744904616 172.20667372072057 0 172.20667372072057 847.2538507062709 0 0 0 0 432.33690903150818 -77.645445089176064 0 -77.645445089176064 843.49465803286284 0 0 0 0 137.29123507542522 -38.955006027743366 0 -38.955006027743366 1042.8425584838842 0 0 0 0 169.5430376833574 -335.84216126328101 0 -335.84216126328101 1062.9540239269772 0 0 0 0 85.092945786907876 -161.74660727910668 0 -161.74660727910668 556.33407321592676 0 0 0 0 140.5728867163557 -37.882728802684142 0 -37.882728802684142 810.1611920655705 0 0 0 0 170.08499255973402 -338.69714057943202 0 -338.69714057943202 655.39564276466263 0 0 0 0 11.700638186357537 -173.38855183329724 0 -173.38855183329724 627.25206392703694 0 0 0 0 -135.7734342107733 41.533890089071065 0 41.533890089071065 439.96735296602128 0 0 0 0 18.730772099487012 -159.84156330407859 0 -159.84156330407859 243.65588629228296 0 0 0 0 -6.6524403270868788 -14.95530796701496 0 -14.95530796701496 325.67638773870567 0 0 0 0 39.139466166874627 -186.83558714172977 0 -186.83558714172977 481.44790252117673 0 0 0 0 -18.583754516457702 -264.9263561758853 0 -264.9263561758853 453.99814459272602 0 0 0 0 -7.3218576997212494 -221.62735116010845 0 -221.62735116010845 534.37873856697115 0 0 0 0 7.9252977425667268 -168.77210296021076 0 -168.77210296021076 539.33426282406435 0 0 0 0 -100.72857335945992 -282.48767418330681 0 -282.48767418330681 494.76492896533455 0 0 0 0 93.329898092059011 -269.91563409165246 0 -269.91563409165246 452.17644963346538 0 0 0 0 39.141707904933355 -308.72110417527438 0 -308.72110417527438 463.47708143451018 0 0 0 0 338.96219634288627 -188.99881558834022 0 -188.99881558834022 85.456590462214081 0 0 0 0 252.19919937190389 -362.46766415872844 0 -362.46766415872844 445.92363304363971 0 0 0 0 97.831082217572202 -247.09210384721882 0 -247.09210384721882 562.92463992140256 0 0 0 0 283.69189927346633 -281.36646974009636 0 -281.36646974009636 355.1929553776863 0 0 0 0 380.84003340393247 -482.85177304699755 0 -482.85177304699755 623.31330635584891 0 0 0 0 446.03751106412346 -339.40880324234604 0 -339.40880324234604 172.69977395060414 0 0 0 0 55.063645195048593 -159.11919248578488 0 -159.11919248578488 350.99014648295633 0 0 0 0 141.7812230743566 -255.64671038217784 0 -255.64671038217784 344.13420947801205 0 0 0 0 34.711901685252087 -79.552731591102201 0 -79.552731591102201 3.4333581710525323 0 0 0 0 34.711901685332123 -79.552731591218617 0 -79.552731591218617 3.4333581709070131 0 0 0 0 -82.650580236956557 29.251494177849963 0 29.251494177849963 184.18352194607246 0 0 0 0 34.711901685306657 -79.552731591160409 0 -79.552731591160409 3.4333581710234284 0 0 0 0 669.76106856232082 -60.327531274531793 0 -60.327531274531793 -218.83030113715358 0 0 0 0 7.8566509885691787 -5.271000523163508 0 -5.271000523163508 -1.1874430461292036 0 0 0 0 -4.8668173318611778 -6.2993811258002381 0 -6.2993811258002381 0.73925015110643244 0 0 0 0 -20.441955883206901 120.75970661378233 0 120.75970661378233 182.0809215772897 0 0 0 0 46.551589208163932 -87.478233466943493 0 -87.478233466943493 79.900272577877331 0 0 0 0 -2.7496460888719554 -2.0214687687230537 0 -2.0214687687230537 -1.7309139012048149 0 0 0 0 -737.33526594221985 -489.47842582224985 0 -489.47842582224985 740.4491634779406 0 0 0 0 3.0897843545948369 -3.5487118054807354 0 -3.5487118054807354 -0.96624390996173304 0 0 0 0 107.18522247913279 -4.2253508522262564 0 -4.2253508522262564 -80.012544647092 0 0 0 0 -97.344868383842822 101.86621103031212 0 101.86621103031212 118.98532255986356 0 0 0 0 -163.06832100359406 72.710876168697723 0 72.710876168697723 10.455064138484886 0 0 0 0 -393.58745683347661 31.772736389219062 0 31.772736389219062 208.24872231605696 0 0 0 0 -76.018940168414701 -90.712152014224557 0 -90.712152014224557 100.80809697852237 0 0 0 0 -75.447054756471516 -114.75733957074408 0 -114.75733957074408 19.361718548723729 0 0 0 0 -33.118029161055915 -102.99335498700748 0 -102.99335498700748 15.001823667640565 0 0 0 0 -101.85660653512605 -43.889781692370889 0 -43.889781692370889 16.440691678231815 0 0 0 0 -38.561869559538195 -62.918795202135698 0 -62.918795202135698 -5.8713307371363044 0 0 0 0 -6.5949205603974406 -62.942759047204163 0 -62.942759047204163 -26.256140153753222 0 0 0 0 -16.674434517059126 -77.82671700976789 0 -77.82671700976789 -31.709687122220203 0 0 0 0 -0.34664905319186801 -84.006073671858758 0 -84.006073671858758 -34.329896215225745 0 0 0 0 -7.9979987240658375 -87.407402613192971 0 -87.407402613192971 -24.848219444655115 0 0 0 0 -87.203118208382875 -51.416732270037755 0 -51.416732270037755 -11.923518279567361 0 0 0 0 -27.097756439376099 -81.202353873966786 0 -81.202353873966786 -20.803613609197782 0 0 0 0 22.207035640667527 -99.514955784456106 0 -99.514955784456106 -26.240346060869342 0 0 0 0 -9.6249396487110062 -42.586214248178294 0 -42.586214248178294 -35.628137415435049 0 0 0 0 1.1916772721850073 -2.9426848696954124 0 -2.9426848696954124 6.5099971665679277 0 0 0 0 136.4280515272585 -81.531599550551618 0 -81.531599550551618 -25.638747182994848 0 0 0 0 106.86231305503225 173.06685300872778 0 173.06685300872778 87.329368961974978 0 0 0 0 143.65127564646173 -297.20002709592518 0 -297.20002709592518 85.318144432589179 0 0 0 0 -2.5837187577162388 0.57197363983343052 0 0.57197363983343052 14.424092633163013 0 0 0 0 19.196552496388904 20.626964547875104 0 20.626964547875104 -4.6209641255700262 0 0 0 0 -50.020490112643188 31.097644047476933 0 31.097644047476933 74.727066620544065 0 0 0 0 -17.869446206781504 95.301400705095148 0 95.301400705095148 40.253773232318053 0 0 0 0 66.714397946446638 41.626174499993795 0 41.626174499993795 62.142971677880269 0 0 0 0 5.2704814715973178 -9.7271523353665117 0 -9.7271523353665117 17.247729332278595 0 0 0 0 -90.058330644723355 -62.247224525352067 0 -62.247224525352067 2.7263554948149249 0 0 0 0 -12.061727417717975 67.236208822534536 0 67.236208822534536 89.423362539615482 0 0 0 0 -46.788683541042701 -27.094128286989871 0 -27.094128286989871 142.35124131134944 0 0 0 0 95.242204228259652 55.475395929388469 0 55.475395929388469 -37.817284703603946 0 0 0 0 -1.059018166724627 -1.2518829031178029 0 -1.2518829031178029 6.7077213007287355 0 0 0 0 -1.2358720797413767 0.21673043916440804 0 0.21673043916440804 5.8086971576904034 0 0 0 0 -25.302397839812329 49.127836641229806 0 49.127836641229806 276.24821856344352 0 0 0 0 -0.51941489809000263 0.30484243066058525 0 0.30484243066058525 1.8751205177647137 0 0 0 0 -2.971567269879416 -1.5450486248672632 0 -1.5450486248672632 2.1813426338381987 0 0 0 0 -0.90805313619762273 -2.863732748082839 0 -2.863732748082839 8.5015207213436952 0 0 0 0 -8.157406855192221 -5.2460049097353476 0 -5.2460049097353476 11.32417493822868 0 0 0 0 -11.658078083363762 -9.5373273481382057 0 -9.5373273481382057 12.556843907164875 0 0 0 0 -6.6763381642658715 -9.697672987516853 0 -9.697672987516853 10.765894132375252 0 0 0 0 -1.9598679985106173 -4.87440286695346 0 -4.87440286695346 10.199419619253604 0 0 0 0 4.5767302653601973 -19.920526820330451 0 -19.920526820330451 -8.8407231726450846 0 0 0 0 -21.69683648678074 -13.884478131512878 0 -13.884478131512878 10.046180827019271 0 0 0 0 -154.04082521329565 -67.188598668319173 0 -67.188598668319173 105.38211619103822 0 0 0 0 -3.4303391457811596 -3.1444553938872559 0 -3.1444553938872559 19.287138129498942 0 0 0 0 -21.184568880804591 -11.896771169322164 0 -11.896771169322164 15.313430395995965 0 0 0 0 -30.317854285691283 -13.470436858711764 0 -13.470436858711764 17.140815691906027 0 0 0 0 -19.212166180799613 54.307018840772798 0 54.307018840772798 -228.19920020701829 0 0 0 0 4.1080048818866999 6.8780777703505009 0 6.8780777703505009 14.565641644701827 0 0 0 0 1.7451958815143698 -2.2538396881481617 0 -2.2538396881481617 1.8499077945090789 0 0 0 0 426.11038920957412 -399.88463260302524 0 -399.88463260302524 324.83169549703598 0 0 0 0 21.366706651391723 -158.78452001244295 0 -158.78452001244295 366.5258944084635 0 0 0 0 0.4151158731760205 -1.3633485430767962 0 -1.3633485430767962 1.2812297352353426 0 0 0 0 -74.243986372988729 -12.07367218111176 0 -12.07367218111176 34.268973446800373 0 0 0 0 -37.228798598147478 106.52328557056899 0 106.52328557056899 -357.15474669612013 0 0 0 0 -2.9235650216360227 170.10458839224884 0 170.10458839224884 -671.90677120257169 0 0 0 0 -129.47912879347314 92.472340834981878 0 92.472340834981878 -24.423445002408698 0 0 0 0 -120.10508993152325 190.43357531930087 0 190.43357531930087 -15.374823258276592 0 0 0 0 -47.788030836356484 -23.350418605608866 0 -23.350418605608866 -316.55037933762651 0 0 0 0 -102.33025048076161 69.737005848699482 0 69.737005848699482 -302.93546536518261 0 0 0 0 -17.209605255132374 147.17617182030517 0 147.17617182030517 -267.14779490546789 0 0 0 0 -15.046640429583931 117.02863000170328 0 117.02863000170328 -506.39530304711661 0 0 0 0 1.8389238116398907 -3.6933846379720023 0 -3.6933846379720023 4.2457279093292755 0 0 0 0 -65.934530442904361 181.03784328617621 0 181.03784328617621 -68.409817415347788 0 0 0 0 146.98444907204521 -237.47243203035032 0 -237.47243203035032 360.15214473812375 0 0 0 0 -0.18690909376911335 -1.6612085554978933 0 -1.6612085554978933 4.0372884414872487 0 0 0 0 41.129780867316867 30.134230236159055 0 30.134230236159055 901.98285093424784 0 0 0 0 129.00682892702139 -68.435531047056429 0 -68.435531047056429 906.25609366230913 0 0 0 0 -20.230249608168378 24.356019498372916 0 24.356019498372916 3.4560117346736661 0 0 0 0 117.69434582761352 390.5762678342744 0 390.5762678342744 250.52833419732633 0 0 0 0 93.956388283134288 238.24962015978599 0 238.24962015978599 282.45763782353606 0 0 0 0 25.047210356322694 144.71178697078722 0 144.71178697078722 364.71277230141277 0 0 0 0 1.9558331656314749 238.36974839103641 0 238.36974839103641 831.13407289757743 0 0 0 0 -25.224193052854048 251.14936013374245 0 251.14936013374245 715.65942705651105 0 0 0 0 -15.619635203212921 143.48065099316591 0 143.48065099316591 395.07926773204235 0 0 0 0 77.337308450034698 25.579895986244082 0 25.579895986244082 151.0502990585228 0 0 0 0 58.014138647247862 117.0548318662768 0 117.0548318662768 5.1346337561262771 0 0 0 0 -73.061760430536992 63.387934101599967 0 63.387934101599967 141.55692073438695 0 0 0 0 -26.50995265249577 53.125899260558072 0 53.125899260558072 388.14605429972289 0 0 0 0 205.00293684772498 79.337590328897932 0 79.337590328897932 -80.983672403119272 0 0 0 0 8.5336404470999696 -116.38697816351487 0 -116.38697816351487 29.64564827029244 0 0 0 0 1.0865431725207264 -3.2359424433726645 0 -3.2359424433726645 5.4085513134609755 0 0 0 0 6.919450809447234 -2.5273432413860064 0 -2.5273432413860064 5.1608636668097461 0 0 0 0 1.0990918277049104 -6.8339666663741809 0 -6.8339666663741809 7.612901643908117 0 0 0 0 -0.59978067370008237 -1.1192137152258965 0 -1.1192137152258965 1.3431447112623118 0 0 0 0 -0.31409969451226516 -2.2477797381689015 0 -2.2477797381689015 6.2731541212415323 0 0 0 0 0.51802576912069753 -3.4834181506666937 0 -3.4834181506666937 6.5473674414824927 0 0 0 0 0.8544991512260367 -3.0490740375971654 0 -3.0490740375971654 6.3365776299178833 0 0 0 0 -5.2708101915540624 -36.858303235829226 0 -36.858303235829226 206.98280968003746 0 0 0 0 -0.58758855718819802 -0.12392912472338935 0 -0.12392912472338935 1.9136273009119122 0 0 0 0 8.0309642026106438 6.2519470677016216 0 6.2519470677016216 223.71573633255321 0 0 0 0 0.010121775756762666 0.17042534629649708 0 0.17042534629649708 1.9087294033029139 0 0 0 0 1.9490981161119008 -5.5303504413168412 0 -5.5303504413168412 10.772090890604886 0 0 0 0 1.2947836353156834 -2.875956543885934 0 -2.875956543885934 4.5742372829703868 0 0 0 0 0.062525709505636351 -0.51826466518011216 0 -0.51826466518011216 0.77431796311674361 0 0 0 0 19.734299214754053 10.089528869255446 0 10.089528869255446 2.3338098792883102 0 0 0 0 3.2139406636092005 -5.2200028961524367 0 -5.2200028961524367 8.6287210647424217 0 0 0 0 -3.4596895353615693 -28.168956884299405 0 -28.168956884299405 44.916665990604088 0 0 0 0 58.739596347264602 -50.875895003611504 0 -50.875895003611504 19.670771137520205 0 0 0 0 59.100599861888256 -17.925066830561263 0 -17.925066830561263 0.5883171691921234 0 0 0 0 0.13156958760256146 -0.41740845947663274 0 -0.41740845947663274 1.1932881602849079 0 0 0 0 -0.080263142908541446 -15.007056058413582 0 -15.007056058413582 157.03008202373167 0 0 0 0 17.616821339085348 -71.088233349451912 0 -71.088233349451912 79.60875905409921 0 0 0 0 -2.0532655808382962 -25.53899240179453 0 -25.53899240179453 66.814095694637217 0 0 0 0 0.61165403293445975 -9.6370563836171641 0 -9.6370563836171641 31.214716439775657 0 0 0 0 12.243877297069195 -31.145284774436732 0 -31.145284774436732 13.421640068205306 0 0 0 0 10.866910498644208 -2.4821010876039509 0 -2.4821010876039509 3.1012914632156026 0 0 0 0 -0.0062424326297388193 0.024209055347540698 0 0.024209055347540698 -0.014691678675148978 0 0 0 0 -13.123794494085601 47.523051278461935 0 47.523051278461935 667.03629796278256 0 0 0 0 0.06262805352599736 -7.3404308968338814 0 -7.3404308968338814 28.532146272133105 0 0 0 0 6.28716714784108 -3.0956721640686737 0 -3.0956721640686737 27.238337032293202 0 0 0 0 0.070175190308593732 0.65489354187997151 0 0.65489354187997151 0.99878278392827724 0 0 0 0 6.7768458999546581 -12.134486185386777 0 -12.134486185386777 21.958255033678142 0 0 0 0 -84.278040503560348 -65.467581313030678 0 -65.467581313030678 523.20261937245959 0 0 0 0 23.244234914325752 -63.869741875285399 0 -63.869741875285399 75.29660269228043 0 0 0 0 -66.024202928589204 -14.740120052654675 0 -14.740120052654675 594.44622250087559 0 0 0 0 -26.821618236039093 74.49362836117507 0 74.49362836117507 520.04844375229413 0 0 0 0 -25.918035777037581 124.64604332440422 0 124.64604332440422 673.34160375333158 0 0 0 0 -117.50040681081408 111.51213996226579 0 111.51213996226579 746.36719026594074 0 0 0 0 -80.862786954899391 200.08544316677217 0 200.08544316677217 756.08146305161063 0 0 0 0 -34.73840993427693 52.853298233691021 0 52.853298233691021 813.96991615512525 0 0 0 0 -0.34520523584285973 23.309074375285345 0 23.309074375285345 681.21696144176531 0 0 0 0 159.20695223278926 -569.58072440822434 0 -569.58072440822434 285.78156629185833 0 0 0 0 299.51148351012307 -414.63095742771111 0 -414.63095742771111 347.59918522939915 0 0 0 0 277.3834037384654 -449.73694551627341 0 -449.73694551627341 517.51590765081346 0 0 0 0 302.76168663022145 -374.5513178809997 0 -374.5513178809997 258.15342820192745 0 0 0 0 293.95082662171444 -456.21035893038788 0 -456.21035893038788 370.45846013860137 0 0 0 0 92.69136850707855 -475.19139709524097 0 -475.19139709524097 459.1927255513292 0 0 0 0 135.08832713210722 -517.79357448470546 0 -517.79357448470546 370.51577469974109 0 0 0 0 -232.27085790114324 -637.63936015799118 0 -637.63936015799118 404.36725829225907 0 0 0 0 -313.07719615465248 -638.93873583417735 0 -638.93873583417735 467.20747883430886 0 0 0 0 -345.81692638964523 -276.75240339656011 0 -276.75240339656011 101.35831651659828 0 0 0 0 -445.11720658452577 -196.76593332189077 0 -196.76593332189077 494.91902250151907 0 0 0 0 -554.16056966621181 -191.38688892434584 0 -191.38688892434584 545.40710788987781 0 0 0 0 -731.91714877749564 -28.659904992182419 0 -28.659904992182419 441.16513773963379 0 0 0 0 -666.14229035342601 -672.61001681461221 0 -672.61001681461221 363.85376255592564 0 0 0 0 -113.68367599214218 669.17080777939418 0 669.17080777939418 1087.2492062334495 0 0 0 0 -8.6519400819961305 2.6670042948085495 0 2.6670042948085495 -0.17609664466075969 0 0 0 0 -856.78491559413487 -928.91235181032243 0 -928.91235181032243 -443.05563574467669 0 0 0 0 -736.62558149271581 90.953401143545307 0 90.953401143545307 1606.3931667221332 0 0 0 0 486.17847647585222 -298.28538624255452 0 -298.28538624255452 119.7348099436058 0 0 0 0 455.01194870711242 -303.79184386610723 0 -303.79184386610723 473.95664649910759 0 0 0 0 -128.02019262208432 191.04877081135783 0 191.04877081135783 1527.9052444681802 0 0 0 0 588.5209452648279 280.99509046421008 0 280.99509046421008 1290.2022933773987 0 0 0 0 -194.01040010796396 -27.457988644526267 0 -27.457988644526267 1993.4583767372969 0 0 0 0 643.46098055432958 -527.99090162321954 0 -527.99090162321954 1413.4901456057305 0 0 0 0 566.3523915451226 134.78724896816902 0 134.78724896816902 1659.3066937830881 0 0 0 0 463.34138486248321 -84.556013576351688 0 -84.556013576351688 839.76258757839969 0 0 0 0 -1699.5600152907973 28.278783734378521 0 28.278783734378521 3989.6347526190657 0 0 0 0 13.846671980018588 3.7560427377188716 0 3.7560427377188716 2.9001590142633979 0 0 0 0 -67.442953830210172 428.61080951377517 0 428.61080951377517 1542.1005073784672 0 0 0 0 452.06426422070308 -638.83612405980966 0 -638.83612405980966 716.19328600152221 0 0 0 0 -204.03687806024254 1144.3700335070716 0 1144.3700335070716 412.40752498460643 0 0 0 0 1.7579367695388779 7.959713688156981 0 7.959713688156981 28.223700285770406 0 0 0 0 734.60631408753306 -1399.2647408577468 0 -1399.2647408577468 2522.3276861558697 0 0 0 0 -13.502765639538893 257.74089352572992 0 257.74089352572992 -309.9223978278751 0 0 0 0 -743.90994388155559 14.923811968270456 0 14.923811968270456 218.17093858902808 0 0 0 0 253.24552054780202 -7.8917473999244976 0 -7.8917473999244976 459.84321635288325 0 0 0 0 4.7481321851320093 23.346076326585191 0 23.346076326585191 70.821795554567757 0 0 0 0 -344.84267922938852 237.71191310255381 0 237.71191310255381 -226.89345022915222 0 0 0 0 -1010.1374056160012 565.91609311335196 0 565.91609311335196 54.235825213836506 0 0 0 0 -125.46053683457649 13.86533002446231 0 13.86533002446231 -1.9510180072538787 0 0 0 0 -436.72886909902445 -37.350859379235771 0 -37.350859379235771 333.57553928997368 0 0 0 0 436.22742958725576 -353.1573056820198 0 -353.1573056820198 377.21006478268464 0 0 0 0 342.49496983489644 -440.66461180061015 0 -440.66461180061015 713.98909135756548 0 0 0 0 582.33416386357999 -366.64462503165123 0 -366.64462503165123 286.52258017317217 0 0 0 0 402.98648905979462 -150.98885468463413 0 -150.98885468463413 118.61777588215773 0 0 0 0 326.48914604167658 -446.0746685804188 0 -446.0746685804188 349.77383024921255 0 0 0 0 245.26233852536916 -296.67474130172923 0 -296.67474130172923 273.65756524031167 0 0 0 0 255.44523817997742 -320.19294351739518 0 -320.19294351739518 204.77022464952825 0 0 0 0 57.498697834514815 -101.87078939831554 0 -101.87078939831554 169.96865820713356 0 0 0 0 245.06339009789332 -191.5907724767917 0 -191.5907724767917 75.275698232129798 0 0 0 0 7.6327043956655931 32.975284129538466 0 32.975284129538466 97.594502026888733 0 0 0 0 -272.1545887006755 -108.04441866709112 0 -108.04441866709112 159.79473754268838 0 0 0 0 206.30160719151718 -92.566054740804248 0 -92.566054740804248 4.5499236747855321 0 0 0 0 11.745682288072647 40.757408824297997 0 40.757408824297997 112.98454403974557 0 0 0 0 -621.17416898495685 116.94441678639851 0 116.94441678639851 510.60531934846949 0 0 0 0 -231.51999562646904 -339.69635345511779 0 -339.69635345511779 444.33920387510443 0 0 0 0 605.90585694087713 -195.58885576119064 0 -195.58885576119064 275.2480367044991 0 0 0 0 0.39163441962409706 -207.78464259233442 0 -207.78464259233442 337.41829989078542 0 0 0 0 297.17158820021086 -229.18148657862571 0 -229.18148657862571 190.78606236033374 0 0 0 0 100.33692153313677 -191.35413140866149 0 -191.35413140866149 234.00384706832847 0 0 0 0 -30.487392683084181 80.247124819637975 0 80.247124819637975 82.718767751124687 0 0 0 0 -70.739042126045433 -150.27831907028849 0 -150.27831907028849 211.76954226306407 0 0 0 0 -334.73810922244229 -74.268017187248915 0 -74.268017187248915 409.04668703049538 0 0 0 0 -257.88243196862641 -89.959680817177286 0 -89.959680817177286 70.00239061510365 0 0 0 0 -727.94093246332659 320.36463524037026 0 320.36463524037026 320.75501769337279 0 0 0 0 -0.15577108762099101 -0.92941455144227803 0 -0.92941455144227803 0.23114760107276311 0 0 0 0 -381.39665990528738 -134.52019220491638 0 -134.52019220491638 912.84405766613781 0 0 0 0 -88.091774558870384 95.760352400800912 0 95.760352400800912 152.89872783242026 0 0 0 0 -101.74774061903372 -56.080138553807046 0 -56.080138553807046 -210.59681456463295 0 0 0 0 -210.61314948898507 256.55231304396148 0 256.55231304396148 660.75397525983863 0 0 0 0 -121.82018041868832 -365.32905190088786 0 -365.32905190088786 775.99098641281307 0 0 0 0 234.86295542220978 -278.33886232125224 0 -278.33886232125224 429.13563497837276 0 0 0 0 159.3451320210188 -112.27298113355937 0 -112.27298113355937 -56.545000854061072 0 0 0 0 31.940915897572268 -5.4905887604691088 0 -5.4905887604691088 -42.579403703071875 0 0 0 0 -27.677768919469599 7.3524988552453578 0 7.3524988552453578 16.068855733028613 0 0 0 0 -26.061374716130558 147.88751254769522 0 147.88751254769522 83.08757316597621 0 0 0 0 27.50511906607062 -33.527519903786015 0 -33.527519903786015 -113.28176866960712 0 0 0 0 -237.19709252664143 -172.76686907594558 0 -172.76686907594558 132.33748492376435 0 0 0 0 2.8722136070327906 -82.34521169380605 0 -82.34521169380605 -197.98776750650723 0 0 0 0 -1.9463667544109633 -0.81680788148975125 0 -0.81680788148975125 -0.19016334424577508 0 0 0 0 -263.61308859736346 -270.0308199396386 0 -270.0308199396386 -73.425981628948648 0 0 0 0 -126.99211540079159 -199.20046768210887 0 -199.20046768210887 -141.93957217331626 0 0 0 0 -51.485037466798531 -98.622737781377509 0 -98.622737781377509 -22.930938489411346 0 0 0 0 -60.271408995935417 -110.03023491552449 0 -110.03023491552449 -24.434613345569232 0 0 0 0 4.5962948705455346 -79.060134016588563 0 -79.060134016588563 -46.373281501699239 0 0 0 0 -17.274455702752675 -121.18646014021942 0 -121.18646014021942 -125.83208520483458 0 0 0 0 -11.398262873930435 -94.934498077214812 0 -94.934498077214812 -50.397911532425496 0 0 0 0 -46.422302168004535 -85.929051775950938 0 -85.929051775950938 7.6026559508463833 0 0 0 0 -10.366226892294435 -85.149573625225457 0 -85.149573625225457 -12.107840527693043 0 0 0 0 1.3440185704712349 -64.457661890293821 0 -64.457661890293821 -83.899667505625985 0 0 0 0 -282.77827348771734 -636.90711108818505 0 -636.90711108818505 687.01115509716328 0 0 0 0 -301.69575307814739 -97.325706991920015 0 -97.325706991920015 194.19026025105268 0 0 0 0 -346.70307765510825 -180.52351557545626 0 -180.52351557545626 156.57795485225506 0 0 0 0 -73.900758592781131 149.94726738541794 0 149.94726738541794 166.26948044363962 0 0 0 0 -94.949359932697007 -4.1145583615725627 0 -4.1145583615725627 -126.68433772925346 0 0 0 0 -355.86344718850933 -53.650324295347673 0 -53.650324295347673 93.208176620421 0 0 0 0 -79.073989342224195 32.902849808931933 0 32.902849808931933 85.397195914491022 0 0 0 0 12.634548453644715 43.423489151447853 0 43.423489151447853 121.13624069251711 0 0 0 0 166.261193315936 -29.434498257793166 0 -29.434498257793166 58.552169084985508 0 0 0 0 198.35046850924118 647.37323997931162 0 647.37323997931162 -169.38028278085767 0 0 0 0 -39.187287988061371 -14.757862758660849 0 -14.757862758660849 125.21617647702806 0 0 0 0 4.4393768329606154 12.045607953126321 0 12.045607953126321 10.109455940216435 0 0 0 0 32.942998830931629 -2.3640631579346518 0 -2.3640631579346518 68.310539220408828 0 0 0 0 50.379854478387642 -6.0297255049590603 0 -6.0297255049590603 87.880994198560074 0 0 0 0 20.287088717625466 -7.7397089804944699 0 -7.7397089804944699 114.11434146440297 0 0 0 0 -32.868198992796465 -15.443301309559502 0 -15.443301309559502 833.82500309650641 0 0 0 0 123.377829648447 -18.341129325799557 0 -18.341129325799557 112.92711325612618 0 0 0 0 34.124084527156811 87.087027924015274 0 87.087027924015274 208.22744129091734 0 0 0 0 22.076296027255012 -65.46143681416288 0 -65.46143681416288 642.06056319369236 0 0 0 0 -203.92977150538354 45.451103487750515 0 45.451103487750515 224.94181766762631 0 0 0 0 138.93633338235304 43.942285620592884 0 43.942285620592884 718.03131191017746 0 0 0 0 10.1836384641805 2.9011673425569029 0 2.9011673425569029 0.61404121398475642 0 0 0 0 52.448423996988822 -157.63976382977125 0 -157.63976382977125 206.08254594629852 0 0 0 0 444.47350720690883 123.60379595388986 0 123.60379595388986 527.00405762827722 0 0 0 0 230.75281940947025 -83.604044228035491 0 -83.604044228035491 374.32630767046066 0 0 0 0 224.47687409150967 -185.2669234685527 0 -185.2669234685527 351.40508284971293 0 0 0 0 293.85754302971532 -129.39194464623688 0 -129.39194464623688 394.95148037315812 0 0 0 0 220.66743152370395 8.7241785044370772 0 8.7241785044370772 615.52299901010701 0 0 0 0 78.16346671381325 -90.493343883892521 0 -90.493343883892521 550.85169067374954 0 0 0 0 -23.343180355661389 -91.168157057392818 0 -91.168157057392818 647.24682255080552 0 0 0 0 71.495681767923088 -167.89088110005105 0 -167.89088110005105 691.86636844254099 0 0 0 0 112.16636421440126 -181.38862459769007 0 -181.38862459769007 555.54487662903466 0 0 0 0 40.828961196028104 -371.24059517600108 0 -371.24059517600108 669.50199967602384 0 0 0 0 142.82353331123522 -406.09666752449994 0 -406.09666752449994 355.80705574477906 0 0 0 0 250.41396143956808 -336.68426512429141 0 -336.68426512429141 373.15345428157707 0 0 0 0 -328.20653747486722 -431.75010242085409 0 -431.75010242085409 906.16781599961905 0 0 0 0 -349.99127843888346 -515.55273434812989 0 -515.55273434812989 943.57324097700621 0 0 0 0 -240.68124224333224 -385.21830516929185 0 -385.21830516929185 832.16314380006952 0 0 0 0 -148.45658653386454 -547.68533032895357 0 -547.68533032895357 507.5642663358085 0 0 0 0 -247.17642961704223 -127.34369554979276 0 -127.34369554979276 775.44113821648716 0 0 0 0 -197.57969005653649 90.434610055031953 0 90.434610055031953 1440.3513663343983 0 0 0 0 159.82665728443317 394.83377029501571 0 394.83377029501571 -62.106577129256038 0 0 0 0 61.02727697262435 -45.776288525095879 0 -45.776288525095879 53.303065389110998 0 0 0 0 52.405979221647812 3.65650803508899 0 3.65650803508899 -0.095674589640115215 0 0 0 0 40.458226303657284 -47.177308702943265 0 -47.177308702943265 184.02133994101951 0 0 0 0 31.415117306510069 3.9079570983744532 0 3.9079570983744532 0.69941001593675267 0 0 0 0 30.733826664201843 -38.712561711050512 0 -38.712561711050512 123.00028863563421 0 0 0 0 33.728491268934704 -18.561718450000626 0 -18.561718450000626 137.23245674329519 0 0 0 0 33.577269720702134 -27.395282296965888 0 -27.395282296965888 108.20357300518663 0 0 0 0 20.216340435452366 -41.102874077609158 0 -41.102874077609158 121.03465487466383 0 0 0 0 7.3371965184524015 11.800881081187981 0 11.800881081187981 132.27152340667453 0 0 0 0 28.864078046908617 -35.489372526521038 0 -35.489372526521038 118.28310117291403 0 0 0 0 23.394647451623086 2.2845326363531058 0 2.2845326363531058 79.022089231730206 0 0 0 0 14.982816650983295 22.165483708868123 0 22.165483708868123 80.038488551712362 0 0 0 0 9.6122639651321151 14.687516712245269 0 14.687516712245269 71.799421826726757 0 0 0 0 55.814328864767049 24.710476832551649 0 24.710476832551649 3.4675626987009309 0 0 0 0 14.618173154011171 26.101490679362996 0 26.101490679362996 21.761526367690749 0 0 0 0 2.8619492140196598 35.384707435165183 0 35.384707435165183 68.571232848340514 0 0 0 0 16.013720711498991 39.426280500812936 0 39.426280500812936 27.449211885461409 0 0 0 0 9.7647898772681856 -24.765909608773654 0 -24.765909608773654 106.16808647439757 0 0 0 0 15.562997631584039 9.9828990672322107 0 9.9828990672322107 51.90001771767129 0 0 0 0 41.256453174200942 40.21394323464483 0 40.21394323464483 -2.5609534106661158 0 0 0 0 15.4810580445494 -13.757988133347681 0 -13.757988133347681 66.142312318581389 0 0 0 0 15.743679302908564 24.199387400523619 0 24.199387400523619 18.824976474568118 0 0 0 0 34.047826770015035 33.561882396221336 0 33.561882396221336 4.9830666003763326 0 0 0 0 8.485064611062171 -16.468072955889511 0 -16.468072955889511 160.40463609292055 0 0 0 0 2.5633077759989646 9.0244054106733529 0 9.0244054106733529 72.551427101316222 0 0 0 0 8.7509808967718072 -10.00436287879711 0 -10.00436287879711 62.859255621260672 0 0 0 0 -8.8038499532199239 35.807811540304101 0 35.807811540304101 83.277057666498877 0 0 0 0 12.228953242224634 -41.577154433660326 0 -41.577154433660326 38.169296297324763 0 0 0 0 74.495771870347653 -16.492351955850609 0 -16.492351955850609 45.855181075574365 0 0 0 0 46.530632829143087 61.860623233573278 0 61.860623233573278 94.068332074108184 0 0 0 0 6.4192164039677975 4.8273783740415297 0 4.8273783740415297 -5.9483086030820687 0 0 0 0 41.605974510582882 -64.248681693228718 0 -64.248681693228718 136.9947246289812 0 0 0 0 24.332185143488914 33.082357164734276 0 33.082357164734276 112.78094932871318 0 0 0 0 0.17730570098443099 1.6694044163723447 0 1.6694044163723447 7.0362941015176261 0 0 0 0 20.9416011297144 -31.433522882172838 0 -31.433522882172838 95.124680900029489 0 0 0 0 44.083053345745384 -34.783248912528506 0 -34.783248912528506 95.60871260559361 0 0 0 0 20.119615951139849 -21.562900698962039 0 -21.562900698962039 105.07662208676629 0 0 0 0 6.0748149802457192 39.702823068164435 0 39.702823068164435 39.742254205077188 0 0 0 0 -28.975259357226832 4.3416968993769842 0 4.3416968993769842 109.32201420009369 0 0 0 0 7.8212247535633628 20.202930594387468 0 20.202930594387468 42.832165007615629 0 0 0 0 10.159763028748785 20.782373510472098 0 20.782373510472098 63.742923277000955 0 0 0 0 15.842025564880487 24.460885300482914 0 24.460885300482914 65.333023286511889 0 0 0 0 22.283402300081434 -11.136124979129818 0 -11.136124979129818 90.403276889170229 0 0 0 0 2.836267204205261 13.690852533343055 0 13.690852533343055 56.025581613759016 0 0 0 0 16.527717086054849 27.115923276130161 0 27.115923276130161 59.233213636260189 0 0 0 0 -27.00404493557744 27.942352876176301 0 27.942352876176301 69.774967909819679 0 0 0 0 43.378115299185083 114.39372596979956 0 114.39372596979956 121.74074668707181 0 0 0 0 -5.276016569250312 0.63089328310668691 0 0.63089328310668691 74.638479987539426 0 0 0 0 -37.004523101747509 79.317377420440607 0 79.317377420440607 172.55522137910157 0 0 0 0 -47.354289398484411 10.648379394151561 0 10.648379394151561 93.846513235941529 0 0 0 0 8.3769372380575078 62.392751777420926 0 62.392751777420926 113.16538392053917 0 0 0 0 14.982866158724391 65.381420780424378 0 65.381420780424378 95.599387238209601 0 0 0 0 16.759069008853203 -44.938369100229465 0 -44.938369100229465 283.6681177757564 0 0 0 0 86.500769265670897 -23.86870184840518 0 -23.86870184840518 35.314540524501354 0 0 0 0 8.9023517426688272 54.479098501989938 0 54.479098501989938 45.822065391548676 0 0 0 0 84.15768485800038 -82.299666845661704 0 -82.299666845661704 13.253880645410391 0 0 0 0 -21.224146980428486 -47.039244850122486 0 -47.039244850122486 65.196481448772829 0 0 0 0 -4.0578709127812544 -78.575624498065736 0 -78.575624498065736 -11.74623988190433 0 0 0 0 -25.628209070431694 -71.502116955285601 0 -71.502116955285601 43.204797566519119 0 0 0 0 -19.994634386499456 -75.155246878690377 0 -75.155246878690377 8.0758749383385293 0 0 0 0 -13.877014258450799 -54.706219804531429 0 -54.706219804531429 41.587254315192695 0 0 0 0 -36.715948185093112 -48.72839593772369 0 -48.72839593772369 91.817711852199864 0 0 0 0 -7.0700304336569388 -16.584996019213577 0 -16.584996019213577 81.553238459833665 0 0 0 0 -80.669814713864071 -43.487801795308769 0 -43.487801795308769 92.639815383445239 0 0 0 0 -133.59083029820795 -90.443681987861055 0 -90.443681987861055 55.182070458249655 0 0 0 0 -31.17320872046912 -19.25674715594505 0 -19.25674715594505 122.72940400222433 0 0 0 0 12.149272592158013 13.714617678459035 0 13.714617678459035 133.17473555095785 0 0 0 0 24.909750053873722 -51.330925534421112 0 -51.330925534421112 233.7074472308741 0 0 0 0 -12.767330264736302 -26.824621108746214 0 -26.824621108746214 173.71718437373056 0 0 0 0 -32.449666396945759 -21.221491463627899 0 -21.221491463627899 117.03357627853984 0 0 0 0 0.88760595793246466 -18.102162320516072 0 -18.102162320516072 111.97343148168875 0 0 0 0 -17.775054805070795 2.2394754492779612 0 2.2394754492779612 98.583984696480911 0 0 0 0 -32.620527793395013 -6.1915510159597034 0 -6.1915510159597034 158.90905345068313 0 0 0 0 -2.8025513034172036 -31.494564739638008 0 -31.494564739638008 60.895272477995604 0 0 0 0 -14.62566344062725 -13.000448370861704 0 -13.000448370861704 103.30212340108119 0 0 0 0 -5.7750658362529066 18.894265790237114 0 18.894265790237114 164.77829408014077 0 0 0 0 -37.12283667563247 21.902383643373469 0 21.902383643373469 176.15418544411659 0 0 0 0 -8.3130840540416102 2.2846787516609766 0 2.2846787516609766 152.26717630017083 0 0 0 0 -16.684407295929304 26.982473580301303 0 26.982473580301303 202.82252440456068 0 0 0 0 -9.5354551552923112 29.339322242114577 0 29.339322242114577 181.23415297304746 0 0 0 0 58.910470622260618 51.551261217216961 0 51.551261217216961 161.26190599869005 0 0 0 0 0.46174685748004407 -2.5189269554318798 0 -2.5189269554318798 -5.0165485986971134 0 0 0 0 -8.7808855604107521 5.6272567058040295 0 5.6272567058040295 339.38742256016121 0 0 0 0 -41.783918545706001 -31.871606743850862 0 -31.871606743850862 -42.129809884820133 0 0 0 0 11.169530172263876 112.17911237157386 0 112.17911237157386 307.72038004768547 0 0 0 0 34.52252064086133 69.848337139570503 0 69.848337139570503 209.13327106522047 0 0 0 0 76.205812980759219 77.001555557304528 0 77.001555557304528 169.86136855557561 0 0 0 0 -2.027091542717244 19.008122170198476 0 19.008122170198476 207.14147994516952 0 0 0 0 7.954556140593013 65.712422901180616 0 65.712422901180616 224.11178268192452 0 0 0 0 -9.0660955479751948 -25.675279898511121 0 -25.675279898511121 8.3556873316487668 0 0 0 0 14.281310951914747 -24.313813037268119 0 -24.313813037268119 7.1850986132049002 0 0 0 0 3.2561284112185174 0.57857835170958083 0 0.57857835170958083 -0.10792489492916957 0 0 0 0 52.637257915112059 -21.106260914908489 0 -21.106260914908489 5.2467693607941328 0 0 0 0 22.783027647637937 -42.660911727682105 0 -42.660911727682105 23.808766307396581 0 0 0 0 -27.864101036567263 -26.134865659696516 0 -26.134865659696516 64.604325793683529 0 0 0 0 -25.591296009519283 -49.591033404343762 0 -49.591033404343762 -2.0167442628298886 0 0 0 0 -25.495439025123005 -78.595490286286804 0 -78.595490286286804 -77.237088657915592 0 0 0 0 -18.651510283576044 -29.462755753796955 0 -29.462755753796955 21.599730168818496 0 0 0 0 -8.1676617807558003 -13.717417135289224 0 -13.717417135289224 14.580814105596147 0 0 0 0 -25.266399986240458 -55.348153564786116 0 -55.348153564786116 -1.2010234121262329 0 0 0 0 -9.0664492855964713 -26.50732428301697 0 -26.50732428301697 12.486254354408572 0 0 0 0 -8.1660434326299765 2.6575606544756738 0 2.6575606544756738 149.14175856093061 0 0 0 0 9.2330583705243043 16.819810942572076 0 16.819810942572076 139.71706002866267 0 0 0 0 0.43296773457896798 2.6724283222129088 0 2.6724283222129088 13.577606558768672 0 0 0 0 -7.2428297989299608 -11.426219787419541 0 -11.426219787419541 -6.026259243270033 0 0 0 0 9.864839717911309 27.966435609356267 0 27.966435609356267 165.93021205027253 0 0 0 0 18.237077706252862 2.4835579577502358 0 2.4835579577502358 73.681290755455848 0 0 0 0 39.941443180080796 -13.05038052535383 0 -13.05038052535383 84.79571173369186 0 0 0 0 61.314045608114611 23.486440183914965 0 23.486440183914965 56.458352527173702 0 0 0 0 83.064608517790475 -19.650441569086979 0 -19.650441569086979 78.353145733417477 0 0 0 0 99.860287679301905 5.9657552890785155 0 5.9657552890785155 64.044157188560348 0 0 0 0 25.57749277022458 153.81364876766747 0 153.81364876766747 167.58194155980163 0 0 0 0 -46.531583740174113 3.6716294722482417 0 3.6716294722482417 97.100902153950301 0 0 0 0 -39.767756898598236 -71.538500626760651 0 -71.538500626760651 224.10474236519076 0 0 0 0 -9.9072553142221818 -13.205284592122879 0 -13.205284592122879 65.6452295829028 0 0 0 0 17.851718400914741 16.915143925579628 0 16.915143925579628 15.651910090394736 0 0 0 0 49.231171570526385 4.9112984940147726 0 4.9112984940147726 -12.866282359747856 0 0 0 0 -10.679634436917695 -17.800701333246252 0 -17.800701333246252 72.237769090104848 0 0 0 0 21.095998704295539 19.913318908213114 0 19.913318908213114 48.051397891700617 0 0 0 0 24.307368118721115 25.411508225748548 0 25.411508225748548 49.267162467251183 0 0 0 0 20.246858058532325 23.001454160854337 0 23.001454160854337 67.572462496143999 0 0 0 0 26.002094104276239 5.5520092497317819 0 5.5520092497317819 70.953051179851172 0 0 0 0 -28.798024666690708 26.491544371732743 0 26.491544371732743 65.058725874463562 0 0 0 0 8.0025498863832123 3.9528467575791524 0 3.9528467575791524 -6.3913922747795482 0 0 0 0 38.734367610876916 -74.885223529557152 0 -74.885223529557152 63.148208881073515 0 0 0 0 21.98254957242716 -3.9807248557044659 0 -3.9807248557044659 148.60433464657399 0 0 0 0 18.841308828204092 -12.413916974983294 0 -12.413916974983294 72.442371358018136 0 0 0 0 9.0787213139474261 -43.131413094888558 0 -43.131413094888558 128.89686184222228 0 0 0 0 -0.45032513449586986 14.416973920539021 0 14.416973920539021 165.72424406459322 0 0 0 0 -1.3185548583078344 11.194096906780032 0 11.194096906780032 170.81530145072611 0 0 0 0 -5.9151798031120961 4.3017708344268613 0 4.3017708344268613 164.88225740776397 0 0 0 0 4.2036329666298116 34.032791503734188 0 34.032791503734188 147.07762611730868 0 0 0 0 3.6120290527533143 41.372046541975578 0 41.372046541975578 203.68513884165441 0 0 0 0 66.861828597180647 107.40321810272872 0 107.40321810272872 194.44660532801936 0 0 0 0 1.1636976082969213 -1.6616584467824396 0 -1.6616584467824396 2.0950170050493 0 0 0 0 49.170696630419116 150.33169488709609 0 150.33169488709609 406.96384171425598 0 0 0 0 37.947146010311371 -86.975800534972223 0 -86.975800534972223 427.30665703088744 0 0 0 0 56.367953908142226 -34.571224596555112 0 -34.571224596555112 162.47812212551798 0 0 0 0 -1.5605292742750407 21.691593213682609 0 21.691593213682609 298.40859381807968 0 0 0 0 10.418393103142989 -15.309405714557215 0 -15.309405714557215 -2.0855848329520086 0 0 0 0 -24.912294866130196 -8.1099517796974396 0 -8.1099517796974396 93.393366157601122 0 0 0 0 4.8944270582869649 4.5674249041330768 0 4.5674249041330768 59.312320436278242 0 0 0 0 10.946579517511054 -14.614302021407639 0 -14.614302021407639 107.26407533766042 0 0 0 0 -1.0151564950328975 11.321997745137196 0 11.321997745137196 106.12568474142108 0 0 0 0 2.2730009414244705 21.99941817225772 0 21.99941817225772 138.04660457383943 0 0 0 0 -11.37749024941786 13.689364910060249 0 13.689364910060249 139.90909165186167 0 0 0 0 -26.031409364451065 -2.3931079904432409 0 -2.3931079904432409 137.52945600608655 0 0 0 0 -1.2023414397463057 15.685795418161433 0 15.685795418161433 95.34673939797176 0 0 0 0 -0.04876147555796706 25.803669417138735 0 25.803669417138735 146.15898465775535 0 0 0 0 17.53505881501826 -5.8033351177400618 0 -5.8033351177400618 136.07187180388428 0 0 0 0 5.6190433598894742 24.861465279464028 0 24.861465279464028 145.50880794572731 0 0 0 0 -3.5140429349203259 29.720902945635316 0 29.720902945635316 146.61175729118986 0 0 0 0 12.469082675636443 3.0245984878916943 0 3.0245984878916943 3.2947623154390371 0 0 0 0 6.3325612424141582 -42.463329234873527 0 -42.463329234873527 -38.875692213390721 0 0 0 0 -9.7613300115727633 -4.4797672206286734 0 -4.4797672206286734 16.534276535121506 0 0 0 0 19.59424502443926 22.688886193136568 0 22.688886193136568 17.276977385845385 0 0 0 0 2.8272508188811116 0.17012548685670481 0 0.17012548685670481 21.748416998729226 0 0 0 0 -91.006421434147342 -127.19078341562999 0 -127.19078341562999 -83.324369262249093 0 0 0 0 63.028966508245503 -186.71642874073586 0 -186.71642874073586 -104.52965244544248 0 0 0 0 -125.73233153684123 -159.11726561345858 0 -159.11726561345858 -103.02818234922597 0 0 0 0 93.94637247400442 -115.78204535730038 0 -115.78204535730038 -181.73890022584237 0 0 0 0 47.918165621224944 66.537763871434436 0 66.537763871434436 120.70938720332924 0 0 0 0 23.624300706972463 34.369170684803976 0 34.369170684803976 144.88366643822519 0 0 0 0 -159.37812317489443 -30.947061151906382 0 -30.947061151906382 16.629577296698699 0 0 0 0 4.7045489717487516 -3.8169886700188727 0 -3.8169886700188727 6.4648642308621334 0 0 0 0 24.28198363546835 27.878738336163224 0 27.878738336163224 112.94161152399283 0 0 0 0 -1.8746768027376675 3.2235766738303937 0 3.2235766738303937 6.5610092421411537 0 0 0 0 -29.013060768244941 -17.926161450617656 0 -17.926161450617656 -16.035755656374022 0 0 0 0 -3.5672505172600673 -1.8322709494750313 0 -1.8322709494750313 8.0576389146000764 0 0 0 0 -168.19473459157234 -317.74162079452799 0 -317.74162079452799 -250.14920198603068 0 0 0 0 -0.49594023125690256 -0.57762605924796162 0 -0.57762605924796162 -0.77264972252143593 0 0 0 0 -261.32975755543521 -389.06014278691146 0 -389.06014278691146 -830.21546388219576 0 0 0 0 -292.8037457660389 -310.85803248747834 0 -310.85803248747834 -128.66115955644636 0 0 0 0 -241.08217465929852 -257.81113954875582 0 -257.81113954875582 -250.68179311580025 0 0 0 0 -274.08844117938588 -96.732461920706555 0 -96.732461920706555 -134.33018544639344 0 0 0 0 -92.804558548676141 -190.15829016498174 0 -190.15829016498174 -278.84257824232918 0 0 0 0 -175.70021576073668 -185.95121034007752 0 -185.95121034007752 -244.16888332413509 0 0 0 0 -545.64552242542413 -247.11473128880607 0 -247.11473128880607 -228.92543205910624 0 0 0 0 -296.48272779760919 -5.7830457827221835 0 -5.7830457827221835 -404.04978512128582 0 0 0 0 -159.38013939903976 -134.77797982789343 0 -134.77797982789343 -115.7902072367142 0 0 0 0 -459.12788340122279 -463.58141759893624 0 -463.58141759893624 -431.36289780575135 0 0 0 0 -591.79690534700785 -103.1926554122474 0 -103.1926554122474 -17.686786031277734 0 0 0 0 -0.54456015766966459 -0.40261290281318907 0 -0.40261290281318907 -0.082895534358044642 0 0 0 0 -0.36939452200685352 -0.32287846138345344 0 -0.32287846138345344 -0.050182783318319935 0 0 0 0 -56.716403876072036 -224.97005164814618 0 -224.97005164814618 -248.49277585430536 0 0 0 0 -9.3791182446207131 -56.7121374879207 0 -56.7121374879207 -226.94178661226761 0 0 0 0 108.70571934985401 -132.73241258040071 0 -132.73241258040071 -197.69291692493425 0 0 0 0 108.15608040856023 -146.12586070536781 0 -146.12586070536781 -181.47385258387658 0 0 0 0 143.32965473483273 -10.868585664589773 0 -10.868585664589773 -83.747891202554456 0 0 0 0 171.07374121595694 -28.002315817218914 0 -28.002315817218914 40.154534615779994 0 0 0 0 11.582096905199251 -187.91281206990971 0 -187.91281206990971 -25.608080431531562 0 0 0 0 32.699947103495106 23.744742397306254 0 23.744742397306254 2.8313088157738093 0 0 0 0 -2.3331195508244491 -15.739564465096919 0 -15.739564465096919 21.813060459371627 0 0 0 0 131.46182887509576 49.915927997295512 0 49.915927997295512 -113.0004446424573 0 0 0 0 9.3532711426764763 56.734021160082193 0 56.734021160082193 39.02654211956542 0 0 0 0 4.4380615999765887 7.4076348292748548 0 7.4076348292748548 12.463287609434303 0 0 0 0 107.91199940219667 29.19618206883024 0 29.19618206883024 28.782208169985097 0 0 0 0 40.812780220888271 19.42100222389854 0 19.42100222389854 43.468310993033811 0 0 0 0 145.93732781094104 95.179584545610851 0 95.179584545610851 59.128911216306733 0 0 0 0 103.63120608944473 143.47604973730267 0 143.47604973730267 135.39829984988319 0 0 0 0 55.326945138521296 27.84025730893336 0 27.84025730893336 58.245811921311542 0 0 0 0 44.230698507891248 31.688231376654585 0 31.688231376654585 74.962331879894919 0 0 0 0 65.37619687854658 53.530477216321742 0 53.530477216321742 89.672858113975963 0 0 0 0 39.308185749131098 43.286870949610602 0 43.286870949610602 60.056437942694174 0 0 0 0 31.009956947308638 -5.0746615558382473 0 -5.0746615558382473 35.297175390085613 0 0 0 0 23.936097482434434 4.1945940119185252 0 4.1945940119185252 30.262505323888035 0 0 0 0 16.54511504035122 8.1964219167457486 0 8.1964219167457486 38.669946534879273 0 0 0 0 25.423168704573271 -7.0840960776686188 0 -7.0840960776686188 21.212986346276011 0 0 0 0 43.876843621864282 -1.4091345473570982 0 -1.4091345473570982 1.6846067094302271 0 0 0 0 37.609694811619192 14.457646899361862 0 14.457646899361862 81.435138808999909 0 0 0 0 24.676452607909596 20.106182943214662 0 20.106182943214662 81.416759261774132 0 0 0 0 38.861106646884764 -5.8466725560138002 0 -5.8466725560138002 35.918392024737841 0 0 0 0 1.9538649544556392 6.7521639765473083 0 6.7521639765473083 3.7130407016957179 0 0 0 0 29.663633527994534 -23.353144646578585 0 -23.353144646578585 22.207216534647159 0 0 0 0 23.446431839307486 7.7178771473623442 0 7.7178771473623442 -0.1959163176021832 0 0 0 0 35.084915569726491 7.8147271134803304 0 7.8147271134803304 3.7762971758638741 0 0 0 0 23.88873656476926 -18.195312131014362 0 -18.195312131014362 34.732335890512331 0 0 0 0 45.677951159251506 3.9024801503946946 0 3.9024801503946946 -27.029169729546993 0 0 0 0 11.140217814807784 -8.6233213306986727 0 -8.6233213306986727 27.625668524175126 0 0 0 0 17.915313650059055 6.4805743865535703 0 6.4805743865535703 2.2296732130231476 0 0 0 0 19.20323566278671 -0.079253651452745544 0 -0.079253651452745544 19.471805438006413 0 0 0 0 11.142991801062024 5.8888722588145583 0 5.8888722588145583 5.4606116797704942 0 0 0 0 0.64470313681158586 116.55792560073132 0 116.55792560073132 88.720097972865915 0 0 0 0 9.1397550386308186 12.962115045771881 0 12.962115045771881 19.594113400415722 0 0 0 0 -4.3300508475754214 7.6639545766665833 0 7.6639545766665833 27.605189940397395 0 0 0 0 6.0263509661926946 10.174026356078684 0 10.174026356078684 24.845017148029001 0 0 0 0 42.585136570106442 -291.49368332584709 0 -291.49368332584709 310.98886243300512 0 0 0 0 4.9115240323768585 9.5568087399738602 0 9.5568087399738602 18.625973750079368 0 0 0 0 512.19898575287516 -2.7718337503029034 0 -2.7718337503029034 -130.79390618670732 0 0 0 0 -17.863141794199919 18.084553274846257 0 18.084553274846257 22.321079083165387 0 0 0 0 11.803228973185014 -0.50886176479252754 0 -0.50886176479252754 22.571257975927438 0 0 0 0 0.0023088421791946055 -28.612025453563547 0 -28.612025453563547 51.326021715358365 0 0 0 0 -29.514520968266709 -14.403434219930205 0 -14.403434219930205 60.245836209724075 0 0 0 0 6.709862405386751 -46.274723037422518 0 -46.274723037422518 22.405232950848585 0 0 0 0 -15.396291625227235 -1.9757149819633923 0 -1.9757149819633923 180.48970675405872 0 0 0 0 20.816994779458156 -0.40886274658987531 0 -0.40886274658987531 44.582430627924623 0 0 0 0 -0.079969692864797867 -0.56228177900433707 0 -0.56228177900433707 0.3034089919425611 0 0 0 0 23.144189044422504 -38.00833515029808 0 -38.00833515029808 -133.41560278696124 0 0 0 0 42.825501286482492 -11.21053009480238 0 -11.21053009480238 53.151262675237376 0 0 0 0 -16.125434069626632 -41.605811317946063 0 -41.605811317946063 74.796933281279053 0 0 0 0 -21.086122383262285 -0.99314795309328474 0 -0.99314795309328474 65.91423516580835 0 0 0 0 0.050512183098733808 -13.740485179987445 0 -13.740485179987445 -13.914187481859699 0 0 0 0 29.6374862108255 37.698310988795129 0 37.698310988795129 77.806807087865309 0 0 0 0 51.782396063916032 -54.658035005741112 0 -54.658035005741112 61.547153570005321 0 0 0 0 -24.762778453370949 -12.11471075094596 0 -12.11471075094596 49.626656987151364 0 0 0 0 12.26976291005704 31.385955827863654 0 31.385955827863654 -69.811533800180769 0 0 0 0 0.13752351782471661 -0.57794296016825797 0 -0.57794296016825797 -0.20531574043948808 0 0 0 0 15.247344054150631 0.037018856848590076 0 0.037018856848590076 -123.33012457320365 0 0 0 0 -60.787452756798018 -26.220741819619434 0 -26.220741819619434 98.84336920955684 0 0 0 0 -33.501203040737664 -12.621762056121952 0 -12.621762056121952 220.90407248372503 0 0 0 0 -37.546998510496451 -54.198108324417262 0 -54.198108324417262 204.76611568811313 0 0 0 0 10.785179130734491 -9.9015619944111677 0 -9.9015619944111677 102.54528929064691 0 0 0 0 -36.529588668386651 -264.59874610101633 0 -264.59874610101633 445.97651261364808 0 0 0 0 -0.19957694743654208 0.010860838960041974 0 0.010860838960041974 1.1279784344596919 0 0 0 0 -0.6705184085565179 -0.44798681182146538 0 -0.44798681182146538 4.7070585364854196 0 0 0 0 -2.1385626830624864 -3.5686156769600075 0 -3.5686156769600075 8.8743727537615342 0 0 0 0 99.917992397995249 -17.514117917489784 0 -17.514117917489784 -290.40446016215719 0 0 0 0 7.3737365391117722 -14.966690538451786 0 -14.966690538451786 25.004716518322994 0 0 0 0 -113.04284415411985 -123.15970695870055 0 -123.15970695870055 7.1164174505101983 0 0 0 0 -32.944056236554417 -35.731528288652044 0 -35.731528288652044 57.508701189581188 0 0 0 0 -46.83502529650832 -109.42435933242086 0 -109.42435933242086 -23.862156204926578 0 0 0 0 -23.503355009019685 -6.2923777632095153 0 -6.2923777632095153 128.26262419012346 0 0 0 0 -9.3972047357137285 20.452610428117623 0 20.452610428117623 26.34340502996929 0 0 0 0 2.7039027408610252 -56.313661316391517 0 -56.313661316391517 1.9450824538362212 0 0 0 0 -87.834776782663766 -87.550292113331125 0 -87.550292113331125 59.190535536370589 0 0 0 0 6.2726745670169022 -12.234059445349743 0 -12.234059445349743 22.080551286070261 0 0 0 0 -51.331434862133364 -68.579311699824757 0 -68.579311699824757 28.54756969033042 0 0 0 0 -51.649384097498114 34.523897671817394 0 34.523897671817394 24.848157981861732 0 0 0 0 -52.915870347725331 -22.12488140059213 0 -22.12488140059213 145.969470907512 0 0 0 0 -50.952508939746622 -34.881340867344989 0 -34.881340867344989 87.887280691424166 0 0 0 0 0.97095127388274705 62.847320113593014 0 62.847320113593014 104.11419390317315 0 0 0 0 1.3742920112273609 -0.35356639055731875 0 -0.35356639055731875 4.3433987883368843 0 0 0 0 124.74014251587505 129.45490789772884 0 129.45490789772884 149.65521436044946 0 0 0 0 -10.660399133071223 57.883905226000934 0 57.883905226000934 131.7896812636609 0 0 0 0 -39.014745754417049 90.399696432055862 0 90.399696432055862 259.24727095727576 0 0 0 0 -85.852305083443753 -166.98597769878688 0 -166.98597769878688 238.72630147072778 0 0 0 0 -67.289395162017399 -39.382811058635525 0 -39.382811058635525 19.967842077254318 0 0 0 0 -54.532428802725917 -142.19278134996421 0 -142.19278134996421 28.644503428149619 0 0 0 0 -71.389145960947644 -17.760536804635194 0 -17.760536804635194 73.544319266919047 0 0 0 0 -357.70077267514716 223.84360475120775 0 223.84360475120775 377.36936552856059 0 0 0 0 -83.967561182667623 -38.573180769355531 0 -38.573180769355531 -118.2262816040602 0 0 0 0 137.73561608670457 237.04296670812619 0 237.04296670812619 -227.31336174541502 0 0 0 0 8.7995484472375907 -15.989880346221653 0 -15.989880346221653 24.783100114170395 0 0 0 0 223.47284426798524 -357.76014478626894 0 -357.76014478626894 474.24230034355423 0 0 0 0 300.24565719119346 -409.08322550542653 0 -409.08322550542653 553.91738168930169 0 0 0 0 1.2246465556709261 0.39228372743417594 0 0.39228372743417594 -0.2664450060859167 0 0 0 0 320.22904907488646 -233.00934966314526 0 -233.00934966314526 96.211526762854191 0 0 0 0 -115.05877578865147 -75.799789909295214 0 -75.799789909295214 10.77325872547226 0 0 0 0 -2.3754424943090271 -204.26926679488679 0 -204.26926679488679 -256.15291294742929 0 0 0 0 -57.813940742207251 -14.250868234048539 0 -14.250868234048539 76.253871411885484 0 0 0 0 -3.8741980941029155 -1.9461812663827232 0 -1.9461812663827232 7.5386622155973413 0 0 0 0 -152.56266975565268 -259.57176972464367 0 -259.57176972464367 -10.848906661209185 0 0 0 0 -46.910585531741162 -19.170396330620861 0 -19.170396330620861 43.61579213362711 0 0 0 0 -113.460584523482 63.086582044494207 0 63.086582044494207 -42.636251147720031 0 0 0 0 44.166772131102334 9.4071118476858828 0 9.4071118476858828 -39.205574305065966 0 0 0 0 -11.74834584674727 -46.763152037699911 0 -46.763152037699911 -6.1210384609294124 0 0 0 0 -1.9446269364852924 -49.035902701303712 0 -49.035902701303712 -149.8348958978022 0 0 0 0 -91.204878846097017 -126.9440054660663 0 -126.9440054660663 -59.730494177529181 0 0 0 0 -36.137968576736966 -77.542139324476011 0 -77.542139324476011 -20.712366612453479 0 0 0 0 -9.0312687885725609 -76.722125536194653 0 -76.722125536194653 6.3517952305264771 0 0 0 0 3.6375865571080794 -75.48417477903422 0 -75.48417477903422 -24.4123252549889 0 0 0 0 -21.209010654397389 -92.877826869982528 0 -92.877826869982528 -26.776285996194929 0 0 0 0 17.827807666022636 -52.229089103959268 0 -52.229089103959268 -41.768381745307124 0 0 0 0 9.3590883097276674 -46.588556275964947 0 -46.588556275964947 7.6022625660170888 0 0 0 0 13.302000915547978 -5.3172113704495132 0 -5.3172113704495132 11.471095415319724 0 0 0 0 -1.7321574153866095 -43.374635186599335 0 -43.374635186599335 27.324005702277645 0 0 0 0 20.677099572430961 39.407033225084888 0 39.407033225084888 89.88857992895646 0 0 0 0 -21.683800187277484 19.786014220888319 0 19.786014220888319 144.83022577312659 0 0 0 0 -38.876498218960705 14.301001706917305 0 14.301001706917305 183.52802790154237 0 0 0 0 -48.098400402685002 39.039542585393065 0 39.039542585393065 144.73800684176967 0 0 0 0 -55.162910415569058 -25.613208458555164 0 -25.613208458555164 254.63608696996744 0 0 0 0 211.4000560903678 96.926112630098942 0 96.926112630098942 69.817855313140171 0 0 0 0 -55.293386098502651 56.812863446655683 0 56.812863446655683 269.32415102285449 0 0 0 0 -6.3468763606024083 -8.5938603221959795 0 -8.5938603221959795 6.7513504341884385 0 0 0 0 -3.7353971649899904 -2.979649053857429 0 -2.979649053857429 32.612040680498467 0 0 0 0 57.481012436702713 -62.395383337800013 0 -62.395383337800013 52.568182093964424 0 0 0 0 0.02347652379398113 -1.9351150786144586 0 -1.9351150786144586 1.5839107975107254 0 0 0 0 -3.1846215617408795 -8.6063717971931055 0 -8.6063717971931055 11.981722937166396 0 0 0 0 -0.27235484423908929 2.0817581143783173 0 2.0817581143783173 41.642232242666068 0 0 0 0 -19.498412963467672 -3.7226132705254713 0 -3.7226132705254713 132.37561561368057 0 0 0 0 -3.9000871504545103 -3.9404011878577876 0 -3.9404011878577876 34.383649377559777 0 0 0 0 -56.295333092668443 -15.513898932680604 0 -15.513898932680604 177.17012837772927 0 0 0 0 -0.9878631871424659 32.779494352042093 0 32.779494352042093 68.412035189961898 0 0 0 0 -8.329489158956676 -40.074226888056728 0 -40.074226888056728 12.963653756916756 0 0 0 0 -4.1157304677658431 -2.1150560450114426 0 -2.1150560450114426 33.276580321282381 0 0 0 0 -4.2845861081477778 -2.2440994762873743 0 -2.2440994762873743 34.23649991262937 0 0 0 0 -9.1743640898407257 -11.969110021963758 0 -11.969110021963758 17.26271083109873 0 0 0 0 -72.174761764953473 -9.7498839553991274 0 -9.7498839553991274 210.83179308990657 0 0 0 0 0.86347369209715907 54.692742097769951 0 54.692742097769951 105.60280936105119 0 0 0 0 63.362465866007824 -13.915281496032549 0 -13.915281496032549 129.89510637384228 0 0 0 0 -20.996332767329932 11.938015403971804 0 11.938015403971804 241.8791291025409 0 0 0 0 7.0697230790638272 1.3214662968769915 0 1.3214662968769915 0.1136272144321353 0 0 0 0 -7.0264885579763359 27.19969040461001 0 27.19969040461001 4.1973360758056515 0 0 0 0 15.280024799707462 16.703847946890164 0 16.703847946890164 -31.952971043130674 0 0 0 0 -14.762412380955084 14.315491284796735 0 14.315491284796735 15.448323331205756 0 0 0 0 11.615305788142166 -86.724722369996016 0 -86.724722369996016 236.88956622222031 0 0 0 0 2.3696096520701992 -0.40482109319441406 0 -0.40482109319441406 0.1336210946124794 0 0 0 0 -84.911752146819254 26.3590995115228 0 26.3590995115228 420.13882832176387 0 0 0 0 9.4001537322790512 26.728112597422296 0 26.728112597422296 -83.441168902303616 0 0 0 0 206.46862993543482 177.49731499214977 0 177.49731499214977 45.560951862105867 0 0 0 0 -10.131188607866306 60.02484822760016 0 60.02484822760016 9.9026878038621362 0 0 0 0 -12.300145088165209 1.4630445401999168 0 1.4630445401999168 24.908525368864503 0 0 0 0 -13.513303882249289 44.665029766257248 0 44.665029766257248 66.618561728813802 0 0 0 0 -7.2516448279647516 -10.3030007759873 0 -10.3030007759873 60.017977860150552 0 0 0 0 -22.458986313250989 -14.307138289477734 0 -14.307138289477734 68.621523484165664 0 0 0 0 -65.577709190946734 28.046470196033624 0 28.046470196033624 172.42964090264286 0 0 0 0 0.023577250432331387 2.7311179172588425 0 2.7311179172588425 6.4893040392885446 0 0 0 0 -225.2762997817988 -189.11985763895791 0 -189.11985763895791 -94.426584569038823 0 0 0 0 -2.4111107053697989 9.7769667162536678 0 9.7769667162536678 28.351364260335096 0 0 0 0 -1.3435346789015057 -0.37597868592274608 0 -0.37597868592274608 29.353059006854892 0 0 0 0 -9.3695904823280216 3.7955528194434009 0 3.7955528194434009 45.8997411691671 0 0 0 0 -10.403309734772568 -0.72627924935062538 0 -0.72627924935062538 26.220865472802473 0 0 0 0 -1.641881308025404 7.4964639856189024 0 7.4964639856189024 35.308073863463505 0 0 0 0 -13.355497194600657 -1.8798514000126545 0 -1.8798514000126545 43.638825405470413 0 0 0 0 -76.093066593199751 -9.0064196409948636 0 -9.0064196409948636 80.514950916139242 0 0 0 0 23.144378834005011 -64.020718148909509 0 -64.020718148909509 43.782262220061966 0 0 0 0 -92.044034401460124 24.939087315038705 0 24.939087315038705 117.25936173828086 0 0 0 0 -9.7451570465267423 -7.052790819152051 0 -7.052790819152051 25.051420150559551 0 0 0 0 -9.2945421164367872 0.98831828897527885 0 0.98831828897527885 30.467176220176043 0 0 0 0 -5.9601869861121104 -6.0205249901210465 0 -6.0205249901210465 23.771123585863222 0 0 0 0 -10.66322530826892 -11.718669844889519 0 -11.718669844889519 26.576251695398241 0 0 0 0 2.6108496377109986 1.8245110143179772 0 1.8245110143179772 26.260374249395682 0 0 0 0 -5.951544282755191 -3.0428733510244825 0 -3.0428733510244825 23.50107686952316 0 0 0 0 0.66741930765601865 1.9106242858542828 0 1.9106242858542828 28.205505010628258 0 0 0 0 -3.5260755042413621 7.33045043158927 0 7.33045043158927 29.484274744798313 0 0 0 0 0.060035432602699501 -0.97626295563003396 0 -0.97626295563003396 0.37205529524482017 0 0 0 0 -14.542045023066748 4.919176608644193 0 4.919176608644193 34.323667345830472 0 0 0 0 -12.659883509308202 -3.6547836018871749 0 -3.6547836018871749 1.1770004553181934 0 0 0 0 -15.014478199000678 17.713531047935248 0 17.713531047935248 24.133419231919106 0 0 0 0 -21.256920577308392 11.404248417573399 0 11.404248417573399 52.079781358072069 0 0 0 0 -9.8828398818857295 8.0872613389028629 0 8.0872613389028629 32.472304373601219 0 0 0 0 -12.248915422179692 7.9741865725432319 0 7.9741865725432319 3.3170554432586741 0 0 0 0 -1.8877681040384799 -3.1425379800465691 0 -3.1425379800465691 9.1461043952475336 0 0 0 0 -22.901478538493507 -27.979647178246523 0 -27.979647178246523 58.907842274973518 0 0 0 0 -43.154114371966315 70.834466185348901 0 70.834466185348901 51.740126994554885 0 0 0 0 65.54876453626494 47.59557896014303 0 47.59557896014303 11.705382120169816 0 0 0 0 34.738730653445259 3.6735943865569425 0 3.6735943865569425 5.3846411497652298 0 0 0 0 2.597843756607868 0.18031398509816654 0 0.18031398509816654 0.65718508427965006 0 0 0 0 12.676208381775155 -20.37422646280902 0 -20.37422646280902 -29.583287848523469 0 0 0 0 -14.238060273136284 55.463223626426043 0 55.463223626426043 47.983395764604211 0 0 0 0 -8.049417973789172 6.453471678100243 0 6.453471678100243 0.58017451744634307 0 0 0 0 -41.188370083187806 -2.9188264204130974 0 -2.9188264204130974 128.85071762598454 0 0 0 0 16.078255912049002 -28.021214647757006 0 -28.021214647757006 80.281724858301459 0 0 0 0 -1.4365381586106656 0.86726348864176828 0 0.86726348864176828 1.923940945083757 0 0 0 0 26.668963195214815 13.390153040279984 0 13.390153040279984 241.86372954043327 0 0 0 0 20.002812915809528 -43.197590893018059 0 -43.197590893018059 15.417533835367067 0 0 0 0 53.475487254339527 -5.5112116432574112 0 -5.5112116432574112 77.875251385034062 0 0 0 0 -11.344052651130795 -37.486515265278285 0 -37.486515265278285 85.879784210992511 0 0 0 0 -13.156634310252912 -37.994064906059066 0 -37.994064906059066 81.644887757851393 0 0 0 0 -3.2727898888722029 -1.4773270722392056 0 -1.4773270722392056 2.8453629183230191 0 0 0 0 -3.0007375244463788 -67.208744773713988 0 -67.208744773713988 -24.680984294443988 0 0 0 0 -37.902361673219588 -34.870066671064706 0 -34.870066671064706 14.97957103443332 0 0 0 0 -0.29221023541798558 0.038296959319922053 0 0.038296959319922053 0.83332406104648271 0 0 0 0 34.516268047052591 2.7348130083701108 0 2.7348130083701108 -128.89731447753911 0 0 0 0 15.631728648270602 -35.341415596922161 0 -35.341415596922161 -66.59586706389382 0 0 0 0 -0.31249669061145369 -48.328881681140047 0 -48.328881681140047 49.433676531130914 0 0 0 0 -6.4165434827215222 15.327654765264015 0 15.327654765264015 -68.163254742277786 0 0 0 0 -38.925539668259724 -5.5684273565129843 0 -5.5684273565129843 199.38287520298036 0 0 0 0 0.11237011515747088 -0.58902712298734627 0 -0.58902712298734627 3.6667309283214724 0 0 0 0 -1.2285677189688193 -9.2681354051746894 0 -9.2681354051746894 198.66833125933772 0 0 0 0 -0.021867732809217319 -47.047821453794313 0 -47.047821453794313 71.057742000906728 0 0 0 0 29.570963124516936 25.254302027897211 0 25.254302027897211 109.39322270249249 0 0 0 0 2.7869984197616304 -1.1730384585971478 0 -1.1730384585971478 113.59310575504787 0 0 0 0 0.00039578224038930299 -33.708495293809392 0 -33.708495293809392 -7.9094832901610062 0 0 0 0 -9.1143567866189059 -20.952368496793497 0 -20.952368496793497 -25.746643211810806 0 0 0 0 -33.725798274143244 -11.293200844467719 0 -11.293200844467719 37.318209969409509 0 0 0 0 -10.980267985893789 -46.647136395127745 0 -46.647136395127745 -10.579300771089038 0 0 0 0 3.2435093352975577 -8.6415806407940323 0 -8.6415806407940323 17.700478142988629 0 0 0 0 -19.734044498038916 -13.598682906796967 0 -13.598682906796967 -17.769448207647656 0 0 0 0 7.580360775131382 -10.516403242559818 0 -10.516403242559818 7.902324860857334 0 0 0 0 -0.029221687220323322 -27.518734687168035 0 -27.518734687168035 6.1393761173385428 0 0 0 0 -4.7218198509632616 -24.952266515307656 0 -24.952266515307656 6.9339457137393765 0 0 0 0 -69.80704034601861 -46.811131972754083 0 -46.811131972754083 23.22545636248833 0 0 0 0 -4.8509216778368369 -36.879243165865773 0 -36.879243165865773 12.751173564349301 0 0 0 0 9.8626990957220393 -43.872245996761194 0 -43.872245996761194 4.1514891179976985 0 0 0 0 -6.7112324863740938 -7.0723702251852956 0 -7.0723702251852956 60.377599840372568 0 0 0 0 0.15594677090458128 -33.607008191117245 0 -33.607008191117245 97.33568192445091 0 0 0 0 12.474126353729829 75.733438172741444 0 75.733438172741444 276.78641943765979 0 0 0 0 0.25065576251621163 -0.026425982464161279 0 -0.026425982464161279 1.0066836100072862 0 0 0 0 0.0067855328502967206 2.1012777280702721 0 2.1012777280702721 4.1189027439049823 0 0 0 0 22.877844326733634 -3.3087689884041538 0 -3.3087689884041538 94.975788133451715 0 0 0 0 -53.696487357620498 13.693363386919373 0 13.693363386919373 98.380871653374925 0 0 0 0 -6.0647472885456555 -5.8691844571156793 0 -5.8691844571156793 50.570801674936092 0 0 0 0 -105.78696371074722 -111.83557308675518 0 -111.83557308675518 10.208416703917919 0 0 0 0 -65.516828608707158 55.868797222909052 0 55.868797222909052 320.26789952570834 0 0 0 0 5.2675907801560697 121.15234733802208 0 121.15234733802208 24.938237317663152 0 0 0 0 -5.4757607875347141 -7.6582052748458267 0 -7.6582052748458267 56.884734008240514 0 0 0 0 -146.11497519966292 -176.31733736770548 0 -176.31733736770548 233.83654226633371 0 0 0 0 44.644355237719907 28.418604418922769 0 28.418604418922769 57.426822806839482 0 0 0 0 22.968333323117136 -0.50466810641592019 0 -0.50466810641592019 67.826180494448636 0 0 0 0 48.376455163865103 27.66177024683202 0 27.66177024683202 55.283570899046026 0 0 0 0 31.70806657987805 2.8550522240548162 0 2.8550522240548162 61.623857632737781 0 0 0 0 -7.4120542544549481 -3.0023776989825564 0 -3.0023776989825564 43.251878857434292 0 0 0 0 26.121028718715024 23.238689211939345 0 23.238689211939345 56.153048816660885 0 0 0 0 54.089323195128145 29.787321407195122 0 29.787321407195122 42.468173183384351 0 0 0 0 31.792515074555013 15.851192586123943 0 15.851192586123943 37.412502596474951 0 0 0 0 18.81897141414629 16.650691777780594 0 16.650691777780594 47.130197229576879 0 0 0 0 8.8121977390651409 -1.5038470705476357 0 -1.5038470705476357 45.846235955320481 0 0 0 0 7.7346315299389516 3.1809469983418239 0 3.1809469983418239 34.844543752144091 0 0 0 0 2.5213270162532808 -10.452755991209415 0 -10.452755991209415 16.392088891778258 0 0 0 0 1.0495595478850248 1.2641714498604415 0 1.2641714498604415 21.770237418306351 0 0 0 0 -2.0513395546651054 4.1229107416438637 0 4.1229107416438637 40.525242023599276 0 0 0 0 -4.1224844047301303 -11.188255197892431 0 -11.188255197892431 34.497394694350078 0 0 0 0 -9.4830732323061966 -11.154835899262252 0 -11.154835899262252 37.540305565198651 0 0 0 0 53.538829482972687 -379.52196619147435 0 -379.52196619147435 219.92733359558042 0 0 0 0 -8.2198291369449041 -9.2606675907310319 0 -9.2606675907310319 22.8307438141548 0 0 0 0 80.522672858216083 -53.758397930723731 0 -53.758397930723731 -205.59326923100889 0 0 0 0 92.27665905089944 -146.26835047625354 0 -146.26835047625354 -162.06985771506152 0 0 0 0 -16.711395941407382 -0.052144581895845477 0 -0.052144581895845477 45.094662525487365 0 0 0 0 0.57879695959763922 -0.4029764722508844 0 -0.4029764722508844 33.434293013386196 0 0 0 0 -6.0934659789413672 -2.5144411950241192 0 -2.5144411950241192 41.610158982744906 0 0 0 0 -8.442091829053652 -0.91860307875322178 0 -0.91860307875322178 54.683925135090249 0 0 0 0 15.999639113643235 -2.4352547674961897 0 -2.4352547674961897 41.932855227350956 0 0 0 0 -1.205563993667738 -0.74341818031098228 0 -0.74341818031098228 44.234153700323077 0 0 0 0 -3.7204885553833833 1.7155912816306227 0 1.7155912816306227 62.945990180291119 0 0 0 0 13.166694588064189 12.562101393137709 0 12.562101393137709 55.105971171498823 0 0 0 0 5.367867645610886 -2.3670421657407132 0 -2.3670421657407132 53.910283646750031 0 0 0 0 18.603518104871881 -0.67085981133277528 0 -0.67085981133277528 49.199820999012445 0 0 0 0 -5.5581844871364865 -1.3152732551534427 0 -1.3152732551534427 59.681178777100286 0 0 0 0 -3.0530203251521471 18.911843735822913 0 18.911843735822913 52.262491442539613 0 0 0 0 -8.0591485793765969 2.6609226992368349 0 2.6609226992368349 56.989080086685135 0 0 0 0 -17.035394660902512 6.9948233844334027 0 6.9948233844334027 57.425729919355945 0 0 0 0 -3.366474085731852 5.4067515322458348 0 5.4067515322458348 54.1363537023135 0 0 0 0 -8.855828935316822 4.611474978417391 0 4.611474978417391 53.920686706746892 0 0 0 0 -9.926968979686535 11.073216505275923 0 11.073216505275923 56.431216780823888 0 0 0 0 -4.9081812626727697 10.905563627580705 0 10.905563627580705 53.189502597582759 0 0 0 0 -11.441677101656296 6.7072422879646183 0 6.7072422879646183 47.206310083362041 0 0 0 0 -13.747621130323068 14.252581023711173 0 14.252581023711173 52.189044495113194 0 0 0 0 -11.829637246938546 22.365726546340738 0 22.365726546340738 21.08264669124037 0 0 0 0 -5.3598410444164983 8.1467566745704971 0 8.1467566745704971 39.959571488259826 0 0 0 0 -23.524600056331565 15.255744663885707 0 15.255744663885707 45.383771220309427 0 0 0 0 1.5029114603139533 7.7211842524702661 0 7.7211842524702661 20.340834832430119 0 0 0 0 -4.6080590693827617 20.66409429597843 0 20.66409429597843 39.863315469614463 0 0 0 0 17.593064513081117 10.223658382514259 0 10.223658382514259 43.791959139882238 0 0 0 0 -262.1996636640306 -11.861197786667617 0 -11.861197786667617 -136.62469055515248 0 0 0 0 -1.8858823816376571 16.883395386932534 0 16.883395386932534 57.020182234864478 0 0 0 0 -0.98895606209862663 -1.4959751808366661 0 -1.4959751808366661 2.3124621823124869 0 0 0 0 -8.3398608583962783 -8.3108620875063934 0 -8.3108620875063934 21.079571015242863 0 0 0 0 -5.1812277763806378 9.6992883967977832 0 9.6992883967977832 60.262896229862235 0 0 0 0 0.067559235119915684 10.531720400111226 0 10.531720400111226 -45.55623413529247 0 0 0 0 -91.747862290369085 23.104775117884856 0 23.104775117884856 106.82564338888915 0 0 0 0 40.440402945511551 -259.90118060924578 0 -259.90118060924578 -86.557514012267347 0 0 0 0 -68.18218510768321 -61.196494219650958 0 -61.196494219650958 114.32352685948717 0 0 0 0 -339.91646225369641 117.30168884777231 0 117.30168884777231 -406.60248560365289 0 0 0 0 2.6514743265606739 12.175944779548445 0 12.175944779548445 49.179770715592895 0 0 0 0 -1.418614580497811 -0.8914324536495144 0 -0.8914324536495144 1.9068418383494929 0 0 0 0 -5.6270949333738827 2.6062843198305927 0 2.6062843198305927 53.938193092522624 0 0 0 0 0.34852464731284272 5.8037711924116593 0 5.8037711924116593 40.562800559273455 0 0 0 0 -4.4276531364489795 0.0096108634403719861 0 0.0096108634403719861 0.92667807782191858 0 0 0 0 -18.185323697593049 -56.824241621565307 0 -56.824241621565307 112.15700823365478 0 0 0 0 -22.982077221038026 -102.04726232963731 0 -102.04726232963731 72.118045332477777 0 0 0 0 65.381791037815219 42.539774100732757 0 42.539774100732757 75.594444539660799 0 0 0 0 38.650631813774908 15.66085652091715 0 15.66085652091715 104.45547249770971 0 0 0 0 45.342274456797213 135.96840425963819 0 135.96840425963819 176.04938109080831 0 0 0 0 128.84912576385091 193.07506687395289 0 193.07506687395289 182.53317731217248 0 0 0 0 97.748004955449574 93.039550273450004 0 93.039550273450004 84.121982800294063 0 0 0 0 102.39065307041494 146.33053575724625 0 146.33053575724625 116.05071032827254 0 0 0 0 82.109266886129717 129.46590489105438 0 129.46590489105438 149.8671850602841 0 0 0 0 294.98440737854992 231.9536622654341 0 231.9536622654341 184.07157893017938 0 0 0 0 174.83847743226306 73.209803828369331 0 73.209803828369331 189.7637063661823 0 0 0 0 -187.15061743784383 -320.09514328409205 0 -320.09514328409205 847.49172993139655 0 0 0 0 97.301668726936441 340.69280713273838 0 340.69280713273838 432.72347520601761 0 0 0 0 -136.40682700052542 -104.64280644628889 0 -104.64280644628889 1245.8971184193797 0 0 0 0 -112.83694787443707 -318.73811562137507 0 -318.73811562137507 2252.7286844319606 0 0 0 0 344.93270463156966 535.15203146246495 0 535.15203146246495 652.36144953968324 0 0 0 0 7.3069676376454913 6.0229823211825533 0 6.0229823211825533 6.0379844660704975 0 0 0 0 201.69842343878577 137.98285594664776 0 137.98285594664776 -113.47371417372779 0 0 0 0 -30.601232765503283 -322.11852235128754 0 -322.11852235128754 2423.2322881718615 0 0 0 0 -141.26001006391795 -317.01811100866325 0 -317.01811100866325 3249.5267177913192 0 0 0 0 -68.241919442472295 45.947698484040302 0 45.947698484040302 149.73773746650841 0 0 0 0 -81.517757944547611 76.353820082844322 0 76.353820082844322 88.126456926460378 0 0 0 0 -92.225689478334971 11.442015537810221 0 11.442015537810221 104.21407998137875 0 0 0 0 -96.641470567601573 42.367131703838822 0 42.367131703838822 69.71481810703699 0 0 0 0 -144.51581489378987 -20.693664745238493 0 -20.693664745238493 84.615649416402448 0 0 0 0 -34.578651204674316 30.927160924387863 0 30.927160924387863 69.05151927586121 0 0 0 0 36.397508679531711 -42.880296947376337 0 -42.880296947376337 134.55960606210283 0 0 0 0 94.710211687261108 115.82594997616252 0 115.82594997616252 169.66466291190591 0 0 0 0 147.7378974929984 20.57727724484721 0 20.57727724484721 75.96766121769906 0 0 0 0 -182.62293333773732 -17.3358068655034 0 -17.3358068655034 45.746070955960022 0 0 0 0 26.409863708233615 -46.291791563518927 0 -46.291791563518927 76.395337165755336 0 0 0 0 -12.909237053661627 43.688634263860877 0 43.688634263860877 147.54703107252135 0 0 0 0 -72.767172276922793 -56.594981537549756 0 -56.594981537549756 7.1275345043977723 0 0 0 0 39.160969787994873 -32.221105804339459 0 -32.221105804339459 34.684655331628164 0 0 0 0 -9.7825827467833264 -9.176739654838201 0 -9.176739654838201 22.951420677466558 0 0 0 0 -2.4742342236798383 -1.0141438222207739 0 -1.0141438222207739 1.1639839470633433 0 0 0 0 -11.850724242663091 -21.159377109011984 0 -21.159377109011984 24.382549135771114 0 0 0 0 13.623609716309147 -8.9070409075065982 0 -8.9070409075065982 23.731849076317303 0 0 0 0 13.601687063615429 5.1990552326960824 0 5.1990552326960824 24.506606204900891 0 0 0 0 14.099318753466832 1.0584917181549827 0 1.0584917181549827 16.483837494975887 0 0 0 0 11.483610616166516 -2.6645595862355549 0 -2.6645595862355549 9.1912459960876731 0 0 0 0 -1.6862702758098749 9.2875648341141641 0 9.2875648341141641 12.512468723914935 0 0 0 0 -18.787570703486381 8.2558774705394171 0 8.2558774705394171 23.430126012885012 0 0 0 0 -24.074740979277067 0.49037556981784292 0 0.49037556981784292 36.251598813803867 0 0 0 0 -15.8713598026402 -4.4517318331636488 0 -4.4517318331636488 37.964491870894562 0 0 0 0 -0.66680364101375744 -5.9455717358505353 0 -5.9455717358505353 32.838685455237282 0 0 0 0 21.592209459681726 -2.299302772647934 0 -2.299302772647934 31.535913995099691 0 0 0 0 28.368233800841153 0.73337208686280064 0 0.73337208686280064 30.796402884763665 0 0 0 0 22.419400334234524 8.6836229520267807 0 8.6836229520267807 51.418368088485295 0 0 0 0 14.579977274974681 9.569642800870497 0 9.569642800870497 32.965442298154812 0 0 0 0 17.963146022485603 -7.4878403737602639 0 -7.4878403737602639 19.35700247308705 0 0 0 0 32.987922253653323 5.2889782130150707 0 5.2889782130150707 25.246941312478157 0 0 0 0 15.051063702666625 6.3494758834931417 0 6.3494758834931417 36.976684589404613 0 0 0 0 1.0391215722011111 -4.6896907643240411 0 -4.6896907643240411 29.545778119529132 0 0 0 0 1.5929192363781226 -9.8237835883792286 0 -9.8237835883792286 32.43623104901053 0 0 0 0 -7.6098087988845631 -5.2622647249406214 0 -5.2622647249406214 24.240384280123607 0 0 0 0 -71.357709095709652 39.180562267778441 0 39.180562267778441 35.086567417660262 0 0 0 0 -35.667791244222826 26.097564013674855 0 26.097564013674855 38.917193546280032 0 0 0 0 8.8498537820087222 -13.031343362497864 0 -13.031343362497864 17.797099892399274 0 0 0 0 -3.0276401714218082 -152.21356411308807 0 -152.21356411308807 -46.800391995078826 0 0 0 0 -56.978377412877308 4.4850756382656982 0 4.4850756382656982 87.872283573095046 0 0 0 0 20.153671643480472 17.746037912654401 0 17.746037912654401 14.010489849176082 0 0 0 0 94.800211054857755 111.28671806136845 0 111.28671806136845 1498.7791443430106 0 0 0 0 -67.710169993702948 70.760960422223434 0 70.760960422223434 24.578590724602691 0 0 0 0 -201.86269479589055 46.474368366049021 0 46.474368366049021 2509.5488747369673 0 0 0 0 -84.607983407982601 -95.912796821099619 0 -95.912796821099619 1629.0149255936267 0 0 0 0 -131.04003055633893 178.2624875144611 0 178.2624875144611 1776.3811118960439 0 0 0 0 -234.77571762346315 -80.5186333246711 0 -80.5186333246711 2195.8689494359423 0 0 0 0 -56.40363917249995 -201.69399615221027 0 -201.69399615221027 460.40931563236518 0 0 0 0 57.328759082993656 -94.319680482687545 0 -94.319680482687545 667.29985139478231 0 0 0 0 -124.63843755986272 331.04207752997172 0 331.04207752997172 1757.1312825893092 0 0 0 0 4.1879854817390729 5.6547055768709811 0 5.6547055768709811 5.6149167016186539 0 0 0 0 -67.999613775692296 -103.87885367554554 0 -103.87885367554554 414.00904599337082 0 0 0 0 117.54794528096431 222.09560120107926 0 222.09560120107926 309.80767503477909 0 0 0 0 171.01786346375914 25.827223704502103 0 25.827223704502103 351.74775123616564 0 0 0 0 372.52184588961745 674.74107188587368 0 674.74107188587368 1527.856314036937 0 0 0 0 0.069763640206701893 -325.74893830779183 0 -325.74893830779183 3256.1243846296275 0 0 0 0 383.37975231412605 1173.6887658462365 0 1173.6887658462365 1802.9887047001321 0 0 0 0 -278.01692124839019 223.11183099095069 0 223.11183099095069 2763.1876923206873 0 0 0 0 298.91147785817537 1183.2088150652053 0 1183.2088150652053 3607.2637525113096 0 0 0 0 -0.31136100725078464 -0.64073809044712959 0 -0.64073809044712959 11.723884284324242 0 0 0 0 -0.0031487960412032497 -3.7348441367357736 0 -3.7348441367357736 18.484771780058509 0 0 0 0 1.2380180429855359 0.037696030936785974 0 0.037696030936785974 24.725135208282154 0 0 0 0 3.1304241234403238 -4.5521988481018667 0 -4.5521988481018667 22.505532208448699 0 0 0 0 -0.017217549956868538 -16.314823535681722 0 -16.314823535681722 9.2795103841926903 0 0 0 0 1.7261064687400931 2.5406579767586663 0 2.5406579767586663 29.737776530004339 0 0 0 0 -3.2101270372856305 -0.87614819896407425 0 -0.87614819896407425 33.799807539748144 0 0 0 0 -4.431441036203613 -2.7713880418450572 0 -2.7713880418450572 31.409317177181947 0 0 0 0 -1.373156428775403 -0.40339001807862473 0 -0.40339001807862473 9.3491193968500284 0 0 0 0 18.47297737428001 6.7337631004474758 0 6.7337631004474758 11.755813514516404 0 0 0 0 39.182934267228347 18.243132812367548 0 18.243132812367548 31.785211303285905 0 0 0 0 -23.569748232259069 -33.216367088112747 0 -33.216367088112747 12.81987666891655 0 0 0 0 -5.7493278444017228 1.0481987875747762 0 1.0481987875747762 36.014418485439251 0 0 0 0 -13.350722177099662 -20.937787623443 0 -20.937787623443 8.8233152317698114 0 0 0 0 -3.4984630284662792 -24.736988499338622 0 -24.736988499338622 6.9718259592336835 0 0 0 0 256.9123113676942 50.02950645666715 0 50.02950645666715 43.528758732194547 0 0 0 0 71.712500279008054 -261.07835989699379 0 -261.07835989699379 615.75689660501666 0 0 0 0 576.3885910482461 530.89572511116421 0 530.89572511116421 378.93556026574515 0 0 0 0 0.42594522460814233 -0.73072411828080419 0 -0.73072411828080419 7.2761838503324157 0 0 0 0 0.57176435928789626 -2.6143680802706299 0 -2.6143680802706299 20.430272217708819 0 0 0 0 -27.028904238598443 -80.698341371124116 0 -80.698341371124116 70.993601278139977 0 0 0 0 125.64981270195085 11.1131193044057 0 11.1131193044057 41.482049735379405 0 0 0 0 261.45779097416471 0.21815607287862804 0 0.21815607287862804 -37.245049776727683 0 0 0 0 14.792693219127614 2.7960345415267511 0 2.7960345415267511 -3.5911065047839656 0 0 0 0 27.009307740099757 -178.4027516607166 0 -178.4027516607166 -116.14365358907526 0 0 0 0 156.31035856111339 62.138254658791993 0 62.138254658791993 58.56465887381637 0 0 0 0 230.24917829346396 -57.618384302408231 0 -57.618384302408231 -27.077040475531248 0 0 0 0 -106.22695298180133 -135.64442358899396 0 -135.64442358899396 -123.888711784115 0 0 0 0 53.39577836546232 -191.37901714215695 0 -191.37901714215695 -163.22432707163898 0 0 0 0 1.7321049513315359 -2.6111505709071992 0 -2.6111505709071992 1.0284818065387356 0 0 0 0 40.310343490125888 -63.263264556720969 0 -63.263264556720969 -19.807743244207813 0 0 0 0 71.27176192279876 -40.290769823703158 0 -40.290769823703158 -224.0266178737802 0 0 0 0 -238.49045081791519 -228.20689516962739 0 -228.20689516962739 8.0166761390864849 0 0 0 0 -175.10372061743146 -149.93719660004717 0 -149.93719660004717 58.647749231211492 0 0 0 0 -82.677125791547383 -236.29040764318961 0 -236.29040764318961 -328.5814851076575 0 0 0 0 -214.07659423548284 -160.27968429896282 0 -160.27968429896282 232.78202586375119 0 0 0 0 -56.480588414485283 82.038968829372607 0 82.038968829372607 104.07441054064111 0 0 0 0 25.050626413198188 -253.3809390753886 0 -253.3809390753886 111.62974028971803 0 0 0 0 313.21086344862397 -67.626415748425643 0 -67.626415748425643 -98.111423288719379 0 0 0 0 217.0818285312771 -84.751932778448463 0 -84.751932778448463 178.40167703283078 0 0 0 0 457.25347675584635 351.0417852189712 0 351.0417852189712 447.80167870938021 0 0 0 0 -14.844345259555212 -138.69853805788807 0 -138.69853805788807 695.03215363353956 0 0 0 0 215.0541458974742 424.33459151023999 0 424.33459151023999 399.29602998508199 0 0 0 0 53.196836898021957 187.93659460849813 0 187.93659460849813 155.1514035918517 0 0 0 0 1.8697872658945318 2.9030873469365872 0 2.9030873469365872 5.1900651733721475 0 0 0 0 -125.7597076251086 -32.741260435130243 0 -32.741260435130243 470.90783024267876 0 0 0 0 460.67286214406329 107.0557446760431 0 107.0557446760431 -20.409754351858282 0 0 0 0 390.09302337237114 99.374622381401423 0 99.374622381401423 -119.42316724012198 0 0 0 0 71.738659099237339 328.09558385986747 0 328.09558385986747 854.99503624104545 0 0 0 0 -5.3922564222875735 198.50689410366613 0 198.50689410366613 647.612803879485 0 0 0 0 798.92373162885087 -98.598525448374858 0 -98.598525448374858 174.23141782946186 0 0 0 0 277.16919679156126 -91.465372598886461 0 -91.465372598886461 -40.315525287092896 0 0 0 0 138.39070438439012 -3.8730064606788801 0 -3.8730064606788801 160.68639445629378 0 0 0 0 -42.464702263549043 -49.910151448711986 0 -49.910151448711986 -12.321182409272296 0 0 0 0 224.81210724210905 -76.941368121304549 0 -76.941368121304549 -28.311369195471343 0 0 0 0 -142.1211875750123 -80.657560352381552 0 -80.657560352381552 69.064778041309182 0 0 0 0 -61.770859113855295 -244.09903016204044 0 -244.09903016204044 350.54102987388615 0 0 0 0 16.969759202871501 -136.94333263138833 0 -136.94333263138833 -139.14582750926638 0 0 0 0 -223.77175483135761 -214.92063896905165 0 -214.92063896905165 81.487331078882562 0 0 0 0 -151.88957537321767 -206.18220034435217 0 -206.18220034435217 -155.46343010474811 0 0 0 0 -128.63670139544547 -164.00527117400998 0 -164.00527117400998 -317.47016536517185 0 0 0 0 -172.05772287944274 -153.48693095811905 0 -153.48693095811905 3.6395159294770565 0 0 0 0 -165.67516460834486 -158.68749353737803 0 -158.68749353737803 7.1664326951868134 0 0 0 0 -178.77475392606812 48.721145173592959 0 48.721145173592959 174.78559324876551 0 0 0 0 -188.06562270612267 24.026730284989753 0 24.026730284989753 205.82826582681446 0 0 0 0 -113.22274937337306 -96.670532617059507 0 -96.670532617059507 785.54675370341283 0 0 0 0 -171.34239730129775 90.8392608097638 0 90.8392608097638 353.78495167927281 0 0 0 0 -1.5855165586503972 24.106248384123319 0 24.106248384123319 50.200902438387857 0 0 0 0 14.83428357023439 36.363883776287366 0 36.363883776287366 46.914408491764334 0 0 0 0 -9.2627260425302236 -6.6632877887330153 0 -6.6632877887330153 18.999201149226394 0 0 0 0 20.891450001076009 -131.55945515815984 0 -131.55945515815984 -86.013166613993235 0 0 0 0 -0.46922317786877521 -1.3257678965663615 0 -1.3257678965663615 1.7501026032086315 0 0 0 0 -121.19189531269058 -26.906337087668362 0 -26.906337087668362 -40.368432381594175 0 0 0 0 -149.37370881952438 -194.56682741798613 0 -194.56682741798613 -147.96800357305619 0 0 0 0 -212.38439088661016 -85.640769099896715 0 -85.640769099896715 -10.43104934625444 0 0 0 0 -155.9116385997113 -48.857299032599258 0 -48.857299032599258 62.356110940891085 0 0 0 0 -125.0594221063875 -72.590646539727459 0 -72.590646539727459 -40.703071771713439 0 0 0 0 -24.164264196409476 -57.865109190519433 0 -57.865109190519433 -164.10108114515606 0 0 0 0 -73.315035505054766 -145.26667259354144 0 -145.26667259354144 -61.533967603798374 0 0 0 0 -110.42554257917982 -3.3253467146496405 0 -3.3253467146496405 9.1211739845020929 0 0 0 0 12.966173333769348 -87.962390969958506 0 -87.962390969958506 67.155205048853531 0 0 0 0 -88.662924529890461 -53.234736679147318 0 -53.234736679147318 228.73025085810514 0 0 0 0 62.738841790558126 85.849374911769701 0 85.849374911769701 63.195021388580585 0 0 0 0 -61.072448138549134 100.29386663026162 0 100.29386663026162 282.9606236761756 0 0 0 0 2.9432083018398316 142.08300449945091 0 142.08300449945091 262.13297758690169 0 0 0 0 -5.4550468942123249 0.59814598074777336 0 0.59814598074777336 1.0419322771753912 0 0 0 0 -91.047289235923017 226.30761269230425 0 226.30761269230425 258.80361573540722 0 0 0 0 -3.0960909015528237 0.065266760164803372 0 0.065266760164803372 1.046975472010331 0 0 0 0 -110.34483513640362 183.43319241950303 0 183.43319241950303 315.28974739839032 0 0 0 0 -90.958625689752807 96.651735179264506 0 96.651735179264506 297.25472592629376 0 0 0 0 -29.656501254013165 68.854091651781346 0 68.854091651781346 265.29660090195102 0 0 0 0 219.0309884310218 229.97953661992506 0 229.97953661992506 204.75087572397752 0 0 0 0 29.064629902386514 55.345352612333954 0 55.345352612333954 120.14884502381028 0 0 0 0 -3.2847419698759177 -5.2221464536285076 0 -5.2221464536285076 31.254154888031792 0 0 0 0 -5.0638851283965778 78.883961235593233 0 78.883961235593233 104.26778814192221 0 0 0 0 -3.1663606348670896 95.563611728867727 0 95.563611728867727 168.32810241779953 0 0 0 0 -45.048248780017275 18.738543126426521 0 18.738543126426521 134.97646699359029 0 0 0 0 -2.9954348417095389 3.3975692926978809 0 3.3975692926978809 39.794103994674515 0 0 0 0 -12.419458455937551 1.604694902424626 0 1.604694902424626 10.164972356217419 0 0 0 0 32.979848775375672 122.46704787695489 0 122.46704787695489 213.80243714239623 0 0 0 0 -102.24267694628816 73.304371875092329 0 73.304371875092329 216.61750732857263 0 0 0 0 -31.19463785158905 60.017556399503519 0 60.017556399503519 130.83051984403573 0 0 0 0 -41.241724045303954 101.9082527643186 0 101.9082527643186 196.33779660749133 0 0 0 0 -66.987905986712576 189.28508441075974 0 189.28508441075974 293.53051572105323 0 0 0 0 -168.31327273292754 -14.457311974030745 0 -14.457311974030745 298.70138478904846 0 0 0 0 -90.335826548206342 -286.19446919551774 0 -286.19446919551774 -272.00851666992821 0 0 0 0 271.99802316625301 -323.98143922800955 0 -323.98143922800955 280.27482912614505 0 0 0 0 -4.7261503999302041 -2.5290999929760574 0 -2.5290999929760574 2.9600127427091252 0 0 0 0 -122.90589868877987 -115.16386420718663 0 -115.16386420718663 -16.370083991612773 0 0 0 0 -214.88475597381483 -33.070461029576109 0 -33.070461029576109 1103.2698746842507 0 0 0 0 -1.6390789794881471 -2.2208023601417324 0 -2.2208023601417324 3.3053851380084325 0 0 0 0 -191.15340530385288 -172.89049241710745 0 -172.89049241710745 1920.2782352950744 0 0 0 0 -1.1090100133774485 -7.6802713679833587 0 -7.6802713679833587 29.830416286088791 0 0 0 0 -87.752416449031671 33.473587848820898 0 33.473587848820898 41.043274910145556 0 0 0 0 -259.84642183172059 -176.60678816343352 0 -176.60678816343352 127.13803559499502 0 0 0 0 548.02606563315112 -707.53215240055215 0 -707.53215240055215 657.09381624062371 0 0 0 0 106.80415273933733 118.16752539557274 0 118.16752539557274 6.848601995196077 0 0 0 0 175.11490946761114 42.581195267499425 0 42.581195267499425 14.069326438751887 0 0 0 0 0.6774226910483776 130.28963378503249 0 130.28963378503249 799.43848577688368 0 0 0 0 172.48012636619842 -40.893540871620644 0 -40.893540871620644 191.25296339180932 0 0 0 0 31.441015430430753 44.221456829423914 0 44.221456829423914 149.54987410649483 0 0 0 0 74.798738372473053 -19.228997460253595 0 -19.228997460253595 -43.454971121595008 0 0 0 0 -67.244763780518952 16.57816751270002 0 16.57816751270002 59.812078735478281 0 0 0 0 -288.28426979480719 -273.47459509116743 0 -273.47459509116743 -137.51738990808371 0 0 0 0 -7.6361582643745187 1.4423555666239736 0 1.4423555666239736 10.414126783955936 0 0 0 0 470.47582272861564 -14.600124424396199 0 -14.600124424396199 -32.689295034921088 0 0 0 0 644.0714733576624 -661.87100997207745 0 -661.87100997207745 -454.74280584499502 0 0 0 0 -10.992087738648934 199.33443409286338 0 199.33443409286338 -31.691251462179935 0 0 0 0 -0.39814855451502495 0.37811596006500281 0 0.37811596006500281 -0.72644017396240201 0 0 0 0 355.71449239961839 -89.161509231154923 0 -89.161509231154923 -37.079984780736055 0 0 0 0 28.679332293730113 -14.248992873559473 0 -14.248992873559473 198.63251926115481 0 0 0 0 104.19642283263056 -121.28317831308232 0 -121.28317831308232 161.07641654557665 0 0 0 0 80.800629836703592 -48.543348196762963 0 -48.543348196762963 17.329094692933722 0 0 0 0 1.9252124867125531 58.485734580201097 0 58.485734580201097 62.981503534771036 0 0 0 0 11.370135517437888 -7.4682669350171977 0 -7.4682669350171977 5.4371107876584688 0 0 0 0 14.065303199517075 -43.27117284648557 0 -43.27117284648557 -103.9991256428184 0 0 0 0 108.868776803336 -11.559056792735646 0 -11.559056792735646 -106.54458316057571 0 0 0 0 4.4088017781847739 -2.9050968325074109 0 -2.9050968325074109 1.6996300008964909 0 0 0 0 234.80184322188188 35.432552376827516 0 35.432552376827516 -97.315339861961547 0 0 0 0 309.22378540997215 135.62948211322509 0 135.62948211322509 -137.87331892375369 0 0 0 0 48.744567957248364 -223.5746364506922 0 -223.5746364506922 45.749702221219195 0 0 0 0 308.82411564053018 -201.8156980456406 0 -201.8156980456406 46.069394104491948 0 0 0 0 -30.703042388849099 32.627869838887818 0 32.627869838887818 -2.5382261020422447 0 0 0 0 189.58498369904919 -98.90941848984221 0 -98.90941848984221 56.789488763010013 0 0 0 0 203.19460401248671 -111.80236079879251 0 -111.80236079879251 158.22885296346431 0 0 0 0 95.854445002912144 -62.62973134614731 0 -62.62973134614731 139.99512086049799 0 0 0 0 141.94681511243562 -28.782938014514002 0 -28.782938014514002 467.3244213865546 0 0 0 0 103.30562712921801 36.723045890174035 0 36.723045890174035 167.19413787560188 0 0 0 0 204.94738778635929 -217.4006349022311 0 -217.4006349022311 89.656918628665153 0 0 0 0 190.97597473878778 22.381223885324516 0 22.381223885324516 -19.83768392172351 0 0 0 0 46.74890000538835 -49.936167609717813 0 -49.936167609717813 -62.916402275193832 0 0 0 0 0.85236612979173287 0.36652982821749447 0 0.36652982821749447 0.48366412155201033 0 0 0 0 69.079472272662315 13.023511512263212 0 13.023511512263212 92.357746584929032 0 0 0 0 168.06894512123199 -186.66469951847466 0 -186.66469951847466 124.86874386202544 0 0 0 0 1.5165338895731111 72.530477793894534 0 72.530477793894534 15.380944490098045 0 0 0 0 -176.42681733356767 123.89835655721981 0 123.89835655721981 64.584320241097885 0 0 0 0 0.35802548119099775 0.32821241416448288 0 0.32821241416448288 -0.61653890421831647 0 0 0 0 231.84493793629417 19.534413333414705 0 19.534413333414705 -14.577615738598979 0 0 0 0 17.903779973214114 34.306261917190568 0 34.306261917190568 3.5913476170353533 0 0 0 0 24.768420649788823 26.014075762283028 0 26.014075762283028 -30.759600547957234 0 0 0 0 18.604438071520494 19.696231044037944 0 19.696231044037944 14.12219011627036 0 0 0 0 48.206517130163775 75.144799077850621 0 75.144799077850621 -68.086966413815389 0 0 0 0 -14.268963236354921 12.905872931096383 0 12.905872931096383 -6.1103687652212102 0 0 0 0 145.21222580420181 12.059164569836867 0 12.059164569836867 -28.704649874161987 0 0 0 0 1.9900306358476882 46.627109259236022 0 46.627109259236022 13.942387381352091 0 0 0 0 16.092644913354434 24.70831757736596 0 24.70831757736596 18.865931795735378 0 0 0 0 32.542154824637691 0.75636150824720971 0 0.75636150824720971 4.5980483329622075 0 0 0 0 47.552969392366322 69.406771371737705 0 69.406771371737705 124.25773427293461 0 0 0 0 39.192485457348084 45.384943381046469 0 45.384943381046469 -82.202723852096824 0 0 0 0 -140.47512821642158 94.957566201155714 0 94.957566201155714 47.848042019919376 0 0 0 0 0.02164877467246562 -0.022460958394276531 0 -0.022460958394276531 -1.6373879580315247 0 0 0 0 -39.931993870935912 88.084617525237263 0 88.084617525237263 -29.613267047679983 0 0 0 0 65.017713444308356 35.184949001319183 0 35.184949001319183 -50.247866128651367 0 0 0 0 15.959748349456277 23.733070585141832 0 23.733070585141832 35.494442316354252 0 0 0 0 19.604778594575674 20.187711730940634 0 20.187711730940634 15.603508489946591 0 0 0 0 5.9561290663819015 1.8126277387019769 0 1.8126277387019769 -6.9546067813910781 0 0 0 0 -7.4797439545550333 38.98529827641687 0 38.98529827641687 -52.683383588766446 0 0 0 0 46.959523918509149 73.61542968764843 0 73.61542968764843 -31.440246952559392 0 0 0 0 33.211291498964783 27.411623429361498 0 27.411623429361498 -49.852263554552337 0 0 0 0 5.9987291611778346 0.039969499135622755 0 0.039969499135622755 9.649008110172872 0 0 0 0 11.123927357025433 2.3478694878158421 0 2.3478694878158421 6.3134532149640847 0 0 0 0 7.6668293580314337 8.1603759174419963 0 8.1603759174419963 24.648163646377952 0 0 0 0 -173.87469106633159 -147.54154733654104 0 -147.54154733654104 -19.981863012100803 0 0 0 0 7.5402097352692206 -3.4625011255461118 0 -3.4625011255461118 12.930221387036397 0 0 0 0 -72.103995352001334 -101.11578425424386 0 -101.11578425424386 -36.619534338271478 0 0 0 0 -1.4366467457864962 -6.7388353255545752 0 -6.7388353255545752 4.5083206944432845 0 0 0 0 1.2624727539141531 -33.569291318337491 0 -33.569291318337491 -1.5058741655666381 0 0 0 0 -309.32485740922857 -37.533314873755444 0 -37.533314873755444 85.318293519034341 0 0 0 0 4.3053660856921852 -44.20813706467743 0 -44.20813706467743 26.078166400679038 0 0 0 0 16.748590510928807 20.669860166264698 0 20.669860166264698 57.32823893254681 0 0 0 0 -5.1338573332728323 -14.080920108561969 0 -14.080920108561969 26.393953666617534 0 0 0 0 19.784199764600544 16.2549026035922 0 16.2549026035922 54.749287627957528 0 0 0 0 11.590543576862729 18.413591788586928 0 18.413591788586928 54.851366931659868 0 0 0 0 18.793410346197561 11.557457961658656 0 11.557457961658656 55.906614964580513 0 0 0 0 18.650300585138211 14.633276442473289 0 14.633276442473289 44.477333418617491 0 0 0 0 9.2971242832304597 20.790011070625042 0 20.790011070625042 49.251678947854089 0 0 0 0 12.305861270644527 14.764065669005504 0 14.764065669005504 54.255815749114845 0 0 0 0 10.228940476857133 24.147353524043865 0 24.147353524043865 55.849520543080871 0 0 0 0 11.170058010197636 15.472680528077035 0 15.472680528077035 39.117481103705359 0 0 0 0 11.113916024790843 26.208454847538718 0 26.208454847538718 56.374370775591672 0 0 0 0 8.7927067945383897 27.430824904171459 0 27.430824904171459 65.345623027867987 0 0 0 0 -31.898737615800883 19.187050572487351 0 19.187050572487351 88.950470321920875 0 0 0 0 9.0213135812082328 19.37572693459515 0 19.37572693459515 59.081884598090255 0 0 0 0 -22.037848394174034 -3.191462168651924 0 -3.191462168651924 62.605323259329452 0 0 0 0 8.0027571552946029 17.734573267065571 0 17.734573267065571 56.874433072553074 0 0 0 0 6.8808706982379135 21.70154002669733 0 21.70154002669733 71.678571438402287 0 0 0 0 8.287625037161888 31.326216805238801 0 31.326216805238801 76.208901784579211 0 0 0 0 12.813333532276374 10.596463733818382 0 10.596463733818382 64.111037778202444 0 0 0 0 -7.6428255314165447 -13.44908628495466 0 -13.44908628495466 27.468900534676436 0 0 0 0 -4.1234521851711179 -6.0439675842790166 0 -6.0439675842790166 82.105378256979748 0 0 0 0 -2.4604248713985726 -5.2792608767776983 0 -5.2792608767776983 32.046259211550932 0 0 0 0 1.2540384788779217 5.2818893750990412 0 5.2818893750990412 10.858454617716205 0 0 0 0 -20.803396560817298 -24.292538784905574 0 -24.292538784905574 56.032079614680868 0 0 0 0 30.761920842743166 77.717115461178764 0 77.717115461178764 109.85972593107726 0 0 0 0 6.3046893474465833 25.962867064452439 0 25.962867064452439 180.28049593401374 0 0 0 0 -9.9821083651818583 -7.694366154639539 0 -7.694366154639539 15.79872298961277 0 0 0 0 -2.8204596320720157 15.266681213717675 0 15.266681213717675 165.50264992733719 0 0 0 0 -14.204311719889366 -13.348205208554177 0 -13.348205208554177 46.395199409882537 0 0 0 0 -13.171234432057645 -12.804955074396275 0 -12.804955074396275 32.439228997500322 0 0 0 0 -40.428535663210596 15.061297336455027 0 15.061297336455027 88.822686245381192 0 0 0 0 7.5569147454370977 86.564243909844663 0 86.564243909844663 66.232285392223275 0 0 0 0 -48.513925374605606 -31.096187040442601 0 -31.096187040442601 69.168685858196113 0 0 0 0 -10.626594917768216 -16.229947150267861 0 -16.229947150267861 27.431785740051424 0 0 0 0 9.0954852393377905 25.105388326935099 0 25.105388326935099 89.132400819551549 0 0 0 0 14.224046586245095 58.717416646810307 0 58.717416646810307 146.92970123095438 0 0 0 0 -19.393103739134403 42.261450774833065 0 42.261450774833065 181.39626070766826 0 0 0 0 27.514143002824312 26.877556502593507 0 26.877556502593507 140.89562598319026 0 0 0 0 15.449520944228425 56.150296446794528 0 56.150296446794528 137.41588306794074 0 0 0 0 11.707879500936542 55.56756523848162 0 55.56756523848162 161.37487264347146 0 0 0 0 0.68794753274505638 103.58436200700089 0 103.58436200700089 167.8639033340296 0 0 0 0 -6.0865857561666417 93.071504281360831 0 93.071504281360831 186.67224959659507 0 0 0 0 10.126041951315528 57.347723324906838 0 57.347723324906838 168.48872822514386 0 0 0 0 -14.762640052822462 105.76608178234892 0 105.76608178234892 220.52760766068241 0 0 0 0 26.864073975414613 188.44769767431717 0 188.44769767431717 300.60760900190508 0 0 0 0 -11.537783803296406 111.02767152317392 0 111.02767152317392 188.10380470901146 0 0 0 0 -106.65991440348989 24.548078535633977 0 24.548078535633977 375.27859103103037 0 0 0 0 -183.07512934796932 -134.14390640795318 0 -134.14390640795318 180.97565052751452 0 0 0 0 -87.227228813876081 -36.744677666067219 0 -36.744677666067219 157.37433949799743 0 0 0 0 -21.420432112145136 11.081891494148294 0 11.081891494148294 72.504304501315346 0 0 0 0 -29.393011538468272 13.059011727120378 0 13.059011727120378 141.06169847460114 0 0 0 0 -34.619513893005205 13.614376475583413 0 13.614376475583413 141.22228786066989 0 0 0 0 -59.533762333358027 37.609646712298854 0 37.609646712298854 262.80292556728818 0 0 0 0 -104.3532050158588 -31.579974853746535 0 -31.579974853746535 297.29363253100018 0 0 0 0 40.784229615997901 -77.971670246166468 0 -77.971670246166468 149.73202843046874 0 0 0 0 248.09435628387223 -322.07034527116775 0 -322.07034527116775 420.24945548972028 0 0 0 0 115.36772070723941 -84.836665844355593 0 -84.836665844355593 87.922694962755486 0 0 0 0 -134.11169282550648 580.96487302283822 0 580.96487302283822 91.95511272935255 0 0 0 0 4.2070561927836083 8.3466002829040207 0 8.3466002829040207 13.298133525997741 0 0 0 0 -33.45410576480613 -30.300321627524681 0 -30.300321627524681 106.64365726768301 0 0 0 0 5.1248730598905468 -72.219903165700089 0 -72.219903165700089 149.17821189032111 0 0 0 0 -36.827002250219564 -53.475379052597418 0 -53.475379052597418 67.770853090434684 0 0 0 0 -17.652201813038118 -61.716770486715177 0 -61.716770486715177 -81.838204921637953 0 0 0 0 -37.038929140498567 1.1709838655151543 0 1.1709838655151543 117.50417641567037 0 0 0 0 -74.888491950699773 29.636057643067033 0 29.636057643067033 134.17009007846355 0 0 0 0 -55.490362995342593 23.749672098332667 0 23.749672098332667 106.14275538143556 0 0 0 0 -15.527683854715121 82.596348085575301 0 82.596348085575301 115.18674942827784 0 0 0 0 -32.817890082806002 21.572730599717033 0 21.572730599717033 82.75851343110844 0 0 0 0 -57.857714317067803 68.982513623424893 0 68.982513623424893 61.365458750608013 0 0 0 0 12.72597506414775 26.319527963091076 0 26.319527963091076 49.456040764148526 0 0 0 0 18.32364679739112 9.3756801415311202 0 9.3756801415311202 50.138245330294012 0 0 0 0 46.564876073240384 49.0347581946844 0 49.0347581946844 20.258323686961376 0 0 0 0 -39.253492345820945 43.641514095721504 0 43.641514095721504 53.672821591884713 0 0 0 0 150.90858620295191 129.82937879508972 0 129.82937879508972 31.858964269704302 0 0 0 0 -0.52162194967466746 0.62220168179037216 0 0.62220168179037216 -1.2550666547700189 0 0 0 0 -414.52607312787376 32.749039871716377 0 32.749039871716377 91.069711393560283 0 0 0 0 -79.126382342014068 164.26518960528483 0 164.26518960528483 29.002238715249405 0 0 0 0 -180.20241395948358 87.906713522168502 0 87.906713522168502 252.82274894238799 0 0 0 0 -24.811956598793586 27.388622370064695 0 27.388622370064695 68.603575639586779 0 0 0 0 -32.248707149475194 101.98860521970346 0 101.98860521970346 585.077148944285 0 0 0 0 -190.03509250275079 235.36393488357862 0 235.36393488357862 80.765643698105123 0 0 0 0 94.978224260536081 126.91871093477675 0 126.91871093477675 -28.221738983978867 0 0 0 0 -88.268662447330257 151.60667247215315 0 151.60667247215315 5.242799067083979 0 0 0 0 36.431665879913908 88.549138413312903 0 88.549138413312903 -9.6536799756722758 0 0 0 0 1.8807563859808165 13.389948225086087 0 13.389948225086087 3.2181914026460561 0 0 0 0 -79.408980252861397 49.156119495848543 0 49.156119495848543 -9.0071701703345752 0 0 0 0 -76.669405802103256 64.572034763339616 0 64.572034763339616 23.725753168560914 0 0 0 0 8.7596199326913364 38.780612468714878 0 38.780612468714878 39.740290768575505 0 0 0 0 -36.756216898799778 137.36179810123031 0 137.36179810123031 -90.537084326337208 0 0 0 0 -39.378285004522468 56.083693982436671 0 56.083693982436671 25.592315651811077 0 0 0 0 -35.730310053811763 77.500304930086713 0 77.500304930086713 -0.96149438939755782 0 0 0 0 0.25348668065043967 86.797895778625389 0 86.797895778625389 -9.4913290561817121 0 0 0 0 -1.2030430390068432 19.720903782217647 0 19.720903782217647 52.625449987090178 0 0 0 0 31.215493836899896 14.044627195871726 0 14.044627195871726 34.969833454990294 0 0 0 0 -7.6125453271370134 12.408528334344737 0 12.408528334344737 36.667668205329392 0 0 0 0 -14.425635805256093 88.945585652378213 0 88.945585652378213 39.614889608285011 0 0 0 0 74.167716268386471 68.107039309099491 0 68.107039309099491 -16.053581784275593 0 0 0 0 11.095034702021348 26.379215163926858 0 26.379215163926858 43.648752163582543 0 0 0 0 43.001513738790891 31.35911307061906 0 31.35911307061906 55.774411654332653 0 0 0 0 -8.209063577184212 1.1879930176938274 0 1.1879930176938274 13.491409545994259 0 0 0 0 24.18710885353812 47.899629486018966 0 47.899629486018966 -24.700902654796664 0 0 0 0 -15.167846048072079 33.739129894864163 0 33.739129894864163 -7.274704555835342 0 0 0 0 9.6044462781563222 18.071243677421421 0 18.071243677421421 -6.2110272817071177 0 0 0 0 7.1185258417962176 17.530312190454026 0 17.530312190454026 27.848967578176314 0 0 0 0 15.375275137762046 52.211618946023989 0 52.211618946023989 -16.774883768851168 0 0 0 0 11.2102498923241 16.225003429382923 0 16.225003429382923 -21.295978460286278 0 0 0 0 -16.978576387251451 12.364159626449691 0 12.364159626449691 -22.321677118074149 0 0 0 0 11.214376589285683 16.154913914818181 0 16.154913914818181 -26.667111838922096 0 0 0 0 68.538756314427246 37.916535993288562 0 37.916535993288562 -22.456276787190291 0 0 0 0 15.671845699324631 20.286274995797442 0 20.286274995797442 9.9844538567977565 0 0 0 0 -20.71271931854244 53.697784067553584 0 53.697784067553584 -14.84460555743135 0 0 0 0 2.756727541341661 78.677279384704889 0 78.677279384704889 -3.8718999895208981 0 0 0 0 -49.937954399715636 60.812329943662917 0 60.812329943662917 20.901579713594401 0 0 0 0 -1.6249168184389529 5.9662283606166824 0 5.9662283606166824 5.7312605914455048 0 0 0 0 68.575234963479943 35.198055198834481 0 35.198055198834481 8.3452368379876134 0 0 0 0 -69.940260781694633 35.215517335309414 0 35.215517335309414 9.0864737668453017 0 0 0 0 -0.72680590677177292 1.0272865769490522 0 1.0272865769490522 -0.93026975616709251 0 0 0 0 63.996908844942709 38.950684888863179 0 38.950684888863179 16.49734813591931 0 0 0 0 127.67126884727122 32.349728917622997 0 32.349728917622997 17.176773346669506 0 0 0 0 -6.9736472459294419 53.168144492303327 0 53.168144492303327 -0.67341696648509242 0 0 0 0 -17.277495081999405 86.740340256408672 0 86.740340256408672 -11.063397778194485 0 0 0 0 -3.6652609749852609 27.826053562540721 0 27.826053562540721 40.771792492244629 0 0 0 0 -112.35444048920276 231.36548155455796 0 231.36548155455796 -98.32115097566566 0 0 0 0 101.91209243006142 93.629667269618949 0 93.629667269618949 1.1037019387586042 0 0 0 0 -19.929183955712432 57.209057811921866 0 57.209057811921866 6.0153134877618868 0 0 0 0 191.22470449951015 71.483400400451501 0 71.483400400451501 -209.56588483824453 0 0 0 0 1.8768227142775977 5.790706223225655 0 5.790706223225655 -6.7660356580733492 0 0 0 0 -115.37600481021718 29.722647847964254 0 29.722647847964254 136.29245333025756 0 0 0 0 141.85050502099443 42.626882572356408 0 42.626882572356408 -30.002973443508381 0 0 0 0 11.396952250357117 30.303991182416212 0 30.303991182416212 22.84742242552602 0 0 0 0 36.844810511351028 70.197289527388421 0 70.197289527388421 -80.67215345618024 0 0 0 0 -105.12192480891804 61.369564415457717 0 61.369564415457717 65.170904325779702 0 0 0 0 -28.28382381069423 44.372270961532195 0 44.372270961532195 -14.865004075862089 0 0 0 0 -19.380544934613859 17.343843233266114 0 17.343843233266114 38.811034799720801 0 0 0 0 -91.360069198875919 151.50210858301489 0 151.50210858301489 -12.467655033178744 0 0 0 0 -36.181920462663811 51.360085777603672 0 51.360085777603672 -4.7944210768764606 0 0 0 0 -3.4221139391884208 29.033340817757562 0 29.033340817757562 -8.7133170809102012 0 0 0 0 -1.0568101716999081 26.917924039196805 0 26.917924039196805 -11.968599133339012 0 0 0 0 -178.85883512053488 -49.373064254825294 0 -49.373064254825294 -36.236157835912309 0 0 0 0 -6.363613673166908 19.224273786963749 0 19.224273786963749 -5.0248379666708161 0 0 0 0 -271.29073272560777 26.022797869321948 0 26.022797869321948 127.98587382155529 0 0 0 0 -5.1986423057383853 21.802162046261572 0 21.802162046261572 -1.6519754937447715 0 0 0 0 -303.6192819100828 -8.6699758311788173 0 -8.6699758311788173 121.78757712012157 0 0 0 0 -9.9013424633663796 2.1038488325128242 0 2.1038488325128242 11.032146941687898 0 0 0 0 -387.33617235096608 191.04634425257973 0 191.04634425257973 -75.614550343234441 0 0 0 0 -291.61277253192861 -33.437482751058269 0 -33.437482751058269 228.66642175754532 0 0 0 0 138.18515559477544 198.21521807857062 0 198.21521807857062 265.09645909302344 0 0 0 0 -35.009371993432069 -36.79231653289753 0 -36.79231653289753 72.799963304772973 0 0 0 0 -23.76127396465067 81.626488926494403 0 81.626488926494403 435.45046973349235 0 0 0 0 133.82531060802194 -173.41285913580941 0 -173.41285913580941 136.36726951198216 0 0 0 0 101.21403503025697 -52.274096678404021 0 -52.274096678404021 470.39715961048205 0 0 0 0 423.66318008838078 104.66155757927481 0 104.66155757927481 425.36129244450422 0 0 0 0 9.7906517396816071 -59.976331065234262 0 -59.976331065234262 -0.39051680547936485 0 0 0 0 139.06234189019244 178.73457192280512 0 178.73457192280512 -234.01366549817612 0 0 0 0 202.75433435452851 -3.998129489387793 0 -3.998129489387793 -4.5855179267964559 0 0 0 0 89.726225248433707 -123.31328609713091 0 -123.31328609713091 -115.62585653168935 0 0 0 0 -44.868870668290128 -89.129023964858789 0 -89.129023964858789 -26.502119929551554 0 0 0 0 -43.496382152233764 -24.497570964049373 0 -24.497570964049373 13.673481806385098 0 0 0 0 18.619472816536927 -41.643543595666415 0 -41.643543595666415 -189.28104215343046 0 0 0 0 -45.173904232197856 -18.678256382561813 0 -18.678256382561813 100.83143540078891 0 0 0 0 -29.549483497742887 19.398130585106969 0 19.398130585106969 3.6992025009295357 0 0 0 0 5.1810955800106058 -3.3307882333792804 0 -3.3307882333792804 86.20940654099104 0 0 0 0 -119.75456048462729 29.003463003555225 0 29.003463003555225 81.363701995923293 0 0 0 0 -30.338307948469264 -68.084603966472059 0 -68.084603966472059 75.992473373684334 0 0 0 0 -32.26122368074266 -28.624269562355039 0 -28.624269562355039 -4.0827701122761937 0 0 0 0 31.763733642623265 -32.903487186715211 0 -32.903487186715211 70.988203708053334 0 0 0 0 -4.4622096634466386 0.075970994213250265 0 0.075970994213250265 23.710103394249927 0 0 0 0 185.23633599047116 109.70771476845039 0 109.70771476845039 -45.209439828533505 0 0 0 0 33.333707271177104 74.04965510490365 0 74.04965510490365 -41.714578976287157 0 0 0 0 6.8174580386473735 21.798657094961527 0 21.798657094961527 -8.8948340629285667 0 0 0 0 53.09159308980918 24.022592447635361 0 24.022592447635361 4.7302270148356911 0 0 0 0 3.536103070464037 53.30400438068591 0 53.30400438068591 8.3822345447260886 0 0 0 0 44.759379942517626 52.433764153509401 0 52.433764153509401 -18.486028255050769 0 0 0 0 26.793599073099358 63.664918314752867 0 63.664918314752867 -7.9257583100988995 0 0 0 0 0.015687999929994589 1.9414966637141617 0 1.9414966637141617 3.0608795038865244 0 0 0 0 9.2422540031202516 60.695928087618086 0 60.695928087618086 72.403917438787175 0 0 0 0 -8.7782621267506329 66.217477434880266 0 66.217477434880266 127.60852511973934 0 0 0 0 -59.379183118442597 23.27773789656203 0 23.27773789656203 144.62074737960211 0 0 0 0 10.31054021451564 52.654566000572231 0 52.654566000572231 93.029913518133981 0 0 0 0 -32.287823807080613 15.373762376968763 0 15.373762376968763 145.95964300672227 0 0 0 0 -0.72080528051647974 29.510661188174119 0 29.510661188174119 71.827543091109447 0 0 0 0 38.958589915455377 23.815067287359852 0 23.815067287359852 535.0742094401503 0 0 0 0 31.204526535013429 21.151830853559659 0 21.151830853559659 508.649307339816 0 0 0 0 -101.67455839917602 47.058103839779506 0 47.058103839779506 604.48614266599179 0 0 0 0 1.5671328239263858 128.20626793424162 0 128.20626793424162 451.0613591747242 0 0 0 0 -40.187835783263381 -104.07702883432285 0 -104.07702883432285 586.9339592763281 0 0 0 0 -1.7376278654531934 13.237546772559647 0 13.237546772559647 5.2303614368982494 0 0 0 0 -25.787243083777867 160.36145469889743 0 160.36145469889743 413.35457449358364 0 0 0 0 -9.6359916008495929 106.96415875693492 0 106.96415875693492 403.80860296093306 0 0 0 0 -166.32704815009856 261.3723037690288 0 261.3723037690288 330.25017301365733 0 0 0 0 -93.940337570047632 135.55600916533876 0 135.55600916533876 513.94132017664379 0 0 0 0 -74.015854374124501 114.19413204665034 0 114.19413204665034 536.27005956042558 0 0 0 0 -148.16051646929532 160.33871649537105 0 160.33871649537105 526.21097986359382 0 0 0 0 -336.39015860798963 257.13129214478249 0 257.13129214478249 669.44428732554661 0 0 0 0 -301.00370618782404 135.86945867072791 0 135.86945867072791 703.07563680701423 0 0 0 0 -470.70806129829771 414.47091197514965 0 414.47091197514965 489.91898010317527 0 0 0 0 -70.199898532401448 282.16185367407888 0 282.16185367407888 8.3696373036364093 0 0 0 0 -2.4718729424842492 1.3063849113251678 0 1.3063849113251678 10.4978494228057 0 0 0 0 -30.776984827845808 81.231932653914555 0 81.231932653914555 373.09735464210098 0 0 0 0 6.6268262648720402 32.143292892752214 0 32.143292892752214 33.644672846263404 0 0 0 0 -17.911862446307396 3.0295561809500242 0 3.0295561809500242 64.219709256313649 0 0 0 0 6.3694297793513215 43.385533263704929 0 43.385533263704929 75.349839949456509 0 0 0 0 -18.283725982178112 54.607939931142027 0 54.607939931142027 230.06617696764442 0 0 0 0 7.1557072410589626 10.251962718655705 0 10.251962718655705 207.75785952305887 0 0 0 0 6.9972813950143582 -6.4914801389267041 0 -6.4914801389267041 280.6175850572763 0 0 0 0 -38.246214291466117 54.21847514037654 0 54.21847514037654 261.2092277599404 0 0 0 0 -72.722729021643431 46.544810487590439 0 46.544810487590439 329.04279882580522 0 0 0 0 -62.310541383811717 10.919605561939534 0 10.919605561939534 344.16015737838461 0 0 0 0 -100.02607869666907 245.54632283411047 0 245.54632283411047 -547.4905355306546 0 0 0 0 -7.0864381547215425 1.5768098528252494 0 1.5768098528252494 7.9059238500390734 0 0 0 0 179.97833998223763 701.16489386476314 0 701.16489386476314 -227.87425249375883 0 0 0 0 82.045422436262356 656.03117694720277 0 656.03117694720277 778.51686280535068 0 0 0 0 -322.97474798858866 92.964562544322689 0 92.964562544322689 267.58617927342129 0 0 0 0 3.8757573428661729 104.20122923557938 0 104.20122923557938 1830.5567810670655 0 0 0 0 -362.43432939016748 328.10574777762668 0 328.10574777762668 461.88827386941966 0 0 0 0 700.43969489820677 -48.412571962657239 0 -48.412571962657239 481.94331952408538 0 0 0 0 340.61748295345211 -105.35085177902874 0 -105.35085177902874 -189.00928946967178 0 0 0 0 -21.136057298257398 19.732780611364731 0 19.732780611364731 -2.6859167565892781 0 0 0 0 -85.245191469600627 208.64759363575286 0 208.64759363575286 -76.750936253010877 0 0 0 0 -88.594267244272942 14.328049019144601 0 14.328049019144601 171.81275814965193 0 0 0 0 -66.034334844695877 92.215925679523934 0 92.215925679523934 13.840527367865434 0 0 0 0 20.083915548848381 0.56068425657576881 0 0.56068425657576881 23.191997886209265 0 0 0 0 -41.869247932070721 46.64212151556967 0 46.64212151556967 133.6612442137266 0 0 0 0 -7.7715286694738097 40.896254592145851 0 40.896254592145851 242.10620300115988 0 0 0 0 -13.278447630313952 20.975359705791789 0 20.975359705791789 25.221762964414403 0 0 0 0 8.7382042033040861 16.58421222955873 0 16.58421222955873 33.115824780392359 0 0 0 0 7.120490206079694 -15.294148718428914 0 -15.294148718428914 115.08073878778396 0 0 0 0 3.5515208093833053 -43.805081420374336 0 -43.805081420374336 105.41180864935814 0 0 0 0 -3.6507836673066683 -2.9659811224179595 0 -2.9659811224179595 109.95631617210381 0 0 0 0 -10.685517337156739 -35.923969175633829 0 -35.923969175633829 107.90860565132607 0 0 0 0 -40.511975962080214 5.3508397790756135 0 5.3508397790756135 147.86769812844432 0 0 0 0 39.376495012808846 2.7485781526775099 0 2.7485781526775099 54.479241131164599 0 0 0 0 -35.209989290657177 7.6668210539282882 0 7.6668210539282882 224.58246923817205 0 0 0 0 -23.958333074725289 14.051309954877688 0 14.051309954877688 79.28476918419598 0 0 0 0 -21.179010960346204 28.689007339795353 0 28.689007339795353 216.47927310492378 0 0 0 0 -18.083420589751409 17.283248351102202 0 17.283248351102202 150.66766926824658 0 0 0 0 -15.960939500046537 27.594369544058946 0 27.594369544058946 99.111467598887288 0 0 0 0 -23.719685653669103 37.665759735359998 0 37.665759735359998 135.09753294044427 0 0 0 0 -36.926726142744883 28.316862332110759 0 28.316862332110759 61.89736624807847 0 0 0 0 -34.999531733958193 -3.0561432460182374 0 -3.0561432460182374 137.88937293429564 0 0 0 0 -10.865742735863023 3.8910952051664935 0 3.8910952051664935 175.68064327671891 0 0 0 0 -24.750248565556717 -2.8111921270246967 0 -2.8111921270246967 84.469262310467457 0 0 0 0 -59.49206033810529 -38.468875952537928 0 -38.468875952537928 112.57672592291783 0 0 0 0 -1.5259275483299355 -5.4459749318570339 0 -5.4459749318570339 97.581893204518124 0 0 0 0 6.1920959625247178 -20.970752861609071 0 -20.970752861609071 80.466091747814062 0 0 0 0 20.813345069124352 -19.725621700490592 0 -19.725621700490592 107.59183069592291 0 0 0 0 10.858785653529996 19.922810709724956 0 19.922810709724956 24.784001484658461 0 0 0 0 53.940496315262862 -59.337455594542917 0 -59.337455594542917 116.99826688639587 0 0 0 0 58.241253133335022 -54.969995455270691 0 -54.969995455270691 89.447597655642312 0 0 0 0 83.211941163365282 -53.977665902890294 0 -53.977665902890294 102.07185498234685 0 0 0 0 64.9288575834114 -44.402722776336304 0 -44.402722776336304 176.2755145103074 0 0 0 0 11.198341717378526 24.205067078000866 0 24.205067078000866 135.63591317989278 0 0 0 0 14.576956130814096 -37.461754324520371 0 -37.461754324520371 136.66717947738653 0 0 0 0 38.560678561288796 -61.340082296806941 0 -61.340082296806941 143.46492020515871 0 0 0 0 42.146971160525709 -13.89861989351084 0 -13.89861989351084 138.70638628772576 0 0 0 0 -10.120066202230475 -41.849009852423478 0 -41.849009852423478 121.14555073681549 0 0 0 0 -15.842179763983268 2.1418122955656145 0 2.1418122955656145 113.54665854996347 0 0 0 0 -45.755940238078438 -13.360056446457747 0 -13.360056446457747 124.70885467603512 0 0 0 0 -48.376149359115288 13.672037704825925 0 13.672037704825925 95.895340146598755 0 0 0 0 -52.111710945915888 11.483995179052727 0 11.483995179052727 94.993454887091502 0 0 0 0 -73.304221965153317 -20.806022984090305 0 -20.806022984090305 111.97144167354418 0 0 0 0 301.38659066897708 -78.62221711663733 0 -78.62221711663733 -187.23164614991401 0 0 0 0 157.98370961052024 -140.34775463953974 0 -140.34775463953974 689.70625488353835 0 0 0 0 0.86963292197376507 -0.35336970525670353 0 -0.35336970525670353 8.1078141948404436 0 0 0 0 295.35429452448216 205.23507717440225 0 205.23507717440225 67.340102733287495 0 0 0 0 86.053923923604998 106.76067974296075 0 106.76067974296075 44.056837260708562 0 0 0 0 194.70331840394238 -100.06801314554912 0 -100.06801314554912 -36.486933327454608 0 0 0 0 8.6293431082813186 147.21119537091727 0 147.21119537091727 218.88336819603501 0 0 0 0 6.8035688778836629 21.965843666308501 0 21.965843666308501 40.528514359546534 0 0 0 0 -49.813610527239007 14.421350562170119 0 14.421350562170119 5.4409581194049679 0 0 0 0 83.746454957142106 -50.132756677024872 0 -50.132756677024872 113.91342251956667 0 0 0 0 -311.16697169300551 168.95064338169323 0 168.95064338169323 -35.71423994523775 0 0 0 0 11.699112612370405 19.780327073356673 0 19.780327073356673 25.199572118928899 0 0 0 0 -316.66622858945493 -149.34252365226678 0 -149.34252365226678 31.4331020959944 0 0 0 0 49.928808651259715 -269.94127796469184 0 -269.94127796469184 -186.39552979612199 0 0 0 0 -112.64447596073387 991.16259344919672 0 991.16259344919672 53.263948666863143 0 0 0 0 88.94397058180877 -35.995891782633862 0 -35.995891782633862 340.49209977326973 0 0 0 0 11.840094400633932 16.757557313660868 0 16.757557313660868 19.017066571853945 0 0 0 0 77.708243727828403 -98.761479710268759 0 -98.761479710268759 157.27155561203108 0 0 0 0 108.21922370238531 32.714557630579293 0 32.714557630579293 280.71650623730966 0 0 0 0 9.0837340188506914 -81.306374350198894 0 -81.306374350198894 343.27298673021255 0 0 0 0 11.934169462299906 -35.021856949031644 0 -35.021856949031644 522.54957270635714 0 0 0 0 -7.3725705893712075 -438.62757934082765 0 -438.62757934082765 875.37982359991292 0 0 0 0 154.61210078642216 -275.8953255395827 0 -275.8953255395827 426.90718292674865 0 0 0 0 -517.93531740426943 -106.59200650517414 0 -106.59200650517414 208.9442990401003 0 0 0 0 -176.10286607082253 269.16199304210022 0 269.16199304210022 495.23375961588681 0 0 0 0 94.855649029786946 -148.99041015464172 0 -148.99041015464172 -384.1620792341364 0 0 0 0 2.076586724763553 2.887613555679458 0 2.887613555679458 4.2014006688889083 0 0 0 0 277.38082112086477 114.81356035734643 0 114.81356035734643 -167.39228312097839 0 0 0 0 6.7117338385262677 6.4233273862481894 0 6.4233273862481894 6.2570224677167232 0 0 0 0 -44.700406308118318 383.26070313420496 0 383.26070313420496 -498.58687838256174 0 0 0 0 629.45337199225435 -161.19959055073923 0 -161.19959055073923 -201.01583112050139 0 0 0 0 -241.08990709439922 172.17379221676674 0 172.17379221676674 972.66484526546992 0 0 0 0 -31.017446448166538 14.083603032078827 0 14.083603032078827 25.011306541360682 0 0 0 0 -34.52139367772088 16.639590537084587 0 16.639590537084587 37.7908620165108 0 0 0 0 -21.166816417452083 -28.781882201896224 0 -28.781882201896224 116.75723343950085 0 0 0 0 -19.665046215687198 61.615093343723856 0 61.615093343723856 -11.272767793740059 0 0 0 0 -0.21172480156214846 1.7073322459298197 0 1.7073322459298197 0.5094592300624754 0 0 0 0 69.307112114886195 185.82868800028155 0 185.82868800028155 135.15024018963595 0 0 0 0 0.10712476805272786 1.2504912625153679 0 1.2504912625153679 1.26446891415209 0 0 0 0 85.302271287139774 107.35996644888291 0 107.35996644888291 -104.79294355004095 0 0 0 0 73.689941376248157 91.760874161937863 0 91.760874161937863 142.05756727317203 0 0 0 0 15.34023334859944 43.568119509018288 0 43.568119509018288 156.14007183756621 0 0 0 0 -63.906023393726684 -3.5204499078517983 0 -3.5204499078517983 136.02032209900062 0 0 0 0 -62.727842138568121 -59.601425786437176 0 -59.601425786437176 265.42011987332808 0 0 0 0 19.475065215973984 71.931785911221596 0 71.931785911221596 324.27021829120349 0 0 0 0 -19.233748046006326 -88.395393686168063 0 -88.395393686168063 408.3337662989652 0 0 0 0 171.45763131603803 -158.20848183846465 0 -158.20848183846465 128.74382900519413 0 0 0 0 -20.500875629460552 -38.896629162696627 0 -38.896629162696627 143.836343158815 0 0 0 0 -14.115316124777905 -74.825378913365967 0 -74.825378913365967 205.14409345464082 0 0 0 0 -48.047945920923894 -23.949438467283471 0 -23.949438467283471 234.23737186344806 0 0 0 0 -8.0537180235583037 26.548851174018637 0 26.548851174018637 160.754941168394 0 0 0 0 -48.155373763688658 -9.9531674542231485 0 -9.9531674542231485 184.19940067801508 0 0 0 0 -6.8394441775508312 60.523455935366655 0 60.523455935366655 302.46378529867798 0 0 0 0 -2.5398600182475093 -31.477104869685718 0 -31.477104869685718 135.72145682544215 0 0 0 0 38.11719571463982 3.1480704205750953 0 3.1480704205750953 65.16853179782629 0 0 0 0 0.54306038450757121 -3.3565040637395498 0 -3.3565040637395498 7.6956168255203927 0 0 0 0 28.159742548960821 -8.4941782317509933 0 -8.4941782317509933 134.21191743206873 0 0 0 0 15.808689683628018 -41.696524937415234 0 -41.696524937415234 366.65785610917374 0 0 0 0 95.758964629104412 13.300390191892802 0 13.300390191892802 153.33516361525471 0 0 0 0 -4.9011885819732015 107.27968785419944 0 107.27968785419944 511.06244398194394 0 0 0 0 1.5155822404610451 -0.24958572920056099 0 -0.24958572920056099 0.23008471902863903 0 0 0 0 -36.312844946023915 6.3814924174766929 0 6.3814924174766929 47.325210191484075 0 0 0 0 -14.813392220205515 -83.374777731543873 0 -83.374777731543873 12.015842832202907 0 0 0 0 -71.094252213211121 -47.492414736803767 0 -47.492414736803767 250.42288928276685 0 0 0 0 -41.2492957257341 -22.52141993476107 0 -22.52141993476107 119.55239703961342 0 0 0 0 -26.226617824760012 -117.87814420678569 0 -117.87814420678569 327.97021591025987 0 0 0 0 -151.37083193696219 99.633243288422818 0 99.633243288422818 374.66483574904851 0 0 0 0 3.550267756914713 2.4286988533116869 0 2.4286988533116869 21.570545422511586 0 0 0 0 -107.36135998259576 -0.24856275564229691 0 -0.24856275564229691 69.971119106397964 0 0 0 0 -79.898605949981857 49.124464467429789 0 49.124464467429789 63.121746659337077 0 0 0 0 -71.428271042915071 29.653721097562084 0 29.653721097562084 95.174713918735506 0 0 0 0 -67.971290233996143 5.7012937673899842 0 5.7012937673899842 70.543960743932985 0 0 0 0 -67.283689018235236 33.820363811886637 0 33.820363811886637 76.059100514903548 0 0 0 0 -108.44013854254172 25.291257673627115 0 25.291257673627115 74.324416399060283 0 0 0 0 -57.14717314050813 24.34273602423491 0 24.34273602423491 101.99730317922513 0 0 0 0 -20.06811510322018 -16.51489424864485 0 -16.51489424864485 88.509427734155906 0 0 0 0 -12.998082584775489 55.950999531749403 0 55.950999531749403 67.706982687297568 0 0 0 0 239.39343077078252 -374.97682548156808 0 -374.97682548156808 21.482935915104463 0 0 0 0 -20.031502349436778 216.91272849872621 0 216.91272849872621 -64.379570806846232 0 0 0 0 -36.319299150825941 -6.3366095425844833 0 -6.3366095425844833 -60.847248102312733 0 0 0 0 -58.417980951069922 213.93301413085283 0 213.93301413085283 219.07196300896612 0 0 0 0 56.834953544949485 97.565588037803536 0 97.565588037803536 45.952643797543715 0 0 0 0 55.02987792754999 100.43197916054805 0 100.43197916054805 210.63152179596364 0 0 0 0 18.909070181293828 18.008185309277906 0 18.008185309277906 93.476230259377189 0 0 0 0 39.676874315909686 12.057321876491187 0 12.057321876491187 111.54215003645368 0 0 0 0 51.287636195667005 65.35792377571488 0 65.35792377571488 131.2404320557107 0 0 0 0 52.463769404807181 50.683688152275863 0 50.683688152275863 225.44857085377407 0 0 0 0 102.89560455420769 91.362771164160222 0 91.362771164160222 132.32574740090786 0 0 0 0 102.78080124222538 52.180179337112349 0 52.180179337112349 123.3910095912579 0 0 0 0 52.291512850929053 -11.768929757581645 0 -11.768929757581645 416.0987571416772 0 0 0 0 131.5824850462609 6.7580237185211445 0 6.7580237185211445 172.88262023152856 0 0 0 0 -50.576296595898157 -28.772167825249198 0 -28.772167825249198 417.24242625528859 0 0 0 0 -31.974246443977336 -7.3652433212555479 0 -7.3652433212555479 395.32491410513467 0 0 0 0 -44.455185555952767 95.608162880900636 0 95.608162880900636 79.768521613616031 0 0 0 0 -0.0084124415790832741 0.31777326117570937 0 0.31777326117570937 2.142770559797583 0 0 0 0 49.054061682303541 -95.394268166430265 0 -95.394268166430265 156.62524942062009 0 0 0 0 12.039569403907763 -97.32256897163461 0 -97.32256897163461 387.48558814497665 0 0 0 0 -5.480751841167546 27.004071588955412 0 27.004071588955412 149.00252065330278 0 0 0 0 1.8478759621730205 -22.699670611931651 0 -22.699670611931651 478.38600837660488 0 0 0 0 181.85619830025939 46.274042252545769 0 46.274042252545769 476.1375679915509 0 0 0 0 15.86395224187595 -57.093282352820097 0 -57.093282352820097 560.93023840806563 0 0 0 0 -49.287773828128365 4.6120095987062086 0 4.6120095987062086 506.25467027869308 0 0 0 0 -51.676708674945758 123.70634383557626 0 123.70634383557626 534.58117541721731 0 0 0 0 17.455018708177704 74.365161158253613 0 74.365161158253613 220.55602273825934 0 0 0 0 -0.94493533841609945 1.0217110627413177 0 1.0217110627413177 -2.8434346344260746 0 0 0 0 266.49500582237829 -93.25214592373959 0 -93.25214592373959 697.87829589367902 0 0 0 0 -139.33852289175684 328.0496021207 0 328.0496021207 571.1628427466203 0 0 0 0 1.6134453341005064 2.3194286234314916 0 2.3194286234314916 -0.074255865285152822 0 0 0 0 39.947151706978389 -84.059538550034631 0 -84.059538550034631 709.77621526570874 0 0 0 0 0.72944780937088438 1.2720336870064131 0 1.2720336870064131 3.6498153780689222 0 0 0 0 156.47762429600783 120.9700299052256 0 120.9700299052256 60.319522788711765 0 0 0 0 -2.2200609868158949 224.60719924300429 0 224.60719924300429 584.12325544332271 0 0 0 0 -99.013354078282305 8.4654787615472742 0 8.4654787615472742 125.62714577217412 0 0 0 0 56.30824503507273 -349.28213033884822 0 -349.28213033884822 608.792866527554 0 0 0 0 -56.522887166634177 -133.20903894634102 0 -133.20903894634102 211.61159193059211 0 0 0 0 229.15682740517605 44.618349327007309 0 44.618349327007309 58.128969830897404 0 0 0 0 -6.17383116388533 -6.1682104958912447 0 -6.1682104958912447 35.698674830409487 0 0 0 0 -35.187318606710051 113.51675511417852 0 113.51675511417852 138.93958989386738 0 0 0 0 24.344258950511367 67.525774826570796 0 67.525774826570796 38.18999295932008 0 0 0 0 23.425858054808259 73.609103097114712 0 73.609103097114712 56.176219964621851 0 0 0 0 75.822268452880508 148.90839213243817 0 148.90839213243817 32.660060581110884 0 0 0 0 -34.377717388356245 118.63645236264892 0 118.63645236264892 33.122807086707326 0 0 0 0 -46.776592417241318 20.365133520062955 0 20.365133520062955 9.1895511080656433 0 0 0 0 54.061075701401734 25.710286631981489 0 25.710286631981489 -8.0668819196653203 0 0 0 0 -39.986771934014293 8.3797785937099434 0 8.3797785937099434 29.423730354683357 0 0 0 0 -48.217319896580449 -24.173017128818174 0 -24.173017128818174 -11.678532814701612 0 0 0 0 -1.7064989574911049 0.20379728825973586 0 0.20379728825973586 1.4267025126320023 0 0 0 0 14.100627017385477 -24.345979202204035 0 -24.345979202204035 71.567401941268145 0 0 0 0 -95.437225572151874 -28.815330894416547 0 -28.815330894416547 14.3866807252125 0 0 0 0 -145.04161382501297 39.747182057348255 0 39.747182057348255 103.41409352412302 0 0 0 0 -8.2679470411558214 14.179785787928267 0 14.179785787928267 -9.7938439854769967 0 0 0 0 -39.069340854563819 -10.564519736347165 0 -10.564519736347165 2.1688704425032483 0 0 0 0 1.3605352141719309 4.3633009833558631 0 4.3633009833558631 7.6508298944894761 0 0 0 0 0.25585749442223005 -33.674855547281368 0 -33.674855547281368 65.464532090525609 0 0 0 0 47.697260855728473 16.204370589104656 0 16.204370589104656 -45.032062228696304 0 0 0 0 101.9219556984151 -22.967189938368392 0 -22.967189938368392 -61.997122239947203 0 0 0 0 67.989685382907965 -64.519890811054211 0 -64.519890811054211 35.423094438861881 0 0 0 0 39.43833651674916 -32.033141357712339 0 -32.033141357712339 -17.578550141741289 0 0 0 0 -65.355231508575798 -33.738728546963102 0 -33.738728546963102 18.979617077049625 0 0 0 0 55.803628686842785 -32.143739052979072 0 -32.143739052979072 -26.245419709317503 0 0 0 0 16.959114734894513 -97.840891403295245 0 -97.840891403295245 26.585299211656093 0 0 0 0 61.906784828188165 -5.6931752785894787 0 -5.6931752785894787 -70.307896662750863 0 0 0 0 38.396927009799583 -30.20678525576659 0 -30.20678525576659 62.374846465922019 0 0 0 0 1.4569943478956313 3.1629644027019737 0 3.1629644027019737 13.66574337393887 0 0 0 0 16.246029743074985 -21.321083864533648 0 -21.321083864533648 0.96179630159167573 0 0 0 0 24.892859800758742 -39.299147280093166 0 -39.299147280093166 -14.162549285825662 0 0 0 0 -1.239881877291384 -0.11637270620694551 0 -0.11637270620694551 8.8823153853231247 0 0 0 0 -12.690919325860705 13.800282820571738 0 13.800282820571738 78.37386755317857 0 0 0 0 0.18696549237158111 0.84073897570492306 0 0.84073897570492306 1.533812107822655 0 0 0 0 -0.42698657304822518 57.967585531550867 0 57.967585531550867 34.919129306676041 0 0 0 0 29.967732480210088 -25.996382921774057 0 -25.996382921774057 53.780817435253994 0 0 0 0 28.443066729025986 -40.311708555080259 0 -40.311708555080259 -23.607736468416988 0 0 0 0 52.391122488038945 9.7575510206224862 0 9.7575510206224862 -59.296779296244495 0 0 0 0 -61.074864630586632 -16.562333501617559 0 -16.562333501617559 433.7109070730221 0 0 0 0 -4.2853825681575017 63.826826749296742 0 63.826826749296742 231.80850053727045 0 0 0 0 99.391129595000848 26.95792775904556 0 26.95792775904556 158.06983034565201 0 0 0 0 -58.963069310804002 6.032766665219242 0 6.032766665219242 418.39929411310004 0 0 0 0 115.14668602936467 -30.461574625973299 0 -30.461574625973299 221.56221713605919 0 0 0 0 -35.57787886531645 -4.9919647511924268 0 -4.9919647511924268 389.61694534332491 0 0 0 0 -14.716942348825796 -40.955667286762036 0 -40.955667286762036 428.02355273798457 0 0 0 0 -29.162692763483392 -43.201525849282916 0 -43.201525849282916 336.01813887566459 0 0 0 0 -31.364783654651205 55.361721448527533 0 55.361721448527533 281.38356244431634 0 0 0 0 -23.079350742299994 52.323912421230489 0 52.323912421230489 169.81738065986428 0 0 0 0 -38.153736622684079 0.46170931471988297 0 0.46170931471988297 204.4904795592447 0 0 0 0 66.760132003266563 -130.44323587274994 0 -130.44323587274994 239.68852766696364 0 0 0 0 -29.123001619772822 -40.399696742439119 0 -40.399696742439119 229.89279912642087 0 0 0 0 43.70774435156801 -68.949066547369512 0 -68.949066547369512 115.98710734279302 0 0 0 0 -84.464552245520736 -17.551378139853114 0 -17.551378139853114 188.65176069557492 0 0 0 0 -100.37601621108723 0.62206934632376942 0 0.62206934632376942 170.52894504120195 0 0 0 0 -66.996449076339331 14.368021888658404 0 14.368021888658404 131.22473604256811 0 0 0 0 -41.559150460569981 -6.0411029069437063 0 -6.0411029069437063 137.65645799016784 0 0 0 0 -58.943973036162902 7.6735014938913082 0 7.6735014938913082 181.04176413166715 0 0 0 0 -63.30620848939845 8.4005451751049804 0 8.4005451751049804 183.49482421948778 0 0 0 0 -63.881872368404402 7.4156277255024179 0 7.4156277255024179 231.12286682893318 0 0 0 0 -16.325126867708928 -4.2838342482375538 0 -4.2838342482375538 146.66783631190754 0 0 0 0 7.2847540547444964 -114.32245527665145 0 -114.32245527665145 109.04160282122712 0 0 0 0 -15.410316870084934 9.1921999953698155 0 9.1921999953698155 150.24262091979449 0 0 0 0 45.753032506424177 3.7290097409022565 0 3.7290097409022565 180.94014129172865 0 0 0 0 -6.6175019646361761 -14.323085124884528 0 -14.323085124884528 99.940456818803796 0 0 0 0 8.0671269265289425 -14.753602229600801 0 -14.753602229600801 67.75912667663215 0 0 0 0 3.4232947039305373 -25.448752372089075 0 -25.448752372089075 74.250308414113533 0 0 0 0 -10.04348598592054 -18.570784181885756 0 -18.570784181885756 130.84513585723471 0 0 0 0 11.092118753512215 -26.348498944727183 0 -26.348498944727183 13.504552626107213 0 0 0 0 15.682930888629699 -46.764435418179346 0 -46.764435418179346 16.566154399646621 0 0 0 0 -2.8449942137735889 -13.006217337417183 0 -13.006217337417183 67.31986620994212 0 0 0 0 6.83562199748485 -45.15160026113881 0 -45.15160026113881 47.731328581805428 0 0 0 0 1.6839141331029026 -29.666063729027883 0 -29.666063729027883 59.595759170122619 0 0 0 0 7.2243036512095093 -24.251910432704236 0 -24.251910432704236 17.921694548169853 0 0 0 0 -11.496821559266436 -49.810665268672892 0 -49.810665268672892 143.2658407321187 0 0 0 0 31.225905285151612 -32.875944659772358 0 -32.875944659772358 -5.4972564269373834 0 0 0 0 1.3262958192185867 -4.0140962304698533 0 -4.0140962304698533 6.1301267815414633 0 0 0 0 9.4435117014750176 -22.229324859334156 0 -22.229324859334156 16.353740359743824 0 0 0 0 45.922103127096534 -19.978130751929712 0 -19.978130751929712 2.2538567821029574 0 0 0 0 30.390962396335908 -3.1362227382778656 0 -3.1362227382778656 33.022377227542165 0 0 0 0 3.320786172516776 -20.448716064889183 0 -20.448716064889183 23.578855632973685 0 0 0 0 6.9805357703339723 -10.19670689853956 0 -10.19670689853956 76.599220030213473 0 0 0 0 -1.6906655832051456 -4.9844523124484112 0 -4.9844523124484112 99.651676445922931 0 0 0 0 0.07422937654210271 -0.65503543276861365 0 -0.65503543276861365 17.459564920391635 0 0 0 0 -1.9335296370113761 -3.0376136618096297 0 -3.0376136618096297 51.589918884932075 0 0 0 0 4.768954564611704 3.9355692861281568 0 3.9355692861281568 86.796903198388463 0 0 0 0 0.042722982891981065 -0.61930194689801965 0 -0.61930194689801965 0.63647640112806059 0 0 0 0 -2.6845066267439393 -8.4523304249014473 0 -8.4523304249014473 111.41470681187639 0 0 0 0 1.4405593737138815 -13.105866886668082 0 -13.105866886668082 86.976571739112842 0 0 0 0 4.3745592167609857 -6.6163015616548364 0 -6.6163015616548364 66.778964744594305 0 0 0 0 1.6913777041481239 -12.301059559598798 0 -12.301059559598798 66.664624509183341 0 0 0 0 -25.270155377002197 -25.089280778758621 0 -25.089280778758621 222.19959091619239 0 0 0 0 -22.924803483846176 -7.6520343568408862 0 -7.6520343568408862 70.794679570652079 0 0 0 0 0.19082768347851087 3.9090091350912353 0 3.9090091350912353 56.21294291643224 0 0 0 0 -10.693220119965872 -0.92850636272487463 0 -0.92850636272487463 64.699243632264825 0 0 0 0 -12.789204498397169 -13.607899546252156 0 -13.607899546252156 56.071589253377169 0 0 0 0 -11.385901511260158 -7.855634199020642 0 -7.855634199020642 76.517091505724238 0 0 0 0 -1.1359912118605564 4.0587145325807796 0 4.0587145325807796 34.467612300009932 0 0 0 0 -3.065097884785132 23.736323152112163 0 23.736323152112163 48.065684073968441 0 0 0 0 -2.6995697228767312 17.428404599122587 0 17.428404599122587 79.650374501659826 0 0 0 0 -122.97421669427422 160.12077238789061 0 160.12077238789061 364.71869809911004 0 0 0 0 7.3290905123422476 7.1699779030168429 0 7.1699779030168429 84.901183652047621 0 0 0 0 4.3274306103512572 16.205960726922058 0 16.205960726922058 60.687608301916043 0 0 0 0 0.4054536349183735 12.493269293864614 0 12.493269293864614 70.780147557452437 0 0 0 0 36.006946316688527 28.484822466234618 0 28.484822466234618 86.889251127016905 0 0 0 0 -2.0090585666045229 -11.325601749729685 0 -11.325601749729685 99.163369151799998 0 0 0 0 15.680104822185513 -1.6224740063553327 0 -1.6224740063553327 95.780584967686082 0 0 0 0 -1.4948120302632901 14.775866936899547 0 14.775866936899547 137.31889111878991 0 0 0 0 50.38508383479143 37.672370607484481 0 37.672370607484481 122.32691560346575 0 0 0 0 17.445548802551286 37.455246741277733 0 37.455246741277733 136.22577765864844 0 0 0 0 32.399845587692297 2.6197847948488544 0 2.6197847948488544 -4.3425885567632605 0 0 0 0 33.492643927031168 80.179799013290904 0 80.179799013290904 112.41153478398337 0 0 0 0 134.5459277483933 -27.655807868311967 0 -27.655807868311967 -212.08189225175738 0 0 0 0 -32.79735028660798 128.14566377444135 0 128.14566377444135 -36.158503757163999 0 0 0 0 -4.4909599953668931 139.73170731789651 0 139.73170731789651 148.24390028034395 0 0 0 0 -72.456710723194874 218.93140032869633 0 218.93140032869633 476.24480828816013 0 0 0 0 -3.8446873058575193 4.455968961949111 0 4.455968961949111 122.12925172797986 0 0 0 0 -15.107942283611919 27.120905511095771 0 27.120905511095771 238.6448686115109 0 0 0 0 7.8699713605187753 -47.740530916060379 0 -47.740530916060379 69.545293959454284 0 0 0 0 -0.66744142208517587 -44.473272683972027 0 -44.473272683972027 169.70796374573911 0 0 0 0 -26.438255748386837 -26.801146479556337 0 -26.801146479556337 161.41355920511705 0 0 0 0 -32.924542061943157 -39.931449935706041 0 -39.931449935706041 246.9515615512064 0 0 0 0 2.8588919703449847 -161.86620993388351 0 -161.86620993388351 512.36736258924066 0 0 0 0 133.62986328113334 -33.349746045789288 0 -33.349746045789288 -9.2818402918055654 0 0 0 0 29.53889911941053 -62.479879927395814 0 -62.479879927395814 49.823984013259178 0 0 0 0 61.156651368528401 -129.63849543844117 0 -129.63849543844117 179.47268638038804 0 0 0 0 15.619544480536593 -20.898616005733885 0 -20.898616005733885 -0.72186623507013792 0 0 0 0 11.817234945785458 -54.485147002327722 0 -54.485147002327722 51.946764732661904 0 0 0 0 42.303587650092823 3.6405398942806642 0 3.6405398942806642 -30.166319216536067 0 0 0 0 0.86448677225223491 -37.63854257890489 0 -37.63854257890489 66.297838390875768 0 0 0 0 31.535316912482358 -40.224233398435899 0 -40.224233398435899 -18.677488675122731 0 0 0 0 3.3599926007393863 -4.863124450305861 0 -4.863124450305861 14.046487617699391 0 0 0 0 -0.54942287895937625 -44.840342863182741 0 -44.840342863182741 165.5628810467897 0 0 0 0 43.698816600076725 -13.867041576933843 0 -13.867041576933843 19.200889554893365 0 0 0 0 7.1104525169016597 -14.443215466628317 0 -14.443215466628317 16.926586400091765 0 0 0 0 -14.189373700260376 -22.517056495620636 0 -22.517056495620636 91.256156756833661 0 0 0 0 5.1387572468178817 -6.9106003403524312 0 -6.9106003403524312 8.2545452688389673 0 0 0 0 34.211461836085618 53.209910793091694 0 53.209910793091694 37.592443265057227 0 0 0 0 -0.23835283171384081 1.7626105178441165 0 1.7626105178441165 4.2247852580015319 0 0 0 0 189.18783412636481 242.10445423430065 0 242.10445423430065 237.81489276417415 0 0 0 0 232.46387656421962 -189.80424170730112 0 -189.80424170730112 162.47990487054631 0 0 0 0 -76.190642269149976 112.23691501920257 0 112.23691501920257 316.07396215389599 0 0 0 0 12.152140340671053 108.78051398063144 0 108.78051398063144 306.73636919459386 0 0 0 0 30.563096069909989 27.640925640318528 0 27.640925640318528 74.4355059065565 0 0 0 0 -33.108465979448397 183.01405853886536 0 183.01405853886536 423.54309739201562 0 0 0 0 9.3619774777646825 -1.0690177535054772 0 -1.0690177535054772 5.5720036948253409 0 0 0 0 24.88698189396564 30.165383780025877 0 30.165383780025877 38.483846015878953 0 0 0 0 313.59710415349537 -190.76589994716051 0 -190.76589994716051 214.15240447504766 0 0 0 0 19.415887129147826 18.388915424255998 0 18.388915424255998 19.140590070655179 0 0 0 0 -23.993282674673537 167.41450322217133 0 167.41450322217133 -24.425494879913458 0 0 0 0 19.955290592297388 27.432022127577511 0 27.432022127577511 37.56760938167281 0 0 0 0 32.774311908307936 25.586041777034552 0 25.586041777034552 32.772516736324178 0 0 0 0 23.168990389791816 21.448054888061961 0 21.448054888061961 31.604163099647849 0 0 0 0 47.806480596012989 25.07164066099358 0 25.07164066099358 10.375033871720063 0 0 0 0 48.550180094705809 12.46195820231037 0 12.46195820231037 -15.926475776373991 0 0 0 0 68.745656210419838 50.392098778647778 0 50.392098778647778 13.491285702839377 0 0 0 0 -79.07266614492255 -374.05077217719372 0 -374.05077217719372 296.77968614551719 0 0 0 0 7.1031926975067314 -11.645960493173703 0 -11.645960493173703 14.968221536229038 0 0 0 0 227.83869912457885 87.857763802050613 0 87.857763802050613 -29.901870887930272 0 0 0 0 1.2844445081136655 -87.133042642446526 0 -87.133042642446526 21.898933942124131 0 0 0 0 1.8742396648587594 -2.6867882497008679 0 -2.6867882497008679 1.5050916940358405 0 0 0 0 304.13317328126686 -78.768231026857393 0 -78.768231026857393 -13.151416825814522 0 0 0 0 57.321910346850927 89.354954233625904 0 89.354954233625904 112.4370285234545 0 0 0 0 25.990737079480823 -36.948923311421822 0 -36.948923311421822 148.63058503958746 0 0 0 0 26.405211313675863 -54.023280278364837 0 -54.023280278364837 338.00155608604837 0 0 0 0 262.07091313920432 -216.82287955438005 0 -216.82287955438005 258.66466523621057 0 0 0 0 24.936261484697752 -72.884999234069255 0 -72.884999234069255 392.20248865253961 0 0 0 0 89.036406600626833 114.74176495129359 0 114.74176495129359 260.39275719345824 0 0 0 0 0.98326325242647705 -3.5014692460406422 0 -3.5014692460406422 2.9441323412788734 0 0 0 0 49.131834835571226 -151.15982548385182 0 -151.15982548385182 -98.964627801746246 0 0 0 0 13.224041495768233 27.923799153178152 0 27.923799153178152 200.99538324361492 0 0 0 0 77.586189822863162 57.527315587234625 0 57.527315587234625 45.618607995216735 0 0 0 0 34.733811555885495 13.630488474154845 0 13.630488474154845 34.878849633780192 0 0 0 0 31.017295096407906 23.637628297095944 0 23.637628297095944 23.617632326750027 0 0 0 0 2.7871766814969767 -3.8950519267348227 0 -3.8950519267348227 6.3771666169373589 0 0 0 0 -42.405981308183073 250.13685118076683 0 250.13685118076683 561.843878266096 0 0 0 0 -233.93220334214857 304.71377114449569 0 304.71377114449569 -566.84724217433541 0 0 0 0 619.13926021122188 -608.05687018986646 0 -608.05687018986646 -48.755688241930329 0 0 0 0 6.2880683645683924 2.0424588866901701 0 2.0424588866901701 15.221434163204094 0 0 0 0 -203.06406856853391 129.98922528130788 0 129.98922528130788 663.41966425983992 0 0 0 0 89.757644514610547 -669.96381840256072 0 -669.96381840256072 1275.0172852109827 0 0 0 0 112.75413335176472 296.65366801304481 0 296.65366801304481 -528.79611208771166 0 0 0 0 218.98420303636522 -26.587752434716094 0 -26.587752434716094 265.2624019724899 0 0 0 0 -50.786261382299926 49.726683498898637 0 49.726683498898637 466.735754949681 0 0 0 0 -34.798104493273058 203.03767660976882 0 203.03767660976882 422.22474715735734 0 0 0 0 161.84130134519728 141.61001390578895 0 141.61001390578895 414.00479961081874 0 0 0 0 -20.965221700993425 -161.25541761697968 0 -161.25541761697968 184.8081698858532 0 0 0 0 119.71918682911109 0.42327868708525784 0 0.42327868708525784 236.9273297194668 0 0 0 0 -138.28844228837261 -21.809999393350154 0 -21.809999393350154 357.7256172921152 0 0 0 0 1.185370582577324 -1.1081520082715031 0 -1.1081520082715031 -0.32540632920206747 0 0 0 0 58.634063321436088 43.208031532582027 0 43.208031532582027 91.961882710704231 0 0 0 0 78.632290672434465 -51.49335031726514 0 -51.49335031726514 276.68198450103955 0 0 0 0 19.680828047781233 -75.504461746058951 0 -75.504461746058951 136.19277907072683 0 0 0 0 183.98694077667005 61.450722594421677 0 61.450722594421677 -280.19853813957161 0 0 0 0 39.00385786562947 142.1986144473376 0 142.1986144473376 -36.991855696891434 0 0 0 0 38.45053393310917 35.587682248509225 0 35.587682248509225 19.479538163408719 0 0 0 0 34.163060574011979 -32.78074312103854 0 -32.78074312103854 223.91042072312757 0 0 0 0 -8.8292764964853632 141.53049210678364 0 141.53049210678364 209.81655976985348 0 0 0 0 -26.169570174336968 3.4608496714081411 0 3.4608496714081411 191.46898944345594 0 0 0 0 -14.6162218361942 -1.3866500853182515 0 -1.3866500853182515 109.04005035910814 0 0 0 0 10.968600083911724 -8.8701083136365924 0 -8.8701083136365924 2.5967828057910083 0 0 0 0 16.664892242767401 0.62794531420210831 0 0.62794531420210831 2.914701932377227 0 0 0 0 28.696247001970278 14.719424251030432 0 14.719424251030432 45.639940509263397 0 0 0 0 95.598695399659846 60.537996485625627 0 60.537996485625627 -125.79841238770314 0 0 0 0 205.79450672485382 -17.472174878166697 0 -17.472174878166697 -89.487835946012638 0 0 0 0 38.959471725460631 34.46916277251475 0 34.46916277251475 21.433538291764634 0 0 0 0 4.2368239585567657 -2.1664904652385815 0 -2.1664904652385815 0.77403970508720477 0 0 0 0 63.431923804946564 -60.045640599331819 0 -60.045640599331819 32.518033685220871 0 0 0 0 63.751409890401192 91.355366060655797 0 91.355366060655797 240.6284632885945 0 0 0 0 -2.6407364048027375 -11.254331465286668 0 -11.254331465286668 110.31651299127952 0 0 0 0 20.608365937477629 22.931920200840977 0 22.931920200840977 148.47576308567659 0 0 0 0 41.650353525726132 51.87980220868485 0 51.87980220868485 118.05720433715032 0 0 0 0 16.881505003551865 -3.4161839696753304 0 -3.4161839696753304 -7.8998165195807815 0 0 0 0 2.2765444148805631 -0.48669955821571165 0 -0.48669955821571165 -0.87392797857228288 0 0 0 0 106.29680555721916 122.94151482479356 0 122.94151482479356 136.21094219348743 0 0 0 0 82.293501385058335 119.69403782383597 0 119.69403782383597 108.90687688778416 0 0 0 0 34.337262286520854 58.130596402894298 0 58.130596402894298 113.29755696476786 0 0 0 0 45.663036679914967 77.478961328783043 0 77.478961328783043 134.74122727484792 0 0 0 0 49.488347896593268 102.19802893777523 0 102.19802893777523 195.81979604443768 0 0 0 0 80.130606010871816 119.88045711930317 0 119.88045711930317 149.4420211657125 0 0 0 0 178.57695804904364 15.767927431819317 0 15.767927431819317 161.25888033170486 0 0 0 0 101.12710865986082 90.130620814510621 0 90.130620814510621 152.10667857427325 0 0 0 0 169.32042309528333 118.01752223433141 0 118.01752223433141 145.08286693232367 0 0 0 0 103.88159786944379 85.828844872332411 0 85.828844872332411 158.0162922093441 0 0 0 0 67.903770298233212 115.76340694903774 0 115.76340694903774 169.74955545098055 0 0 0 0 27.858215422347712 84.857284300793253 0 84.857284300793253 159.62786353082629 0 0 0 0 77.270518829918728 143.23053912170872 0 143.23053912170872 150.17201351201402 0 0 0 0 62.820344854972973 126.76586590312945 0 126.76586590312945 147.86511706421152 0 0 0 0 -38.538812859366317 30.19951365187444 0 30.19951365187444 245.23387893749168 0 0 0 0 -51.35646065921992 3.5227343422739068 0 3.5227343422739068 191.72857834011666 0 0 0 0 -19.095024370536521 12.022953918916755 0 12.022953918916755 202.81250654775795 0 0 0 0 -12.416984161865912 41.01024423326453 0 41.01024423326453 196.88043382321484 0 0 0 0 35.488859570180466 38.05571423919173 0 38.05571423919173 160.12696039261937 0 0 0 0 28.032155650656932 45.130163741821889 0 45.130163741821889 182.31857290666085 0 0 0 0 34.360907580973617 73.575405616909848 0 73.575405616909848 159.98917788863218 0 0 0 0 7.8901596792402415 60.200973698381858 0 60.200973698381858 184.59321726411872 0 0 0 0 -8.5222108217749337 86.727299183192372 0 86.727299183192372 144.59486181093962 0 0 0 0 -74.30561112299074 154.31869724307762 0 154.31869724307762 129.12081994706386 0 0 0 0 -41.403968733116926 85.867144998905133 0 85.867144998905133 244.86109105669311 0 0 0 0 -131.88634054434851 123.38538864385191 0 123.38538864385191 393.84670399887545 0 0 0 0 -6.0483306521809936 -86.182591867713199 0 -86.182591867713199 369.32019587463583 0 0 0 0 115.01350146077493 -59.259335319715319 0 -59.259335319715319 155.70473090368614 0 0 0 0 191.78551908036206 399.03495282656149 0 399.03495282656149 130.61059875794808 0 0 0 0 -21.602535457670911 89.371828246265068 0 89.371828246265068 258.036361218823 0 0 0 0 5.5511682165109537 13.162563467693635 0 13.162563467693635 8.679969609514103 0 0 0 0 -10.61794560673987 -12.945569067534393 0 -12.945569067534393 34.634758272795466 0 0 0 0 -18.112451052690499 -24.7039760139143 0 -24.7039760139143 28.732469503044797 0 0 0 0 456.47948492223441 -241.33447450923995 0 -241.33447450923995 200.69930728912004 0 0 0 0 6.6514414571454381 -58.852123774835491 0 -58.852123774835491 19.665791374635774 0 0 0 0 11.435828486151195 -41.499443537948537 0 -41.499443537948537 22.213037689420162 0 0 0 0 10.784959533910026 -27.44094511972844 0 -27.44094511972844 56.667775333407917 0 0 0 0 -3.1774098774644699 -10.458045243226053 0 -10.458045243226053 -19.655639685155506 0 0 0 0 0.93166159879160659 -48.985282756657398 0 -48.985282756657398 34.360029617972032 0 0 0 0 -466.06258534819403 -104.00457682750857 0 -104.00457682750857 166.59519176257891 0 0 0 0 -425.61866563963758 56.695487655244506 0 56.695487655244506 100.96912843507016 0 0 0 0 -1.3208955930470108 1.2753544683349958 0 1.2753544683349958 29.132502311411741 0 0 0 0 -226.1843091431399 -502.98678862689121 0 -502.98678862689121 433.97305623312968 0 0 0 0 -6.8249352563460786 -1.8882337648474987 0 -1.8882337648474987 6.8786410926666406 0 0 0 0 80.351361590262854 -44.762934963902808 0 -44.762934963902808 -221.22690504787715 0 0 0 0 -160.54237099958794 -114.87111147475662 0 -114.87111147475662 48.591529284734861 0 0 0 0 -87.722821964476708 50.436940315750689 0 50.436940315750689 -18.330140463018324 0 0 0 0 -11.784897837002479 4.4672344346477075 0 4.4672344346477075 55.50092975218729 0 0 0 0 -34.564572759139764 4.2496918674987683 0 4.2496918674987683 27.130045840094681 0 0 0 0 0.48557970969926068 -0.027588988386625601 0 -0.027588988386625601 9.4226000349289478 0 0 0 0 -23.855747703432037 -22.845653806156136 0 -22.845653806156136 83.586064463323339 0 0 0 0 -96.643662279035198 -112.13038754282752 0 -112.13038754282752 267.8741982257925 0 0 0 0 37.252804479735914 46.20410565182101 0 46.20410565182101 102.2972562880168 0 0 0 0 34.741072023389279 68.399180709195207 0 68.399180709195207 13.651490667281905 0 0 0 0 -13.138417126440276 35.155735101984888 0 35.155735101984888 91.15531995687823 0 0 0 0 -19.935310018710879 10.284043295876472 0 10.284043295876472 36.181842296908144 0 0 0 0 -3.7154297697363461 15.994544339616596 0 15.994544339616596 40.548999386769054 0 0 0 0 124.28199087542384 57.67245291891777 0 57.67245291891777 27.055570397809788 0 0 0 0 34.94507061653826 99.697294112187592 0 99.697294112187592 32.132971537845151 0 0 0 0 20.588572119123686 55.536031009089044 0 55.536031009089044 59.206445191920949 0 0 0 0 15.484265402421244 16.859409567937732 0 16.859409567937732 -16.970036042248807 0 0 0 0 -6.9870123906002846 28.103169638608961 0 28.103169638608961 170.67202897215611 0 0 0 0 -28.879192277984657 -22.476068954973016 0 -22.476068954973016 400.12589720031247 0 0 0 0 33.499598779788812 -7.3645220227190293 0 -7.3645220227190293 181.44922058797965 0 0 0 0 23.698510080846972 49.626776766279363 0 49.626776766279363 58.898288294112717 0 0 0 0 19.155701932783813 8.2411223181479727 0 8.2411223181479727 174.43080492068839 0 0 0 0 -10.915037542594291 32.730344772200624 0 32.730344772200624 335.08798854400811 0 0 0 0 -5.3193104659030723 13.046333797668922 0 13.046333797668922 305.34509681919008 0 0 0 0 14.953947776456744 69.657063515778646 0 69.657063515778646 300.64532360076555 0 0 0 0 19.589216971842689 49.93628245855507 0 49.93628245855507 192.4086219537603 0 0 0 0 9.4930332931917292 -4.5314051257882966 0 -4.5314051257882966 -41.898784001481545 0 0 0 0 9.5624113254068472 -22.575067282914546 0 -22.575067282914546 2.5992397876205047 0 0 0 0 5.9744941718219646 -2.7688742265301443 0 -2.7688742265301443 -4.6149860830962979 0 0 0 0 14.850648220522089 9.7547498685744358 0 9.7547498685744358 269.87552550692635 0 0 0 0 -12.46077400785498 9.6826907332215342 0 9.6826907332215342 304.03895626897793 0 0 0 0 -3.881423451091905 -12.014233452267945 0 -12.014233452267945 350.15923525498147 0 0 0 0 55.999998912628143 41.200896216905676 0 41.200896216905676 293.90031127580733 0 0 0 0 20.187055079558377 1.9743155760224909 0 1.9743155760224909 -80.550415726214851 0 0 0 0 -4.362114451098023 16.168077714566607 0 16.168077714566607 -11.760755703802715 0 0 0 0 1.5856814835042563 -0.73758011196200357 0 -0.73758011196200357 0.75436736481466937 0 0 0 0 -113.27705996701479 151.62742758129025 0 151.62742758129025 569.2344999845518 0 0 0 0 51.960626405979383 139.63913609066367 0 139.63913609066367 399.87268193723577 0 0 0 0 -0.50122040986070715 -21.943891643961251 0 -21.943891643961251 -26.496544846449979 0 0 0 0 6.677290535922471 -4.6729923604799666 0 -4.6729923604799666 65.50514215737735 0 0 0 0 -79.515359806797505 -109.15382437393782 0 -109.15382437393782 348.68184107900015 0 0 0 0 12.353295558766149 17.992607840060373 0 17.992607840060373 -48.39379769993684 0 0 0 0 32.61357506864374 -1.3810222221181903 0 -1.3810222221181903 9.9488109623634955 0 0 0 0 15.349605272607278 -44.436521856550826 0 -44.436521856550826 96.173102387736435 0 0 0 0 31.963098443325862 -50.672878025401587 0 -50.672878025401587 -12.262879858011729 0 0 0 0 34.346462265436337 30.639386328405465 0 30.639386328405465 29.049517409669406 0 0 0 0 55.191872876742082 -0.67855468217749149 0 -0.67855468217749149 -61.888260391115182 0 0 0 0 52.416858599500301 38.276256689761794 0 38.276256689761794 32.87412857291929 0 0 0 0 224.96804701360634 -253.25451732202782 0 -253.25451732202782 267.25668614107781 0 0 0 0 
</DataArray>
<DataArray type="Float64" Name="cross_section_updated" format="ascii">
1 1 1 1 1 1 1 1 1 1 0.0096369490776572579 1 0.013004368914628806 1 1 1 1 0.009099732697518223 1 1 1 0.0082899987100061683 1 0.0091902660124879507 1 1 1 0.0099808009296233069 1 1 1 1 0.010813078440516049 1 1 1 1 1 1 1 1 1 1 0.011402261824954605 1 1 1 1 1 1 1 1 1 1 1 1 1 1 1 1 1 1 1 1 1 1 1 1 1 1 1 0.010735793368300377 1 1 1 1 0.011948466931785548 1 1 1 1 0.011928919238411322 1 1 1 1 1 1 1 1 1 1 0.0098204674832170474 1 0.0089038609846304774 1 1 0.014789110555743744 1 1 1 1 1 1 1 0.011201844386998932 1 1 1 1 1 1 1 1 1 1 0.0092743449264312099 0.011632244016895691 1 1 1 0.0083193429005169808 1 1 0.023733201832205543 1 1 1 1 1 1 1 1 1 1 1 1 1 0.0091280255880566916 1 1 1 1 1 1 0.0096909756219822948 1 1 1 1 1 1 1 1 1 1 1 1 1 1 1 1 1 1 1 1 1 1 1 1 1 1 1 1 1 1 1 1 1 1 1 1 1 1 1 1 1 1 1 1 1 1 1 1 1 1 1 1 1 1 1 1 1 1 1 1 1 0.020957025755190359 1 1 1 1 1 1 1 1 1 1 1 1 1 1 1 1 1 1 1 1 1 1 1 1 1 0.011962067543643387 1 0.014459506265182373 1 1 1 1 1 1 1 1 1 0.017236343338830999 1 0.013013354342696635 1 1 1 1 1 1 1 1 1 1 1 1 1 1 1 1 1 1 1 1 1 1 1 1 1 0.012288532798209028 1 1 1 1 1 1 1 1 1 1 1 1 0.011051286799053256 1 1 1 1 1 0.0099997945701535643 1 1 1 1 1 1 1 1 0.0097255270407076641 1 1 1 1 0.0067643696084167529 1 1 1 1 1 0.0095699399828715094 1 1 1 1 1 1 1 1 1 1 1 1 1 1 1 1 1 1 1 1 1 1 1 1 1 1 1 1 0.0081745256519066677 1 1 1 1 1 1 1 1 1 1 1 1 1 1 1 1 1 1 1 1 1 1 1 0.021343279162277622 1 1 1 1 1 1 1 1 0.022063069490308999 1 1 1 1 0.012294305799650932 1 1 1 0.015960235644180823 1 1 0.0095769276093248968 1 1 0.0090685848258331182 1 0.010013765781262399 1 1 0.010000509477614564 1 1 1 1 1 1 1 0.012608031570370869 0.016154908691486891 1 1 1 0.010099628503387003 1 1 1 1 1 0.0097916454234762522 1 1 1 1 1 1 1 1 1 1 1 1 1 0.0098429763367488717 1 1 1 1 1 1 1 1 1 1 1 0.010491010093750412 1 0.009560114073302161 1 1 1 1 1 1 1 1 1 1 0.010307393226201524 1 1 0.010519211621385971 1 1 1 0.0098657460937145551 1 1 1 0.0095809801463085514 1 1 0.010001933118608662 1 0.011983166958080473 1 0.010066019091789847 1 0.010000874977741339 0.010039805200017972 1 1 1 0.010961264221907061 0.013550140723291734 0.010281002112623314 0.01643437558313849 1 1 1 1 1 1 1 1 0.0099491602425993472 1 1 1 1 0.016540172522884332 1 0.016274366534146135 1 0.017540922815203419 1 1 0.010532585265650322 1 1 1 1 0.016042992634112449 1 1 1 1 1 1 1 1 1 1 0.016163747367863197 0.010015165678697395 1 1 1 1 1 0.0099636994398997671 1 1 1 1 1 1 1 1 1 1 1 1 1 0.010203751507711151 1 1 1 1 1 1 1 1 1 1 1 1 0.010107186145593521 0.0096798977953727883 0.011695060864452676 1 1 1 1 1 1 1 1 1 1 1 1 1 1 1 1 1 1 1 1 1 0.0098894975265410787 1 1 1 0.0097682393594097274 1 1 1 1 1 1 1 1 1 1 1 1 1 1 1 1 1 1 1 1 1 1 1 1 1 1 1 1 1 1 1 1 1 0.010530128411348523 1 1 0.01174280197483369 1 1 1 1 1 1 1 1 1 1 1 1 1 1 1 1 1 1 1 1 1 0.011478097843752179 1 1 1 1 1 1 1 1 1 1 1 1 1 1 1 1 1 1 1 0.014169696289945119 1 1 1 1 1 1 1 1 1 1 0.010068196860998684 1 0.014677402233314603 1 1 0.0091363601412329624 1 1 1 0.013784642781593692 1 1 1 1 1 0.01269611068486149 1 0.011274310216562113 1 1 0.0096955986753794569 1 1 1 1 1 1 1 0.012814532338658702 1 1 1 0.010217320674461492 0.010940907995359378 1 1 1 1 1 1 1 0.010299081484081809 1 1 0.011126560739849413 1 0.010375393424516318 0.010384546802779396 1 1 1 0.012884692624800229 1 1 0.012764523178476685 0.010673622342201013 0.010578138805350575 1 1 1 0.011543144096996173 1 1 0.010215608051117164 0.010334008349328433 1 1 1 0.010223934096939266 1 1 0.010182843781191657 1 1 0.011380306989488408 0.0099900673055299399 0.010353143045723795 1 1 1 0.010255322097681478 1 1 1 1 1 1 1 0.010006267170927714 1 1 1 1 1 1 1 1 1 1 1 1 1 1 1 1 1 1 1 1 1 1 1 1 1 1 1 1 0.010015979496325938 1 1 1 0.012633920725348184 0.011946200859654752 1 1 0.010420659882035499 1 1 1 1 1 1 1 1 0.012251328168172641 1 1 1 1 0.0099689407746126127 1 1 1 1 1 1 1 1 1 0.0098511584890874845 1 1 1 0.016123501819729352 1 1 0.0099873630151325592 1 0.01052086799248695 1 1 0.013498099396872118 1 1 1 0.010008576722823527 0.011750112570605993 1 1 0.0099918977274518345 1 1 0.010931238283080839 0.011467564840136625 1 1 1 1 1 1 1 1 1 1 1 0.011302375611018583 1 1 1 1 1 1 1 1 1 1 0.010203580310371276 1 1 0.010276852679047285 1 0.010584471479166857 0.012258337582970819 0.010146818845240452 1 0.0099814643054687638 1 1 1 1 1 1 1 1 1 1 1 1 1 1 1 1 1 1 1 1 1 1 1 1 1 1 1 1 1 1 1 1 1 1 1 1 1 0.013983235564775057 1 1 0.010002945317135241 1 0.009672290920189534 1 1 0.0099836240352066934 1 1 1 0.013674534384618374 1 0.013298786072712315 1 0.010114207445562923 1 1 1 1 1 1 1 1 1 1 1 1 1 1 1 1 1 1 1 0.010321194348861211 1 0.010037466329520947 1 1 1 1 1 1 1 1 1 1 1 1 1 1 1 1 1 1 0.011161290510736655 1 0.011811898486782888 1 1 0.010938776256383027 1 1 1 0.009963222152242112 1 1 1 1 0.010135546134492097 1 1 0.014402556512300369 1 0.008292368279258118 0.011759089218378703 1 1 0.009992401410422444 0.01178392940786719 1 1 0.010200418768644935 1 1 0.013087463157187089 0.015070406576053151 1 1 1 1 0.010866792761737337 1 1 1 1 0.010027577045299087 1 1 1 0.015746483066657428 0.011176075227370125 1 1 0.011375053022363506 1 1 0.011272156855131728 1 1 1 1 1 1 0.010814782336846261 1 1 0.011393362045445582 1 0.0098479541831737877 1 1 1 1 1 1 1 1 1 1 0.0099283137502242033 1 1 1 1 1 1 1 1 1 1 1 1 1 1 1 1 0.015666983981365033 1 1 1 1 1 1 1 0.011163142423164372 0.014704714020627525 1 1 0.014372388715864094 1 1 1 1 0.0099949081717379731 0.011721395271811571 1 1 1 1 1 1 1 1 1 1 1 1 1 1 1 1 1 1 1 1 0.010401999811005654 1 1 1 1 1 1 1 1 1 1 1 1 1 1 1 1 1 1 0.011628886038601606 1 1 0.010264309007963372 1 1 1 1 0.010861945176229189 1 1 1 1 1 1 1 1 1 1 1 1 1 1 1 1 1 1 1 1 0.010202182168722491 1 1 1 1 1 1 1 1 0.010709367763625788 1 1 1 1 1 1 1 0.0098196549812686953 1 1 1 1 1 1 1 1 1 1 1 0.010909185405908949 1 1 1 0.0098738716483903824 1 1 1 1 1 1 1 1 1 1 1 1 1 1 1 1 1 1 1 1 1 1 1 1 1 1 1 1 1 1 0.0099457833328783253 1 1 1 1 1 1 1 0.011330960802359402 1 1 1 1 1 1 1 1 1 1 1 1 1 1 1 1 1 1 1 1 1 1 1 1 1 1 1 1 1 1 1 0.01097677854278719 1 1 1 1 1 1 1 0.012366418688626687 1 1 1 0.012682299024740433 1 1 1 0.010190790493410136 1 1 1 1 1 1 1 0.010834997934962315 1 1 1 0.011808114492391473 1 1 1 1 1 1 1 1 1 1 1 1 1 1 1 1 0.010802033400530653 1 1 1 1 1 1 1 1 1 0.012094692279431565 1 1 1 1 1 1 1 0.015127149383098523 1 1 1 1 0.011960996191030131 1 1 1 0.012223577486837191 0.011554929658729056 1 1 1 1 0.01047195756412221 1 1 1 1 1 1 1 1 1 1 1 1 1 1 1 0.0095512176387729034 1 1 1 1 1 1 1 1 1 1 1 1 1 1 1 1 1 1 1 1 1 1 1 1 1 1 1 0.01114282160233343 1 1 1 1 1 1 1 1 1 1 1 0.013502993924873558 1 1 0.01552777925428302 1 1 0.0085704934313908659 1 1 1 0.0095269193744506667 1 1 0.0084168954930336805 1 1 1 1 1 1 1 1 0.011512162913468293 1 1 0.014114903087241684 1 1 1 1 1 1 1 1 1 1 1 1 1 0.011156604104298917 1 1 1 0.011842908664785545 1 1 1 1 1 1 1 1 1 1 1 1 1 1 1 1 0.010222908649063785 1 1 0.01012516467056155 1 1 1 1 1 0.011034642025069291 1 1 1 1 1 1 1 1 1 1 1 1 1 1 1 1 1 1 1 1 1 0.012850765245935088 1 0.0084372904702312689 0.017382240837279947 1 1 1 1 1 0.010143388889967152 1 1 0.010383787501419278 1 0.012478092958936336 1 1 1 1 1 1 1 0.0108882318441266 1 1 1 1 1 1 1 1 1 1 1 1 1 1 0.01114060539223034 1 1 1 1 1 1 1 1 1 1 1 1 1 1 1 1 0.009970479279927294 1 1 0.010184514298341663 1 1 1 1 1 1 1 1 0.018549802936282764 1 0.004084507895097669 1 0.010006630153458193 0.0094229183915503795 1 1 1 1 0.0089739441722903462 1 1 1 1 0.012340210918830058 1 1 1 1 1 1 1 1 1 1 0.010991948302549714 1 1 1 1 1 1 1 1 1 1 1 1 0.0140323939074362 1 1 0.019156681034098615 1 1 0.018775403434343956 0.015862846140451671 1 1 1 1 1 1 1 1 0.019921112547637811 1 1 1 1 1 1 1 1 1 0.0032210131337784692 1 1 0.010235024417398927 1 1 1 0.013781785578566748 0.010003915417961556 1 1 1 1 1 1 1 1 1 1 0.013574456091040087 1 1 0.010680418806937186 0.012022848725061312 1 0.010782767018395041 1 1 0.009223719191687782 1 1 1 1 1 1 1 1 1 1 1 0.0098974264445621032 1 1 1 1 1 1 1 1 1 0.010237321553521944 1 1 1 1 1 1 1 0.0099196404329495932 1 1 1 1 1 1 1 1 0.008436514799494102 1 1 1 1 1 1 0.0098862276127704308 0.0081492563820569682 1 1 1 1 1 1 1 1 1 0.010890490623806186 1 1 1 1 0.01118513033806339 1 1 1 1 1 1 1 1 1 1 1 0.012072818484815973 1 1 1 1 1 0.0095459351999813685 1 1 1 1 1 1 1 1 1 1 1 1 1 1 1 1 1 1 1 1 1 1 1 1 1 1 1 1 1 1 1 1 1 1 1 1 1 1 1 1 1 1 1 1 1 1 1 1 1 1 1 0.011378341099028501 1 1 1 1 1 0.012779280279405242 1 1 0.01140093918037673 1 1 1 1 1 1 1 1 1 1 1 1 1 1 1 0.011107936241494495 1 1 1 0.012888029265910719 1 1 1 0.0080733331808092272 0.011008381641288874 1 1 1 1 1 1 1 1 1 1 1 0.021322830993413141 1 1 1 1 1 0.017779062974827581 1 1 1 1 1 1 1 1 1 1 1 1 1 1 1 1 1 1 1 1 1 1 1 1 1 1 1 1 0.0081108535086370608 1 1 1 1 1 1 1 1 1 1 1 0.009046065122124386 1 1 0.0099949618960196943 1 0.01061870348583192 0.0087504257392221549 1 1 1 1 1 1 1 0.013334536480605971 0.010780154388767503 1 1 1 0.010031012972351875 1 1 1 1 1 1 1 1 1 1 1 1 1 0.014266724170912517 1 1 0.010681947158185032 1 0.010087583157154183 1 1 1 1 0.010410098657231226 1 0.015454575621078446 1 1 1 0.011843743344863973 0.0099744633234187269 1 1 1 1 1 1 1 1 1 1 1 1 0.0122090950548204 1 1 1 1 0.007871167628408067 1 1 1 0.024122524184036143 1 1 0.010768985790019375 0.017395103653712694 1 1 0.0058722634064029139 1 0.011203776395989426 1 1 1 1 1 1 1 1 0.010453987042833769 1 1 1 0.010498028629428061 1 1 1 1 1 1 1 1 1 1 1 1 1 1 1 1 1 1 1 1 1 1 1 1 1 1 1 1 1 1 0.010094149712184298 1 1 1 0.0096799800308609643 1 0.010130520950851327 0.012376905676712178 1 1 1 1 1 0.011330048116445923 0.010549204941571331 1 1 1 1 0.010586383583052708 1 1 1 1 1 1 1 1 1 1 1 1 1 0.012228836964428776 1 1 1 1 0.011046509103418983 1 1 1 1 1 1 1 1 1 0.0097505104985075586 1 1 1 0.009379692888270336 1 1 1 1 1 0.0078189367245128163 1 1 1 0.0099929616611780618 1 0.007031994728800086 1 1 0.010123225308105039 1 0.0098951481117667862 1 1 0.011200517630807151 1 1 1 0.0074169187121049815 0.008735514893017932 1 1 1 1 0.01227867668799703 1 1 1 0.0086416762500533695 1 0.011992107510031344 1 0.0084391153501282498 1 1 1 0.0094390638771689357 1 1 1 1 1 1 1 1 1 0.0084739383052005388 1 1 0.0074196021436787451 0.0090859207596712503 0.0069778988987875719 1 1 1 1 1 1 1 1 0.0097562190133999513 1 1 1 1 1 1 0.010014450771236401 1 1 1 1 1 1 1 1 1 0.010458781690921688 1 1 1 1 1 1 1 1 1 1 1 1 1 1 1 1 1 1 1 1 1 1 1 1 1 1 1 1 1 1 1 0.0098666261188552606 1 1 1 0.0096078308723236937 1 1 1 1 1 1 1 1 0.010469402234648335 1 1 1 1 1 1 1 1 1 1 0.0096959721132939616 1 0.0097412047534684264 1 1 1 1 1 1 1 1 1 1 1 1 0.019234320430847641 1 0.0099060563398363916 1 1 1 1 1 0.01866396291654884 1 1 0.010202252637459826 1 1 1 1 1 1 1 1 0.009931886526842286 1 1 1 1 1 1 0.014529687054051282 1 1 1 1 1 1 1 1 1 1 1 1 1 1 1 1 1 1 1 1 1 1 1 1 1 1 1 0.011813352764292816 1 1 1 1 0.010241053543888465 1 1 1 0.012068450337744202 1 0.014691451679500107 1 0.0099190841972101075 1 1 1 0.011258720121642859 0.012494430190785956 1 1 1 1 1 0.010321758380866682 1 1 1 1 1 1 1 1 1 1 1 0.018598057330806474 1 1 1 1 0.019137832505029588 1 0.010985093295336505 1 1 1 1 0.019577274605182174 1 0.013701620256642098 1 0.017691115583654778 1 0.010003151745052371 1 0.018931506647416392 1 0.011041875057432676 1 0.0090422465853241575 1 1 0.01032088090677283 1 1 1 1 1 1 1 0.012789866669584326 1 1 1 1 1 1 1 1 1 0.011682218655284503 1 1 1 1 1 1 1 1 1 0.014980144697099981 1 1 1 1 1 1 1 1 1 1 1 1 1 0.0090027884982704851 1 1 1 1 1 1 1 1 1 0.0083778000982880768 1 1 1 1 1 1 1 0.018070969315532294 1 1 1 1 0.014247920184958086 1 1 0.013324511206237514 1 1 1 0.010018699820004326 1 1 1 1 1 0.0050999766880114629 0.0099436713930151615 1 0.0066162894252706364 1 1 0.0081664854260551992 1 1 1 0.019284686184710582 1 1 1 1 1 1 1 1 1 1 0.0098935015054374773 1 1 1 1 1 1 0.010665494962189864 1 1 1 1 1 1 1 1 1 1 1 1 1 1 0.011029355508629641 0.011649010231099252 1 1 1 1 1 0.013908269354400708 1 1 1 0.012490241230108071 1 0.014088426253445693 1 1 0.016895486064191154 1 1 1 1 0.016796416714383585 1 1 1 1 1 1 1 1 1 1 1 1 1 1 1 1 1 1 1 1 1 1 1 1 1 1 1 1 1 1 0.01032099126773477 1 1 0.010509090913626479 1 1 1 1 1 1 1 1 1 0.013038574826395683 1 1 1 1 1 1 1 1 0.014771596640246094 0.013428278883179056 0.010597768719051737 1 1 0.019208328596290264 1 0.010077199809311188 1 1 1 0.01065733356115613 1 0.0098491099533033061 0.02070695736444025 1 1 1 1 0.012498206579177192 1 1 1 0.022397630536397501 0.010022175482399406 1 1 0.0017358097323961711 1 0.010230746934129382 1 1 1 0.0097466679516934763 1 1 1 1 1 1 0.022409666798446748 1 1 1 1 1 1 1 1 1 1 1 1 1 1 1 0.01240566931633488 1 1 1 0.011106820903826243 1 1 1 1 1 1 1 1 1 1 1 1 1 1 1 1 1 1 1 1 1 1 1 1 1 1 1 1 1 1 1 1 1 1 1 1 1 1 1 1 1 1 1 1 1 0.011536293209311608 1 1 0.012349070857984824 1 1 1 1 1 1 1 1 1 0.014482549806378324 1 1 1 1 1 1 1 1 1 1 1 0.011407013752119988 1 1 1 1 1 1 1 1 1 1 0.010815219535945945 1 1 0.011403817317305619 1 1 1 0.01703763414467864 1 1 1 0.015770482099306163 1 1 1 1 1 1 1 1 0.01634850238556821 1 1 1 1 1 1 1 1 1 1 1 1 1 1 1 0.020883155985358191 1 1 1 1 0.01270209436289637 1 1 1 1 1 1 1 1 1 1 1 1 1 1 1 1 1 1 1 1 1 1 1 1 1 1 1 1 1 1 1 0.01195660937054103 1 1 1 1 1 1 1 0.013352299197334695 1 1 1 0.011723090125689681 1 1 0.02167730013143282 1 1 1 0.009348042760240774 1 1 1 1 1 1 1 1 0.012000542384681781 1 1 1 1 1 1 1 1 1 1 1 1 0.01694676023953872 1 1 1 1 1 0.018129060681591404 1 0.020230362365791843 1 1 1 1 1 1 0.02146992256045694 1 1 0.013518646587087887 1 1 0.022570547783963245 1 1 1 1 1 0.027081266370663611 1 0.016679120619655603 1 1 1 0.011782051237902724 1 1 1 1 1 1 0.01049643105160962 1 1 1 0.010316330801379007 1 1 1 1 1 1 1 1 1 1 1 1 1 1 0.0094675463094187132 1 0.023329781565954198 1 0.010710440717177298 1 1 1 1 1 0.014530312836374586 1 0.029544416792326809 1 0.016543569606865715 1 1 1 1 1 0.020545173956418271 1 1 1 0.022163358768669282 1 1 1 1 1 1 0.010250473848264349 1 0.0251049176155261 1 0.012110219122240626 1 1 1 1 0.03214212638697702 0.010281738543769847 1 1 1 1 1 1 1 1 1 1 1 1 1 1 1 1 1 0.013123299829413401 1 1 1 1 0.011645089698696192 1 1 1 1 1 1 1 1 1 1 0.012143365589072013 1 1 1 1 1 1 1 0.0090661804228308763 1 1 1 0.0098139216315200825 1 1 1 0.010041739207217563 1 1 1 1 1 1 1 1 1 1 1 1 1 1 1 1 1 1 1 1 1 1 1 1 1 1 1 1 1 1 1 1 1 1 1 1 1 1 1 1 1 1 1 1 1 1 1 1 1 1 1 1 1 1 1 1 1 1 1 0.012279464198509053 1 1 1 1 0.0094436080260880354 1 1 1 1 1 0.010865242328093255 1 1 1 1 1 1 1 1 1 1 1 1 1 1 1 1 0.015892885648896418 1 0.012304020887927163 1 1 1 1 0.014316467107315711 0.011623597595002158 1 1 1 1 0.012600496544835724 0.01144034361307298 1 1 1 1 1 1 0.015430547458772264 1 0.011873060404071562 0.010174855222728804 1 1 1 1 0.015221585763630604 0.020503953401264832 1 1 1 1 1 1 0.014609742807119287 1 1 1 1 1 1 0.013823460410125322 1 1 1 1 0.013178809458955278 0.012089406492445116 1 1 0.015262507172212531 0.012062606737506407 1 1 1 1 0.0181634675006563 1 1 1 0.01005139740621625 0.011425632041976136 1 1 0.016017689002531581 1 0.0080582045748779571 0.013742965572816127 1 1 1 0.0099993785307420733 1 0.013158209278403235 1 0.010015717997427599 1 1 1 1 0.016812609161225581 1 1 0.018347109007353112 1 1 1 1 1 0.010537398691920975 0.01020239271264356 1 1 1 1 1 1 0.007113732943191689 0.019643568893051175 1 1 1 1 1 0.019962425620438269 1 1 0.01996674773264321 1 1 1 1 1 1 1 0.0099222297578833094 1 1 1 0.010007861152859308 1 1 1 1 1 0.010008584926225798 1 1 1 1 1 0.010394798171019376 1 1 1 1 1 1 1 1 1 0.010718516882642359 1 1 1 0.010719309202346164 1 1 1 1 1 1 1 1 1 0.010815826664569522 1 0.020438490070204908 1 1 1 1 1 1 0.017503299986264403 1 1 0.012891231253605716 1 1 1 1 1 1 0.010063976798304015 1 1 1 1 1 1 1 1 1 1 1 1 0.0095277810472037695 0.0086148578344711381 1 1 0.0081791928015962669 1 1 1 1 1 0.0062781762676850806 1 1 0.0077891968059628763 0.0080725656874659941 1 1 1 1 1 1 1 0.0060982239952538514 1 1 1 1 1 1 1 0.0095133416427909331 1 1 1 1 1 1 1 1 1 1 1 1 1 1 1 1 1 1 1 0.011737500781427006 1 1 1 0.010049469647011346 1 1 1 1 1 1 1 1 1 1 1 1 1 1 0.010108914451423884 1 1 1 1 1 1 1 1 1 1 1 0.010126819285709625 1 1 1 1 1 1 1 0.010989890337615431 1 1 1 1 1 1 1 1 1 1 1 0.010112312134416967 1 1 1 1 1 1 1 1 1 1 0.012659415912719064 1 1 1 1 1 1 1 1 1 1 1 0.01404982007053958 1 1 1 1 1 1 1 1 1 1 1 1 0.011976050564896337 0.010760893661634546 1 1 1 1 1 1 1 1 1 1 1 1 0.015756072735997075 1 0.013548388854144888 1 1 1 0.010026227516183032 1 1 0.0099672667867786793 1 1 1 1 1 1 1 1 1 1 1 1 1 1 0.010655648875679415 1 1 1 1 1 1 1 1 1 1 0.010339318074300394 1 1 1 1 1 1 1 1 1 1 1 1 1 1 1 1 1 1 1 1 1 1 1 1 1 1 1 0.011421623095373805 0.010246844771932676 1 1 1 1 1 1 1 1 1 1 1 1 0.010756595009674911 1 0.012485355478480457 1 1 1 1 1 1 0.010149024722199276 1 1 0.010207985451603625 1 1 1 1 1 1 0.011810497754764853 1 0.01053194605763297 1 1 1 1 1 1 1 1 1 1 1 1 1 1 1 0.016701795654267132 1 1 0.014292510295799551 1 1 1 0.01392487134692166 1 0.014293171922352436 1 1 1 1 1 1 1 1 1 1 1 1 1 1 1 1 1 1 1 1 1 1 0.010243243144237735 0.014175725295530494 1 1 1 0.016606980209866326 1 1 1 1 1 1 1 1 1 1 1 1 1 1 1 1 1 1 1 1 1 1 1 1 1 1 1 0.0093496860932399273 1 0.010857268562791865 1 1 1 1 1 1 1 1 1 1 1 1 1 1 1 1 1 1 1 1 1 1 1 1 1 1 1 0.010414164907091199 1 1 1 1 1 1 1 1 1 1 1 1 1 1 1 1 1 1 1 1 1 1 1 1 1 1 1 1 1 1 1 1 1 1 1 1 1 1 1 1 1 1 1 1 1 1 1 1 1 1 1 1 1 1 0.0099749278203073617 1 0.0098280391329381607 1 1 0.010789445281731237 1 1 1 1 0.014218119821762788 1 1 1 1 1 0.013635490593252107 1 1 1 0.013742822326730728 0.019054394012012969 1 1 1 1 0.013681879073998329 0.011330243767181308 1 1 0.013878776835553622 0.007842613404448296 1 1 0.0099907964241610862 1 1 0.01785557303620542 0.0084518613341891986 1 1 1 0.010007280992618141 1 1 1 1 0.012540536301209805 1 1 1 1 0.010000455489834541 1 0.01000280985524789 1 1 0.0100049009145637 1 1 1 0.010051118197815068 0.0094005563371754794 1 0.011175107171336317 1 1 1 0.0099079086255165431 0.01005780724957555 1 1 1 1 1 0.0098096787921256069 1 1 1 1 1 1 0.010203526577784984 1 1 1 1 1 1 0.012254080310904532 1 1 1 1 0.0099987788790111085 1 1 0.010023374440952464 1 0.010163589810408921 1 1 1 1 1 1 1 1 1 1 1 1 0.0099956437619894145 1 1 0.010104246603590382 1 0.010070714883185401 1 0.0099106090267714747 1 1 1 1 1 0.011226011772488505 1 0.011243455790554434 1 1 1 0.0099382277296675633 1 1 1 0.0093143117047112759 1 1 0.016065876398561798 1 0.010208766919046985 1 1 0.0099337806417585731 1 1 1 1 1 1 1 1 1 1 1 1 0.010467838013685263 1 1 1 1 1 1 0.0095745136877146871 1 0.015507539742595458 1 1 1 1 1 0.010073161056776588 1 1 1 1 1 1 1 1 0.010067375216940771 1 1 1 1 1 0.013367492355727817 1 0.016174651471917951 1 1 0.012270835175824009 0.015176019152624502 1 0.010289201360121904 1 1 1 1 1 1 1 1 1 1 1 1 1 1 0.0095362683411699123 1 1 1 1 1 1 0.008720347612220538 1 0.010902352531428461 1 1 1 1 0.010334038298503587 0.010713421418578697 1 1 1 1 1 0.01196919494094504 1 1 1 1 0.0069194984163653047 0.0097714935188969558 1 1 1 1 0.0086755706545411735 1 1 1 1 1 1 0.0086703001550383872 1 1 1 1 1 1 1 0.010003370209304675 1 1 1 1 1 1 1 1 1 1 0.0093047766614065049 1 0.0092109998719653655 1 0.0060709336924837428 1 1 0.0088490540878571784 1 1 0.011314351683685022 1 0.0098589732186011112 1 1 1 1 1 1 1 0.011387880448078291 1 1 1 1 0.01023482669971168 1 1 1 0.0061873141573442481 1 0.010576037774469648 1 0.020348961913002984 0.023504671759185254 0.0070882695856315774 0.010112857889661642 1 1 0.022021909678956231 0.010008642738988809 1 1 1 0.0068011173911600564 1 0.0093414749585877532 1 1 1 1 1 0.023809251024050793 1 1 1 1 1 1 1 1 1 0.020489010132245362 1 1 1 1 1 1 1 1 1 1 1 1 1 1 1 1 1 1 0.016805602058225885 1 1 1 1 0.0096731450061864031 1 1 0.0097799664049268466 1 1 1 1 1 1 1 1 0.010262021533612824 1 1 0.01242938904733621 1 1 1 1 1 1 1 1 1 1 1 1 1 1 0.0099515871763195055 1 1 1 1 0.0071053162879058662 1 1 0.0090826453375253136 1 0.0096895656427066629 1 1 1 1 1 1 1 1 1 1 1 1 1 1 1 1 1 1 1 1 1 1 1 0.011534097207701245 1 1 1 1 1 1 1 1 0.0099879091948437276 1 0.0099406019215289767 1 1 0.0099285111163727006 1 1 1 1 1 1 1 1 1 1 1 1 1 0.013969697036026137 1 1 0.015267739321377125 1 1 1 1 1 1 0.015838711621860471 1 1 1 1 0.013157718645815657 1 1 1 1 1 0.012834414685758057 1 1 1 0.012253201031668166 1 1 1 1 1 1 1 1 1 1 1 1 1 1 0.010062002971517544 1 1 1 1 1 1 1 1 1 0.010255012109488589 1 1 1 1 1 1 1 1 1 0.010937503602548339 1 1 1 1 1 1 1 1 0.010193009137971035 1 1 1 1 1 1 1 1 1 1 1 1 1 1 1 1 1 1 1 1 1 1 1 1 1 1 1 1 1 1 1 1 1 1 1 1 1 1 1 1 1 1 0.010001055071015709 1 1 1 0.0075209419129750902 1 1 1 1 1 1 1 1 1 0.017262568949252384 0.0058762081243754673 1 1 0.0050316729952790927 1 0.017503344398220148 1 1 1 1 1 0.012173251865738175 1 1 0.011990396698723829 0.0099414002436367492 1 1 0.023109127961982067 1 0.010209650491193413 1 1 1 0.011464925565589815 1 1 1 1 1 1 1 1 1 1 1 0.011599403748856667 1 1 1 1 1 1 1 1 1 0.010242355774013411 1 1 1 1 1 1 0.0096069988190094682 1 1 1 1 1 1 1 1 1 0.0095039620359787923 1 1 1 1 1 1 1 0.013038012183575528 1 1 1 1 1 1 1 1 1 1 0.009200559729149755 1 0.015645874814103407 1 1 1 1 1 1 1 1 1 1 1 1 1 1 1 1 1 1 1 1 1 1 0.012311586139619019 1 1 1 1 1 1 1 1 0.01568153706828912 1 1 0.010887615535920096 1 1 0.012875865497573283 1 1 1 1 0.0081463115755424573 0.0099218688819467677 1 1 0.012771475105816252 1 0.011114451645741933 0.013573890188857605 1 1 0.010459559525089172 1 1 0.011387927170372803 1 1 0.0099098444606141797 1 0.010915040742996348 1 1 0.017277162236251579 1 1 1 1 1 1 0.0096771116491942595 1 1 1 0.0088613152634419434 1 1 1 1 1 0.010289807932800555 1 1 1 1 1 1 1 1 1 0.012304119755641912 1 1 0.01062957162006703 1 1 1 1 0.010943001332324009 1 1 1 1 0.014340741025886179 1 1 0.013830622498361304 1 1 1 1 0.010649720035546588 0.011089694257342566 1 1 1 1 1 1 1 1 0.022513573891035171 1 1 0.016224566993313684 1 1 1 1 1 1 1 1 1 1 1 1 0.0099936827958809742 1 1 1 1 1 1 1 1 0.024218349742967878 1 1 1 0.016319607093043989 1 1 1 1 0.016408773008142818 1 0.010198491237112254 1 1 1 1 1 0.035060829153045994 0.033834184035379619 1 1 1 0.012613091263467177 1 1 1 0.0089632183940023015 1 0.010687443751985789 1 1 1 0.010021898442476298 1 1 0.010053499210305081 1 1 1 0.014775094580202089 1 1 0.012902857940286887 1 1 1 1 1 0.01298954718570121 1 1 0.01006865411205435 1 1 1 1 1 1 1 1 1 1 1 1 1 1 1 1 1 1 1 1 1 1 0.010433174208365297 1 1 1 1 1 1 1 0.011226931908642488 0.016915409982805 1 1 1 1 1 1 1 1 1 1 0.010510148971638163 1 1 0.0046540049916842137 1 1 1 0.020943372783458005 1 1 0.0080136298686886483 1 1 0.010833598779728686 0.01519052228065784 1 0.021226042268636659 1 0.015067991823246054 0.010001954750093812 1 0.0094131240413267807 1 0.0224577443206719 1 1 0.010042522626126418 1 1 1 0.010710940164973251 0.017462951809970595 1 0.0097902763188300271 1 1 1 1 1 0.013749314168336023 0.011925607833059123 1 0.01672277421943032 1 1 1 1 1 0.011213517906557521 1 1 1 1 1 1 0.020102978405310314 1 1 1 1 1 1 1 1 1 1 1 1 1 0.012989031444540286 1 1 1 1 1 1 1 1 1 1 1 1 1 1 0.013568651584953136 0.020025588842410846 0.023678130149658187 1 1 0.0028739711642429295 1 0.015002040501910084 0.0064089396323914975 0.011384801104941805 1 1 1 1 1 1 1 0.011877635225652336 1 1 1 1 1 0.01963529164397157 1 1 1 1 1 1 1 1 1 1 1 1 1 0.010623194484187876 1 0.036828396005300142 1 0.019599840989841348 1 0.015553708948819151 1 1 1 1 1 1 1 1 1 1 1 1 1 1 1 1 1 1 1 1 0.037775337192575822 1 1 0.038614897020612098 0.0090242634399123264 1 1 1 1 1 1 1 1 1 1 1 1 1 0.013039240605108526 1 1 1 1 1 1 1 1 1 1 1 0.0048771745105859899 0.036898532695593733 1 1 1 1 0.0044422204892895223 1 1 1 1 1 0.011246102558138162 1 1 1 0.003649899726035273 1 1 1 1 1 1 0.0038826028393590178 0.024610106053804429 1 0.013007069002533369 1 1 0.017810395172138629 1 1 1 1 1 0.027303449184170516 1 0.011622256009013362 1 1 1 1 1 1 1 0.014788579985816463 1 1 1 1 1 1 1 1 1 1 1 1 1 1 1 1 1 0.023248727874057171 1 1 1 1 1 1 1 1 0.022685210562729097 1 0.010122752433053599 1 1 1 1 1 1 1 1 1 1 1 1 1 1 1 1 1 1 1 0.014064864766840424 1 1 1 1 1 1 0.022215062354556232 1 0.015573489446461315 1 0.038617354738649093 1 1 1 1 0.0098705749873615727 1 1 1 1 1 1 1 1 1 1 1 1 1 1 1 1 1 1 1 1 1 1 1 1 1 1 1 1 1 0.029796094954643949 1 1 0.0099162304570008988 1 1 1 1 1 1 1 1 1 1 1 1 1 1 1 1 1 1 1 1 1 1 1 1 1 1 1 1 1 1 1 0.014370453298704292 1 1 0.011388152856352165 0.016935604991552125 1 1 1 1 1 1 0.026150305916443212 1 1 1 0.015975853649190557 1 1 1 1 1 1 1 1 1 1 1 1 0.011612266698047108 1 0.0096369518657210915 1 0.012081340725121886 1 1 1 1 1 1 1 0.012920896987957958 1 0.010006266778767786 1 1 1 1 1 1 1 1 1 0.012206182126624138 0.010020052299066703 1 1 0.010007469784363765 0.019338756431837134 1 1 1 1 1 1 0.017628823227829486 1 0.017909128105477574 1 1 1 1 1 1 0.01222926340108357 1 1 1 1 1 1 1 0.01727410731871834 1 1 1 0.011928172618063702 1 1 1 1 1 1 0.0097540727777294042 1 0.0135637315181273 1 1 0.010008866259031256 1 1 0.012704791709233878 1 1 0.017237816909356451 1 1 0.018447225611189971 1 1 1 1 1 1 1 1 1 1 1 1 1 1 1 1 1 1 1 1 1 1 0.023013163052556903 1 1 1 1 1 0.0098039704544457297 1 1 0.013497394238528941 1 0.013710220243753223 0.010065086086598597 0.019403420311482324 1 1 0.011497415159290965 1 0.014030473453828612 1 0.010006287384971354 1 0.010120027810855517 1 1 0.010182698563684478 1 0.0060540204613694559 1 1 1 1 1 1 1 1 1 1 1 1 1 1 1 1 1 1 1 1 1 1 1 1 1 1 1 1 1 1 1 1 0.014482874368183841 1 1 1 1 1 1 1 1 0.0097942788228702199 1 1 1 0.015451834152327298 1 1 1 1 0.011818634750285526 1 1 1 1 0.035703130351398792 1 1 1 1 1 0.033061726700804997 1 1 1 0.029087812609008667 1 1 1 1 1 0.0095820256396335415 1 1 1 1 1 1 1 1 1 0.011998180562821356 1 1 1 1 1 1 1 1 1 1 0.015643932512897113 1 1 1 0.018761875980869404 1 1 1 1 1 1 1 1 1 1 1 1 1 1 1 1 1 1 1 1 1 1 1 1 0.0095469372268581574 1 1 0.0069415734877104115 1 1 1 0.0086634982951934308 1 1 1 1 1 1 1 1 1 1 0.024218794335179365 1 1 1 1 0.021135959773536446 1 1 1 0.010978640251882759 1 1 0.01274379740957214 1 0.012765074179598795 1 1 1 1 0.0086876374896724812 1 0.0072557087672555079 1 1 1 1 1 1 1 1 1 1 1 1 1 1 1 1 1 1 0.010988190947290359 1 1 1 1 1 1 1 1 1 1 1 0.010945886205581392 1 1 1 1 1 1 1 0.0097751352520315145 1 1 1 1 1 1 1 0.011389408162621715 1 1 1 1 0.010404054462358495 1 1 1 1 1 1 1 1 1 1 1 1 1 1 0.010793996571801035 1 1 1 1 1 1 1 1 1 1 1 1 1 1 1 1 1 1 1 1 0.010606069713105279 1 1 0.01021612760366274 1 1 1 1 1 1 1 1 1 1 1 1 1 1 1 1 1 1 1 1 1 0.012014570591905071 0.0079852584255376679 1 1 1 1 1 1 1 1 1 1 1 0.0086641726933595863 1 1 1 0.011559704622442728 1 1 1 1 0.010611358882716117 1 1 1 1 1 1 1 1 0.010915819537633018 1 1 1 1 1 0.0095386826216882405 1 1 1 1 1 0.028187710631321826 1 1 1 1 1 1 0.012816995261647784 1 1 1 1 1 0.02573357752249008 0.0099973196400565695 0.017757679092764378 1 1 0.014389570403963691 1 1 0.01163969112116682 0.015466043097249657 1 1 1 0.012956680590769277 0.015317306629267138 1 0.01863712658807962 1 1 1 1 1 0.012985837064362874 1 1 1 0.01323559283856097 1 1 0.010867282577360863 1 1 1 0.011705425932824018 0.013001266116844191 1 1 0.010889083237181628 0.011132231201137871 1 1 1 1 1 0.019740362169436552 1 0.018350855022528437 0.012288343195703438 1 1 1 1 1 0.026937573428821485 1 0.0093803629294317969 1 1 1 0.015023937024149579 0.010758927772335374 1 0.013543505768314514 1 0.011770255690224413 1 1 1 1 1 0.011694880415745464 1 0.02118231552085121 1 1 1 1 1 1 1 1 1 1 1 1 1 1 0.02395023868560003 1 1 0.024630736298638094 1 1 1 0.009745953964391485 1 1 1 1 1 1 1 1 0.0098275937893118944 1 1 0.00997933951350863 1 1 1 1 1 1 1 1 0.0095860596147313414 1 1 1 1 1 1 1 1 1 1 1 1 1 1 1 1 0.0092630707346693757 1 1 0.010275134624809133 1 1 1 1 1 1 1 1 1 1 1 0.010208142317574906 1 1 1 0.0078081585152951945 0.011242156926612644 0.015623177658135291 1 1 0.01066165247626813 1 1 0.0099285551412314661 1 1 1 1 1 1 1 1 1 1 0.010108748153784351 1 1 1 1 1 1 1 1 1 1 1 1 1 1 1 1 1 1 1 1 1 1 0.010173937896133708 1 1 1 1 1 0.0099736806379925828 1 0.010163171908335671 0.009997229755074423 1 1 1 1 0.010017934261178051 1 1 1 1 1 1 1 1 1 1 0.010273084615502033 0.010386008889908076 1 0.0099708413511735219 1 1 1 0.010118329649195436 1 1 1 0.0099721023318582389 1 1 1 1 1 1 1 1 1 1 1 1 1 1 0.0099635242202046649 1 1 1 1 1 1 1 0.010051226823327659 1 1 1 1 1 1 1 1 1 1 1 0.010218097655444857 1 1 1 1 1 1 1 1 1 1 1 0.0098285056494586062 0.010593474225940409 1 1 1 1 1 1 1 1 1 1 1 1 1 1 0.010074795592272142 1 1 1 0.0099809399474018144 1 1 0.01046429450048156 1 1 1 1 1 1 1 1 1 1 1 1 1 1 1 1 1 1 1 1 1 1 1 1 1 1 1 1 1 1 1 1 1 1 1 1 1 1 1 1 1 1 0.023634012901100419 0.012014250986841689 1 1 1 1 1 1 0.011209758368142399 1 0.010112039219888297 1 1 1 1 1 1 1 1 1 1 1 1 0.010241116602832674 1 1 0.010097920530626884 1 1 0.010249028226876265 1 1 0.009882917519315736 1 1 1 1 1 1 1 1 1 1 1 1 1 1 0.010534044484901169 1 1 1 1 0.01088639491459641 1 1 1 1 1 1 1 1 1 0.010659663815784183 1 1 0.010204208597158744 1 1 1 1 1 1 1 1 1 1 1 1 0.010510643150158839 1 1 1 1 1 1 1 0.010973402449322642 1 0.012338904161757064 1 1 0.01288355707945537 1 1 1 1 1 1 1 1 1 1 1 1 1 1 1 0.023166883503563111 0.010000933176591432 0.0044118859758905636 1 0.010001835737534135 1 1 1 1 1 1 0.010966650251717657 1 0.021224358777271295 1 1 1 1 1 1 1 1 0.021410877481160891 1 1 1 0.02135595199100164 1 1 0.0097949870225351628 1 1 1 1 1 1 1 1 0.012675185180429214 1 1 1 1 1 1 0.013319055081787981 1 1 1 1 1 1 1 0.011861157590709076 1 0.011610520153076433 1 1 0.014879902360248654 1 1 1 1 1 1 1 1 1 1 1 1 1 1 1 1 1 0.010131209036581086 1 1 1 1 0.010247973569035266 1 1 1 1 1 1 1 1 0.010023740639089958 1 1 1 1 1 1 1 1 1 1 1 1 1 1 1 1 1 1 1 1 1 1 1 1 0.016603258643164392 1 1 1 0.013207725187872943 0.01763895894601631 1 1 1 1 1 1 1 1 1 0.010013935232898813 1 1 1 1 0.012977117436592125 0.02198968940895412 1 0.018424683181041381 1 1 0.012450569289533239 1 1 1 0.0088313951016223899 0.009994912486927153 1 1 1 1 1 1 1 0.010699798735998071 1 1 0.018101780191367919 1 1 0.010014560074421641 1 1 1 1 1 1 0.019166943917648116 1 0.015806512331486701 1 1 1 1 0.021710792771720305 1 0.01478912671431557 1 1 1 1 0.022536076214315109 1 1 1 1 1 1 1 1 1 1 1 1 1 0.024106178815768771 1 1 0.024426857041979604 1 1 1 1 1 1 1 1 1 1 1 1 1 1 1 1 1 1 1 1 1 1 1 1 1 1 1 1 1 1 1 1 1 0.014306427134495141 1 1 1 1 1 1 1 1 1 1 1 1 1 1 1 1 0.019054420957600862 1 1 1 1 1 1 1 1 0.012388446455523311 1 1 0.013383993520891837 1 1 1 1 1 1 1 0.011440048141438557 1 1 0.010678618009987168 1 1 1 1 1 1 1 1 1 1 1 1 1 1 1 1 1 1 1 1 1 1 1 1 1 1 1 1 1 1 1 1 1 1 1 1 1 1 1 0.010081076119755263 1 0.0096839556742165239 1 1 1 1 1 1 1 1 1 1 1 0.01018020918802115 1 1 1 1 1 1 1 1 1 1 1 1 1 1 1 1 1 1 1 1 1 0.0097010461039511442 1 1 1 0.0091202403720705427 1 0.019905479035751506 1 0.010581553200196011 1 1 0.016459644059161352 1 1 1 1 0.016041643385073072 1 1 0.012159355686305537 1 0.010774827338331693 0.013631609911224276 1 1 1 0.010353087867819029 1 1 0.017793130604209256 1 1 0.011087211387098237 1 1 0.010486869858609605 1 0.010708260933066899 1 1 1 1 1 0.016556570037739457 0.010223594996337144 1 0.0091176653661359935 1 1 0.010092412764251204 1 1 1 1 1 1 1 1 1 1 0.018072080804121211 0.010543485479306287 1 1 1 1 0.015388486438140871 0.011677406842838842 1 1 1 1 1 1 1 1 0.0084135604419555976 1 1 0.0100059484867746 0.0099838526401520595 1 1 0.010144573726251199 0.010425164907824845 0.015027596267123532 1 0.014291676435987076 0.010878417608592324 0.010242387083779315 1 1 1 1 0.018427827812225496 1 1 1 1 1 1 1 1 0.0098951283652478975 1 0.010117321711348522 1 1 1 1 1 1 1 0.0099855164315137777 1 1 1 0.0099576972528716556 1 1 1 1 1 0.012183141245580781 1 1 1 1 1 1 1 1 1 1 1 1 1 1 1 1 0.014797462138664145 1 0.0099944364031986296 1 0.010588410447828723 1 1 1 1 0.013262005111890237 0.0078708706779524896 0.015844669984780332 1 1 0.012209486690313876 1 1 1 0.018197368297248863 0.0100371771630896 1 1 0.013550194513185468 0.011343299498456083 1 0.014340385443026073 0.01740557104204514 1 1 1 1 1 1 1 0.013597686098261145 1 1 1 1 1 1 1 1 1 1 1 0.010344931380013512 1 1 1 1 0.011045582252452913 0.010537096240909826 1 0.010288311654311155 1 1 0.010324846289663625 1 1 1 1 1 0.011881005880596327 1 1 1 1 1 1 1 1 1 1 1 1 1 1 1 0.010675862817447236 1 1 0.0099976569146409486 1 1 1 1 1 1 1 1 0.010116764532454177 1 1 1 1 1 1 1 1 0.011701143546196269 1 1 1 1 1 0.0078662741183824943 1 1 1 1 1 1 1 1 0.010138638004762909 1 1 1 1 1 0.010710541788715984 0.01126852661523616 1 0.010942835676401214 1 1 1 1 0.010118942043169583 1 0.011158763514943529 1 0.0094063355203497893 1 1 1 0.011935492076324982 1 1 1 1 1 0.011531037017113156 1 1 1 1 0.010376473825797351 1 0.010645912923374516 1 1 0.011370991207215938 1 1 1 1 1 1 1 1 1 1 1 1 1 1 1 1 1 1 0.014007842245887565 1 1 1 1 1 1 1 1 0.010009938074035213 1 1 0.0099176104518620932 1 1 1 0.011618853224345888 1 1 0.0087957814766418535 0.012442791381439992 1 1 0.01280754297040919 0.013576655459844163 0.011031851887304205 1 0.0089508676856583716 1 1 1 1 1 0.010184832437009871 1 1 1 1 1 1 0.009368904103177228 1 1 1 1 1 1 1 1 1 1 1 1 1 1 1 1 1 1 1 1 1 1 1 1 1 1 1 1 0.010403096572890833 1 1 1 1 1 1 1 0.011008885707748646 1 1 1 1 1 1 0.010045019787003333 1 1 0.010495708245334691 1 0.0099241517303842435 1 0.008082446607203312 1 0.011604184949860276 1 1 1 1 1 1 0.0090610655785447903 1 1 0.010586177213103724 1 1 1 1 1 1 1 1 1 1 1 1 1 1 1 0.010087503137737808 1 1 0.009755792153578545 1 1 1 1 1 0.011242340209757597 1 1 1 1 1 1 0.010117009932777431 0.013298846500754623 1 1 1 1 1 1 1 1 1 1 1 1 1 1 1 0.010002747644727141 1 1 1 1 1 1 1 1 1 1 0.0092335559619655047 0.0097483067798610473 1 1 1 1 1 1 1 1 1 0.010110463779836999 1 1 1 1 1 1 1 0.012926527950051073 1 0.015124567040438297 1 1 1 1 0.01310858956065223 1 1 1 1 1 0.014504533937263489 1 1 1 0.01253698076838437 1 1 1 1 1 1 0.0098803847012136486 1 1 1 1 1 1 1 1 1 1 1 1 0.01802428180586077 1 1 1 1 1 1 1 1 1 1 1 1 0.017413495816147748 1 1 1 1 0.010009883942752977 0.013356470299885646 0.012935555767115782 0.013592367480183635 1 0.010413846213152257 1 1 1 1 1 0.012585429611381205 1 0.011455319809244502 0.014095769642782328 1 0.010887563987750589 1 1 1 1 1 1 1 1 1 0.013798424223264008 0.0099850079057810584 1 0.010001824772480739 1 0.0093206628361671776 1 0.0099956151598038414 1 0.017767448541560892 0.014610029991731301 1 1 1 0.016611851540269278 1 1 1 1 1 1 1 0.014589875186469054 1 1 0.013992866964316916 1 1 0.01179107719000644 1 0.012919081020600028 1 1 0.010110094800792176 1 1 1 1 0.011093826013483906 1 1 1 1 1 1 1 1 1 1 1 1 1 1 1 1 1 1 1 1 1 1 1 1 1 1 1 1 1 1 1 1 0.0096219889152854426 1 0.0098489873211221809 1 1 0.010151513984336573 1 0.010300330862736668 1 1 1 1 1 0.010143262039591584 1 1 1 1 1 1 1 1 1 1 1 1 0.010473671758457722 0.010101499044237634 1 1 1 0.01016072314582693 1 1 1 1 1 1 1 0.01427536238379992 1 1 1 1 1 1 0.012721856965938597 1 0.027064524255561526 1 1 0.012729700381622319 1 1 1 1 0.011835853487854854 1 1 0.011332709805791883 1 1 1 1 1 1 0.033140631279706581 1 0.010970907813628561 1 1 1 1 1 1 1 1 1 1 0.037909490868759929 1 0.041148539057445969 1 1 1 1 1 1 1 1 1 1 1 1 1 0.0093518099627760733 1 1 1 1 1 1 1 1 1 1 1 1 1 0.0083886666390699353 0.011121897483608209 1 1 0.011848676992797654 1 1 1 0.0099717898706755178 1 1 1 1 1 0.0098085075063849714 0.00964786072393156 1 1 0.027182096279414484 1 1 1 0.029610071224565028 1 1 1 1 1 1 1 1 1 1 1 1 1 1 1 1 1 1 1 1 0.0098536913380060549 1 1 1 1 1 1 1 1 1 1 1 1 1 1 1 1 1 1 1 1 1 1 1 1 1 1 1 1 1 1 1 1 1 1 1 1 1 1 1 1 1 1 1 1 1 1 1 1 1 1 1 1 1 1 1 1 1 1 1 1 1 1 1 1 1 1 1 1 1 1 1 1 1 1 1 1 0.0089711479422943316 1 1 1 0.0097231406996347268 1 1 1 1 1 1 1 1 1 0.010203091509835985 1 1 1 0.010616746521437029 1 1 1 1 1 1 1 1 1 1 1 1 1 1 0.011647728264158077 1 1 1 1 1 1 0.01101393930973836 1 0.0099857317615886145 1 1 1 1 1 1 1 1 1 1 1 1 1 1 1 1 1 1 1 1 1 1 1 1 1 1 1 1 1 1 1 1 1 1 1 1 1 1 1 1 1 1 1 1 1 1 0.01848402148211499 1 0.013523823888821462 1 1 0.010004838952223899 0.01219375387607741 1 1 1 0.010187347916506778 1 1 1 1 1 1 1 1 1 1 1 1 1 1 1 1 1 1 1 1 1 1 1 1 1 0.010081239073900463 1 1 1 1 1 1 1 1 1 1 1 1 1 1 1 1 1 1 1 1 1 1 1 1 1 1 1 1 1 1 1 1 1 1 1 1 1 1 1 1 1 0.0102301755512737 1 1 1 1 1 1 1 0.011807676644756092 1 1 1 1 1 1 1 1 1 1 1 1 1 1 1 1 1 1 1 1 1 0.019403770447084252 1 1 1 1 1 0.021594596435933998 1 1 1 0.0097137321536297991 1 1 1 1 1 1 1 1 1 1 1 1 1 1 1 1 1 1 1 1 1 1 1 1 1 1 1 1 1 1 1 0.022229516765479865 1 1 0.023974798989306781 1 1 0.022495421499507954 1 1 1 1 1 1 1 1 1 1 0.010338318624670112 1 1 1 0.01088635928530066 0.0089629267614005394 1 1 1 1 1 1 0.011333836092184255 1 0.0086941111187731086 1 1 0.013448090890041772 1 1 1 1 1 0.0097591640490182988 0.017026845981463944 1 1 1 1 0.010701724529738889 1 0.01059406521906946 0.010520585817770954 1 0.011085603745006814 1 1 1 1 1 1 0.0092646617708320046 1 0.0097588010747760162 1 1 0.015989814213278594 1 1 1 0.012520559649871877 1 1 1 1 1 1 1 1 1 1 1 1 1 1 1 1 1 1 1 1 0.01062282373490661 1 1 1 1 1 1 1 1 1 1 0.011381777083645468 1 1 1 1 1 0.015511341725470612 1 1 1 1 1 1 1 1 0.011564667242738916 1 1 1 1 0.010730712141484966 0.0109002081127299 1 1 0.011966842964549518 1 1 1 1 0.010273424292056441 1 1 1 0.01371768928273218 0.016651075826598492 1 0.012647041991232127 1 1 0.012220672297712561 1 0.014503477621174281 1 0.0091600300662468895 1 1 1 1 1 1 1 0.010784945416348567 1 1 0.014953150201555184 1 1 1 1 1 0.015811706540613073 1 1 1 0.012067604320215929 1 1 0.010008480856882527 1 1 1 0.0099391002237542089 1 1 1 1 1 1 1 1 0.0093489567167325486 1 1 1 0.00808969223806086 1 1 1 1 1 1 1 0.010020072591428284 1 1 1 0.0099277799649513405 1 1 1 1 1 1 1 1 0.0098087882508950484 1 1 1 1 1 1 1 1 1 1 1 1 1 1 1 1 1 1 1 1 1 1 1 0.01212909484245594 1 1 1 1 1 1 1 1 1 1 1 1 1 1 1 1 1 1 1 1 1 0.011149821910184883 1 1 1 1 1 1 0.010722437378337533 1 1 1 1 1 1 1 1 1 1 1 1 1 1 1 1 1 1 1 1 1 1 1 1 1 0.010428901961976156 1 1 1 1 1 1 1 1 1 1 1 1 1 1 1 1 1 1 1 1 1 1 0.01288948775307343 1 1 1 1 1 1 0.0098017655875210583 1 1 1 1 1 1 1 1 1 1 1 1 1 1 1 1 1 0.010313155365587922 1 1 1 1 0.010123468705010893 1 1 1 1 1 1 0.01480597140642571 1 1 1 1 1 1 0.012157444315168129 1 1 1 1 1 1 1 1 1 1 1 1 1 1 1 0.010189686660577025 1 1 1 1 1 1 1 0.0153804115176072 0.0065746230493481826 0.010019609306020087 1 1 1 1 1 1 1 1 1 1 1 1 1 1 1 1 1 1 0.017413760254008884 0.02146890736137691 1 1 1 1 1 0.011129146489027004 1 1 0.010969649774964615 1 1 1 0.019841019134294639 1 1 1 1 1 1 1 1 1 0.0092636811699997532 1 1 1 1 1 1 1 1 1 1 1 0.0082071395480465895 0.0083433745513815834 1 1 0.0075695063513822455 1 1 1 1 1 0.0055859268603120574 1 1 1 0.0037970398638711607 1 0.015698618409543241 1 1 0.010158139713008722 1 1 1 1 0.010073761644880904 1 1 0.011086875842996823 1 1 1 1 1 0.010562761776423991 1 1 1 1 1 1 1 1 1 1 1 1 1 1 1 0.012211630587733462 1 1 1 1 0.011241980812768847 1 1 1 1 1 1 1 0.010558408346114996 1 1 1 1 1 1 0.012055547104283443 0.011725894837821242 1 1 1 1 1 1 1 1 1 1 1 1 1 1 1 1 0.010532765312269963 1 1 1 1 0.015557654079425137 1 1 1 1 1 1 0.0097245706931538937 1 1 1 1 1 1 1 1 1 1 1 1 1 1 1 1 1 1 1 1 1 1 0.0087683567148929657 1 1 1 0.0099300826018411531 1 0.014237717357572611 1 1 1 0.0097979222832012564 1 1 1 1 1 1 1 1 1 1 1 1 1 1 1 1 1 1 1 1 1 1 1 1 1 1 1 1 1 1 1 1 1 1 1 1 1 1 1 1 1 1 1 1 1 1 1 1 1 1 0.010539097256185544 0.010739567778521955 1 1 1 1 1 1 1 1 1 1 1 1 1 1 1 1 1 1 1 1 1 1 0.01222191944486788 1 0.015252831636800954 1 1 1 1 1 1 0.013355607564858332 1 1 1 1 1 1 1 1 1 1 0.01467288855212145 1 1 1 1 1 1 1 1 0.010734760337084603 1 1 1 1 0.01318659421472972 1 1 0.013815329035339094 1 1 1 1 1 0.010222596887959101 1 0.014994328915189134 1 1 1 1 1 1 1 1 1 1 1 1 1 1 1 1 1 1 1 1 1 1 1 1 1 0.009952361540466817 1 1 1 1 1 1 1 0.015468754609950137 1 1 1 1 1 1 1 0.014958094235777552 1 1 1 1 1 1 1 1 1 1 1 0.024704641349411617 1 1 0.010026994600028399 1 0.022700355161205811 1 1 1 1 1 1 1 0.010216711034280864 1 0.010290148453441407 1 0.0025931989205626987 1 1 1 0.022237923846081562 1 0.010309984606787899 1 1 1 1 1 1 1 0.01906387177695109 1 1 1 1 1 0.0085596259653011163 1 1 0.0095167588907309145 1 1 1 1 1 1 0.0076280581489995818 1 1 1 1 1 1 1 1 1 1 1 1 1 0.0052700708686308616 1 1 1 1 0.018002125423251025 1 1 1 0.01625847879539493 1 0.0094023993198857608 1 0.010024374708504757 1 1 0.012297136054765435 1 1 1 0.017022593878693919 0.0097731046445352996 1 1 1 1 1 1 1 1 1 1 1 1 0.021533849083497252 0.0099546437191914677 1 0.0099706152580916908 1 1 1 1 1 1 1 1 1 1 0.016627843285904404 1 1 1 0.031543587142390389 1 1 1 0.0076149315266166627 1 0.01068895002549781 1 1 1 1 1 1 1 1 0.0090088396250232183 1 1 1 1 1 1 1 1 1 1 1 0.01567552344994631 1 1 1 1 1 1 1 1 1 1 1 1 1 1 1 1 1 1 1 1 1 1 0.0098055861098220835 1 1 1 1 1 1 1 1 1 1 1 1 1 0.012790414323958393 1 1 1 1 1 0.0071165616952277343 1 1 1 0.0074169360202577007 1 0.012960893526210266 1 1 1 1 1 1 1 1 1 1 1 1 1 1 1 1 0.012141278197141734 1 1 1 1 1 1 0.0093940630414890078 1 1 1 1 1 0.0062465070438882785 1 1 0.0091367917437401407 1 1 1 0.010461068973858713 1 1 1 1 1 0.012865725167008905 1 1 1 0.013503045974502205 1 1 1 0.01552457047219853 0.0073943088749545503 1 1 1 1 0.010439812165244757 1 1 0.014496838934452428 1 1 0.011670681441285639 1 1 1 0.010849370845001295 0.010169632703444096 1 1 1 1 1 1 0.010745918395505609 1 0.010003479192445085 1 0.012643077014920307 1 1 0.0078778559334122533 1 0.0089191869498356433 1 0.011298156831627076 1 1 0.013372572278645328 1 1 1 1 1 1 1 1 1 1 1 1 1 1 1 1 1 1 1 1 1 1 1 1 1 1 1 1 1 1 0.011477641841020444 1 1 1 1 1 1 1 1 1 0.015492444949260588 1 1 1 1 1 0.013860618195729139 1 1 1 1 1 1 1 1 1 1 1 1 1 1 1 1 0.010587409431802901 1 1 1 1 1 1 1 0.011555026792566789 1 1 0.011342739251518881 1 1 1 1 1 0.0096835080197567487 1 1 1 1 1 1 1 1 1 1 1 0.010846573470772645 1 1 1 1 1 1 1 1 1 1 1 1 1 1 1 1 1 1 1 1 1 1 1 1 1 1 1 1 1 1 1 1 1 1 1 1 1 1 1 1 1 1 1 1 1 1 1 1 1 1 1 1 1 1 1 1 1 1 1 1 1 1 1 1 1 1 1 1 0.0081615491631327128 1 1 1 1 0.013383662994833019 1 1 1 0.011712407828108722 1 0.01160702643216225 1 1 0.009924308110314424 1 1 1 1 0.0095252371205423528 0.011299915296689472 1 1 0.01014663619605591 0.011208007652823405 1 0.010388503669291629 1 1 1 0.010063506146160755 0.010847661884958365 1 1 1 0.010017403585841474 1 1 1 1 1 1 1 1 1 0.010928401787798459 0.010161349442545167 1 1 1 1 1 1 1 0.010426595860719957 1 1 1 1 1 1 1 1 0.010303666482132788 1 1 1 1 1 0.010713051596521785 1 1 1 1 1 0.012585239704141653 1 1 1 1 1 0.011045945418675096 1 1 1 1 1 1 1 1 1 1 1 1 1 1 1 1 1 1 1 1 1 1 1 1 1 1 0.009454092910090639 1 1 1 1 1 1 1 1 1 1 1 0.012271035526332533 1 1 1 1 1 1 1 1 1 1 1 1 1 1 1 1 1 1 1 1 1 1 1 1 1 1 1 1 1 1 1 1 1 1 1 1 1 1 1 1 1 1 0.010560958954450259 0.009138964037442859 1 1 0.0095921368897153286 1 0.010144791100344027 1 1 1 1 1 1 1 1 1 1 1 1 1 1 1 1 1 0.010755544662237583 1 1 1 0.011208737594907987 1 1 1 1 0.012249280101280575 1 1 1 1 1 0.010480821069877411 1 0.010012197150524595 0.0096748121501924016 1 1 1 1 1 1 1 1 0.011866784861539366 1 1 1 1 0.010328050833858675 1 1 0.0099891961431037603 1 1 1 1 1 1 1 1 1 0.009950003002716333 1 1 0.010353303685832586 1 1 1 1 1 1 1 1 1 1 1 1 1 1 1 0.010642841187408235 1 1 0.0098889664437795278 1 1 1 1 0.01002597858759471 1 0.010046489476875713 1 0.010576854340848325 0.0099833157979483875 1 1 1 1 1 0.010106642541425945 1 1 1 1 1 1 0.010001407055504091 1 1 1 0.010072379008298516 1 1 1 1 1 1 1 1 1 1 1 1 1 1 1 1 1 1 1 1 1 1 1 1 1 0.0091000973700153167 1 1 1 1 1 1 1 1 1 1 1 0.011424462055559893 1 1 1 0.012927086211919937 1 1 1 1 0.017622513944402202 1 1 1 1 1 1 1 1 1 1 1 1 1 0.0205905672848571 1 1 0.022526664016498783 1 1 1 1 1 1 1 1 1 1 1 0.0099478552073335377 1 1 1 1 1 1 1 1 1 1 1 1 1 0.0097736665700932524 1 1 1 1 1 1 1 1 1 1 1 1 1 1 1 1 1 0.023409245403276907 1 1 1 0.0098731186237104376 1 1 1 1 1 1 1 1 1 0.011002677759287958 1 1 1 1 1 1 1 1 1 1 1 1 1 1 1 1 1 1 1 1 1 0.015218108009278865 1 0.013119183277923592 1 1 1 1 1 1 1 1 1 1 0.013273442044277564 1 1 1 1 1 1 0.013209924288156198 1 1 1 1 1 1 1 1 0.010042394709109455 1 1 0.01021322842587102 1 1 1 1 1 0.01519831823140892 1 1 1 0.015627874019247541 1 1 1 0.015597111186813707 1 1 1 1 1 1 1 1 1 1 1 1 1 1 1 1 1 1 1 1 1 1 1 1 1 1 1 1 1 1 1 1 1 0.010121943021745758 1 1 1 1 1 1 1 0.0078614456766867256 1 0.010017093344110828 1 1 1 1 1 1 0.011015154202817746 1 0.012028537037933494 1 1 0.0099916510917715008 1 1 1 1 1 1 1 1 1 1 0.015955929022826755 0.012667814757584151 1 1 1 1 1 1 1 0.010001176257241531 1 1 1 1 1 1 1 1 1 1 0.010322792783180074 1 1 1 1 1 1 1 1 1 1 1 1 1 1 1 1 1 0.011313395233867079 1 0.010635548871671457 1 1 1 1 1 1 1 1 1 0.01092781400452726 1 1 1 0.0096152094486818673 1 0.0099959666983241158 1 1 1 1 1 1 1 1 1 1 1 0.0099351649314227183 0.010006634738682837 1 1 1 1 1 1 1 1 1 1 1 0.011683094419325264 1 1 1 1 1 1 1 1 1 1 1 1 1 1 1 1 1 1 0.012574061106033887 1 1 1 1 0.012016065280492145 1 0.011383946671944509 1 0.012801925918194818 1 1 1 0.012352795815961125 1 1 1 1 1 1 1 1 0.010017960496541441 1 1 1 1 1 1 1 1 1 0.010036874893024263 1 1 1 1 1 1 0.010032483588340631 1 0.0099923123229257345 1 0.013332984780910467 1 1 1 1 1 1 1 0.012843984486068973 1 1 1 1 1 0.01015811198151936 1 1 1 1 1 1 1 1 1 1 0.013458845115723199 1 1 0.010102966056867412 1 1 1 1 0.0097511219155459669 1 1 1 1 1 1 1 1 1 1 1 1 1 1 1 1 1 1 1 1 1 1 0.0096942679673815459 1 1 0.010279966973838088 0.010017000036132498 1 1 1 1 1 1 1 1 0.010858826237187641 1 1 1 1 0.010730087790781311 1 1 1 1 0.010221090228491513 1 1 1 1 1 1 0.015552157760085249 1 1 0.0099888826006537864 1 0.0097111432109572605 1 1 0.010012722416524039 1 0.013449848074961218 1 1 1 0.010590899150932294 1 0.012292548985859818 1 1 0.012038983602525359 1 1 0.01003991366157782 1 1 1 1 1 0.0087355499948238748 0.01038805988840634 1 1 1 1 0.010260701789458013 1 1 0.0091627868416437608 1 1 0.010004202539391438 1 1 1 1 1 0.0099690270574266607 1 1 0.0099711163062865781 1 1 1 1 1 0.01001446361718963 1 1 1 1 1 1 1 1 0.012114135481266164 1 1 1 1 1 1 1 1 1 1 0.010047818724590906 1 1 1 0.014460203409490537 1 1 1 0.015124324403383863 1 1 1 1 1 0.013616290255780213 1 1 1 1 1 1 1 1 1 1 1 1 0.011475687490660674 1 1 1 1 1 1 1 1 1 1 1 1 1 1 1 1 1 1 1 1 1 1 1 1 1 1 1 1 1 1 0.010172628405165154 0.01129694637931021 1 1 1 1 1 1 1 0.010071831645711007 1 1 0.0096238722384025498 1 1 1 1 1 1 1 1 1 1 1 1 1 1 1 1 0.011140250475011897 1 1 1 1 1 1 1 1 1 1 1 1 1 1 1 1 1 0.011385755432268954 0.0098655165059108978 1 1 1 1 1 1 1 1 1 1 1 1 1 1 1 1 1 1 1 0.011174871921866898 1 1 1 1 1 0.013186356379883359 1 1 1 1 1 1 1 1 1 0.0099202361333639785 1 1 1 1 1 1 1 1 0.010998348535734538 1 1 0.012244382543643184 1 1 1 1 0.0099932678602466622 0.012226477072356386 1 1 0.012742876616032475 1 1 1 1 1 0.010721272651750713 0.012048170164336451 1 1 1 1 1 1 1 1 1 0.0099671632300281643 1 1 1 1 1 1 1 1 1 1 1 1 1 1 0.01068635772232894 1 1 1 1 1 1 1 1 1 1 1 1 1 1 1 1 1 1 1 1 1 1 1 1 0.010989601940926692 1 0.010166714831015434 1 1 1 1 1 1 1 1 1 1 1 1 1 0.0094964758008354733 1 0.0097381200683438387 1 1 1 1 1 0.013166397073410656 1 1 1 1 0.0090662859372023646 1 1 1 1 1 1 1 1 0.0098747792769931144 1 1 0.010106396035842714 1 0.01316222644144685 1 1 1 1 1 1 1 1 1 1 1 0.0094701311292650515 1 1 1 0.0099240493294346505 1 1 1 1 1 0.011642318884492187 1 1 0.010623580782954077 1 1 1 1 1 1 1 1 1 1 1 1 1 0.010097743978502233 1 1 1 1 0.0099771468834189136 1 1 1 0.013252073041024725 1 1 1 1 1 1 1 1 1 0.0098602886511648807 1 1 1 0.013396679426832144 0.0096352286612312876 1 1 1 1 0.011207252087992919 0.012792315183314779 1 0.01126946035158107 1 0.0098716419014852688 1 1 1 1 0.011914599228098691 1 1 1 1 1 1 1 1 0.016614431880814306 1 1 1 1 1 1 1 1 0.011727397623450769 1 1 0.010001283221491424 0.010804347014647036 1 1 0.010012559717842796 1 0.012391281371472218 1 1 1 1 0.011795248183618259 1 1 1 1 1 1 1 1 1 1 1 1 1 1 1 1 1 1 1 1 1 1 1 1 0.011788088956785108 1 1 1 1 1 1 1 1 1 1 0.016212612312184002 1 1 1 1 0.0098455440331240568 1 1 1 1 1 1 1 1 1 0.0095457419810523105 1 1 0.015552836566669392 1 1 1 1 1 1 1 1 1 0.015774367862722093 1 0.010009797355689931 1 1 0.01159376162215686 0.013048790498799687 0.0056304215385347342 1 1 0.0067500767941862869 1 0.012982715698995504 1 1 1 0.010166882645244069 1 1 0.010000405459672098 1 1 1 1 0.013724922161798972 1 1 1 1 0.010150293495965881 1 1 1 1 1 1 0.011622308156466232 1 1 1 1 1 0.0091510153295416216 1 0.0094401869012905384 1 0.0099013747487564849 1 1 1 1 1 1 1 1 1 1 1 1 1 1 1 1 0.0071448591692453225 1 1 1 1 1 0.012346721641820935 1 1 1 1 1 1 1 0.010011540284420148 1 0.0065864714878068921 1 1 0.023395036618564791 0.015833771496456872 1 1 1 1 1 0.010008635771529016 1 1 1 1 1 1 1 1 1 1 0.0099172571618608308 1 0.011807017158599747 0.0096762769246703257 1 1 1 1 1 1 1 1 0.0093862883403283918 1 1 1 1 1 1 1 0.0079869481980065077 1 1 1 1 1 1 0.0087802396274359699 0.013549547356633045 1 1 0.020702401501668681 1 1 1 1 0.0076814866985043841 1 0.0082894122452534143 0.018482224976770517 0.018101841206513765 1 0.013545786912909894 1 1 1 0.019608126503741136 1 1 0.013647454365982671 1 1 1 1 1 1 1 1 1 1 1 1 1 1 1 1 0.010811240900944893 1 1 1 1 1 1 1 1 0.013699347438679817 1 1 1 1 0.013145835413816632 1 1 1 1 1 1 1 1 1 0.01059379431419142 1 0.01128691456191685 1 1 1 1 1 1 1 0.010100486597270213 1 0.01010764366624697 1 1 1 1 1 1 1 1 1 1 1 1 1 1 1 1 0.0099870615644407634 1 1 1 1 0.010130894793066881 1 1 1 1 1 1 0.011173953931886796 1 1 1 1 1 1 1 1 1 1 1 1 1 1 1 1 1 1 1 1 1 1 1 1 1 1 0.010218423237576497 1 1 1 1 1 1 1 1 1 0.009935439363767189 1 1 0.010323775126625195 1 0.010405304952770963 1 1 1 1 1 1 0.010031082284980977 1 1 1 1 1 1 1 1 1 0.0098310920126875815 1 1 1 1 1 0.010987866302943579 1 1 1 1 1 1 1 1 1 1 0.010168545271300332 1 1 0.010020771042183511 1 0.010193252908188233 1 1 1 1 1 1 1 1 1 1 1 1 1 1 1 1 1 1 1 1 1 1 1 1 1 0.022750620530520939 1 0.023895600241422277 1 1 1 1 1 0.012943443576929668 1 1 1 1 0.01252527556626443 1 1 0.010529499940628613 1 1 1 0.012004086418223345 1 1 0.010004982105826839 0.01504721560165991 1 0.01000014236735222 1 1 1 1 1 1 0.015643513304265937 1 1 1 1 1 1 1 1 1 1 1 1 1 1 1 1 0.012624905518391261 1 1 1 1 1 1 1 1 1 1 1 1 1 1 1 0.01106271584717165 1 1 1 1 0.010238998973254233 1 1 1 1 0.010993905340540306 1 0.010371099569548042 1 1 1 1 1 1 0.010960077841268409 1 1 0.013687755646981161 1 1 1 1 1 1 1 1 0.012329983947854492 1 1 0.010358151974375712 1 1 1 1 1 1 1 0.010518732985405024 1 1 1 1 1 0.01088065239187771 1 1 1 0.011232347008450411 1 1 1 1 1 1 1 1 1 1 0.010091212323277277 1 1 1 1 1 0.015957984047721731 1 1 1 1 1 0.010462576500277317 1 1 1 0.015953025946884629 0.010281967975204817 1 1 1 1 1 1 0.009997778869243433 1 1 1 1 1 1 1 1 1 1 1 1 1 1 1 1 1 1 1 1 1 1 1 1 1 1 1 1 1 1 0.010532646013590795 0.011732252088694025 0.012551476635977495 1 1 1 1 0.010032635152794792 1 1 1 0.012552935697216064 1 0.0093633228051960733 1 1 1 0.01072060825151273 1 0.010359849418825616 0.013497848990145668 1 1 1 0.0200685219204145 1 0.011234706054808696 1 1 0.016204729314887371 0.0099810996766632534 1 1 1 1 1 1 1 1 1 1 0.010431098956452079 0.010643658948368915 1 1 1 1 1 1 0.010197766303623167 1 1 1 0.016573651941122716 1 1 1 1 1 0.015391052823122203 1 1 1 
</DataArray>
</CellData>
</Piece>
</UnstructuredGrid>
</VTKFile>
